    1C
    1UUSER                                                              
    1UDATE              14.october.2022                                 
    1UTIME              11:48:34                                        
    1UHOST                                                              
    1UPGM               CalculiX                                        
    1UVERSION           Version 2.20                             
    1UCOMPILETIME       Fri Jul 29 19:13:05 CEST 2022                    
    1UDIR                                                               
    1UDBN                                                               
    1UMAT    1S420                                                      
    2C                           930                                     1
 -1       404 0.00000E+00 5.90000E-01 2.93250E-01
 -1       406 0.00000E+00 5.90000E-01 3.06750E-01
 -1       407 3.00000E+00 5.90000E-01 2.93250E-01
 -1       409 3.00000E+00 5.90000E-01 3.06750E-01
 -1       410 3.00000E+00 5.00000E-01 2.93250E-01
 -1       412 3.00000E+00 5.00000E-01 3.06750E-01
 -1       413 3.00000E+00 4.95700E-01 3.00000E-01
 -1       415 3.00000E+00 5.04300E-01 3.00000E-01
 -1       424 0.00000E+00 5.00000E-01 2.93250E-01
 -1       426 0.00000E+00 5.00000E-01 3.06750E-01
 -1       427 0.00000E+00 4.95700E-01 3.00000E-01
 -1       429 0.00000E+00 5.04300E-01 3.00000E-01
 -1       438 3.00000E+00 4.10000E-01 2.93250E-01
 -1       440 3.00000E+00 4.10000E-01 3.06750E-01
 -1       441 0.00000E+00 4.10000E-01 2.93250E-01
 -1       443 0.00000E+00 4.10000E-01 3.06750E-01
 -1       444 0.00000E+00 4.95700E-01 7.00000E-01
 -1       446 0.00000E+00 5.04300E-01 7.00000E-01
 -1       447 0.00000E+00 5.00000E-01 7.06750E-01
 -1       449 0.00000E+00 5.00000E-01 6.93250E-01
 -1       458 3.00000E+00 4.95700E-01 7.00000E-01
 -1       460 3.00000E+00 5.04300E-01 7.00000E-01
 -1       461 3.00000E+00 5.00000E-01 7.06750E-01
 -1       463 3.00000E+00 5.00000E-01 6.93250E-01
 -1       472 0.00000E+00 4.10000E-01 7.06750E-01
 -1       474 0.00000E+00 4.10000E-01 6.93250E-01
 -1       475 3.00000E+00 4.10000E-01 7.06750E-01
 -1       477 3.00000E+00 4.10000E-01 6.93250E-01
 -1       478 3.00000E+00 5.90000E-01 7.06750E-01
 -1       480 3.00000E+00 5.90000E-01 6.93250E-01
 -1       481 0.00000E+00 5.90000E-01 7.06750E-01
 -1       483 0.00000E+00 5.90000E-01 6.93250E-01
 -1       484 1.00000E-01 5.90000E-01 2.93250E-01
 -1       486 1.00000E-01 5.90000E-01 3.06750E-01
 -1       487 2.00000E-01 5.90000E-01 2.93250E-01
 -1       489 2.00000E-01 5.90000E-01 3.06750E-01
 -1       490 3.00000E-01 5.90000E-01 2.93250E-01
 -1       492 3.00000E-01 5.90000E-01 3.06750E-01
 -1       493 4.00000E-01 5.90000E-01 2.93250E-01
 -1       495 4.00000E-01 5.90000E-01 3.06750E-01
 -1       496 5.00000E-01 5.90000E-01 2.93250E-01
 -1       498 5.00000E-01 5.90000E-01 3.06750E-01
 -1       499 6.00000E-01 5.90000E-01 2.93250E-01
 -1       501 6.00000E-01 5.90000E-01 3.06750E-01
 -1       502 7.00000E-01 5.90000E-01 2.93250E-01
 -1       504 7.00000E-01 5.90000E-01 3.06750E-01
 -1       505 8.00000E-01 5.90000E-01 2.93250E-01
 -1       507 8.00000E-01 5.90000E-01 3.06750E-01
 -1       508 9.00000E-01 5.90000E-01 2.93250E-01
 -1       510 9.00000E-01 5.90000E-01 3.06750E-01
 -1       511 1.00000E+00 5.90000E-01 2.93250E-01
 -1       513 1.00000E+00 5.90000E-01 3.06750E-01
 -1       514 1.10000E+00 5.90000E-01 2.93250E-01
 -1       516 1.10000E+00 5.90000E-01 3.06750E-01
 -1       517 1.20000E+00 5.90000E-01 2.93250E-01
 -1       519 1.20000E+00 5.90000E-01 3.06750E-01
 -1       520 1.30000E+00 5.90000E-01 2.93250E-01
 -1       522 1.30000E+00 5.90000E-01 3.06750E-01
 -1       523 1.40000E+00 5.90000E-01 2.93250E-01
 -1       525 1.40000E+00 5.90000E-01 3.06750E-01
 -1       526 1.50000E+00 5.90000E-01 2.93250E-01
 -1       528 1.50000E+00 5.90000E-01 3.06750E-01
 -1       529 1.60000E+00 5.90000E-01 2.93250E-01
 -1       531 1.60000E+00 5.90000E-01 3.06750E-01
 -1       532 1.70000E+00 5.90000E-01 2.93250E-01
 -1       534 1.70000E+00 5.90000E-01 3.06750E-01
 -1       535 1.80000E+00 5.90000E-01 2.93250E-01
 -1       537 1.80000E+00 5.90000E-01 3.06750E-01
 -1       538 1.90000E+00 5.90000E-01 2.93250E-01
 -1       540 1.90000E+00 5.90000E-01 3.06750E-01
 -1       541 2.00000E+00 5.90000E-01 2.93250E-01
 -1       543 2.00000E+00 5.90000E-01 3.06750E-01
 -1       544 2.10000E+00 5.90000E-01 2.93250E-01
 -1       546 2.10000E+00 5.90000E-01 3.06750E-01
 -1       547 2.20000E+00 5.90000E-01 2.93250E-01
 -1       549 2.20000E+00 5.90000E-01 3.06750E-01
 -1       550 2.30000E+00 5.90000E-01 2.93250E-01
 -1       552 2.30000E+00 5.90000E-01 3.06750E-01
 -1       553 2.40000E+00 5.90000E-01 2.93250E-01
 -1       555 2.40000E+00 5.90000E-01 3.06750E-01
 -1       556 2.50000E+00 5.90000E-01 2.93250E-01
 -1       558 2.50000E+00 5.90000E-01 3.06750E-01
 -1       559 2.60000E+00 5.90000E-01 2.93250E-01
 -1       561 2.60000E+00 5.90000E-01 3.06750E-01
 -1       562 2.70000E+00 5.90000E-01 2.93250E-01
 -1       564 2.70000E+00 5.90000E-01 3.06750E-01
 -1       565 2.80000E+00 5.90000E-01 2.93250E-01
 -1       567 2.80000E+00 5.90000E-01 3.06750E-01
 -1       568 2.90000E+00 5.90000E-01 2.93250E-01
 -1       570 2.90000E+00 5.90000E-01 3.06750E-01
 -1       571 3.00000E+00 5.45000E-01 2.93250E-01
 -1       573 3.00000E+00 5.45000E-01 3.06750E-01
 -1       574 1.00000E-01 5.00000E-01 2.93250E-01
 -1       576 1.00000E-01 5.00000E-01 3.06750E-01
 -1       577 1.00000E-01 4.95700E-01 3.00000E-01
 -1       579 1.00000E-01 5.04300E-01 3.00000E-01
 -1       588 2.00000E-01 5.00000E-01 2.93250E-01
 -1       590 2.00000E-01 5.00000E-01 3.06750E-01
 -1       591 2.00000E-01 4.95700E-01 3.00000E-01
 -1       593 2.00000E-01 5.04300E-01 3.00000E-01
 -1       602 3.00000E-01 5.00000E-01 2.93250E-01
 -1       604 3.00000E-01 5.00000E-01 3.06750E-01
 -1       605 3.00000E-01 4.95700E-01 3.00000E-01
 -1       607 3.00000E-01 5.04300E-01 3.00000E-01
 -1       616 4.00000E-01 5.00000E-01 2.93250E-01
 -1       618 4.00000E-01 5.00000E-01 3.06750E-01
 -1       619 4.00000E-01 4.95700E-01 3.00000E-01
 -1       621 4.00000E-01 5.04300E-01 3.00000E-01
 -1       630 5.00000E-01 5.00000E-01 2.93250E-01
 -1       632 5.00000E-01 5.00000E-01 3.06750E-01
 -1       633 5.00000E-01 4.95700E-01 3.00000E-01
 -1       635 5.00000E-01 5.04300E-01 3.00000E-01
 -1       644 6.00000E-01 5.00000E-01 2.93250E-01
 -1       646 6.00000E-01 5.00000E-01 3.06750E-01
 -1       647 6.00000E-01 4.95700E-01 3.00000E-01
 -1       649 6.00000E-01 5.04300E-01 3.00000E-01
 -1       658 7.00000E-01 5.00000E-01 2.93250E-01
 -1       660 7.00000E-01 5.00000E-01 3.06750E-01
 -1       661 7.00000E-01 4.95700E-01 3.00000E-01
 -1       663 7.00000E-01 5.04300E-01 3.00000E-01
 -1       672 8.00000E-01 5.00000E-01 2.93250E-01
 -1       674 8.00000E-01 5.00000E-01 3.06750E-01
 -1       675 8.00000E-01 4.95700E-01 3.00000E-01
 -1       677 8.00000E-01 5.04300E-01 3.00000E-01
 -1       686 9.00000E-01 5.00000E-01 2.93250E-01
 -1       688 9.00000E-01 5.00000E-01 3.06750E-01
 -1       689 9.00000E-01 4.95700E-01 3.00000E-01
 -1       691 9.00000E-01 5.04300E-01 3.00000E-01
 -1       700 1.00000E+00 5.00000E-01 2.93250E-01
 -1       702 1.00000E+00 5.00000E-01 3.06750E-01
 -1       703 1.00000E+00 4.95700E-01 3.00000E-01
 -1       705 1.00000E+00 5.04300E-01 3.00000E-01
 -1       714 1.10000E+00 5.00000E-01 2.93250E-01
 -1       716 1.10000E+00 5.00000E-01 3.06750E-01
 -1       717 1.10000E+00 4.95700E-01 3.00000E-01
 -1       719 1.10000E+00 5.04300E-01 3.00000E-01
 -1       728 1.20000E+00 5.00000E-01 2.93250E-01
 -1       730 1.20000E+00 5.00000E-01 3.06750E-01
 -1       731 1.20000E+00 4.95700E-01 3.00000E-01
 -1       733 1.20000E+00 5.04300E-01 3.00000E-01
 -1       742 1.30000E+00 5.00000E-01 2.93250E-01
 -1       744 1.30000E+00 5.00000E-01 3.06750E-01
 -1       745 1.30000E+00 4.95700E-01 3.00000E-01
 -1       747 1.30000E+00 5.04300E-01 3.00000E-01
 -1       756 1.40000E+00 5.00000E-01 2.93250E-01
 -1       758 1.40000E+00 5.00000E-01 3.06750E-01
 -1       759 1.40000E+00 4.95700E-01 3.00000E-01
 -1       761 1.40000E+00 5.04300E-01 3.00000E-01
 -1       770 1.50000E+00 5.00000E-01 2.93250E-01
 -1       772 1.50000E+00 5.00000E-01 3.06750E-01
 -1       773 1.50000E+00 4.95700E-01 3.00000E-01
 -1       775 1.50000E+00 5.04300E-01 3.00000E-01
 -1       784 1.60000E+00 5.00000E-01 2.93250E-01
 -1       786 1.60000E+00 5.00000E-01 3.06750E-01
 -1       787 1.60000E+00 4.95700E-01 3.00000E-01
 -1       789 1.60000E+00 5.04300E-01 3.00000E-01
 -1       798 1.70000E+00 5.00000E-01 2.93250E-01
 -1       800 1.70000E+00 5.00000E-01 3.06750E-01
 -1       801 1.70000E+00 4.95700E-01 3.00000E-01
 -1       803 1.70000E+00 5.04300E-01 3.00000E-01
 -1       812 1.80000E+00 5.00000E-01 2.93250E-01
 -1       814 1.80000E+00 5.00000E-01 3.06750E-01
 -1       815 1.80000E+00 4.95700E-01 3.00000E-01
 -1       817 1.80000E+00 5.04300E-01 3.00000E-01
 -1       826 1.90000E+00 5.00000E-01 2.93250E-01
 -1       828 1.90000E+00 5.00000E-01 3.06750E-01
 -1       829 1.90000E+00 4.95700E-01 3.00000E-01
 -1       831 1.90000E+00 5.04300E-01 3.00000E-01
 -1       840 2.00000E+00 5.00000E-01 2.93250E-01
 -1       842 2.00000E+00 5.00000E-01 3.06750E-01
 -1       843 2.00000E+00 4.95700E-01 3.00000E-01
 -1       845 2.00000E+00 5.04300E-01 3.00000E-01
 -1       854 2.10000E+00 5.00000E-01 2.93250E-01
 -1       856 2.10000E+00 5.00000E-01 3.06750E-01
 -1       857 2.10000E+00 4.95700E-01 3.00000E-01
 -1       859 2.10000E+00 5.04300E-01 3.00000E-01
 -1       868 2.20000E+00 5.00000E-01 2.93250E-01
 -1       870 2.20000E+00 5.00000E-01 3.06750E-01
 -1       871 2.20000E+00 4.95700E-01 3.00000E-01
 -1       873 2.20000E+00 5.04300E-01 3.00000E-01
 -1       882 2.30000E+00 5.00000E-01 2.93250E-01
 -1       884 2.30000E+00 5.00000E-01 3.06750E-01
 -1       885 2.30000E+00 4.95700E-01 3.00000E-01
 -1       887 2.30000E+00 5.04300E-01 3.00000E-01
 -1       896 2.40000E+00 5.00000E-01 2.93250E-01
 -1       898 2.40000E+00 5.00000E-01 3.06750E-01
 -1       899 2.40000E+00 4.95700E-01 3.00000E-01
 -1       901 2.40000E+00 5.04300E-01 3.00000E-01
 -1       910 2.50000E+00 5.00000E-01 2.93250E-01
 -1       912 2.50000E+00 5.00000E-01 3.06750E-01
 -1       913 2.50000E+00 4.95700E-01 3.00000E-01
 -1       915 2.50000E+00 5.04300E-01 3.00000E-01
 -1       924 2.60000E+00 5.00000E-01 2.93250E-01
 -1       926 2.60000E+00 5.00000E-01 3.06750E-01
 -1       927 2.60000E+00 4.95700E-01 3.00000E-01
 -1       929 2.60000E+00 5.04300E-01 3.00000E-01
 -1       938 2.70000E+00 5.00000E-01 2.93250E-01
 -1       940 2.70000E+00 5.00000E-01 3.06750E-01
 -1       941 2.70000E+00 4.95700E-01 3.00000E-01
 -1       943 2.70000E+00 5.04300E-01 3.00000E-01
 -1       952 2.80000E+00 5.00000E-01 2.93250E-01
 -1       954 2.80000E+00 5.00000E-01 3.06750E-01
 -1       955 2.80000E+00 4.95700E-01 3.00000E-01
 -1       957 2.80000E+00 5.04300E-01 3.00000E-01
 -1       966 2.90000E+00 5.00000E-01 2.93250E-01
 -1       968 2.90000E+00 5.00000E-01 3.06750E-01
 -1       969 2.90000E+00 4.95700E-01 3.00000E-01
 -1       971 2.90000E+00 5.04300E-01 3.00000E-01
 -1       980 0.00000E+00 5.45000E-01 2.93250E-01
 -1       982 0.00000E+00 5.45000E-01 3.06750E-01
 -1       983 3.00000E+00 4.55000E-01 2.93250E-01
 -1       985 3.00000E+00 4.55000E-01 3.06750E-01
 -1       986 1.00000E-01 4.10000E-01 2.93250E-01
 -1       988 1.00000E-01 4.10000E-01 3.06750E-01
 -1       989 2.00000E-01 4.10000E-01 2.93250E-01
 -1       991 2.00000E-01 4.10000E-01 3.06750E-01
 -1       992 3.00000E-01 4.10000E-01 2.93250E-01
 -1       994 3.00000E-01 4.10000E-01 3.06750E-01
 -1       995 4.00000E-01 4.10000E-01 2.93250E-01
 -1       997 4.00000E-01 4.10000E-01 3.06750E-01
 -1       998 5.00000E-01 4.10000E-01 2.93250E-01
 -1      1000 5.00000E-01 4.10000E-01 3.06750E-01
 -1      1001 6.00000E-01 4.10000E-01 2.93250E-01
 -1      1003 6.00000E-01 4.10000E-01 3.06750E-01
 -1      1004 7.00000E-01 4.10000E-01 2.93250E-01
 -1      1006 7.00000E-01 4.10000E-01 3.06750E-01
 -1      1007 8.00000E-01 4.10000E-01 2.93250E-01
 -1      1009 8.00000E-01 4.10000E-01 3.06750E-01
 -1      1010 9.00000E-01 4.10000E-01 2.93250E-01
 -1      1012 9.00000E-01 4.10000E-01 3.06750E-01
 -1      1013 1.00000E+00 4.10000E-01 2.93250E-01
 -1      1015 1.00000E+00 4.10000E-01 3.06750E-01
 -1      1016 1.10000E+00 4.10000E-01 2.93250E-01
 -1      1018 1.10000E+00 4.10000E-01 3.06750E-01
 -1      1019 1.20000E+00 4.10000E-01 2.93250E-01
 -1      1021 1.20000E+00 4.10000E-01 3.06750E-01
 -1      1022 1.30000E+00 4.10000E-01 2.93250E-01
 -1      1024 1.30000E+00 4.10000E-01 3.06750E-01
 -1      1025 1.40000E+00 4.10000E-01 2.93250E-01
 -1      1027 1.40000E+00 4.10000E-01 3.06750E-01
 -1      1028 1.50000E+00 4.10000E-01 2.93250E-01
 -1      1030 1.50000E+00 4.10000E-01 3.06750E-01
 -1      1031 1.60000E+00 4.10000E-01 2.93250E-01
 -1      1033 1.60000E+00 4.10000E-01 3.06750E-01
 -1      1034 1.70000E+00 4.10000E-01 2.93250E-01
 -1      1036 1.70000E+00 4.10000E-01 3.06750E-01
 -1      1037 1.80000E+00 4.10000E-01 2.93250E-01
 -1      1039 1.80000E+00 4.10000E-01 3.06750E-01
 -1      1040 1.90000E+00 4.10000E-01 2.93250E-01
 -1      1042 1.90000E+00 4.10000E-01 3.06750E-01
 -1      1043 2.00000E+00 4.10000E-01 2.93250E-01
 -1      1045 2.00000E+00 4.10000E-01 3.06750E-01
 -1      1046 2.10000E+00 4.10000E-01 2.93250E-01
 -1      1048 2.10000E+00 4.10000E-01 3.06750E-01
 -1      1049 2.20000E+00 4.10000E-01 2.93250E-01
 -1      1051 2.20000E+00 4.10000E-01 3.06750E-01
 -1      1052 2.30000E+00 4.10000E-01 2.93250E-01
 -1      1054 2.30000E+00 4.10000E-01 3.06750E-01
 -1      1055 2.40000E+00 4.10000E-01 2.93250E-01
 -1      1057 2.40000E+00 4.10000E-01 3.06750E-01
 -1      1058 2.50000E+00 4.10000E-01 2.93250E-01
 -1      1060 2.50000E+00 4.10000E-01 3.06750E-01
 -1      1061 2.60000E+00 4.10000E-01 2.93250E-01
 -1      1063 2.60000E+00 4.10000E-01 3.06750E-01
 -1      1064 2.70000E+00 4.10000E-01 2.93250E-01
 -1      1066 2.70000E+00 4.10000E-01 3.06750E-01
 -1      1067 2.80000E+00 4.10000E-01 2.93250E-01
 -1      1069 2.80000E+00 4.10000E-01 3.06750E-01
 -1      1070 2.90000E+00 4.10000E-01 2.93250E-01
 -1      1072 2.90000E+00 4.10000E-01 3.06750E-01
 -1      1073 0.00000E+00 4.55000E-01 2.93250E-01
 -1      1075 0.00000E+00 4.55000E-01 3.06750E-01
 -1      1076 0.00000E+00 4.95700E-01 4.00000E-01
 -1      1078 0.00000E+00 5.04300E-01 4.00000E-01
 -1      1079 0.00000E+00 4.95700E-01 5.00000E-01
 -1      1081 0.00000E+00 5.04300E-01 5.00000E-01
 -1      1082 0.00000E+00 4.95700E-01 6.00000E-01
 -1      1084 0.00000E+00 5.04300E-01 6.00000E-01
 -1      1085 1.00000E-01 4.95700E-01 7.00000E-01
 -1      1087 1.00000E-01 5.04300E-01 7.00000E-01
 -1      1088 1.00000E-01 5.00000E-01 7.06750E-01
 -1      1090 1.00000E-01 5.00000E-01 6.93250E-01
 -1      1099 2.00000E-01 4.95700E-01 7.00000E-01
 -1      1101 2.00000E-01 5.04300E-01 7.00000E-01
 -1      1102 2.00000E-01 5.00000E-01 7.06750E-01
 -1      1104 2.00000E-01 5.00000E-01 6.93250E-01
 -1      1113 3.00000E-01 4.95700E-01 7.00000E-01
 -1      1115 3.00000E-01 5.04300E-01 7.00000E-01
 -1      1116 3.00000E-01 5.00000E-01 7.06750E-01
 -1      1118 3.00000E-01 5.00000E-01 6.93250E-01
 -1      1127 4.00000E-01 4.95700E-01 7.00000E-01
 -1      1129 4.00000E-01 5.04300E-01 7.00000E-01
 -1      1130 4.00000E-01 5.00000E-01 7.06750E-01
 -1      1132 4.00000E-01 5.00000E-01 6.93250E-01
 -1      1141 5.00000E-01 4.95700E-01 7.00000E-01
 -1      1143 5.00000E-01 5.04300E-01 7.00000E-01
 -1      1144 5.00000E-01 5.00000E-01 7.06750E-01
 -1      1146 5.00000E-01 5.00000E-01 6.93250E-01
 -1      1155 6.00000E-01 4.95700E-01 7.00000E-01
 -1      1157 6.00000E-01 5.04300E-01 7.00000E-01
 -1      1158 6.00000E-01 5.00000E-01 7.06750E-01
 -1      1160 6.00000E-01 5.00000E-01 6.93250E-01
 -1      1169 7.00000E-01 4.95700E-01 7.00000E-01
 -1      1171 7.00000E-01 5.04300E-01 7.00000E-01
 -1      1172 7.00000E-01 5.00000E-01 7.06750E-01
 -1      1174 7.00000E-01 5.00000E-01 6.93250E-01
 -1      1183 8.00000E-01 4.95700E-01 7.00000E-01
 -1      1185 8.00000E-01 5.04300E-01 7.00000E-01
 -1      1186 8.00000E-01 5.00000E-01 7.06750E-01
 -1      1188 8.00000E-01 5.00000E-01 6.93250E-01
 -1      1197 9.00000E-01 4.95700E-01 7.00000E-01
 -1      1199 9.00000E-01 5.04300E-01 7.00000E-01
 -1      1200 9.00000E-01 5.00000E-01 7.06750E-01
 -1      1202 9.00000E-01 5.00000E-01 6.93250E-01
 -1      1211 1.00000E+00 4.95700E-01 7.00000E-01
 -1      1213 1.00000E+00 5.04300E-01 7.00000E-01
 -1      1214 1.00000E+00 5.00000E-01 7.06750E-01
 -1      1216 1.00000E+00 5.00000E-01 6.93250E-01
 -1      1225 1.10000E+00 4.95700E-01 7.00000E-01
 -1      1227 1.10000E+00 5.04300E-01 7.00000E-01
 -1      1228 1.10000E+00 5.00000E-01 7.06750E-01
 -1      1230 1.10000E+00 5.00000E-01 6.93250E-01
 -1      1239 1.20000E+00 4.95700E-01 7.00000E-01
 -1      1241 1.20000E+00 5.04300E-01 7.00000E-01
 -1      1242 1.20000E+00 5.00000E-01 7.06750E-01
 -1      1244 1.20000E+00 5.00000E-01 6.93250E-01
 -1      1253 1.30000E+00 4.95700E-01 7.00000E-01
 -1      1255 1.30000E+00 5.04300E-01 7.00000E-01
 -1      1256 1.30000E+00 5.00000E-01 7.06750E-01
 -1      1258 1.30000E+00 5.00000E-01 6.93250E-01
 -1      1267 1.40000E+00 4.95700E-01 7.00000E-01
 -1      1269 1.40000E+00 5.04300E-01 7.00000E-01
 -1      1270 1.40000E+00 5.00000E-01 7.06750E-01
 -1      1272 1.40000E+00 5.00000E-01 6.93250E-01
 -1      1281 1.50000E+00 4.95700E-01 7.00000E-01
 -1      1283 1.50000E+00 5.04300E-01 7.00000E-01
 -1      1284 1.50000E+00 5.00000E-01 7.06750E-01
 -1      1286 1.50000E+00 5.00000E-01 6.93250E-01
 -1      1295 1.60000E+00 4.95700E-01 7.00000E-01
 -1      1297 1.60000E+00 5.04300E-01 7.00000E-01
 -1      1298 1.60000E+00 5.00000E-01 7.06750E-01
 -1      1300 1.60000E+00 5.00000E-01 6.93250E-01
 -1      1309 1.70000E+00 4.95700E-01 7.00000E-01
 -1      1311 1.70000E+00 5.04300E-01 7.00000E-01
 -1      1312 1.70000E+00 5.00000E-01 7.06750E-01
 -1      1314 1.70000E+00 5.00000E-01 6.93250E-01
 -1      1323 1.80000E+00 4.95700E-01 7.00000E-01
 -1      1325 1.80000E+00 5.04300E-01 7.00000E-01
 -1      1326 1.80000E+00 5.00000E-01 7.06750E-01
 -1      1328 1.80000E+00 5.00000E-01 6.93250E-01
 -1      1337 1.90000E+00 4.95700E-01 7.00000E-01
 -1      1339 1.90000E+00 5.04300E-01 7.00000E-01
 -1      1340 1.90000E+00 5.00000E-01 7.06750E-01
 -1      1342 1.90000E+00 5.00000E-01 6.93250E-01
 -1      1351 2.00000E+00 4.95700E-01 7.00000E-01
 -1      1353 2.00000E+00 5.04300E-01 7.00000E-01
 -1      1354 2.00000E+00 5.00000E-01 7.06750E-01
 -1      1356 2.00000E+00 5.00000E-01 6.93250E-01
 -1      1365 2.10000E+00 4.95700E-01 7.00000E-01
 -1      1367 2.10000E+00 5.04300E-01 7.00000E-01
 -1      1368 2.10000E+00 5.00000E-01 7.06750E-01
 -1      1370 2.10000E+00 5.00000E-01 6.93250E-01
 -1      1379 2.20000E+00 4.95700E-01 7.00000E-01
 -1      1381 2.20000E+00 5.04300E-01 7.00000E-01
 -1      1382 2.20000E+00 5.00000E-01 7.06750E-01
 -1      1384 2.20000E+00 5.00000E-01 6.93250E-01
 -1      1393 2.30000E+00 4.95700E-01 7.00000E-01
 -1      1395 2.30000E+00 5.04300E-01 7.00000E-01
 -1      1396 2.30000E+00 5.00000E-01 7.06750E-01
 -1      1398 2.30000E+00 5.00000E-01 6.93250E-01
 -1      1407 2.40000E+00 4.95700E-01 7.00000E-01
 -1      1409 2.40000E+00 5.04300E-01 7.00000E-01
 -1      1410 2.40000E+00 5.00000E-01 7.06750E-01
 -1      1412 2.40000E+00 5.00000E-01 6.93250E-01
 -1      1421 2.50000E+00 4.95700E-01 7.00000E-01
 -1      1423 2.50000E+00 5.04300E-01 7.00000E-01
 -1      1424 2.50000E+00 5.00000E-01 7.06750E-01
 -1      1426 2.50000E+00 5.00000E-01 6.93250E-01
 -1      1435 2.60000E+00 4.95700E-01 7.00000E-01
 -1      1437 2.60000E+00 5.04300E-01 7.00000E-01
 -1      1438 2.60000E+00 5.00000E-01 7.06750E-01
 -1      1440 2.60000E+00 5.00000E-01 6.93250E-01
 -1      1449 2.70000E+00 4.95700E-01 7.00000E-01
 -1      1451 2.70000E+00 5.04300E-01 7.00000E-01
 -1      1452 2.70000E+00 5.00000E-01 7.06750E-01
 -1      1454 2.70000E+00 5.00000E-01 6.93250E-01
 -1      1463 2.80000E+00 4.95700E-01 7.00000E-01
 -1      1465 2.80000E+00 5.04300E-01 7.00000E-01
 -1      1466 2.80000E+00 5.00000E-01 7.06750E-01
 -1      1468 2.80000E+00 5.00000E-01 6.93250E-01
 -1      1477 2.90000E+00 4.95700E-01 7.00000E-01
 -1      1479 2.90000E+00 5.04300E-01 7.00000E-01
 -1      1480 2.90000E+00 5.00000E-01 7.06750E-01
 -1      1482 2.90000E+00 5.00000E-01 6.93250E-01
 -1      1491 3.00000E+00 4.95700E-01 4.00000E-01
 -1      1493 3.00000E+00 5.04300E-01 4.00000E-01
 -1      1494 3.00000E+00 4.95700E-01 5.00000E-01
 -1      1496 3.00000E+00 5.04300E-01 5.00000E-01
 -1      1497 3.00000E+00 4.95700E-01 6.00000E-01
 -1      1499 3.00000E+00 5.04300E-01 6.00000E-01
 -1      1500 1.00000E-01 4.10000E-01 7.06750E-01
 -1      1502 1.00000E-01 4.10000E-01 6.93250E-01
 -1      1503 2.00000E-01 4.10000E-01 7.06750E-01
 -1      1505 2.00000E-01 4.10000E-01 6.93250E-01
 -1      1506 3.00000E-01 4.10000E-01 7.06750E-01
 -1      1508 3.00000E-01 4.10000E-01 6.93250E-01
 -1      1509 4.00000E-01 4.10000E-01 7.06750E-01
 -1      1511 4.00000E-01 4.10000E-01 6.93250E-01
 -1      1512 5.00000E-01 4.10000E-01 7.06750E-01
 -1      1514 5.00000E-01 4.10000E-01 6.93250E-01
 -1      1515 6.00000E-01 4.10000E-01 7.06750E-01
 -1      1517 6.00000E-01 4.10000E-01 6.93250E-01
 -1      1518 7.00000E-01 4.10000E-01 7.06750E-01
 -1      1520 7.00000E-01 4.10000E-01 6.93250E-01
 -1      1521 8.00000E-01 4.10000E-01 7.06750E-01
 -1      1523 8.00000E-01 4.10000E-01 6.93250E-01
 -1      1524 9.00000E-01 4.10000E-01 7.06750E-01
 -1      1526 9.00000E-01 4.10000E-01 6.93250E-01
 -1      1527 1.00000E+00 4.10000E-01 7.06750E-01
 -1      1529 1.00000E+00 4.10000E-01 6.93250E-01
 -1      1530 1.10000E+00 4.10000E-01 7.06750E-01
 -1      1532 1.10000E+00 4.10000E-01 6.93250E-01
 -1      1533 1.20000E+00 4.10000E-01 7.06750E-01
 -1      1535 1.20000E+00 4.10000E-01 6.93250E-01
 -1      1536 1.30000E+00 4.10000E-01 7.06750E-01
 -1      1538 1.30000E+00 4.10000E-01 6.93250E-01
 -1      1539 1.40000E+00 4.10000E-01 7.06750E-01
 -1      1541 1.40000E+00 4.10000E-01 6.93250E-01
 -1      1542 1.50000E+00 4.10000E-01 7.06750E-01
 -1      1544 1.50000E+00 4.10000E-01 6.93250E-01
 -1      1545 1.60000E+00 4.10000E-01 7.06750E-01
 -1      1547 1.60000E+00 4.10000E-01 6.93250E-01
 -1      1548 1.70000E+00 4.10000E-01 7.06750E-01
 -1      1550 1.70000E+00 4.10000E-01 6.93250E-01
 -1      1551 1.80000E+00 4.10000E-01 7.06750E-01
 -1      1553 1.80000E+00 4.10000E-01 6.93250E-01
 -1      1554 1.90000E+00 4.10000E-01 7.06750E-01
 -1      1556 1.90000E+00 4.10000E-01 6.93250E-01
 -1      1557 2.00000E+00 4.10000E-01 7.06750E-01
 -1      1559 2.00000E+00 4.10000E-01 6.93250E-01
 -1      1560 2.10000E+00 4.10000E-01 7.06750E-01
 -1      1562 2.10000E+00 4.10000E-01 6.93250E-01
 -1      1563 2.20000E+00 4.10000E-01 7.06750E-01
 -1      1565 2.20000E+00 4.10000E-01 6.93250E-01
 -1      1566 2.30000E+00 4.10000E-01 7.06750E-01
 -1      1568 2.30000E+00 4.10000E-01 6.93250E-01
 -1      1569 2.40000E+00 4.10000E-01 7.06750E-01
 -1      1571 2.40000E+00 4.10000E-01 6.93250E-01
 -1      1572 2.50000E+00 4.10000E-01 7.06750E-01
 -1      1574 2.50000E+00 4.10000E-01 6.93250E-01
 -1      1575 2.60000E+00 4.10000E-01 7.06750E-01
 -1      1577 2.60000E+00 4.10000E-01 6.93250E-01
 -1      1578 2.70000E+00 4.10000E-01 7.06750E-01
 -1      1580 2.70000E+00 4.10000E-01 6.93250E-01
 -1      1581 2.80000E+00 4.10000E-01 7.06750E-01
 -1      1583 2.80000E+00 4.10000E-01 6.93250E-01
 -1      1584 2.90000E+00 4.10000E-01 7.06750E-01
 -1      1586 2.90000E+00 4.10000E-01 6.93250E-01
 -1      1587 3.00000E+00 4.55000E-01 7.06750E-01
 -1      1589 3.00000E+00 4.55000E-01 6.93250E-01
 -1      1590 0.00000E+00 4.55000E-01 7.06750E-01
 -1      1592 0.00000E+00 4.55000E-01 6.93250E-01
 -1      1593 3.00000E+00 5.45000E-01 7.06750E-01
 -1      1595 3.00000E+00 5.45000E-01 6.93250E-01
 -1      1596 1.00000E-01 5.90000E-01 7.06750E-01
 -1      1598 1.00000E-01 5.90000E-01 6.93250E-01
 -1      1599 2.00000E-01 5.90000E-01 7.06750E-01
 -1      1601 2.00000E-01 5.90000E-01 6.93250E-01
 -1      1602 3.00000E-01 5.90000E-01 7.06750E-01
 -1      1604 3.00000E-01 5.90000E-01 6.93250E-01
 -1      1605 4.00000E-01 5.90000E-01 7.06750E-01
 -1      1607 4.00000E-01 5.90000E-01 6.93250E-01
 -1      1608 5.00000E-01 5.90000E-01 7.06750E-01
 -1      1610 5.00000E-01 5.90000E-01 6.93250E-01
 -1      1611 6.00000E-01 5.90000E-01 7.06750E-01
 -1      1613 6.00000E-01 5.90000E-01 6.93250E-01
 -1      1614 7.00000E-01 5.90000E-01 7.06750E-01
 -1      1616 7.00000E-01 5.90000E-01 6.93250E-01
 -1      1617 8.00000E-01 5.90000E-01 7.06750E-01
 -1      1619 8.00000E-01 5.90000E-01 6.93250E-01
 -1      1620 9.00000E-01 5.90000E-01 7.06750E-01
 -1      1622 9.00000E-01 5.90000E-01 6.93250E-01
 -1      1623 1.00000E+00 5.90000E-01 7.06750E-01
 -1      1625 1.00000E+00 5.90000E-01 6.93250E-01
 -1      1626 1.10000E+00 5.90000E-01 7.06750E-01
 -1      1628 1.10000E+00 5.90000E-01 6.93250E-01
 -1      1629 1.20000E+00 5.90000E-01 7.06750E-01
 -1      1631 1.20000E+00 5.90000E-01 6.93250E-01
 -1      1632 1.30000E+00 5.90000E-01 7.06750E-01
 -1      1634 1.30000E+00 5.90000E-01 6.93250E-01
 -1      1635 1.40000E+00 5.90000E-01 7.06750E-01
 -1      1637 1.40000E+00 5.90000E-01 6.93250E-01
 -1      1638 1.50000E+00 5.90000E-01 7.06750E-01
 -1      1640 1.50000E+00 5.90000E-01 6.93250E-01
 -1      1641 1.60000E+00 5.90000E-01 7.06750E-01
 -1      1643 1.60000E+00 5.90000E-01 6.93250E-01
 -1      1644 1.70000E+00 5.90000E-01 7.06750E-01
 -1      1646 1.70000E+00 5.90000E-01 6.93250E-01
 -1      1647 1.80000E+00 5.90000E-01 7.06750E-01
 -1      1649 1.80000E+00 5.90000E-01 6.93250E-01
 -1      1650 1.90000E+00 5.90000E-01 7.06750E-01
 -1      1652 1.90000E+00 5.90000E-01 6.93250E-01
 -1      1653 2.00000E+00 5.90000E-01 7.06750E-01
 -1      1655 2.00000E+00 5.90000E-01 6.93250E-01
 -1      1656 2.10000E+00 5.90000E-01 7.06750E-01
 -1      1658 2.10000E+00 5.90000E-01 6.93250E-01
 -1      1659 2.20000E+00 5.90000E-01 7.06750E-01
 -1      1661 2.20000E+00 5.90000E-01 6.93250E-01
 -1      1662 2.30000E+00 5.90000E-01 7.06750E-01
 -1      1664 2.30000E+00 5.90000E-01 6.93250E-01
 -1      1665 2.40000E+00 5.90000E-01 7.06750E-01
 -1      1667 2.40000E+00 5.90000E-01 6.93250E-01
 -1      1668 2.50000E+00 5.90000E-01 7.06750E-01
 -1      1670 2.50000E+00 5.90000E-01 6.93250E-01
 -1      1671 2.60000E+00 5.90000E-01 7.06750E-01
 -1      1673 2.60000E+00 5.90000E-01 6.93250E-01
 -1      1674 2.70000E+00 5.90000E-01 7.06750E-01
 -1      1676 2.70000E+00 5.90000E-01 6.93250E-01
 -1      1677 2.80000E+00 5.90000E-01 7.06750E-01
 -1      1679 2.80000E+00 5.90000E-01 6.93250E-01
 -1      1680 2.90000E+00 5.90000E-01 7.06750E-01
 -1      1682 2.90000E+00 5.90000E-01 6.93250E-01
 -1      1683 0.00000E+00 5.45000E-01 7.06750E-01
 -1      1685 0.00000E+00 5.45000E-01 6.93250E-01
 -1      1686 1.00000E-01 5.45000E-01 2.93250E-01
 -1      1688 1.00000E-01 5.45000E-01 3.06750E-01
 -1      1689 2.00000E-01 5.45000E-01 2.93250E-01
 -1      1691 2.00000E-01 5.45000E-01 3.06750E-01
 -1      1692 3.00000E-01 5.45000E-01 2.93250E-01
 -1      1694 3.00000E-01 5.45000E-01 3.06750E-01
 -1      1695 4.00000E-01 5.45000E-01 2.93250E-01
 -1      1697 4.00000E-01 5.45000E-01 3.06750E-01
 -1      1698 5.00000E-01 5.45000E-01 2.93250E-01
 -1      1700 5.00000E-01 5.45000E-01 3.06750E-01
 -1      1701 6.00000E-01 5.45000E-01 2.93250E-01
 -1      1703 6.00000E-01 5.45000E-01 3.06750E-01
 -1      1704 7.00000E-01 5.45000E-01 2.93250E-01
 -1      1706 7.00000E-01 5.45000E-01 3.06750E-01
 -1      1707 8.00000E-01 5.45000E-01 2.93250E-01
 -1      1709 8.00000E-01 5.45000E-01 3.06750E-01
 -1      1710 9.00000E-01 5.45000E-01 2.93250E-01
 -1      1712 9.00000E-01 5.45000E-01 3.06750E-01
 -1      1713 1.00000E+00 5.45000E-01 2.93250E-01
 -1      1715 1.00000E+00 5.45000E-01 3.06750E-01
 -1      1716 1.10000E+00 5.45000E-01 2.93250E-01
 -1      1718 1.10000E+00 5.45000E-01 3.06750E-01
 -1      1719 1.20000E+00 5.45000E-01 2.93250E-01
 -1      1721 1.20000E+00 5.45000E-01 3.06750E-01
 -1      1722 1.30000E+00 5.45000E-01 2.93250E-01
 -1      1724 1.30000E+00 5.45000E-01 3.06750E-01
 -1      1725 1.40000E+00 5.45000E-01 2.93250E-01
 -1      1727 1.40000E+00 5.45000E-01 3.06750E-01
 -1      1728 1.50000E+00 5.45000E-01 2.93250E-01
 -1      1730 1.50000E+00 5.45000E-01 3.06750E-01
 -1      1731 1.60000E+00 5.45000E-01 2.93250E-01
 -1      1733 1.60000E+00 5.45000E-01 3.06750E-01
 -1      1734 1.70000E+00 5.45000E-01 2.93250E-01
 -1      1736 1.70000E+00 5.45000E-01 3.06750E-01
 -1      1737 1.80000E+00 5.45000E-01 2.93250E-01
 -1      1739 1.80000E+00 5.45000E-01 3.06750E-01
 -1      1740 1.90000E+00 5.45000E-01 2.93250E-01
 -1      1742 1.90000E+00 5.45000E-01 3.06750E-01
 -1      1743 2.00000E+00 5.45000E-01 2.93250E-01
 -1      1745 2.00000E+00 5.45000E-01 3.06750E-01
 -1      1746 2.10000E+00 5.45000E-01 2.93250E-01
 -1      1748 2.10000E+00 5.45000E-01 3.06750E-01
 -1      1749 2.20000E+00 5.45000E-01 2.93250E-01
 -1      1751 2.20000E+00 5.45000E-01 3.06750E-01
 -1      1752 2.30000E+00 5.45000E-01 2.93250E-01
 -1      1754 2.30000E+00 5.45000E-01 3.06750E-01
 -1      1755 2.40000E+00 5.45000E-01 2.93250E-01
 -1      1757 2.40000E+00 5.45000E-01 3.06750E-01
 -1      1758 2.50000E+00 5.45000E-01 2.93250E-01
 -1      1760 2.50000E+00 5.45000E-01 3.06750E-01
 -1      1761 2.60000E+00 5.45000E-01 2.93250E-01
 -1      1763 2.60000E+00 5.45000E-01 3.06750E-01
 -1      1764 2.70000E+00 5.45000E-01 2.93250E-01
 -1      1766 2.70000E+00 5.45000E-01 3.06750E-01
 -1      1767 2.80000E+00 5.45000E-01 2.93250E-01
 -1      1769 2.80000E+00 5.45000E-01 3.06750E-01
 -1      1770 2.90000E+00 5.45000E-01 2.93250E-01
 -1      1772 2.90000E+00 5.45000E-01 3.06750E-01
 -1      1773 1.00000E-01 4.55000E-01 2.93250E-01
 -1      1775 1.00000E-01 4.55000E-01 3.06750E-01
 -1      1776 2.00000E-01 4.55000E-01 2.93250E-01
 -1      1778 2.00000E-01 4.55000E-01 3.06750E-01
 -1      1779 3.00000E-01 4.55000E-01 2.93250E-01
 -1      1781 3.00000E-01 4.55000E-01 3.06750E-01
 -1      1782 4.00000E-01 4.55000E-01 2.93250E-01
 -1      1784 4.00000E-01 4.55000E-01 3.06750E-01
 -1      1785 5.00000E-01 4.55000E-01 2.93250E-01
 -1      1787 5.00000E-01 4.55000E-01 3.06750E-01
 -1      1788 6.00000E-01 4.55000E-01 2.93250E-01
 -1      1790 6.00000E-01 4.55000E-01 3.06750E-01
 -1      1791 7.00000E-01 4.55000E-01 2.93250E-01
 -1      1793 7.00000E-01 4.55000E-01 3.06750E-01
 -1      1794 8.00000E-01 4.55000E-01 2.93250E-01
 -1      1796 8.00000E-01 4.55000E-01 3.06750E-01
 -1      1797 9.00000E-01 4.55000E-01 2.93250E-01
 -1      1799 9.00000E-01 4.55000E-01 3.06750E-01
 -1      1800 1.00000E+00 4.55000E-01 2.93250E-01
 -1      1802 1.00000E+00 4.55000E-01 3.06750E-01
 -1      1803 1.10000E+00 4.55000E-01 2.93250E-01
 -1      1805 1.10000E+00 4.55000E-01 3.06750E-01
 -1      1806 1.20000E+00 4.55000E-01 2.93250E-01
 -1      1808 1.20000E+00 4.55000E-01 3.06750E-01
 -1      1809 1.30000E+00 4.55000E-01 2.93250E-01
 -1      1811 1.30000E+00 4.55000E-01 3.06750E-01
 -1      1812 1.40000E+00 4.55000E-01 2.93250E-01
 -1      1814 1.40000E+00 4.55000E-01 3.06750E-01
 -1      1815 1.50000E+00 4.55000E-01 2.93250E-01
 -1      1817 1.50000E+00 4.55000E-01 3.06750E-01
 -1      1818 1.60000E+00 4.55000E-01 2.93250E-01
 -1      1820 1.60000E+00 4.55000E-01 3.06750E-01
 -1      1821 1.70000E+00 4.55000E-01 2.93250E-01
 -1      1823 1.70000E+00 4.55000E-01 3.06750E-01
 -1      1824 1.80000E+00 4.55000E-01 2.93250E-01
 -1      1826 1.80000E+00 4.55000E-01 3.06750E-01
 -1      1827 1.90000E+00 4.55000E-01 2.93250E-01
 -1      1829 1.90000E+00 4.55000E-01 3.06750E-01
 -1      1830 2.00000E+00 4.55000E-01 2.93250E-01
 -1      1832 2.00000E+00 4.55000E-01 3.06750E-01
 -1      1833 2.10000E+00 4.55000E-01 2.93250E-01
 -1      1835 2.10000E+00 4.55000E-01 3.06750E-01
 -1      1836 2.20000E+00 4.55000E-01 2.93250E-01
 -1      1838 2.20000E+00 4.55000E-01 3.06750E-01
 -1      1839 2.30000E+00 4.55000E-01 2.93250E-01
 -1      1841 2.30000E+00 4.55000E-01 3.06750E-01
 -1      1842 2.40000E+00 4.55000E-01 2.93250E-01
 -1      1844 2.40000E+00 4.55000E-01 3.06750E-01
 -1      1845 2.50000E+00 4.55000E-01 2.93250E-01
 -1      1847 2.50000E+00 4.55000E-01 3.06750E-01
 -1      1848 2.60000E+00 4.55000E-01 2.93250E-01
 -1      1850 2.60000E+00 4.55000E-01 3.06750E-01
 -1      1851 2.70000E+00 4.55000E-01 2.93250E-01
 -1      1853 2.70000E+00 4.55000E-01 3.06750E-01
 -1      1854 2.80000E+00 4.55000E-01 2.93250E-01
 -1      1856 2.80000E+00 4.55000E-01 3.06750E-01
 -1      1857 2.90000E+00 4.55000E-01 2.93250E-01
 -1      1859 2.90000E+00 4.55000E-01 3.06750E-01
 -1      1860 1.00000E-01 4.95700E-01 4.00000E-01
 -1      1862 1.00000E-01 5.04300E-01 4.00000E-01
 -1      1863 2.00000E-01 4.95700E-01 4.00000E-01
 -1      1865 2.00000E-01 5.04300E-01 4.00000E-01
 -1      1866 3.00000E-01 4.95700E-01 4.00000E-01
 -1      1868 3.00000E-01 5.04300E-01 4.00000E-01
 -1      1869 4.00000E-01 4.95700E-01 4.00000E-01
 -1      1871 4.00000E-01 5.04300E-01 4.00000E-01
 -1      1872 5.00000E-01 4.95700E-01 4.00000E-01
 -1      1874 5.00000E-01 5.04300E-01 4.00000E-01
 -1      1875 6.00000E-01 4.95700E-01 4.00000E-01
 -1      1877 6.00000E-01 5.04300E-01 4.00000E-01
 -1      1878 7.00000E-01 4.95700E-01 4.00000E-01
 -1      1880 7.00000E-01 5.04300E-01 4.00000E-01
 -1      1881 8.00000E-01 4.95700E-01 4.00000E-01
 -1      1883 8.00000E-01 5.04300E-01 4.00000E-01
 -1      1884 9.00000E-01 4.95700E-01 4.00000E-01
 -1      1886 9.00000E-01 5.04300E-01 4.00000E-01
 -1      1887 1.00000E+00 4.95700E-01 4.00000E-01
 -1      1889 1.00000E+00 5.04300E-01 4.00000E-01
 -1      1890 1.10000E+00 4.95700E-01 4.00000E-01
 -1      1892 1.10000E+00 5.04300E-01 4.00000E-01
 -1      1893 1.20000E+00 4.95700E-01 4.00000E-01
 -1      1895 1.20000E+00 5.04300E-01 4.00000E-01
 -1      1896 1.30000E+00 4.95700E-01 4.00000E-01
 -1      1898 1.30000E+00 5.04300E-01 4.00000E-01
 -1      1899 1.40000E+00 4.95700E-01 4.00000E-01
 -1      1901 1.40000E+00 5.04300E-01 4.00000E-01
 -1      1902 1.50000E+00 4.95700E-01 4.00000E-01
 -1      1904 1.50000E+00 5.04300E-01 4.00000E-01
 -1      1905 1.60000E+00 4.95700E-01 4.00000E-01
 -1      1907 1.60000E+00 5.04300E-01 4.00000E-01
 -1      1908 1.70000E+00 4.95700E-01 4.00000E-01
 -1      1910 1.70000E+00 5.04300E-01 4.00000E-01
 -1      1911 1.80000E+00 4.95700E-01 4.00000E-01
 -1      1913 1.80000E+00 5.04300E-01 4.00000E-01
 -1      1914 1.90000E+00 4.95700E-01 4.00000E-01
 -1      1916 1.90000E+00 5.04300E-01 4.00000E-01
 -1      1917 2.00000E+00 4.95700E-01 4.00000E-01
 -1      1919 2.00000E+00 5.04300E-01 4.00000E-01
 -1      1920 2.10000E+00 4.95700E-01 4.00000E-01
 -1      1922 2.10000E+00 5.04300E-01 4.00000E-01
 -1      1923 2.20000E+00 4.95700E-01 4.00000E-01
 -1      1925 2.20000E+00 5.04300E-01 4.00000E-01
 -1      1926 2.30000E+00 4.95700E-01 4.00000E-01
 -1      1928 2.30000E+00 5.04300E-01 4.00000E-01
 -1      1929 2.40000E+00 4.95700E-01 4.00000E-01
 -1      1931 2.40000E+00 5.04300E-01 4.00000E-01
 -1      1932 2.50000E+00 4.95700E-01 4.00000E-01
 -1      1934 2.50000E+00 5.04300E-01 4.00000E-01
 -1      1935 2.60000E+00 4.95700E-01 4.00000E-01
 -1      1937 2.60000E+00 5.04300E-01 4.00000E-01
 -1      1938 2.70000E+00 4.95700E-01 4.00000E-01
 -1      1940 2.70000E+00 5.04300E-01 4.00000E-01
 -1      1941 2.80000E+00 4.95700E-01 4.00000E-01
 -1      1943 2.80000E+00 5.04300E-01 4.00000E-01
 -1      1944 2.90000E+00 4.95700E-01 4.00000E-01
 -1      1946 2.90000E+00 5.04300E-01 4.00000E-01
 -1      1947 1.00000E-01 4.95700E-01 5.00000E-01
 -1      1949 1.00000E-01 5.04300E-01 5.00000E-01
 -1      1950 2.00000E-01 4.95700E-01 5.00000E-01
 -1      1952 2.00000E-01 5.04300E-01 5.00000E-01
 -1      1953 3.00000E-01 4.95700E-01 5.00000E-01
 -1      1955 3.00000E-01 5.04300E-01 5.00000E-01
 -1      1956 4.00000E-01 4.95700E-01 5.00000E-01
 -1      1958 4.00000E-01 5.04300E-01 5.00000E-01
 -1      1959 5.00000E-01 4.95700E-01 5.00000E-01
 -1      1961 5.00000E-01 5.04300E-01 5.00000E-01
 -1      1962 6.00000E-01 4.95700E-01 5.00000E-01
 -1      1964 6.00000E-01 5.04300E-01 5.00000E-01
 -1      1965 7.00000E-01 4.95700E-01 5.00000E-01
 -1      1967 7.00000E-01 5.04300E-01 5.00000E-01
 -1      1968 8.00000E-01 4.95700E-01 5.00000E-01
 -1      1970 8.00000E-01 5.04300E-01 5.00000E-01
 -1      1971 9.00000E-01 4.95700E-01 5.00000E-01
 -1      1973 9.00000E-01 5.04300E-01 5.00000E-01
 -1      1974 1.00000E+00 4.95700E-01 5.00000E-01
 -1      1976 1.00000E+00 5.04300E-01 5.00000E-01
 -1      1977 1.10000E+00 4.95700E-01 5.00000E-01
 -1      1979 1.10000E+00 5.04300E-01 5.00000E-01
 -1      1980 1.20000E+00 4.95700E-01 5.00000E-01
 -1      1982 1.20000E+00 5.04300E-01 5.00000E-01
 -1      1983 1.30000E+00 4.95700E-01 5.00000E-01
 -1      1985 1.30000E+00 5.04300E-01 5.00000E-01
 -1      1986 1.40000E+00 4.95700E-01 5.00000E-01
 -1      1988 1.40000E+00 5.04300E-01 5.00000E-01
 -1      1989 1.50000E+00 4.95700E-01 5.00000E-01
 -1      1991 1.50000E+00 5.04300E-01 5.00000E-01
 -1      1992 1.60000E+00 4.95700E-01 5.00000E-01
 -1      1994 1.60000E+00 5.04300E-01 5.00000E-01
 -1      1995 1.70000E+00 4.95700E-01 5.00000E-01
 -1      1997 1.70000E+00 5.04300E-01 5.00000E-01
 -1      1998 1.80000E+00 4.95700E-01 5.00000E-01
 -1      2000 1.80000E+00 5.04300E-01 5.00000E-01
 -1      2001 1.90000E+00 4.95700E-01 5.00000E-01
 -1      2003 1.90000E+00 5.04300E-01 5.00000E-01
 -1      2004 2.00000E+00 4.95700E-01 5.00000E-01
 -1      2006 2.00000E+00 5.04300E-01 5.00000E-01
 -1      2007 2.10000E+00 4.95700E-01 5.00000E-01
 -1      2009 2.10000E+00 5.04300E-01 5.00000E-01
 -1      2010 2.20000E+00 4.95700E-01 5.00000E-01
 -1      2012 2.20000E+00 5.04300E-01 5.00000E-01
 -1      2013 2.30000E+00 4.95700E-01 5.00000E-01
 -1      2015 2.30000E+00 5.04300E-01 5.00000E-01
 -1      2016 2.40000E+00 4.95700E-01 5.00000E-01
 -1      2018 2.40000E+00 5.04300E-01 5.00000E-01
 -1      2019 2.50000E+00 4.95700E-01 5.00000E-01
 -1      2021 2.50000E+00 5.04300E-01 5.00000E-01
 -1      2022 2.60000E+00 4.95700E-01 5.00000E-01
 -1      2024 2.60000E+00 5.04300E-01 5.00000E-01
 -1      2025 2.70000E+00 4.95700E-01 5.00000E-01
 -1      2027 2.70000E+00 5.04300E-01 5.00000E-01
 -1      2028 2.80000E+00 4.95700E-01 5.00000E-01
 -1      2030 2.80000E+00 5.04300E-01 5.00000E-01
 -1      2031 2.90000E+00 4.95700E-01 5.00000E-01
 -1      2033 2.90000E+00 5.04300E-01 5.00000E-01
 -1      2034 1.00000E-01 4.95700E-01 6.00000E-01
 -1      2036 1.00000E-01 5.04300E-01 6.00000E-01
 -1      2037 2.00000E-01 4.95700E-01 6.00000E-01
 -1      2039 2.00000E-01 5.04300E-01 6.00000E-01
 -1      2040 3.00000E-01 4.95700E-01 6.00000E-01
 -1      2042 3.00000E-01 5.04300E-01 6.00000E-01
 -1      2043 4.00000E-01 4.95700E-01 6.00000E-01
 -1      2045 4.00000E-01 5.04300E-01 6.00000E-01
 -1      2046 5.00000E-01 4.95700E-01 6.00000E-01
 -1      2048 5.00000E-01 5.04300E-01 6.00000E-01
 -1      2049 6.00000E-01 4.95700E-01 6.00000E-01
 -1      2051 6.00000E-01 5.04300E-01 6.00000E-01
 -1      2052 7.00000E-01 4.95700E-01 6.00000E-01
 -1      2054 7.00000E-01 5.04300E-01 6.00000E-01
 -1      2055 8.00000E-01 4.95700E-01 6.00000E-01
 -1      2057 8.00000E-01 5.04300E-01 6.00000E-01
 -1      2058 9.00000E-01 4.95700E-01 6.00000E-01
 -1      2060 9.00000E-01 5.04300E-01 6.00000E-01
 -1      2061 1.00000E+00 4.95700E-01 6.00000E-01
 -1      2063 1.00000E+00 5.04300E-01 6.00000E-01
 -1      2064 1.10000E+00 4.95700E-01 6.00000E-01
 -1      2066 1.10000E+00 5.04300E-01 6.00000E-01
 -1      2067 1.20000E+00 4.95700E-01 6.00000E-01
 -1      2069 1.20000E+00 5.04300E-01 6.00000E-01
 -1      2070 1.30000E+00 4.95700E-01 6.00000E-01
 -1      2072 1.30000E+00 5.04300E-01 6.00000E-01
 -1      2073 1.40000E+00 4.95700E-01 6.00000E-01
 -1      2075 1.40000E+00 5.04300E-01 6.00000E-01
 -1      2076 1.50000E+00 4.95700E-01 6.00000E-01
 -1      2078 1.50000E+00 5.04300E-01 6.00000E-01
 -1      2079 1.60000E+00 4.95700E-01 6.00000E-01
 -1      2081 1.60000E+00 5.04300E-01 6.00000E-01
 -1      2082 1.70000E+00 4.95700E-01 6.00000E-01
 -1      2084 1.70000E+00 5.04300E-01 6.00000E-01
 -1      2085 1.80000E+00 4.95700E-01 6.00000E-01
 -1      2087 1.80000E+00 5.04300E-01 6.00000E-01
 -1      2088 1.90000E+00 4.95700E-01 6.00000E-01
 -1      2090 1.90000E+00 5.04300E-01 6.00000E-01
 -1      2091 2.00000E+00 4.95700E-01 6.00000E-01
 -1      2093 2.00000E+00 5.04300E-01 6.00000E-01
 -1      2094 2.10000E+00 4.95700E-01 6.00000E-01
 -1      2096 2.10000E+00 5.04300E-01 6.00000E-01
 -1      2097 2.20000E+00 4.95700E-01 6.00000E-01
 -1      2099 2.20000E+00 5.04300E-01 6.00000E-01
 -1      2100 2.30000E+00 4.95700E-01 6.00000E-01
 -1      2102 2.30000E+00 5.04300E-01 6.00000E-01
 -1      2103 2.40000E+00 4.95700E-01 6.00000E-01
 -1      2105 2.40000E+00 5.04300E-01 6.00000E-01
 -1      2106 2.50000E+00 4.95700E-01 6.00000E-01
 -1      2108 2.50000E+00 5.04300E-01 6.00000E-01
 -1      2109 2.60000E+00 4.95700E-01 6.00000E-01
 -1      2111 2.60000E+00 5.04300E-01 6.00000E-01
 -1      2112 2.70000E+00 4.95700E-01 6.00000E-01
 -1      2114 2.70000E+00 5.04300E-01 6.00000E-01
 -1      2115 2.80000E+00 4.95700E-01 6.00000E-01
 -1      2117 2.80000E+00 5.04300E-01 6.00000E-01
 -1      2118 2.90000E+00 4.95700E-01 6.00000E-01
 -1      2120 2.90000E+00 5.04300E-01 6.00000E-01
 -1      2121 1.00000E-01 4.55000E-01 7.06750E-01
 -1      2123 1.00000E-01 4.55000E-01 6.93250E-01
 -1      2124 2.00000E-01 4.55000E-01 7.06750E-01
 -1      2126 2.00000E-01 4.55000E-01 6.93250E-01
 -1      2127 3.00000E-01 4.55000E-01 7.06750E-01
 -1      2129 3.00000E-01 4.55000E-01 6.93250E-01
 -1      2130 4.00000E-01 4.55000E-01 7.06750E-01
 -1      2132 4.00000E-01 4.55000E-01 6.93250E-01
 -1      2133 5.00000E-01 4.55000E-01 7.06750E-01
 -1      2135 5.00000E-01 4.55000E-01 6.93250E-01
 -1      2136 6.00000E-01 4.55000E-01 7.06750E-01
 -1      2138 6.00000E-01 4.55000E-01 6.93250E-01
 -1      2139 7.00000E-01 4.55000E-01 7.06750E-01
 -1      2141 7.00000E-01 4.55000E-01 6.93250E-01
 -1      2142 8.00000E-01 4.55000E-01 7.06750E-01
 -1      2144 8.00000E-01 4.55000E-01 6.93250E-01
 -1      2145 9.00000E-01 4.55000E-01 7.06750E-01
 -1      2147 9.00000E-01 4.55000E-01 6.93250E-01
 -1      2148 1.00000E+00 4.55000E-01 7.06750E-01
 -1      2150 1.00000E+00 4.55000E-01 6.93250E-01
 -1      2151 1.10000E+00 4.55000E-01 7.06750E-01
 -1      2153 1.10000E+00 4.55000E-01 6.93250E-01
 -1      2154 1.20000E+00 4.55000E-01 7.06750E-01
 -1      2156 1.20000E+00 4.55000E-01 6.93250E-01
 -1      2157 1.30000E+00 4.55000E-01 7.06750E-01
 -1      2159 1.30000E+00 4.55000E-01 6.93250E-01
 -1      2160 1.40000E+00 4.55000E-01 7.06750E-01
 -1      2162 1.40000E+00 4.55000E-01 6.93250E-01
 -1      2163 1.50000E+00 4.55000E-01 7.06750E-01
 -1      2165 1.50000E+00 4.55000E-01 6.93250E-01
 -1      2166 1.60000E+00 4.55000E-01 7.06750E-01
 -1      2168 1.60000E+00 4.55000E-01 6.93250E-01
 -1      2169 1.70000E+00 4.55000E-01 7.06750E-01
 -1      2171 1.70000E+00 4.55000E-01 6.93250E-01
 -1      2172 1.80000E+00 4.55000E-01 7.06750E-01
 -1      2174 1.80000E+00 4.55000E-01 6.93250E-01
 -1      2175 1.90000E+00 4.55000E-01 7.06750E-01
 -1      2177 1.90000E+00 4.55000E-01 6.93250E-01
 -1      2178 2.00000E+00 4.55000E-01 7.06750E-01
 -1      2180 2.00000E+00 4.55000E-01 6.93250E-01
 -1      2181 2.10000E+00 4.55000E-01 7.06750E-01
 -1      2183 2.10000E+00 4.55000E-01 6.93250E-01
 -1      2184 2.20000E+00 4.55000E-01 7.06750E-01
 -1      2186 2.20000E+00 4.55000E-01 6.93250E-01
 -1      2187 2.30000E+00 4.55000E-01 7.06750E-01
 -1      2189 2.30000E+00 4.55000E-01 6.93250E-01
 -1      2190 2.40000E+00 4.55000E-01 7.06750E-01
 -1      2192 2.40000E+00 4.55000E-01 6.93250E-01
 -1      2193 2.50000E+00 4.55000E-01 7.06750E-01
 -1      2195 2.50000E+00 4.55000E-01 6.93250E-01
 -1      2196 2.60000E+00 4.55000E-01 7.06750E-01
 -1      2198 2.60000E+00 4.55000E-01 6.93250E-01
 -1      2199 2.70000E+00 4.55000E-01 7.06750E-01
 -1      2201 2.70000E+00 4.55000E-01 6.93250E-01
 -1      2202 2.80000E+00 4.55000E-01 7.06750E-01
 -1      2204 2.80000E+00 4.55000E-01 6.93250E-01
 -1      2205 2.90000E+00 4.55000E-01 7.06750E-01
 -1      2207 2.90000E+00 4.55000E-01 6.93250E-01
 -1      2208 1.00000E-01 5.45000E-01 7.06750E-01
 -1      2210 1.00000E-01 5.45000E-01 6.93250E-01
 -1      2211 2.00000E-01 5.45000E-01 7.06750E-01
 -1      2213 2.00000E-01 5.45000E-01 6.93250E-01
 -1      2214 3.00000E-01 5.45000E-01 7.06750E-01
 -1      2216 3.00000E-01 5.45000E-01 6.93250E-01
 -1      2217 4.00000E-01 5.45000E-01 7.06750E-01
 -1      2219 4.00000E-01 5.45000E-01 6.93250E-01
 -1      2220 5.00000E-01 5.45000E-01 7.06750E-01
 -1      2222 5.00000E-01 5.45000E-01 6.93250E-01
 -1      2223 6.00000E-01 5.45000E-01 7.06750E-01
 -1      2225 6.00000E-01 5.45000E-01 6.93250E-01
 -1      2226 7.00000E-01 5.45000E-01 7.06750E-01
 -1      2228 7.00000E-01 5.45000E-01 6.93250E-01
 -1      2229 8.00000E-01 5.45000E-01 7.06750E-01
 -1      2231 8.00000E-01 5.45000E-01 6.93250E-01
 -1      2232 9.00000E-01 5.45000E-01 7.06750E-01
 -1      2234 9.00000E-01 5.45000E-01 6.93250E-01
 -1      2235 1.00000E+00 5.45000E-01 7.06750E-01
 -1      2237 1.00000E+00 5.45000E-01 6.93250E-01
 -1      2238 1.10000E+00 5.45000E-01 7.06750E-01
 -1      2240 1.10000E+00 5.45000E-01 6.93250E-01
 -1      2241 1.20000E+00 5.45000E-01 7.06750E-01
 -1      2243 1.20000E+00 5.45000E-01 6.93250E-01
 -1      2244 1.30000E+00 5.45000E-01 7.06750E-01
 -1      2246 1.30000E+00 5.45000E-01 6.93250E-01
 -1      2247 1.40000E+00 5.45000E-01 7.06750E-01
 -1      2249 1.40000E+00 5.45000E-01 6.93250E-01
 -1      2250 1.50000E+00 5.45000E-01 7.06750E-01
 -1      2252 1.50000E+00 5.45000E-01 6.93250E-01
 -1      2253 1.60000E+00 5.45000E-01 7.06750E-01
 -1      2255 1.60000E+00 5.45000E-01 6.93250E-01
 -1      2256 1.70000E+00 5.45000E-01 7.06750E-01
 -1      2258 1.70000E+00 5.45000E-01 6.93250E-01
 -1      2259 1.80000E+00 5.45000E-01 7.06750E-01
 -1      2261 1.80000E+00 5.45000E-01 6.93250E-01
 -1      2262 1.90000E+00 5.45000E-01 7.06750E-01
 -1      2264 1.90000E+00 5.45000E-01 6.93250E-01
 -1      2265 2.00000E+00 5.45000E-01 7.06750E-01
 -1      2267 2.00000E+00 5.45000E-01 6.93250E-01
 -1      2268 2.10000E+00 5.45000E-01 7.06750E-01
 -1      2270 2.10000E+00 5.45000E-01 6.93250E-01
 -1      2271 2.20000E+00 5.45000E-01 7.06750E-01
 -1      2273 2.20000E+00 5.45000E-01 6.93250E-01
 -1      2274 2.30000E+00 5.45000E-01 7.06750E-01
 -1      2276 2.30000E+00 5.45000E-01 6.93250E-01
 -1      2277 2.40000E+00 5.45000E-01 7.06750E-01
 -1      2279 2.40000E+00 5.45000E-01 6.93250E-01
 -1      2280 2.50000E+00 5.45000E-01 7.06750E-01
 -1      2282 2.50000E+00 5.45000E-01 6.93250E-01
 -1      2283 2.60000E+00 5.45000E-01 7.06750E-01
 -1      2285 2.60000E+00 5.45000E-01 6.93250E-01
 -1      2286 2.70000E+00 5.45000E-01 7.06750E-01
 -1      2288 2.70000E+00 5.45000E-01 6.93250E-01
 -1      2289 2.80000E+00 5.45000E-01 7.06750E-01
 -1      2291 2.80000E+00 5.45000E-01 6.93250E-01
 -1      2292 2.90000E+00 5.45000E-01 7.06750E-01
 -1      2294 2.90000E+00 5.45000E-01 6.93250E-01
 -3
    3C                           360                                     1
 -1         1    1    0    1
 -2       404       980      1686       484       406       982      1688       486
 -1         2    1    0    1
 -2       980       424       574      1686       982       426       576      1688
 -1         3    1    0    1
 -2       484      1686      1689       487       486      1688      1691       489
 -1         4    1    0    1
 -2      1686       574       588      1689      1688       576       590      1691
 -1         5    1    0    1
 -2       487      1689      1692       490       489      1691      1694       492
 -1         6    1    0    1
 -2      1689       588       602      1692      1691       590       604      1694
 -1         7    1    0    1
 -2       490      1692      1695       493       492      1694      1697       495
 -1         8    1    0    1
 -2      1692       602       616      1695      1694       604       618      1697
 -1         9    1    0    1
 -2       493      1695      1698       496       495      1697      1700       498
 -1        10    1    0    1
 -2      1695       616       630      1698      1697       618       632      1700
 -1        11    1    0    1
 -2       496      1698      1701       499       498      1700      1703       501
 -1        12    1    0    1
 -2      1698       630       644      1701      1700       632       646      1703
 -1        13    1    0    1
 -2       499      1701      1704       502       501      1703      1706       504
 -1        14    1    0    1
 -2      1701       644       658      1704      1703       646       660      1706
 -1        15    1    0    1
 -2       502      1704      1707       505       504      1706      1709       507
 -1        16    1    0    1
 -2      1704       658       672      1707      1706       660       674      1709
 -1        17    1    0    1
 -2       505      1707      1710       508       507      1709      1712       510
 -1        18    1    0    1
 -2      1707       672       686      1710      1709       674       688      1712
 -1        19    1    0    1
 -2       508      1710      1713       511       510      1712      1715       513
 -1        20    1    0    1
 -2      1710       686       700      1713      1712       688       702      1715
 -1        21    1    0    1
 -2       511      1713      1716       514       513      1715      1718       516
 -1        22    1    0    1
 -2      1713       700       714      1716      1715       702       716      1718
 -1        23    1    0    1
 -2       514      1716      1719       517       516      1718      1721       519
 -1        24    1    0    1
 -2      1716       714       728      1719      1718       716       730      1721
 -1        25    1    0    1
 -2       517      1719      1722       520       519      1721      1724       522
 -1        26    1    0    1
 -2      1719       728       742      1722      1721       730       744      1724
 -1        27    1    0    1
 -2       520      1722      1725       523       522      1724      1727       525
 -1        28    1    0    1
 -2      1722       742       756      1725      1724       744       758      1727
 -1        29    1    0    1
 -2       523      1725      1728       526       525      1727      1730       528
 -1        30    1    0    1
 -2      1725       756       770      1728      1727       758       772      1730
 -1        31    1    0    1
 -2       526      1728      1731       529       528      1730      1733       531
 -1        32    1    0    1
 -2      1728       770       784      1731      1730       772       786      1733
 -1        33    1    0    1
 -2       529      1731      1734       532       531      1733      1736       534
 -1        34    1    0    1
 -2      1731       784       798      1734      1733       786       800      1736
 -1        35    1    0    1
 -2       532      1734      1737       535       534      1736      1739       537
 -1        36    1    0    1
 -2      1734       798       812      1737      1736       800       814      1739
 -1        37    1    0    1
 -2       535      1737      1740       538       537      1739      1742       540
 -1        38    1    0    1
 -2      1737       812       826      1740      1739       814       828      1742
 -1        39    1    0    1
 -2       538      1740      1743       541       540      1742      1745       543
 -1        40    1    0    1
 -2      1740       826       840      1743      1742       828       842      1745
 -1        41    1    0    1
 -2       541      1743      1746       544       543      1745      1748       546
 -1        42    1    0    1
 -2      1743       840       854      1746      1745       842       856      1748
 -1        43    1    0    1
 -2       544      1746      1749       547       546      1748      1751       549
 -1        44    1    0    1
 -2      1746       854       868      1749      1748       856       870      1751
 -1        45    1    0    1
 -2       547      1749      1752       550       549      1751      1754       552
 -1        46    1    0    1
 -2      1749       868       882      1752      1751       870       884      1754
 -1        47    1    0    1
 -2       550      1752      1755       553       552      1754      1757       555
 -1        48    1    0    1
 -2      1752       882       896      1755      1754       884       898      1757
 -1        49    1    0    1
 -2       553      1755      1758       556       555      1757      1760       558
 -1        50    1    0    1
 -2      1755       896       910      1758      1757       898       912      1760
 -1        51    1    0    1
 -2       556      1758      1761       559       558      1760      1763       561
 -1        52    1    0    1
 -2      1758       910       924      1761      1760       912       926      1763
 -1        53    1    0    1
 -2       559      1761      1764       562       561      1763      1766       564
 -1        54    1    0    1
 -2      1761       924       938      1764      1763       926       940      1766
 -1        55    1    0    1
 -2       562      1764      1767       565       564      1766      1769       567
 -1        56    1    0    1
 -2      1764       938       952      1767      1766       940       954      1769
 -1        57    1    0    1
 -2       565      1767      1770       568       567      1769      1772       570
 -1        58    1    0    1
 -2      1767       952       966      1770      1769       954       968      1772
 -1        59    1    0    1
 -2       568      1770       571       407       570      1772       573       409
 -1        60    1    0    1
 -2      1770       966       410       571      1772       968       412       573
 -1        61    1    0    1
 -2       424      1073      1773       574       426      1075      1775       576
 -1        62    1    0    1
 -2      1073       441       986      1773      1075       443       988      1775
 -1        63    1    0    1
 -2       574      1773      1776       588       576      1775      1778       590
 -1        64    1    0    1
 -2      1773       986       989      1776      1775       988       991      1778
 -1        65    1    0    1
 -2       588      1776      1779       602       590      1778      1781       604
 -1        66    1    0    1
 -2      1776       989       992      1779      1778       991       994      1781
 -1        67    1    0    1
 -2       602      1779      1782       616       604      1781      1784       618
 -1        68    1    0    1
 -2      1779       992       995      1782      1781       994       997      1784
 -1        69    1    0    1
 -2       616      1782      1785       630       618      1784      1787       632
 -1        70    1    0    1
 -2      1782       995       998      1785      1784       997      1000      1787
 -1        71    1    0    1
 -2       630      1785      1788       644       632      1787      1790       646
 -1        72    1    0    1
 -2      1785       998      1001      1788      1787      1000      1003      1790
 -1        73    1    0    1
 -2       644      1788      1791       658       646      1790      1793       660
 -1        74    1    0    1
 -2      1788      1001      1004      1791      1790      1003      1006      1793
 -1        75    1    0    1
 -2       658      1791      1794       672       660      1793      1796       674
 -1        76    1    0    1
 -2      1791      1004      1007      1794      1793      1006      1009      1796
 -1        77    1    0    1
 -2       672      1794      1797       686       674      1796      1799       688
 -1        78    1    0    1
 -2      1794      1007      1010      1797      1796      1009      1012      1799
 -1        79    1    0    1
 -2       686      1797      1800       700       688      1799      1802       702
 -1        80    1    0    1
 -2      1797      1010      1013      1800      1799      1012      1015      1802
 -1        81    1    0    1
 -2       700      1800      1803       714       702      1802      1805       716
 -1        82    1    0    1
 -2      1800      1013      1016      1803      1802      1015      1018      1805
 -1        83    1    0    1
 -2       714      1803      1806       728       716      1805      1808       730
 -1        84    1    0    1
 -2      1803      1016      1019      1806      1805      1018      1021      1808
 -1        85    1    0    1
 -2       728      1806      1809       742       730      1808      1811       744
 -1        86    1    0    1
 -2      1806      1019      1022      1809      1808      1021      1024      1811
 -1        87    1    0    1
 -2       742      1809      1812       756       744      1811      1814       758
 -1        88    1    0    1
 -2      1809      1022      1025      1812      1811      1024      1027      1814
 -1        89    1    0    1
 -2       756      1812      1815       770       758      1814      1817       772
 -1        90    1    0    1
 -2      1812      1025      1028      1815      1814      1027      1030      1817
 -1        91    1    0    1
 -2       770      1815      1818       784       772      1817      1820       786
 -1        92    1    0    1
 -2      1815      1028      1031      1818      1817      1030      1033      1820
 -1        93    1    0    1
 -2       784      1818      1821       798       786      1820      1823       800
 -1        94    1    0    1
 -2      1818      1031      1034      1821      1820      1033      1036      1823
 -1        95    1    0    1
 -2       798      1821      1824       812       800      1823      1826       814
 -1        96    1    0    1
 -2      1821      1034      1037      1824      1823      1036      1039      1826
 -1        97    1    0    1
 -2       812      1824      1827       826       814      1826      1829       828
 -1        98    1    0    1
 -2      1824      1037      1040      1827      1826      1039      1042      1829
 -1        99    1    0    1
 -2       826      1827      1830       840       828      1829      1832       842
 -1       100    1    0    1
 -2      1827      1040      1043      1830      1829      1042      1045      1832
 -1       101    1    0    1
 -2       840      1830      1833       854       842      1832      1835       856
 -1       102    1    0    1
 -2      1830      1043      1046      1833      1832      1045      1048      1835
 -1       103    1    0    1
 -2       854      1833      1836       868       856      1835      1838       870
 -1       104    1    0    1
 -2      1833      1046      1049      1836      1835      1048      1051      1838
 -1       105    1    0    1
 -2       868      1836      1839       882       870      1838      1841       884
 -1       106    1    0    1
 -2      1836      1049      1052      1839      1838      1051      1054      1841
 -1       107    1    0    1
 -2       882      1839      1842       896       884      1841      1844       898
 -1       108    1    0    1
 -2      1839      1052      1055      1842      1841      1054      1057      1844
 -1       109    1    0    1
 -2       896      1842      1845       910       898      1844      1847       912
 -1       110    1    0    1
 -2      1842      1055      1058      1845      1844      1057      1060      1847
 -1       111    1    0    1
 -2       910      1845      1848       924       912      1847      1850       926
 -1       112    1    0    1
 -2      1845      1058      1061      1848      1847      1060      1063      1850
 -1       113    1    0    1
 -2       924      1848      1851       938       926      1850      1853       940
 -1       114    1    0    1
 -2      1848      1061      1064      1851      1850      1063      1066      1853
 -1       115    1    0    1
 -2       938      1851      1854       952       940      1853      1856       954
 -1       116    1    0    1
 -2      1851      1064      1067      1854      1853      1066      1069      1856
 -1       117    1    0    1
 -2       952      1854      1857       966       954      1856      1859       968
 -1       118    1    0    1
 -2      1854      1067      1070      1857      1856      1069      1072      1859
 -1       119    1    0    1
 -2       966      1857       983       410       968      1859       985       412
 -1       120    1    0    1
 -2      1857      1070       438       983      1859      1072       440       985
 -1       121    1    0    1
 -2       427      1076      1860       577       429      1078      1862       579
 -1       122    1    0    1
 -2       577      1860      1863       591       579      1862      1865       593
 -1       123    1    0    1
 -2       591      1863      1866       605       593      1865      1868       607
 -1       124    1    0    1
 -2       605      1866      1869       619       607      1868      1871       621
 -1       125    1    0    1
 -2       619      1869      1872       633       621      1871      1874       635
 -1       126    1    0    1
 -2       633      1872      1875       647       635      1874      1877       649
 -1       127    1    0    1
 -2       647      1875      1878       661       649      1877      1880       663
 -1       128    1    0    1
 -2       661      1878      1881       675       663      1880      1883       677
 -1       129    1    0    1
 -2       675      1881      1884       689       677      1883      1886       691
 -1       130    1    0    1
 -2       689      1884      1887       703       691      1886      1889       705
 -1       131    1    0    1
 -2       703      1887      1890       717       705      1889      1892       719
 -1       132    1    0    1
 -2       717      1890      1893       731       719      1892      1895       733
 -1       133    1    0    1
 -2       731      1893      1896       745       733      1895      1898       747
 -1       134    1    0    1
 -2       745      1896      1899       759       747      1898      1901       761
 -1       135    1    0    1
 -2       759      1899      1902       773       761      1901      1904       775
 -1       136    1    0    1
 -2       773      1902      1905       787       775      1904      1907       789
 -1       137    1    0    1
 -2       787      1905      1908       801       789      1907      1910       803
 -1       138    1    0    1
 -2       801      1908      1911       815       803      1910      1913       817
 -1       139    1    0    1
 -2       815      1911      1914       829       817      1913      1916       831
 -1       140    1    0    1
 -2       829      1914      1917       843       831      1916      1919       845
 -1       141    1    0    1
 -2       843      1917      1920       857       845      1919      1922       859
 -1       142    1    0    1
 -2       857      1920      1923       871       859      1922      1925       873
 -1       143    1    0    1
 -2       871      1923      1926       885       873      1925      1928       887
 -1       144    1    0    1
 -2       885      1926      1929       899       887      1928      1931       901
 -1       145    1    0    1
 -2       899      1929      1932       913       901      1931      1934       915
 -1       146    1    0    1
 -2       913      1932      1935       927       915      1934      1937       929
 -1       147    1    0    1
 -2       927      1935      1938       941       929      1937      1940       943
 -1       148    1    0    1
 -2       941      1938      1941       955       943      1940      1943       957
 -1       149    1    0    1
 -2       955      1941      1944       969       957      1943      1946       971
 -1       150    1    0    1
 -2       969      1944      1491       413       971      1946      1493       415
 -1       151    1    0    1
 -2      1076      1079      1947      1860      1078      1081      1949      1862
 -1       152    1    0    1
 -2      1860      1947      1950      1863      1862      1949      1952      1865
 -1       153    1    0    1
 -2      1863      1950      1953      1866      1865      1952      1955      1868
 -1       154    1    0    1
 -2      1866      1953      1956      1869      1868      1955      1958      1871
 -1       155    1    0    1
 -2      1869      1956      1959      1872      1871      1958      1961      1874
 -1       156    1    0    1
 -2      1872      1959      1962      1875      1874      1961      1964      1877
 -1       157    1    0    1
 -2      1875      1962      1965      1878      1877      1964      1967      1880
 -1       158    1    0    1
 -2      1878      1965      1968      1881      1880      1967      1970      1883
 -1       159    1    0    1
 -2      1881      1968      1971      1884      1883      1970      1973      1886
 -1       160    1    0    1
 -2      1884      1971      1974      1887      1886      1973      1976      1889
 -1       161    1    0    1
 -2      1887      1974      1977      1890      1889      1976      1979      1892
 -1       162    1    0    1
 -2      1890      1977      1980      1893      1892      1979      1982      1895
 -1       163    1    0    1
 -2      1893      1980      1983      1896      1895      1982      1985      1898
 -1       164    1    0    1
 -2      1896      1983      1986      1899      1898      1985      1988      1901
 -1       165    1    0    1
 -2      1899      1986      1989      1902      1901      1988      1991      1904
 -1       166    1    0    1
 -2      1902      1989      1992      1905      1904      1991      1994      1907
 -1       167    1    0    1
 -2      1905      1992      1995      1908      1907      1994      1997      1910
 -1       168    1    0    1
 -2      1908      1995      1998      1911      1910      1997      2000      1913
 -1       169    1    0    1
 -2      1911      1998      2001      1914      1913      2000      2003      1916
 -1       170    1    0    1
 -2      1914      2001      2004      1917      1916      2003      2006      1919
 -1       171    1    0    1
 -2      1917      2004      2007      1920      1919      2006      2009      1922
 -1       172    1    0    1
 -2      1920      2007      2010      1923      1922      2009      2012      1925
 -1       173    1    0    1
 -2      1923      2010      2013      1926      1925      2012      2015      1928
 -1       174    1    0    1
 -2      1926      2013      2016      1929      1928      2015      2018      1931
 -1       175    1    0    1
 -2      1929      2016      2019      1932      1931      2018      2021      1934
 -1       176    1    0    1
 -2      1932      2019      2022      1935      1934      2021      2024      1937
 -1       177    1    0    1
 -2      1935      2022      2025      1938      1937      2024      2027      1940
 -1       178    1    0    1
 -2      1938      2025      2028      1941      1940      2027      2030      1943
 -1       179    1    0    1
 -2      1941      2028      2031      1944      1943      2030      2033      1946
 -1       180    1    0    1
 -2      1944      2031      1494      1491      1946      2033      1496      1493
 -1       181    1    0    1
 -2      1079      1082      2034      1947      1081      1084      2036      1949
 -1       182    1    0    1
 -2      1947      2034      2037      1950      1949      2036      2039      1952
 -1       183    1    0    1
 -2      1950      2037      2040      1953      1952      2039      2042      1955
 -1       184    1    0    1
 -2      1953      2040      2043      1956      1955      2042      2045      1958
 -1       185    1    0    1
 -2      1956      2043      2046      1959      1958      2045      2048      1961
 -1       186    1    0    1
 -2      1959      2046      2049      1962      1961      2048      2051      1964
 -1       187    1    0    1
 -2      1962      2049      2052      1965      1964      2051      2054      1967
 -1       188    1    0    1
 -2      1965      2052      2055      1968      1967      2054      2057      1970
 -1       189    1    0    1
 -2      1968      2055      2058      1971      1970      2057      2060      1973
 -1       190    1    0    1
 -2      1971      2058      2061      1974      1973      2060      2063      1976
 -1       191    1    0    1
 -2      1974      2061      2064      1977      1976      2063      2066      1979
 -1       192    1    0    1
 -2      1977      2064      2067      1980      1979      2066      2069      1982
 -1       193    1    0    1
 -2      1980      2067      2070      1983      1982      2069      2072      1985
 -1       194    1    0    1
 -2      1983      2070      2073      1986      1985      2072      2075      1988
 -1       195    1    0    1
 -2      1986      2073      2076      1989      1988      2075      2078      1991
 -1       196    1    0    1
 -2      1989      2076      2079      1992      1991      2078      2081      1994
 -1       197    1    0    1
 -2      1992      2079      2082      1995      1994      2081      2084      1997
 -1       198    1    0    1
 -2      1995      2082      2085      1998      1997      2084      2087      2000
 -1       199    1    0    1
 -2      1998      2085      2088      2001      2000      2087      2090      2003
 -1       200    1    0    1
 -2      2001      2088      2091      2004      2003      2090      2093      2006
 -1       201    1    0    1
 -2      2004      2091      2094      2007      2006      2093      2096      2009
 -1       202    1    0    1
 -2      2007      2094      2097      2010      2009      2096      2099      2012
 -1       203    1    0    1
 -2      2010      2097      2100      2013      2012      2099      2102      2015
 -1       204    1    0    1
 -2      2013      2100      2103      2016      2015      2102      2105      2018
 -1       205    1    0    1
 -2      2016      2103      2106      2019      2018      2105      2108      2021
 -1       206    1    0    1
 -2      2019      2106      2109      2022      2021      2108      2111      2024
 -1       207    1    0    1
 -2      2022      2109      2112      2025      2024      2111      2114      2027
 -1       208    1    0    1
 -2      2025      2112      2115      2028      2027      2114      2117      2030
 -1       209    1    0    1
 -2      2028      2115      2118      2031      2030      2117      2120      2033
 -1       210    1    0    1
 -2      2031      2118      1497      1494      2033      2120      1499      1496
 -1       211    1    0    1
 -2      1082       444      1085      2034      1084       446      1087      2036
 -1       212    1    0    1
 -2      2034      1085      1099      2037      2036      1087      1101      2039
 -1       213    1    0    1
 -2      2037      1099      1113      2040      2039      1101      1115      2042
 -1       214    1    0    1
 -2      2040      1113      1127      2043      2042      1115      1129      2045
 -1       215    1    0    1
 -2      2043      1127      1141      2046      2045      1129      1143      2048
 -1       216    1    0    1
 -2      2046      1141      1155      2049      2048      1143      1157      2051
 -1       217    1    0    1
 -2      2049      1155      1169      2052      2051      1157      1171      2054
 -1       218    1    0    1
 -2      2052      1169      1183      2055      2054      1171      1185      2057
 -1       219    1    0    1
 -2      2055      1183      1197      2058      2057      1185      1199      2060
 -1       220    1    0    1
 -2      2058      1197      1211      2061      2060      1199      1213      2063
 -1       221    1    0    1
 -2      2061      1211      1225      2064      2063      1213      1227      2066
 -1       222    1    0    1
 -2      2064      1225      1239      2067      2066      1227      1241      2069
 -1       223    1    0    1
 -2      2067      1239      1253      2070      2069      1241      1255      2072
 -1       224    1    0    1
 -2      2070      1253      1267      2073      2072      1255      1269      2075
 -1       225    1    0    1
 -2      2073      1267      1281      2076      2075      1269      1283      2078
 -1       226    1    0    1
 -2      2076      1281      1295      2079      2078      1283      1297      2081
 -1       227    1    0    1
 -2      2079      1295      1309      2082      2081      1297      1311      2084
 -1       228    1    0    1
 -2      2082      1309      1323      2085      2084      1311      1325      2087
 -1       229    1    0    1
 -2      2085      1323      1337      2088      2087      1325      1339      2090
 -1       230    1    0    1
 -2      2088      1337      1351      2091      2090      1339      1353      2093
 -1       231    1    0    1
 -2      2091      1351      1365      2094      2093      1353      1367      2096
 -1       232    1    0    1
 -2      2094      1365      1379      2097      2096      1367      1381      2099
 -1       233    1    0    1
 -2      2097      1379      1393      2100      2099      1381      1395      2102
 -1       234    1    0    1
 -2      2100      1393      1407      2103      2102      1395      1409      2105
 -1       235    1    0    1
 -2      2103      1407      1421      2106      2105      1409      1423      2108
 -1       236    1    0    1
 -2      2106      1421      1435      2109      2108      1423      1437      2111
 -1       237    1    0    1
 -2      2109      1435      1449      2112      2111      1437      1451      2114
 -1       238    1    0    1
 -2      2112      1449      1463      2115      2114      1451      1465      2117
 -1       239    1    0    1
 -2      2115      1463      1477      2118      2117      1465      1479      2120
 -1       240    1    0    1
 -2      2118      1477       458      1497      2120      1479       460      1499
 -1       241    1    0    1
 -2       472      1590      2121      1500       474      1592      2123      1502
 -1       242    1    0    1
 -2      1590       447      1088      2121      1592       449      1090      2123
 -1       243    1    0    1
 -2      1500      2121      2124      1503      1502      2123      2126      1505
 -1       244    1    0    1
 -2      2121      1088      1102      2124      2123      1090      1104      2126
 -1       245    1    0    1
 -2      1503      2124      2127      1506      1505      2126      2129      1508
 -1       246    1    0    1
 -2      2124      1102      1116      2127      2126      1104      1118      2129
 -1       247    1    0    1
 -2      1506      2127      2130      1509      1508      2129      2132      1511
 -1       248    1    0    1
 -2      2127      1116      1130      2130      2129      1118      1132      2132
 -1       249    1    0    1
 -2      1509      2130      2133      1512      1511      2132      2135      1514
 -1       250    1    0    1
 -2      2130      1130      1144      2133      2132      1132      1146      2135
 -1       251    1    0    1
 -2      1512      2133      2136      1515      1514      2135      2138      1517
 -1       252    1    0    1
 -2      2133      1144      1158      2136      2135      1146      1160      2138
 -1       253    1    0    1
 -2      1515      2136      2139      1518      1517      2138      2141      1520
 -1       254    1    0    1
 -2      2136      1158      1172      2139      2138      1160      1174      2141
 -1       255    1    0    1
 -2      1518      2139      2142      1521      1520      2141      2144      1523
 -1       256    1    0    1
 -2      2139      1172      1186      2142      2141      1174      1188      2144
 -1       257    1    0    1
 -2      1521      2142      2145      1524      1523      2144      2147      1526
 -1       258    1    0    1
 -2      2142      1186      1200      2145      2144      1188      1202      2147
 -1       259    1    0    1
 -2      1524      2145      2148      1527      1526      2147      2150      1529
 -1       260    1    0    1
 -2      2145      1200      1214      2148      2147      1202      1216      2150
 -1       261    1    0    1
 -2      1527      2148      2151      1530      1529      2150      2153      1532
 -1       262    1    0    1
 -2      2148      1214      1228      2151      2150      1216      1230      2153
 -1       263    1    0    1
 -2      1530      2151      2154      1533      1532      2153      2156      1535
 -1       264    1    0    1
 -2      2151      1228      1242      2154      2153      1230      1244      2156
 -1       265    1    0    1
 -2      1533      2154      2157      1536      1535      2156      2159      1538
 -1       266    1    0    1
 -2      2154      1242      1256      2157      2156      1244      1258      2159
 -1       267    1    0    1
 -2      1536      2157      2160      1539      1538      2159      2162      1541
 -1       268    1    0    1
 -2      2157      1256      1270      2160      2159      1258      1272      2162
 -1       269    1    0    1
 -2      1539      2160      2163      1542      1541      2162      2165      1544
 -1       270    1    0    1
 -2      2160      1270      1284      2163      2162      1272      1286      2165
 -1       271    1    0    1
 -2      1542      2163      2166      1545      1544      2165      2168      1547
 -1       272    1    0    1
 -2      2163      1284      1298      2166      2165      1286      1300      2168
 -1       273    1    0    1
 -2      1545      2166      2169      1548      1547      2168      2171      1550
 -1       274    1    0    1
 -2      2166      1298      1312      2169      2168      1300      1314      2171
 -1       275    1    0    1
 -2      1548      2169      2172      1551      1550      2171      2174      1553
 -1       276    1    0    1
 -2      2169      1312      1326      2172      2171      1314      1328      2174
 -1       277    1    0    1
 -2      1551      2172      2175      1554      1553      2174      2177      1556
 -1       278    1    0    1
 -2      2172      1326      1340      2175      2174      1328      1342      2177
 -1       279    1    0    1
 -2      1554      2175      2178      1557      1556      2177      2180      1559
 -1       280    1    0    1
 -2      2175      1340      1354      2178      2177      1342      1356      2180
 -1       281    1    0    1
 -2      1557      2178      2181      1560      1559      2180      2183      1562
 -1       282    1    0    1
 -2      2178      1354      1368      2181      2180      1356      1370      2183
 -1       283    1    0    1
 -2      1560      2181      2184      1563      1562      2183      2186      1565
 -1       284    1    0    1
 -2      2181      1368      1382      2184      2183      1370      1384      2186
 -1       285    1    0    1
 -2      1563      2184      2187      1566      1565      2186      2189      1568
 -1       286    1    0    1
 -2      2184      1382      1396      2187      2186      1384      1398      2189
 -1       287    1    0    1
 -2      1566      2187      2190      1569      1568      2189      2192      1571
 -1       288    1    0    1
 -2      2187      1396      1410      2190      2189      1398      1412      2192
 -1       289    1    0    1
 -2      1569      2190      2193      1572      1571      2192      2195      1574
 -1       290    1    0    1
 -2      2190      1410      1424      2193      2192      1412      1426      2195
 -1       291    1    0    1
 -2      1572      2193      2196      1575      1574      2195      2198      1577
 -1       292    1    0    1
 -2      2193      1424      1438      2196      2195      1426      1440      2198
 -1       293    1    0    1
 -2      1575      2196      2199      1578      1577      2198      2201      1580
 -1       294    1    0    1
 -2      2196      1438      1452      2199      2198      1440      1454      2201
 -1       295    1    0    1
 -2      1578      2199      2202      1581      1580      2201      2204      1583
 -1       296    1    0    1
 -2      2199      1452      1466      2202      2201      1454      1468      2204
 -1       297    1    0    1
 -2      1581      2202      2205      1584      1583      2204      2207      1586
 -1       298    1    0    1
 -2      2202      1466      1480      2205      2204      1468      1482      2207
 -1       299    1    0    1
 -2      1584      2205      1587       475      1586      2207      1589       477
 -1       300    1    0    1
 -2      2205      1480       461      1587      2207      1482       463      1589
 -1       301    1    0    1
 -2       447      1683      2208      1088       449      1685      2210      1090
 -1       302    1    0    1
 -2      1683       481      1596      2208      1685       483      1598      2210
 -1       303    1    0    1
 -2      1088      2208      2211      1102      1090      2210      2213      1104
 -1       304    1    0    1
 -2      2208      1596      1599      2211      2210      1598      1601      2213
 -1       305    1    0    1
 -2      1102      2211      2214      1116      1104      2213      2216      1118
 -1       306    1    0    1
 -2      2211      1599      1602      2214      2213      1601      1604      2216
 -1       307    1    0    1
 -2      1116      2214      2217      1130      1118      2216      2219      1132
 -1       308    1    0    1
 -2      2214      1602      1605      2217      2216      1604      1607      2219
 -1       309    1    0    1
 -2      1130      2217      2220      1144      1132      2219      2222      1146
 -1       310    1    0    1
 -2      2217      1605      1608      2220      2219      1607      1610      2222
 -1       311    1    0    1
 -2      1144      2220      2223      1158      1146      2222      2225      1160
 -1       312    1    0    1
 -2      2220      1608      1611      2223      2222      1610      1613      2225
 -1       313    1    0    1
 -2      1158      2223      2226      1172      1160      2225      2228      1174
 -1       314    1    0    1
 -2      2223      1611      1614      2226      2225      1613      1616      2228
 -1       315    1    0    1
 -2      1172      2226      2229      1186      1174      2228      2231      1188
 -1       316    1    0    1
 -2      2226      1614      1617      2229      2228      1616      1619      2231
 -1       317    1    0    1
 -2      1186      2229      2232      1200      1188      2231      2234      1202
 -1       318    1    0    1
 -2      2229      1617      1620      2232      2231      1619      1622      2234
 -1       319    1    0    1
 -2      1200      2232      2235      1214      1202      2234      2237      1216
 -1       320    1    0    1
 -2      2232      1620      1623      2235      2234      1622      1625      2237
 -1       321    1    0    1
 -2      1214      2235      2238      1228      1216      2237      2240      1230
 -1       322    1    0    1
 -2      2235      1623      1626      2238      2237      1625      1628      2240
 -1       323    1    0    1
 -2      1228      2238      2241      1242      1230      2240      2243      1244
 -1       324    1    0    1
 -2      2238      1626      1629      2241      2240      1628      1631      2243
 -1       325    1    0    1
 -2      1242      2241      2244      1256      1244      2243      2246      1258
 -1       326    1    0    1
 -2      2241      1629      1632      2244      2243      1631      1634      2246
 -1       327    1    0    1
 -2      1256      2244      2247      1270      1258      2246      2249      1272
 -1       328    1    0    1
 -2      2244      1632      1635      2247      2246      1634      1637      2249
 -1       329    1    0    1
 -2      1270      2247      2250      1284      1272      2249      2252      1286
 -1       330    1    0    1
 -2      2247      1635      1638      2250      2249      1637      1640      2252
 -1       331    1    0    1
 -2      1284      2250      2253      1298      1286      2252      2255      1300
 -1       332    1    0    1
 -2      2250      1638      1641      2253      2252      1640      1643      2255
 -1       333    1    0    1
 -2      1298      2253      2256      1312      1300      2255      2258      1314
 -1       334    1    0    1
 -2      2253      1641      1644      2256      2255      1643      1646      2258
 -1       335    1    0    1
 -2      1312      2256      2259      1326      1314      2258      2261      1328
 -1       336    1    0    1
 -2      2256      1644      1647      2259      2258      1646      1649      2261
 -1       337    1    0    1
 -2      1326      2259      2262      1340      1328      2261      2264      1342
 -1       338    1    0    1
 -2      2259      1647      1650      2262      2261      1649      1652      2264
 -1       339    1    0    1
 -2      1340      2262      2265      1354      1342      2264      2267      1356
 -1       340    1    0    1
 -2      2262      1650      1653      2265      2264      1652      1655      2267
 -1       341    1    0    1
 -2      1354      2265      2268      1368      1356      2267      2270      1370
 -1       342    1    0    1
 -2      2265      1653      1656      2268      2267      1655      1658      2270
 -1       343    1    0    1
 -2      1368      2268      2271      1382      1370      2270      2273      1384
 -1       344    1    0    1
 -2      2268      1656      1659      2271      2270      1658      1661      2273
 -1       345    1    0    1
 -2      1382      2271      2274      1396      1384      2273      2276      1398
 -1       346    1    0    1
 -2      2271      1659      1662      2274      2273      1661      1664      2276
 -1       347    1    0    1
 -2      1396      2274      2277      1410      1398      2276      2279      1412
 -1       348    1    0    1
 -2      2274      1662      1665      2277      2276      1664      1667      2279
 -1       349    1    0    1
 -2      1410      2277      2280      1424      1412      2279      2282      1426
 -1       350    1    0    1
 -2      2277      1665      1668      2280      2279      1667      1670      2282
 -1       351    1    0    1
 -2      1424      2280      2283      1438      1426      2282      2285      1440
 -1       352    1    0    1
 -2      2280      1668      1671      2283      2282      1670      1673      2285
 -1       353    1    0    1
 -2      1438      2283      2286      1452      1440      2285      2288      1454
 -1       354    1    0    1
 -2      2283      1671      1674      2286      2285      1673      1676      2288
 -1       355    1    0    1
 -2      1452      2286      2289      1466      1454      2288      2291      1468
 -1       356    1    0    1
 -2      2286      1674      1677      2289      2288      1676      1679      2291
 -1       357    1    0    1
 -2      1466      2289      2292      1480      1468      2291      2294      1482
 -1       358    1    0    1
 -2      2289      1677      1680      2292      2291      1679      1682      2294
 -1       359    1    0    1
 -2      1480      2292      1593       461      1482      2294      1595       463
 -1       360    1    0    1
 -2      2292      1680       478      1593      2294      1682       480      1595
 -3
    1PSTEP                         1           1           1          
    1PGM                1.000000E+00                                  
    1PGK                6.453065E+03                                  
    1PHID                         -1                                  
    1PSUBC                         0                                  
    1PMODE                         1                                  
  100CL  101 12.78507090         930                     2    1MODAL      1
 -4  DISP        4    1
 -5  D1          1    2    1    0
 -5  D2          1    2    2    0
 -5  D3          1    2    3    0
 -5  ALL         1    2    0    0    1ALL
 -1       404 0.00000E+00 0.00000E+00-1.29352E-05
 -1       406 0.00000E+00-0.00000E+00 1.29352E-05
 -1       407-5.88573E-03 1.42811E-01-2.20295E-04
 -1       409-5.88571E-03 1.42843E-01-2.20329E-04
 -1       410-1.13237E-14 1.42810E-01-1.28883E-13
 -1       412-1.06656E-14 1.42845E-01-1.28589E-13
 -1       413 2.81212E-04 1.42827E-01 1.11522E-05
 -1       415-2.81212E-04 1.42827E-01-1.11522E-05
 -1       424 0.00000E+00 0.00000E+00-1.84265E-17
 -1       426 0.00000E+00 0.00000E+00 1.84265E-17
 -1       427 0.00000E+00-1.17384E-17 0.00000E+00
 -1       429 0.00000E+00 1.17384E-17 0.00000E+00
 -1       438 5.88573E-03 1.42811E-01 2.20295E-04
 -1       440 5.88571E-03 1.42843E-01 2.20329E-04
 -1       441 0.00000E+00 0.00000E+00 1.29352E-05
 -1       443 0.00000E+00-0.00000E+00-1.29352E-05
 -1       444 0.00000E+00 1.97401E-17 0.00000E+00
 -1       446 0.00000E+00-1.97401E-17 0.00000E+00
 -1       447 0.00000E+00 0.00000E+00-3.09873E-17
 -1       449 0.00000E+00 0.00000E+00 3.09873E-17
 -1       458 2.81212E-04 1.42827E-01-1.11522E-05
 -1       460-2.81212E-04 1.42827E-01 1.11522E-05
 -1       461 1.20098E-14 1.42810E-01-1.28715E-13
 -1       463 1.13372E-14 1.42845E-01-1.28943E-13
 -1       472 0.00000E+00 0.00000E+00-1.29352E-05
 -1       474 0.00000E+00 0.00000E+00 1.29352E-05
 -1       475 5.88573E-03 1.42811E-01-2.20295E-04
 -1       477 5.88571E-03 1.42843E-01-2.20329E-04
 -1       478-5.88573E-03 1.42811E-01 2.20295E-04
 -1       480-5.88571E-03 1.42843E-01 2.20329E-04
 -1       481 0.00000E+00 0.00000E+00 1.29352E-05
 -1       483 0.00000E+00 0.00000E+00-1.29352E-05
 -1       484-4.87252E-04 3.49130E-04-1.64302E-05
 -1       486-4.85202E-04 3.50627E-04-3.65599E-08
 -1       487-9.50189E-04 1.13260E-03-2.88349E-05
 -1       489-9.49253E-04 1.13529E-03-9.57377E-06
 -1       490-1.39747E-03 2.46462E-03-3.71535E-05
 -1       492-1.39601E-03 2.46877E-03-1.95233E-05
 -1       493-1.81726E-03 4.25921E-03-4.61693E-05
 -1       495-1.81606E-03 4.26488E-03-3.03710E-05
 -1       496-2.21565E-03 6.51694E-03-5.59579E-05
 -1       498-2.21434E-03 6.52402E-03-3.95195E-05
 -1       499-2.59124E-03 9.20043E-03-6.42977E-05
 -1       501-2.58998E-03 9.20899E-03-5.04790E-05
 -1       502-2.94340E-03 1.22904E-02-7.41749E-05
 -1       504-2.94213E-03 1.23004E-02-5.96812E-05
 -1       505-3.27370E-03 1.57580E-02-8.25810E-05
 -1       507-3.27243E-03 1.57694E-02-7.03802E-05
 -1       508-3.58093E-03 1.95806E-02-9.22179E-05
 -1       510-3.57966E-03 1.95934E-02-7.97543E-05
 -1       511-3.86647E-03 2.37317E-02-1.00756E-04
 -1       513-3.86521E-03 2.37459E-02-9.01366E-05
 -1       514-4.12976E-03 2.81879E-02-1.10099E-04
 -1       516-4.12851E-03 2.82035E-02-9.95776E-05
 -1       517-4.37178E-03 3.29243E-02-1.18654E-04
 -1       519-4.37055E-03 3.29413E-02-1.09621E-04
 -1       520-4.59250E-03 3.79177E-02-1.27666E-04
 -1       522-4.59129E-03 3.79360E-02-1.18967E-04
 -1       523-4.79274E-03 4.31445E-02-1.36078E-04
 -1       525-4.79155E-03 4.31641E-02-1.28611E-04
 -1       526-4.97279E-03 4.85823E-02-1.44686E-04
 -1       528-4.97163E-03 4.86031E-02-1.37683E-04
 -1       529-5.13349E-03 5.42089E-02-1.52780E-04
 -1       531-5.13236E-03 5.42310E-02-1.46819E-04
 -1       532-5.27539E-03 6.00031E-02-1.60870E-04
 -1       534-5.27429E-03 6.00264E-02-1.55425E-04
 -1       535-5.39938E-03 6.59445E-02-1.68461E-04
 -1       537-5.39833E-03 6.59690E-02-1.63908E-04
 -1       538-5.50624E-03 7.20137E-02-1.75881E-04
 -1       540-5.50524E-03 7.20392E-02-1.71846E-04
 -1       541-5.59698E-03 7.81919E-02-1.82775E-04
 -1       543-5.59604E-03 7.82185E-02-1.79498E-04
 -1       544-5.67258E-03 8.44619E-02-1.89351E-04
 -1       546-5.67170E-03 8.44894E-02-1.86555E-04
 -1       547-5.73420E-03 9.08074E-02-1.95343E-04
 -1       549-5.73339E-03 9.08358E-02-1.93179E-04
 -1       550-5.78300E-03 9.72135E-02-2.00884E-04
 -1       552-5.78227E-03 9.72426E-02-1.99133E-04
 -1       553-5.82030E-03 1.03667E-01-2.05766E-04
 -1       555-5.81966E-03 1.03696E-01-2.04519E-04
 -1       556-5.84746E-03 1.10155E-01-2.10072E-04
 -1       558-5.84691E-03 1.10185E-01-2.09147E-04
 -1       559-5.86595E-03 1.16667E-01-2.13638E-04
 -1       561-5.86550E-03 1.16698E-01-2.13085E-04
 -1       562-5.87732E-03 1.23195E-01-2.16517E-04
 -1       564-5.87698E-03 1.23226E-01-2.16169E-04
 -1       565-5.88324E-03 1.29731E-01-2.18582E-04
 -1       567-5.88300E-03 1.29763E-01-2.18468E-04
 -1       568-5.88538E-03 1.36271E-01-2.19854E-04
 -1       570-5.88527E-03 1.36303E-01-2.19811E-04
 -1       571-2.94278E-03 1.42811E-01-1.12742E-04
 -1       573-2.94277E-03 1.42844E-01-1.12746E-04
 -1       574-9.65679E-16 2.55481E-04-7.05499E-16
 -1       576-7.94577E-16 2.57426E-04-6.56820E-16
 -1       577 2.27132E-05 2.56453E-04 6.19417E-07
 -1       579-2.27132E-05 2.56453E-04-6.19417E-07
 -1       588-1.81695E-15 1.08127E-03-1.74618E-15
 -1       590-1.68978E-15 1.08425E-03-1.72872E-15
 -1       591 4.79674E-05 1.08276E-03 9.51073E-07
 -1       593-4.79674E-05 1.08276E-03-9.51073E-07
 -1       602-2.70258E-15 2.40319E-03-3.16522E-15
 -1       604-2.45551E-15 2.40765E-03-3.12373E-15
 -1       605 6.62405E-05 2.40542E-03 1.42047E-06
 -1       607-6.62405E-05 2.40542E-03-1.42047E-06
 -1       616-3.47743E-15 4.20420E-03-4.98065E-15
 -1       618-3.22470E-15 4.21005E-03-4.97207E-15
 -1       619 8.85880E-05 4.20713E-03 1.86462E-06
 -1       621-8.85880E-05 4.20713E-03-1.86462E-06
 -1       630-4.26392E-15 6.46486E-03-7.20013E-15
 -1       632-3.92620E-15 6.47209E-03-7.14226E-15
 -1       633 1.06141E-04 6.46848E-03 2.30484E-06
 -1       635-1.06141E-04 6.46848E-03-2.30484E-06
 -1       644-4.97519E-15 9.15103E-03-9.77843E-15
 -1       646-4.60891E-15 9.15973E-03-9.75293E-15
 -1       647 1.24963E-04 9.15538E-03 2.77150E-06
 -1       649-1.24963E-04 9.15538E-03-2.77150E-06
 -1       658-5.65733E-15 1.22444E-02-1.26401E-14
 -1       660-5.24378E-15 1.22545E-02-1.26518E-14
 -1       661 1.41288E-04 1.22494E-02 3.22071E-06
 -1       663-1.41288E-04 1.22494E-02-3.22071E-06
 -1       672-6.30010E-15 1.57149E-02-1.58252E-14
 -1       674-5.85868E-15 1.57265E-02-1.58354E-14
 -1       675 1.57332E-04 1.57207E-02 3.68969E-06
 -1       677-1.57332E-04 1.57207E-02-3.68969E-06
 -1       686-6.90832E-15 1.95405E-02-1.93069E-14
 -1       688-6.41642E-15 1.95535E-02-1.93188E-14
 -1       689 1.71860E-04 1.95470E-02 4.14930E-06
 -1       691-1.71860E-04 1.95470E-02-4.14930E-06
 -1       700-7.46379E-15 2.36946E-02-2.30889E-14
 -1       702-6.94932E-15 2.37091E-02-2.30503E-14
 -1       703 1.85566E-04 2.37018E-02 4.61774E-06
 -1       705-1.85566E-04 2.37018E-02-4.61774E-06
 -1       714-7.99941E-15 2.81536E-02-2.72315E-14
 -1       716-7.40309E-15 2.81696E-02-2.72017E-14
 -1       717 1.98096E-04 2.81616E-02 5.08144E-06
 -1       719-1.98096E-04 2.81616E-02-5.08144E-06
 -1       728-8.40673E-15 3.28929E-02-3.15958E-14
 -1       730-7.84036E-15 3.29103E-02-3.16451E-14
 -1       731 2.09662E-04 3.29016E-02 5.54664E-06
 -1       733-2.09662E-04 3.29016E-02-5.54664E-06
 -1       742-8.85359E-15 3.78890E-02-3.61371E-14
 -1       744-8.23658E-15 3.79079E-02-3.60076E-14
 -1       745 2.20182E-04 3.78984E-02 6.00727E-06
 -1       747-2.20182E-04 3.78984E-02-6.00727E-06
 -1       756-9.22942E-15 4.31185E-02-4.07152E-14
 -1       758-8.58446E-15 4.31388E-02-4.08075E-14
 -1       759 2.29732E-04 4.31287E-02 6.46413E-06
 -1       761-2.29732E-04 4.31287E-02-6.46413E-06
 -1       770-9.55920E-15 4.85589E-02-4.54386E-14
 -1       772-8.93209E-15 4.85806E-02-4.56058E-14
 -1       773 2.38312E-04 4.85697E-02 6.91404E-06
 -1       775-2.38312E-04 4.85697E-02-6.91404E-06
 -1       784-9.85148E-15 5.41880E-02-5.02111E-14
 -1       786-9.17919E-15 5.42111E-02-5.04775E-14
 -1       787 2.45963E-04 5.41995E-02 7.35547E-06
 -1       789-2.45963E-04 5.41995E-02-7.35547E-06
 -1       798-1.01653E-14 5.99846E-02-5.54950E-14
 -1       800-9.46901E-15 6.00091E-02-5.53200E-14
 -1       801 2.52716E-04 5.99968E-02 7.78616E-06
 -1       803-2.52716E-04 5.99968E-02-7.78616E-06
 -1       812-1.03833E-14 6.59283E-02-6.04747E-14
 -1       814-9.69854E-15 6.59541E-02-6.06468E-14
 -1       815 2.58607E-04 6.59412E-02 8.20353E-06
 -1       817-2.58607E-04 6.59412E-02-8.20353E-06
 -1       826-1.05997E-14 7.19996E-02-6.55535E-14
 -1       828-9.91799E-15 7.20266E-02-6.58891E-14
 -1       829 2.63679E-04 7.20131E-02 8.60551E-06
 -1       831-2.63679E-04 7.20131E-02-8.60551E-06
 -1       840-1.07701E-14 7.81799E-02-7.11024E-14
 -1       842-1.00623E-14 7.82081E-02-7.10218E-14
 -1       843 2.67976E-04 7.81940E-02 8.98894E-06
 -1       845-2.67976E-04 7.81940E-02-8.98894E-06
 -1       854-1.10151E-14 8.44518E-02-7.63869E-14
 -1       856-1.02724E-14 8.44811E-02-7.66218E-14
 -1       857 2.71547E-04 8.44664E-02 9.35173E-06
 -1       859-2.71547E-04 8.44664E-02-9.35173E-06
 -1       868-1.11718E-14 9.07990E-02-8.17357E-14
 -1       870-1.04827E-14 9.08294E-02-8.20786E-14
 -1       871 2.74446E-04 9.08142E-02 9.69022E-06
 -1       873-2.74446E-04 9.08142E-02-9.69022E-06
 -1       882-1.14564E-14 9.72066E-02-8.78926E-14
 -1       884-1.05832E-14 9.72380E-02-8.78392E-14
 -1       885 2.76730E-04 9.72223E-02 1.00023E-05
 -1       887-2.76730E-04 9.72223E-02-1.00023E-05
 -1       896-1.14809E-14 1.03661E-01-9.41655E-14
 -1       898-1.06621E-14 1.03693E-01-9.42393E-14
 -1       899 2.78462E-04 1.03677E-01 1.02839E-05
 -1       901-2.78462E-04 1.03677E-01-1.02839E-05
 -1       910-1.14562E-14 1.10150E-01-1.00195E-13
 -1       912-1.07084E-14 1.10183E-01-1.00310E-13
 -1       913 2.79703E-04 1.10167E-01 1.05328E-05
 -1       915-2.79703E-04 1.10167E-01-1.05328E-05
 -1       924-1.15692E-14 1.16664E-01-1.05764E-13
 -1       926-1.08424E-14 1.16697E-01-1.06150E-13
 -1       927 2.80532E-04 1.16680E-01 1.07444E-05
 -1       929-2.80532E-04 1.16680E-01-1.07444E-05
 -1       938-1.16574E-14 1.23192E-01-1.12395E-13
 -1       940-1.07157E-14 1.23227E-01-1.11987E-13
 -1       941 2.81009E-04 1.23209E-01 1.09165E-05
 -1       943-2.81009E-04 1.23209E-01-1.09165E-05
 -1       952-1.15971E-14 1.29729E-01-1.18587E-13
 -1       954-1.06659E-14 1.29764E-01-1.18618E-13
 -1       955 2.81233E-04 1.29747E-01 1.10442E-05
 -1       957-2.81233E-04 1.29747E-01-1.10442E-05
 -1       966-1.12801E-14 1.36270E-01-1.23949E-13
 -1       968-1.07455E-14 1.36305E-01-1.24156E-13
 -1       969 2.81259E-04 1.36287E-01 1.11233E-05
 -1       971-2.81259E-04 1.36287E-01-1.11233E-05
 -1       980 0.00000E+00 0.00000E+00-6.09254E-06
 -1       982 0.00000E+00-0.00000E+00 6.09254E-06
 -1       983 2.94278E-03 1.42811E-01 1.12742E-04
 -1       985 2.94277E-03 1.42844E-01 1.12746E-04
 -1       986 4.87252E-04 3.49130E-04 1.64302E-05
 -1       988 4.85202E-04 3.50627E-04 3.65599E-08
 -1       989 9.50189E-04 1.13260E-03 2.88349E-05
 -1       991 9.49253E-04 1.13529E-03 9.57377E-06
 -1       992 1.39747E-03 2.46462E-03 3.71535E-05
 -1       994 1.39601E-03 2.46877E-03 1.95233E-05
 -1       995 1.81726E-03 4.25921E-03 4.61693E-05
 -1       997 1.81606E-03 4.26488E-03 3.03710E-05
 -1       998 2.21565E-03 6.51694E-03 5.59579E-05
 -1      1000 2.21434E-03 6.52402E-03 3.95195E-05
 -1      1001 2.59124E-03 9.20043E-03 6.42977E-05
 -1      1003 2.58998E-03 9.20899E-03 5.04790E-05
 -1      1004 2.94340E-03 1.22904E-02 7.41749E-05
 -1      1006 2.94213E-03 1.23004E-02 5.96812E-05
 -1      1007 3.27370E-03 1.57580E-02 8.25810E-05
 -1      1009 3.27243E-03 1.57694E-02 7.03802E-05
 -1      1010 3.58093E-03 1.95806E-02 9.22179E-05
 -1      1012 3.57966E-03 1.95934E-02 7.97543E-05
 -1      1013 3.86647E-03 2.37317E-02 1.00756E-04
 -1      1015 3.86521E-03 2.37459E-02 9.01366E-05
 -1      1016 4.12976E-03 2.81879E-02 1.10099E-04
 -1      1018 4.12851E-03 2.82035E-02 9.95776E-05
 -1      1019 4.37178E-03 3.29243E-02 1.18654E-04
 -1      1021 4.37055E-03 3.29413E-02 1.09621E-04
 -1      1022 4.59250E-03 3.79177E-02 1.27666E-04
 -1      1024 4.59129E-03 3.79360E-02 1.18967E-04
 -1      1025 4.79274E-03 4.31445E-02 1.36078E-04
 -1      1027 4.79155E-03 4.31641E-02 1.28611E-04
 -1      1028 4.97279E-03 4.85823E-02 1.44686E-04
 -1      1030 4.97163E-03 4.86031E-02 1.37683E-04
 -1      1031 5.13349E-03 5.42089E-02 1.52780E-04
 -1      1033 5.13236E-03 5.42310E-02 1.46819E-04
 -1      1034 5.27539E-03 6.00031E-02 1.60870E-04
 -1      1036 5.27429E-03 6.00264E-02 1.55425E-04
 -1      1037 5.39938E-03 6.59445E-02 1.68461E-04
 -1      1039 5.39833E-03 6.59690E-02 1.63908E-04
 -1      1040 5.50624E-03 7.20137E-02 1.75881E-04
 -1      1042 5.50524E-03 7.20392E-02 1.71846E-04
 -1      1043 5.59698E-03 7.81919E-02 1.82775E-04
 -1      1045 5.59604E-03 7.82185E-02 1.79498E-04
 -1      1046 5.67258E-03 8.44619E-02 1.89351E-04
 -1      1048 5.67170E-03 8.44894E-02 1.86555E-04
 -1      1049 5.73420E-03 9.08074E-02 1.95343E-04
 -1      1051 5.73339E-03 9.08358E-02 1.93179E-04
 -1      1052 5.78300E-03 9.72135E-02 2.00884E-04
 -1      1054 5.78227E-03 9.72426E-02 1.99133E-04
 -1      1055 5.82030E-03 1.03667E-01 2.05766E-04
 -1      1057 5.81966E-03 1.03696E-01 2.04519E-04
 -1      1058 5.84746E-03 1.10155E-01 2.10072E-04
 -1      1060 5.84691E-03 1.10185E-01 2.09147E-04
 -1      1061 5.86595E-03 1.16667E-01 2.13638E-04
 -1      1063 5.86550E-03 1.16698E-01 2.13085E-04
 -1      1064 5.87732E-03 1.23195E-01 2.16517E-04
 -1      1066 5.87698E-03 1.23226E-01 2.16169E-04
 -1      1067 5.88324E-03 1.29731E-01 2.18582E-04
 -1      1069 5.88300E-03 1.29763E-01 2.18468E-04
 -1      1070 5.88538E-03 1.36271E-01 2.19854E-04
 -1      1072 5.88527E-03 1.36303E-01 2.19811E-04
 -1      1073 0.00000E+00 0.00000E+00 6.09254E-06
 -1      1075 0.00000E+00-0.00000E+00-6.09254E-06
 -1      1076 0.00000E+00-9.07093E-19 0.00000E+00
 -1      1078 0.00000E+00 9.07093E-19 0.00000E+00
 -1      1079 0.00000E+00-1.48545E-18 0.00000E+00
 -1      1081 0.00000E+00 1.48545E-18 0.00000E+00
 -1      1082 0.00000E+00 7.63521E-18 0.00000E+00
 -1      1084 0.00000E+00-7.63521E-18 0.00000E+00
 -1      1085 2.27132E-05 2.56453E-04-6.19417E-07
 -1      1087-2.27132E-05 2.56453E-04 6.19417E-07
 -1      1088 9.48613E-16 2.55481E-04-6.81088E-16
 -1      1090 7.85690E-16 2.57426E-04-6.56799E-16
 -1      1099 4.79674E-05 1.08276E-03-9.51073E-07
 -1      1101-4.79674E-05 1.08276E-03 9.51073E-07
 -1      1102 1.79407E-15 1.08127E-03-1.75361E-15
 -1      1104 1.66578E-15 1.08425E-03-1.70249E-15
 -1      1113 6.62405E-05 2.40542E-03-1.42047E-06
 -1      1115-6.62405E-05 2.40542E-03 1.42047E-06
 -1      1116 2.65668E-15 2.40319E-03-3.13236E-15
 -1      1118 2.42197E-15 2.40765E-03-3.11764E-15
 -1      1127 8.85880E-05 4.20713E-03-1.86462E-06
 -1      1129-8.85880E-05 4.20713E-03 1.86462E-06
 -1      1130 3.43535E-15 4.20420E-03-4.99103E-15
 -1      1132 3.17783E-15 4.21005E-03-4.93163E-15
 -1      1141 1.06141E-04 6.46848E-03-2.30484E-06
 -1      1143-1.06141E-04 6.46848E-03 2.30484E-06
 -1      1144 4.19500E-15 6.46486E-03-7.16424E-15
 -1      1146 3.86409E-15 6.47209E-03-7.18499E-15
 -1      1155 1.24963E-04 9.15538E-03-2.77150E-06
 -1      1157-1.24963E-04 9.15538E-03 2.77150E-06
 -1      1158 4.90134E-15 9.15103E-03-9.76902E-15
 -1      1160 4.53821E-15 9.15973E-03-9.72637E-15
 -1      1169 1.41288E-04 1.22494E-02-3.22071E-06
 -1      1171-1.41288E-04 1.22494E-02 3.22071E-06
 -1      1172 5.57331E-15 1.22444E-02-1.26542E-14
 -1      1174 5.16658E-15 1.22545E-02-1.26148E-14
 -1      1183 1.57332E-04 1.57207E-02-3.68969E-06
 -1      1185-1.57332E-04 1.57207E-02 3.68969E-06
 -1      1186 6.20644E-15 1.57149E-02-1.58574E-14
 -1      1188 5.75767E-15 1.57265E-02-1.57877E-14
 -1      1197 1.71860E-04 1.95470E-02-4.14930E-06
 -1      1199-1.71860E-04 1.95470E-02 4.14930E-06
 -1      1200 6.81707E-15 1.95405E-02-1.93433E-14
 -1      1202 6.31744E-15 1.95535E-02-1.93471E-14
 -1      1211 1.85566E-04 2.37018E-02-4.61774E-06
 -1      1213-1.85566E-04 2.37018E-02 4.61774E-06
 -1      1214 7.37378E-15 2.36946E-02-2.31927E-14
 -1      1216 6.83827E-15 2.37091E-02-2.31526E-14
 -1      1225 1.98096E-04 2.81616E-02-5.08144E-06
 -1      1227-1.98096E-04 2.81616E-02 5.08144E-06
 -1      1228 7.89595E-15 2.81536E-02-2.73452E-14
 -1      1230 7.30223E-15 2.81696E-02-2.73783E-14
 -1      1239 2.09662E-04 3.29016E-02-5.54664E-06
 -1      1241-2.09662E-04 3.29016E-02 5.54664E-06
 -1      1242 8.33519E-15 3.28929E-02-3.17265E-14
 -1      1244 7.75160E-15 3.29103E-02-3.16913E-14
 -1      1253 2.20182E-04 3.78984E-02-6.00727E-06
 -1      1255-2.20182E-04 3.78984E-02 6.00727E-06
 -1      1256 8.74799E-15 3.78890E-02-3.60862E-14
 -1      1258 8.13424E-15 3.79079E-02-3.61863E-14
 -1      1267 2.29732E-04 4.31287E-02-6.46413E-06
 -1      1269-2.29732E-04 4.31287E-02 6.46413E-06
 -1      1270 9.12395E-15 4.31185E-02-4.06827E-14
 -1      1272 8.49748E-15 4.31388E-02-4.06481E-14
 -1      1281 2.38312E-04 4.85697E-02-6.91404E-06
 -1      1283-2.38312E-04 4.85697E-02 6.91404E-06
 -1      1284 9.48882E-15 4.85589E-02-4.54021E-14
 -1      1286 8.87128E-15 4.85806E-02-4.51734E-14
 -1      1295 2.45963E-04 5.41995E-02-7.35547E-06
 -1      1297-2.45963E-04 5.41995E-02 7.35547E-06
 -1      1298 9.88922E-15 5.41880E-02-5.03711E-14
 -1      1300 9.17702E-15 5.42111E-02-5.01045E-14
 -1      1309 2.52716E-04 5.99968E-02-7.78616E-06
 -1      1311-2.52716E-04 5.99968E-02 7.78616E-06
 -1      1312 1.01812E-14 5.99846E-02-5.54083E-14
 -1      1314 9.46724E-15 6.00091E-02-5.56175E-14
 -1      1323 2.58607E-04 6.59412E-02-8.20353E-06
 -1      1325-2.58607E-04 6.59412E-02 8.20353E-06
 -1      1326 1.04639E-14 6.59283E-02-6.10693E-14
 -1      1328 9.72940E-15 6.59541E-02-6.07669E-14
 -1      1337 2.63679E-04 7.20131E-02-8.60551E-06
 -1      1339-2.63679E-04 7.20131E-02 8.60551E-06
 -1      1340 1.06189E-14 7.19996E-02-6.60889E-14
 -1      1342 9.99741E-15 7.20266E-02-6.58693E-14
 -1      1351 2.67976E-04 7.81940E-02-8.98894E-06
 -1      1353-2.67976E-04 7.81940E-02 8.98894E-06
 -1      1354 1.09617E-14 7.81799E-02-7.10788E-14
 -1      1356 1.02068E-14 7.82081E-02-7.09582E-14
 -1      1365 2.71547E-04 8.44664E-02-9.35173E-06
 -1      1367-2.71547E-04 8.44664E-02 9.35173E-06
 -1      1368 1.12350E-14 8.44518E-02-7.64848E-14
 -1      1370 1.05210E-14 8.44811E-02-7.62524E-14
 -1      1379 2.74446E-04 9.08142E-02-9.69022E-06
 -1      1381-2.74446E-04 9.08142E-02 9.69022E-06
 -1      1382 1.15678E-14 9.07990E-02-8.22365E-14
 -1      1384 1.07171E-14 9.08294E-02-8.18475E-14
 -1      1393 2.76730E-04 9.72223E-02-1.00023E-05
 -1      1395-2.76730E-04 9.72223E-02 1.00023E-05
 -1      1396 1.18291E-14 9.72066E-02-8.83722E-14
 -1      1398 1.08851E-14 9.72380E-02-8.84039E-14
 -1      1407 2.78462E-04 1.03677E-01-1.02839E-05
 -1      1409-2.78462E-04 1.03677E-01 1.02839E-05
 -1      1410 1.17634E-14 1.03661E-01-9.44325E-14
 -1      1412 1.10701E-14 1.03693E-01-9.43592E-14
 -1      1421 2.79703E-04 1.10167E-01-1.05328E-05
 -1      1423-2.79703E-04 1.10167E-01 1.05328E-05
 -1      1424 1.20304E-14 1.10150E-01-1.00198E-13
 -1      1426 1.11445E-14 1.10183E-01-1.00035E-13
 -1      1435 2.80532E-04 1.16680E-01-1.07444E-05
 -1      1437-2.80532E-04 1.16680E-01 1.07444E-05
 -1      1438 1.20180E-14 1.16664E-01-1.06129E-13
 -1      1440 1.12654E-14 1.16697E-01-1.05768E-13
 -1      1449 2.81009E-04 1.23209E-01-1.09165E-05
 -1      1451-2.81009E-04 1.23209E-01 1.09165E-05
 -1      1452 1.21345E-14 1.23192E-01-1.11538E-13
 -1      1454 1.13024E-14 1.23227E-01-1.11872E-13
 -1      1463 2.81233E-04 1.29747E-01-1.10442E-05
 -1      1465-2.81233E-04 1.29747E-01 1.10442E-05
 -1      1466 1.21727E-14 1.29729E-01-1.17788E-13
 -1      1468 1.12802E-14 1.29764E-01-1.17985E-13
 -1      1477 2.81259E-04 1.36287E-01-1.11233E-05
 -1      1479-2.81259E-04 1.36287E-01 1.11233E-05
 -1      1480 1.20148E-14 1.36270E-01-1.23834E-13
 -1      1482 1.13302E-14 1.36305E-01-1.23353E-13
 -1      1491 2.81220E-04 1.43055E-01 8.32621E-06
 -1      1493-2.81220E-04 1.43055E-01-8.32622E-06
 -1      1494 2.81228E-04 1.43152E-01-1.05536E-13
 -1      1496-2.81228E-04 1.43152E-01-1.52938E-13
 -1      1497 2.81220E-04 1.43055E-01-8.32622E-06
 -1      1499-2.81220E-04 1.43055E-01 8.32621E-06
 -1      1500 4.87252E-04 3.49130E-04-1.64302E-05
 -1      1502 4.85202E-04 3.50627E-04-3.65599E-08
 -1      1503 9.50189E-04 1.13260E-03-2.88349E-05
 -1      1505 9.49253E-04 1.13529E-03-9.57377E-06
 -1      1506 1.39747E-03 2.46462E-03-3.71535E-05
 -1      1508 1.39601E-03 2.46877E-03-1.95233E-05
 -1      1509 1.81726E-03 4.25921E-03-4.61693E-05
 -1      1511 1.81606E-03 4.26488E-03-3.03710E-05
 -1      1512 2.21565E-03 6.51694E-03-5.59579E-05
 -1      1514 2.21434E-03 6.52402E-03-3.95195E-05
 -1      1515 2.59124E-03 9.20043E-03-6.42977E-05
 -1      1517 2.58998E-03 9.20899E-03-5.04790E-05
 -1      1518 2.94340E-03 1.22904E-02-7.41749E-05
 -1      1520 2.94213E-03 1.23004E-02-5.96812E-05
 -1      1521 3.27370E-03 1.57580E-02-8.25810E-05
 -1      1523 3.27243E-03 1.57694E-02-7.03802E-05
 -1      1524 3.58093E-03 1.95806E-02-9.22179E-05
 -1      1526 3.57966E-03 1.95934E-02-7.97543E-05
 -1      1527 3.86647E-03 2.37317E-02-1.00756E-04
 -1      1529 3.86521E-03 2.37459E-02-9.01366E-05
 -1      1530 4.12976E-03 2.81879E-02-1.10099E-04
 -1      1532 4.12851E-03 2.82035E-02-9.95776E-05
 -1      1533 4.37178E-03 3.29243E-02-1.18654E-04
 -1      1535 4.37055E-03 3.29413E-02-1.09621E-04
 -1      1536 4.59250E-03 3.79177E-02-1.27666E-04
 -1      1538 4.59129E-03 3.79360E-02-1.18967E-04
 -1      1539 4.79274E-03 4.31445E-02-1.36078E-04
 -1      1541 4.79155E-03 4.31641E-02-1.28611E-04
 -1      1542 4.97279E-03 4.85823E-02-1.44686E-04
 -1      1544 4.97163E-03 4.86031E-02-1.37683E-04
 -1      1545 5.13349E-03 5.42089E-02-1.52780E-04
 -1      1547 5.13236E-03 5.42310E-02-1.46819E-04
 -1      1548 5.27539E-03 6.00031E-02-1.60870E-04
 -1      1550 5.27429E-03 6.00264E-02-1.55425E-04
 -1      1551 5.39938E-03 6.59445E-02-1.68461E-04
 -1      1553 5.39833E-03 6.59690E-02-1.63908E-04
 -1      1554 5.50624E-03 7.20137E-02-1.75881E-04
 -1      1556 5.50524E-03 7.20392E-02-1.71846E-04
 -1      1557 5.59698E-03 7.81919E-02-1.82775E-04
 -1      1559 5.59604E-03 7.82185E-02-1.79498E-04
 -1      1560 5.67258E-03 8.44619E-02-1.89351E-04
 -1      1562 5.67170E-03 8.44894E-02-1.86555E-04
 -1      1563 5.73420E-03 9.08074E-02-1.95343E-04
 -1      1565 5.73339E-03 9.08358E-02-1.93179E-04
 -1      1566 5.78300E-03 9.72135E-02-2.00884E-04
 -1      1568 5.78227E-03 9.72426E-02-1.99133E-04
 -1      1569 5.82030E-03 1.03667E-01-2.05766E-04
 -1      1571 5.81966E-03 1.03696E-01-2.04519E-04
 -1      1572 5.84746E-03 1.10155E-01-2.10072E-04
 -1      1574 5.84691E-03 1.10185E-01-2.09147E-04
 -1      1575 5.86595E-03 1.16667E-01-2.13638E-04
 -1      1577 5.86550E-03 1.16698E-01-2.13085E-04
 -1      1578 5.87732E-03 1.23195E-01-2.16517E-04
 -1      1580 5.87698E-03 1.23226E-01-2.16169E-04
 -1      1581 5.88324E-03 1.29731E-01-2.18582E-04
 -1      1583 5.88300E-03 1.29763E-01-2.18468E-04
 -1      1584 5.88538E-03 1.36271E-01-2.19854E-04
 -1      1586 5.88527E-03 1.36303E-01-2.19811E-04
 -1      1587 2.94278E-03 1.42811E-01-1.12742E-04
 -1      1589 2.94277E-03 1.42844E-01-1.12746E-04
 -1      1590 0.00000E+00 0.00000E+00-6.09254E-06
 -1      1592 0.00000E+00 0.00000E+00 6.09254E-06
 -1      1593-2.94278E-03 1.42811E-01 1.12742E-04
 -1      1595-2.94277E-03 1.42844E-01 1.12746E-04
 -1      1596-4.87252E-04 3.49130E-04 1.64302E-05
 -1      1598-4.85202E-04 3.50627E-04 3.65599E-08
 -1      1599-9.50189E-04 1.13260E-03 2.88349E-05
 -1      1601-9.49253E-04 1.13529E-03 9.57377E-06
 -1      1602-1.39747E-03 2.46462E-03 3.71535E-05
 -1      1604-1.39601E-03 2.46877E-03 1.95233E-05
 -1      1605-1.81726E-03 4.25921E-03 4.61693E-05
 -1      1607-1.81606E-03 4.26488E-03 3.03710E-05
 -1      1608-2.21565E-03 6.51694E-03 5.59579E-05
 -1      1610-2.21434E-03 6.52402E-03 3.95195E-05
 -1      1611-2.59124E-03 9.20043E-03 6.42977E-05
 -1      1613-2.58998E-03 9.20899E-03 5.04790E-05
 -1      1614-2.94340E-03 1.22904E-02 7.41749E-05
 -1      1616-2.94213E-03 1.23004E-02 5.96812E-05
 -1      1617-3.27370E-03 1.57580E-02 8.25810E-05
 -1      1619-3.27243E-03 1.57694E-02 7.03802E-05
 -1      1620-3.58093E-03 1.95806E-02 9.22179E-05
 -1      1622-3.57966E-03 1.95934E-02 7.97543E-05
 -1      1623-3.86647E-03 2.37317E-02 1.00756E-04
 -1      1625-3.86521E-03 2.37459E-02 9.01366E-05
 -1      1626-4.12976E-03 2.81879E-02 1.10099E-04
 -1      1628-4.12851E-03 2.82035E-02 9.95776E-05
 -1      1629-4.37178E-03 3.29243E-02 1.18654E-04
 -1      1631-4.37055E-03 3.29413E-02 1.09621E-04
 -1      1632-4.59250E-03 3.79177E-02 1.27666E-04
 -1      1634-4.59129E-03 3.79360E-02 1.18967E-04
 -1      1635-4.79274E-03 4.31445E-02 1.36078E-04
 -1      1637-4.79155E-03 4.31641E-02 1.28611E-04
 -1      1638-4.97279E-03 4.85823E-02 1.44686E-04
 -1      1640-4.97163E-03 4.86031E-02 1.37683E-04
 -1      1641-5.13349E-03 5.42089E-02 1.52780E-04
 -1      1643-5.13236E-03 5.42310E-02 1.46819E-04
 -1      1644-5.27539E-03 6.00031E-02 1.60870E-04
 -1      1646-5.27429E-03 6.00264E-02 1.55425E-04
 -1      1647-5.39938E-03 6.59445E-02 1.68461E-04
 -1      1649-5.39833E-03 6.59690E-02 1.63908E-04
 -1      1650-5.50624E-03 7.20137E-02 1.75881E-04
 -1      1652-5.50524E-03 7.20392E-02 1.71846E-04
 -1      1653-5.59698E-03 7.81919E-02 1.82775E-04
 -1      1655-5.59604E-03 7.82185E-02 1.79498E-04
 -1      1656-5.67258E-03 8.44619E-02 1.89351E-04
 -1      1658-5.67170E-03 8.44894E-02 1.86555E-04
 -1      1659-5.73420E-03 9.08074E-02 1.95343E-04
 -1      1661-5.73339E-03 9.08358E-02 1.93179E-04
 -1      1662-5.78300E-03 9.72135E-02 2.00884E-04
 -1      1664-5.78227E-03 9.72426E-02 1.99133E-04
 -1      1665-5.82030E-03 1.03667E-01 2.05766E-04
 -1      1667-5.81966E-03 1.03696E-01 2.04519E-04
 -1      1668-5.84746E-03 1.10155E-01 2.10072E-04
 -1      1670-5.84691E-03 1.10185E-01 2.09147E-04
 -1      1671-5.86595E-03 1.16667E-01 2.13638E-04
 -1      1673-5.86550E-03 1.16698E-01 2.13085E-04
 -1      1674-5.87732E-03 1.23195E-01 2.16517E-04
 -1      1676-5.87698E-03 1.23226E-01 2.16169E-04
 -1      1677-5.88324E-03 1.29731E-01 2.18582E-04
 -1      1679-5.88300E-03 1.29763E-01 2.18468E-04
 -1      1680-5.88538E-03 1.36271E-01 2.19854E-04
 -1      1682-5.88527E-03 1.36303E-01 2.19811E-04
 -1      1683 0.00000E+00 0.00000E+00 6.09254E-06
 -1      1685 0.00000E+00 0.00000E+00-6.09254E-06
 -1      1686-2.33646E-04 2.76118E-04-9.22778E-06
 -1      1688-2.32505E-04 2.76930E-04 5.20028E-07
 -1      1689-4.77269E-04 1.09827E-03-1.44123E-05
 -1      1691-4.76849E-04 1.10113E-03-5.49938E-06
 -1      1692-6.93800E-04 2.41487E-03-1.88746E-05
 -1      1694-6.93028E-04 2.41912E-03-9.81918E-06
 -1      1695-9.06728E-04 4.22076E-03-2.34607E-05
 -1      1697-9.06131E-04 4.22644E-03-1.52087E-05
 -1      1698-1.10507E-03 6.47596E-03-2.79127E-05
 -1      1700-1.10440E-03 6.48315E-03-2.00524E-05
 -1      1701-1.29286E-03 9.16461E-03-3.25518E-05
 -1      1703-1.29221E-03 9.17318E-03-2.50926E-05
 -1      1704-1.46923E-03 1.22551E-02-3.70328E-05
 -1      1706-1.46857E-03 1.22652E-02-3.01345E-05
 -1      1707-1.63412E-03 1.57262E-02-4.16506E-05
 -1      1709-1.63347E-03 1.57376E-02-3.51309E-05
 -1      1710-1.78798E-03 1.95503E-02-4.61955E-05
 -1      1712-1.78733E-03 1.95631E-02-4.01684E-05
 -1      1713-1.93064E-03 2.37041E-02-5.07560E-05
 -1      1715-1.92999E-03 2.37184E-02-4.51802E-05
 -1      1716-2.06242E-03 2.81622E-02-5.53199E-05
 -1      1718-2.06177E-03 2.81778E-02-5.01479E-05
 -1      1719-2.18343E-03 3.29009E-02-5.98031E-05
 -1      1721-2.18278E-03 3.29180E-02-5.51269E-05
 -1      1722-2.29388E-03 3.78963E-02-6.43138E-05
 -1      1724-2.29324E-03 3.79147E-02-5.99848E-05
 -1      1725-2.39404E-03 4.31252E-02-6.86826E-05
 -1      1727-2.39341E-03 4.31450E-02-6.48521E-05
 -1      1728-2.48416E-03 4.85649E-02-7.30604E-05
 -1      1730-2.48354E-03 4.85860E-02-6.95451E-05
 -1      1731-2.56458E-03 5.41934E-02-7.72552E-05
 -1      1733-2.56398E-03 5.42158E-02-7.42125E-05
 -1      1734-2.63562E-03 5.99895E-02-8.14149E-05
 -1      1736-2.63504E-03 6.00131E-02-7.86651E-05
 -1      1737-2.69772E-03 6.59327E-02-8.53570E-05
 -1      1739-2.69716E-03 6.59575E-02-8.30378E-05
 -1      1740-2.75126E-03 7.20035E-02-8.92069E-05
 -1      1742-2.75072E-03 7.20294E-02-8.71574E-05
 -1      1743-2.79675E-03 7.81833E-02-9.28035E-05
 -1      1745-2.79624E-03 7.82103E-02-9.11333E-05
 -1      1746-2.83468E-03 8.44547E-02-9.62444E-05
 -1      1748-2.83421E-03 8.44827E-02-9.48147E-05
 -1      1749-2.86563E-03 9.08016E-02-9.93920E-05
 -1      1751-2.86519E-03 9.08305E-02-9.82841E-05
 -1      1752-2.89018E-03 9.72089E-02-1.02318E-04
 -1      1754-2.88978E-03 9.72386E-02-1.01413E-04
 -1      1755-2.90899E-03 1.03663E-01-1.04906E-04
 -1      1757-2.90864E-03 1.03693E-01-1.04260E-04
 -1      1758-2.92273E-03 1.10152E-01-1.07206E-04
 -1      1760-2.92243E-03 1.10183E-01-1.06715E-04
 -1      1761-2.93216E-03 1.16665E-01-1.09119E-04
 -1      1763-2.93191E-03 1.16697E-01-1.08821E-04
 -1      1764-2.93803E-03 1.23194E-01-1.10677E-04
 -1      1766-2.93784E-03 1.23226E-01-1.10477E-04
 -1      1767-2.94119E-03 1.29731E-01-1.11803E-04
 -1      1769-2.94106E-03 1.29763E-01-1.11724E-04
 -1      1770-2.94249E-03 1.36271E-01-1.12502E-04
 -1      1772-2.94243E-03 1.36303E-01-1.12451E-04
 -1      1773 2.33646E-04 2.76118E-04 9.22778E-06
 -1      1775 2.32505E-04 2.76930E-04-5.20028E-07
 -1      1776 4.77269E-04 1.09827E-03 1.44123E-05
 -1      1778 4.76849E-04 1.10113E-03 5.49938E-06
 -1      1779 6.93800E-04 2.41487E-03 1.88746E-05
 -1      1781 6.93028E-04 2.41912E-03 9.81918E-06
 -1      1782 9.06728E-04 4.22076E-03 2.34607E-05
 -1      1784 9.06131E-04 4.22644E-03 1.52087E-05
 -1      1785 1.10507E-03 6.47596E-03 2.79127E-05
 -1      1787 1.10440E-03 6.48315E-03 2.00524E-05
 -1      1788 1.29286E-03 9.16461E-03 3.25518E-05
 -1      1790 1.29221E-03 9.17318E-03 2.50926E-05
 -1      1791 1.46923E-03 1.22551E-02 3.70328E-05
 -1      1793 1.46857E-03 1.22652E-02 3.01345E-05
 -1      1794 1.63412E-03 1.57262E-02 4.16506E-05
 -1      1796 1.63347E-03 1.57376E-02 3.51309E-05
 -1      1797 1.78798E-03 1.95503E-02 4.61955E-05
 -1      1799 1.78733E-03 1.95631E-02 4.01684E-05
 -1      1800 1.93064E-03 2.37041E-02 5.07560E-05
 -1      1802 1.92999E-03 2.37184E-02 4.51802E-05
 -1      1803 2.06242E-03 2.81622E-02 5.53199E-05
 -1      1805 2.06177E-03 2.81778E-02 5.01479E-05
 -1      1806 2.18343E-03 3.29009E-02 5.98031E-05
 -1      1808 2.18278E-03 3.29180E-02 5.51269E-05
 -1      1809 2.29388E-03 3.78963E-02 6.43138E-05
 -1      1811 2.29324E-03 3.79147E-02 5.99848E-05
 -1      1812 2.39404E-03 4.31252E-02 6.86826E-05
 -1      1814 2.39341E-03 4.31450E-02 6.48521E-05
 -1      1815 2.48416E-03 4.85649E-02 7.30604E-05
 -1      1817 2.48354E-03 4.85860E-02 6.95451E-05
 -1      1818 2.56458E-03 5.41934E-02 7.72552E-05
 -1      1820 2.56398E-03 5.42158E-02 7.42125E-05
 -1      1821 2.63562E-03 5.99895E-02 8.14149E-05
 -1      1823 2.63504E-03 6.00131E-02 7.86651E-05
 -1      1824 2.69772E-03 6.59327E-02 8.53570E-05
 -1      1826 2.69716E-03 6.59575E-02 8.30378E-05
 -1      1827 2.75126E-03 7.20035E-02 8.92069E-05
 -1      1829 2.75072E-03 7.20294E-02 8.71574E-05
 -1      1830 2.79675E-03 7.81833E-02 9.28035E-05
 -1      1832 2.79624E-03 7.82103E-02 9.11333E-05
 -1      1833 2.83468E-03 8.44547E-02 9.62444E-05
 -1      1835 2.83421E-03 8.44827E-02 9.48147E-05
 -1      1836 2.86563E-03 9.08016E-02 9.93920E-05
 -1      1838 2.86519E-03 9.08305E-02 9.82841E-05
 -1      1839 2.89018E-03 9.72089E-02 1.02318E-04
 -1      1841 2.88978E-03 9.72386E-02 1.01413E-04
 -1      1842 2.90899E-03 1.03663E-01 1.04906E-04
 -1      1844 2.90864E-03 1.03693E-01 1.04260E-04
 -1      1845 2.92273E-03 1.10152E-01 1.07206E-04
 -1      1847 2.92243E-03 1.10183E-01 1.06715E-04
 -1      1848 2.93216E-03 1.16665E-01 1.09119E-04
 -1      1850 2.93191E-03 1.16697E-01 1.08821E-04
 -1      1851 2.93803E-03 1.23194E-01 1.10677E-04
 -1      1853 2.93784E-03 1.23226E-01 1.10477E-04
 -1      1854 2.94119E-03 1.29731E-01 1.11803E-04
 -1      1856 2.94106E-03 1.29763E-01 1.11724E-04
 -1      1857 2.94249E-03 1.36271E-01 1.12502E-04
 -1      1859 2.94243E-03 1.36303E-01 1.12451E-04
 -1      1860 2.32964E-05 2.70731E-04 5.08646E-07
 -1      1862-2.32964E-05 2.70731E-04-5.08646E-07
 -1      1863 4.78449E-05 1.10032E-03 6.41394E-07
 -1      1865-4.78449E-05 1.10032E-03-6.41394E-07
 -1      1866 6.68767E-05 2.43498E-03 1.04711E-06
 -1      1868-6.68767E-05 2.43498E-03-1.04711E-06
 -1      1869 8.85339E-05 4.24383E-03 1.32816E-06
 -1      1871-8.85339E-05 4.24383E-03-1.32816E-06
 -1      1872 1.06660E-04 6.51475E-03 1.63850E-06
 -1      1874-1.06660E-04 6.51475E-03-1.63850E-06
 -1      1875 1.25054E-04 9.21059E-03 1.97937E-06
 -1      1877-1.25054E-04 9.21059E-03-1.97937E-06
 -1      1878 1.41690E-04 1.23137E-02 2.28325E-06
 -1      1880-1.41690E-04 1.23137E-02-2.28325E-06
 -1      1881 1.57526E-04 1.57944E-02 2.63167E-06
 -1      1883-1.57526E-04 1.57944E-02-2.63167E-06
 -1      1884 1.72197E-04 1.96298E-02 2.95288E-06
 -1      1886-1.72197E-04 1.96298E-02-2.95288E-06
 -1      1887 1.85813E-04 2.37941E-02 3.29952E-06
 -1      1889-1.85813E-04 2.37941E-02-3.29952E-06
 -1      1890 1.98402E-04 2.82632E-02 3.63450E-06
 -1      1892-1.98402E-04 2.82632E-02-3.63450E-06
 -1      1893 2.09932E-04 3.30127E-02 3.97953E-06
 -1      1895-2.09932E-04 3.30127E-02-3.97953E-06
 -1      1896 2.20473E-04 3.80188E-02 4.32004E-06
 -1      1898-2.20473E-04 3.80188E-02-4.32004E-06
 -1      1899 2.30008E-04 4.32584E-02 4.66188E-06
 -1      1901-2.30008E-04 4.32584E-02-4.66188E-06
 -1      1902 2.38592E-04 4.87086E-02 5.00011E-06
 -1      1904-2.38592E-04 4.87086E-02-5.00011E-06
 -1      1905 2.46234E-04 5.43475E-02 5.33435E-06
 -1      1907-2.46234E-04 5.43475E-02-5.33435E-06
 -1      1908 2.52982E-04 6.01537E-02 5.66277E-06
 -1      1910-2.52982E-04 6.01537E-02-5.66277E-06
 -1      1911 2.58864E-04 6.61066E-02 5.98295E-06
 -1      1913-2.58864E-04 6.61066E-02-5.98295E-06
 -1      1914 2.63927E-04 7.21869E-02 6.29368E-06
 -1      1916-2.63927E-04 7.21869E-02-6.29368E-06
 -1      1917 2.68212E-04 7.83757E-02 6.59190E-06
 -1      1919-2.68212E-04 7.83757E-02-6.59190E-06
 -1      1920 2.71771E-04 8.46557E-02 6.87626E-06
 -1      1922-2.71771E-04 8.46557E-02-6.87626E-06
 -1      1923 2.74655E-04 9.10105E-02 7.14336E-06
 -1      1925-2.74655E-04 9.10105E-02-7.14336E-06
 -1      1926 2.76921E-04 9.74252E-02 7.39160E-06
 -1      1928-2.76921E-04 9.74252E-02-7.39160E-06
 -1      1929 2.78634E-04 1.03886E-01 7.61715E-06
 -1      1931-2.78634E-04 1.03886E-01-7.61715E-06
 -1      1932 2.79853E-04 1.10381E-01 7.81815E-06
 -1      1934-2.79853E-04 1.10381E-01-7.81815E-06
 -1      1935 2.80658E-04 1.16899E-01 7.99033E-06
 -1      1937-2.80658E-04 1.16899E-01-7.99033E-06
 -1      1938 2.81107E-04 1.23432E-01 8.13124E-06
 -1      1940-2.81107E-04 1.23432E-01-8.13124E-06
 -1      1941 2.81303E-04 1.29972E-01 8.23665E-06
 -1      1943-2.81303E-04 1.29972E-01-8.23665E-06
 -1      1944 2.81291E-04 1.36514E-01 8.30239E-06
 -1      1946-2.81291E-04 1.36514E-01-8.30239E-06
 -1      1947 2.38796E-05 2.75954E-04-2.53427E-16
 -1      1949-2.38796E-05 2.75954E-04-6.70415E-16
 -1      1950 4.77223E-05 1.10823E-03-7.73722E-16
 -1      1952-4.77223E-05 1.10823E-03-2.15320E-15
 -1      1953 6.75129E-05 2.44693E-03-1.62310E-15
 -1      1955-6.75129E-05 2.44693E-03-4.17862E-15
 -1      1956 8.84798E-05 4.25940E-03-2.77782E-15
 -1      1958-8.84798E-05 4.25940E-03-6.71071E-15
 -1      1959 1.07179E-04 6.53384E-03-4.18934E-15
 -1      1961-1.07179E-04 6.53384E-03-9.72186E-15
 -1      1962 1.25145E-04 9.23364E-03-5.90116E-15
 -1      1964-1.25145E-04 9.23364E-03-1.31677E-14
 -1      1965 1.42093E-04 1.23403E-02-7.86944E-15
 -1      1967-1.42093E-04 1.23403E-02-1.70037E-14
 -1      1968 1.57720E-04 1.58250E-02-1.01358E-14
 -1      1970-1.57720E-04 1.58250E-02-2.11779E-14
 -1      1971 1.72533E-04 1.96642E-02-1.26497E-14
 -1      1973-1.72533E-04 1.96642E-02-2.56935E-14
 -1      1974 1.86060E-04 2.38326E-02-1.53918E-14
 -1      1976-1.86060E-04 2.38326E-02-3.06412E-14
 -1      1977 1.98708E-04 2.83056E-02-1.84438E-14
 -1      1979-1.98708E-04 2.83056E-02-3.58190E-14
 -1      1980 2.10202E-04 3.30591E-02-2.17003E-14
 -1      1982-2.10202E-04 3.30591E-02-4.12488E-14
 -1      1983 2.20764E-04 3.80692E-02-2.51299E-14
 -1      1985-2.20764E-04 3.80692E-02-4.67741E-14
 -1      1986 2.30283E-04 4.33127E-02-2.88579E-14
 -1      1988-2.30283E-04 4.33127E-02-5.22712E-14
 -1      1989 2.38872E-04 4.87669E-02-3.27262E-14
 -1      1991-2.38872E-04 4.87669E-02-5.79556E-14
 -1      1992 2.46504E-04 5.44097E-02-3.67009E-14
 -1      1994-2.46504E-04 5.44097E-02-6.38413E-14
 -1      1995 2.53249E-04 6.02196E-02-4.07708E-14
 -1      1997-2.53249E-04 6.02196E-02-6.98584E-14
 -1      1998 2.59121E-04 6.61764E-02-4.51807E-14
 -1      2000-2.59121E-04 6.61764E-02-7.58167E-14
 -1      2001 2.64176E-04 7.22602E-02-4.97367E-14
 -1      2003-2.64176E-04 7.22602E-02-8.18018E-14
 -1      2004 2.68449E-04 7.84525E-02-5.45751E-14
 -1      2006-2.68449E-04 7.84525E-02-8.75070E-14
 -1      2007 2.71995E-04 8.47358E-02-5.94642E-14
 -1      2009-2.71995E-04 8.47358E-02-9.34448E-14
 -1      2010 2.74863E-04 9.10938E-02-6.46727E-14
 -1      2012-2.74863E-04 9.10938E-02-9.94591E-14
 -1      2013 2.77113E-04 9.75113E-02-7.02637E-14
 -1      2015-2.77113E-04 9.75113E-02-1.05729E-13
 -1      2016 2.78805E-04 1.03975E-01-7.53876E-14
 -1      2018-2.78805E-04 1.03975E-01-1.12833E-13
 -1      2019 2.80003E-04 1.10472E-01-8.01139E-14
 -1      2021-2.80003E-04 1.10472E-01-1.19925E-13
 -1      2022 2.80783E-04 1.16992E-01-8.50973E-14
 -1      2024-2.80783E-04 1.16992E-01-1.26781E-13
 -1      2025 2.81205E-04 1.23526E-01-9.01471E-14
 -1      2027-2.81205E-04 1.23526E-01-1.33927E-13
 -1      2028 2.81374E-04 1.30068E-01-9.51921E-14
 -1      2030-2.81374E-04 1.30068E-01-1.40530E-13
 -1      2031 2.81323E-04 1.36610E-01-1.00236E-13
 -1      2033-2.81323E-04 1.36610E-01-1.46882E-13
 -1      2034 2.32964E-05 2.70731E-04-5.08646E-07
 -1      2036-2.32964E-05 2.70731E-04 5.08646E-07
 -1      2037 4.78449E-05 1.10032E-03-6.41394E-07
 -1      2039-4.78449E-05 1.10032E-03 6.41394E-07
 -1      2040 6.68767E-05 2.43498E-03-1.04711E-06
 -1      2042-6.68767E-05 2.43498E-03 1.04711E-06
 -1      2043 8.85339E-05 4.24383E-03-1.32816E-06
 -1      2045-8.85339E-05 4.24383E-03 1.32816E-06
 -1      2046 1.06660E-04 6.51475E-03-1.63850E-06
 -1      2048-1.06660E-04 6.51475E-03 1.63850E-06
 -1      2049 1.25054E-04 9.21059E-03-1.97937E-06
 -1      2051-1.25054E-04 9.21059E-03 1.97937E-06
 -1      2052 1.41690E-04 1.23137E-02-2.28325E-06
 -1      2054-1.41690E-04 1.23137E-02 2.28325E-06
 -1      2055 1.57526E-04 1.57944E-02-2.63167E-06
 -1      2057-1.57526E-04 1.57944E-02 2.63167E-06
 -1      2058 1.72197E-04 1.96298E-02-2.95288E-06
 -1      2060-1.72197E-04 1.96298E-02 2.95288E-06
 -1      2061 1.85813E-04 2.37941E-02-3.29952E-06
 -1      2063-1.85813E-04 2.37941E-02 3.29952E-06
 -1      2064 1.98402E-04 2.82632E-02-3.63450E-06
 -1      2066-1.98402E-04 2.82632E-02 3.63450E-06
 -1      2067 2.09932E-04 3.30127E-02-3.97953E-06
 -1      2069-2.09932E-04 3.30127E-02 3.97953E-06
 -1      2070 2.20473E-04 3.80188E-02-4.32004E-06
 -1      2072-2.20473E-04 3.80188E-02 4.32004E-06
 -1      2073 2.30008E-04 4.32584E-02-4.66188E-06
 -1      2075-2.30008E-04 4.32584E-02 4.66188E-06
 -1      2076 2.38592E-04 4.87086E-02-5.00011E-06
 -1      2078-2.38592E-04 4.87086E-02 5.00011E-06
 -1      2079 2.46234E-04 5.43475E-02-5.33435E-06
 -1      2081-2.46234E-04 5.43475E-02 5.33435E-06
 -1      2082 2.52982E-04 6.01537E-02-5.66277E-06
 -1      2084-2.52982E-04 6.01537E-02 5.66277E-06
 -1      2085 2.58864E-04 6.61066E-02-5.98295E-06
 -1      2087-2.58864E-04 6.61066E-02 5.98295E-06
 -1      2088 2.63927E-04 7.21869E-02-6.29368E-06
 -1      2090-2.63927E-04 7.21869E-02 6.29368E-06
 -1      2091 2.68212E-04 7.83757E-02-6.59190E-06
 -1      2093-2.68212E-04 7.83757E-02 6.59190E-06
 -1      2094 2.71771E-04 8.46557E-02-6.87626E-06
 -1      2096-2.71771E-04 8.46557E-02 6.87626E-06
 -1      2097 2.74655E-04 9.10105E-02-7.14336E-06
 -1      2099-2.74655E-04 9.10105E-02 7.14336E-06
 -1      2100 2.76921E-04 9.74252E-02-7.39160E-06
 -1      2102-2.76921E-04 9.74252E-02 7.39160E-06
 -1      2103 2.78634E-04 1.03886E-01-7.61715E-06
 -1      2105-2.78634E-04 1.03886E-01 7.61715E-06
 -1      2106 2.79853E-04 1.10381E-01-7.81815E-06
 -1      2108-2.79853E-04 1.10381E-01 7.81815E-06
 -1      2109 2.80658E-04 1.16899E-01-7.99033E-06
 -1      2111-2.80658E-04 1.16899E-01 7.99033E-06
 -1      2112 2.81107E-04 1.23432E-01-8.13124E-06
 -1      2114-2.81107E-04 1.23432E-01 8.13124E-06
 -1      2115 2.81303E-04 1.29972E-01-8.23665E-06
 -1      2117-2.81303E-04 1.29972E-01 8.23665E-06
 -1      2118 2.81291E-04 1.36514E-01-8.30239E-06
 -1      2120-2.81291E-04 1.36514E-01 8.30239E-06
 -1      2121 2.33646E-04 2.76118E-04-9.22778E-06
 -1      2123 2.32505E-04 2.76930E-04 5.20028E-07
 -1      2124 4.77269E-04 1.09827E-03-1.44123E-05
 -1      2126 4.76849E-04 1.10113E-03-5.49938E-06
 -1      2127 6.93800E-04 2.41487E-03-1.88746E-05
 -1      2129 6.93028E-04 2.41912E-03-9.81918E-06
 -1      2130 9.06728E-04 4.22076E-03-2.34607E-05
 -1      2132 9.06131E-04 4.22644E-03-1.52087E-05
 -1      2133 1.10507E-03 6.47596E-03-2.79127E-05
 -1      2135 1.10440E-03 6.48315E-03-2.00524E-05
 -1      2136 1.29286E-03 9.16461E-03-3.25518E-05
 -1      2138 1.29221E-03 9.17318E-03-2.50926E-05
 -1      2139 1.46923E-03 1.22551E-02-3.70328E-05
 -1      2141 1.46857E-03 1.22652E-02-3.01345E-05
 -1      2142 1.63412E-03 1.57262E-02-4.16506E-05
 -1      2144 1.63347E-03 1.57376E-02-3.51309E-05
 -1      2145 1.78798E-03 1.95503E-02-4.61955E-05
 -1      2147 1.78733E-03 1.95631E-02-4.01684E-05
 -1      2148 1.93064E-03 2.37041E-02-5.07560E-05
 -1      2150 1.92999E-03 2.37184E-02-4.51802E-05
 -1      2151 2.06242E-03 2.81622E-02-5.53199E-05
 -1      2153 2.06177E-03 2.81778E-02-5.01479E-05
 -1      2154 2.18343E-03 3.29009E-02-5.98031E-05
 -1      2156 2.18278E-03 3.29180E-02-5.51269E-05
 -1      2157 2.29388E-03 3.78963E-02-6.43138E-05
 -1      2159 2.29324E-03 3.79147E-02-5.99848E-05
 -1      2160 2.39404E-03 4.31252E-02-6.86826E-05
 -1      2162 2.39341E-03 4.31450E-02-6.48521E-05
 -1      2163 2.48416E-03 4.85649E-02-7.30604E-05
 -1      2165 2.48354E-03 4.85860E-02-6.95451E-05
 -1      2166 2.56458E-03 5.41934E-02-7.72552E-05
 -1      2168 2.56398E-03 5.42158E-02-7.42125E-05
 -1      2169 2.63562E-03 5.99895E-02-8.14149E-05
 -1      2171 2.63504E-03 6.00131E-02-7.86651E-05
 -1      2172 2.69772E-03 6.59327E-02-8.53570E-05
 -1      2174 2.69716E-03 6.59575E-02-8.30378E-05
 -1      2175 2.75126E-03 7.20035E-02-8.92069E-05
 -1      2177 2.75072E-03 7.20294E-02-8.71574E-05
 -1      2178 2.79675E-03 7.81833E-02-9.28035E-05
 -1      2180 2.79624E-03 7.82103E-02-9.11333E-05
 -1      2181 2.83468E-03 8.44547E-02-9.62444E-05
 -1      2183 2.83421E-03 8.44827E-02-9.48147E-05
 -1      2184 2.86563E-03 9.08016E-02-9.93920E-05
 -1      2186 2.86519E-03 9.08305E-02-9.82841E-05
 -1      2187 2.89018E-03 9.72089E-02-1.02318E-04
 -1      2189 2.88978E-03 9.72386E-02-1.01413E-04
 -1      2190 2.90899E-03 1.03663E-01-1.04906E-04
 -1      2192 2.90864E-03 1.03693E-01-1.04260E-04
 -1      2193 2.92273E-03 1.10152E-01-1.07206E-04
 -1      2195 2.92243E-03 1.10183E-01-1.06715E-04
 -1      2196 2.93216E-03 1.16665E-01-1.09119E-04
 -1      2198 2.93191E-03 1.16697E-01-1.08821E-04
 -1      2199 2.93803E-03 1.23194E-01-1.10677E-04
 -1      2201 2.93784E-03 1.23226E-01-1.10477E-04
 -1      2202 2.94119E-03 1.29731E-01-1.11803E-04
 -1      2204 2.94106E-03 1.29763E-01-1.11724E-04
 -1      2205 2.94249E-03 1.36271E-01-1.12502E-04
 -1      2207 2.94243E-03 1.36303E-01-1.12451E-04
 -1      2208-2.33646E-04 2.76118E-04 9.22778E-06
 -1      2210-2.32505E-04 2.76930E-04-5.20028E-07
 -1      2211-4.77269E-04 1.09827E-03 1.44123E-05
 -1      2213-4.76849E-04 1.10113E-03 5.49938E-06
 -1      2214-6.93800E-04 2.41487E-03 1.88746E-05
 -1      2216-6.93028E-04 2.41912E-03 9.81918E-06
 -1      2217-9.06728E-04 4.22076E-03 2.34607E-05
 -1      2219-9.06131E-04 4.22644E-03 1.52087E-05
 -1      2220-1.10507E-03 6.47596E-03 2.79127E-05
 -1      2222-1.10440E-03 6.48315E-03 2.00524E-05
 -1      2223-1.29286E-03 9.16461E-03 3.25518E-05
 -1      2225-1.29221E-03 9.17318E-03 2.50926E-05
 -1      2226-1.46923E-03 1.22551E-02 3.70328E-05
 -1      2228-1.46857E-03 1.22652E-02 3.01345E-05
 -1      2229-1.63412E-03 1.57262E-02 4.16506E-05
 -1      2231-1.63347E-03 1.57376E-02 3.51309E-05
 -1      2232-1.78798E-03 1.95503E-02 4.61955E-05
 -1      2234-1.78733E-03 1.95631E-02 4.01684E-05
 -1      2235-1.93064E-03 2.37041E-02 5.07560E-05
 -1      2237-1.92999E-03 2.37184E-02 4.51802E-05
 -1      2238-2.06242E-03 2.81622E-02 5.53199E-05
 -1      2240-2.06177E-03 2.81778E-02 5.01479E-05
 -1      2241-2.18343E-03 3.29009E-02 5.98031E-05
 -1      2243-2.18278E-03 3.29180E-02 5.51269E-05
 -1      2244-2.29388E-03 3.78963E-02 6.43138E-05
 -1      2246-2.29324E-03 3.79147E-02 5.99848E-05
 -1      2247-2.39404E-03 4.31252E-02 6.86826E-05
 -1      2249-2.39341E-03 4.31450E-02 6.48521E-05
 -1      2250-2.48416E-03 4.85649E-02 7.30604E-05
 -1      2252-2.48354E-03 4.85860E-02 6.95451E-05
 -1      2253-2.56458E-03 5.41934E-02 7.72552E-05
 -1      2255-2.56398E-03 5.42158E-02 7.42125E-05
 -1      2256-2.63562E-03 5.99895E-02 8.14149E-05
 -1      2258-2.63504E-03 6.00131E-02 7.86651E-05
 -1      2259-2.69772E-03 6.59327E-02 8.53570E-05
 -1      2261-2.69716E-03 6.59575E-02 8.30378E-05
 -1      2262-2.75126E-03 7.20035E-02 8.92069E-05
 -1      2264-2.75072E-03 7.20294E-02 8.71574E-05
 -1      2265-2.79675E-03 7.81833E-02 9.28035E-05
 -1      2267-2.79624E-03 7.82103E-02 9.11333E-05
 -1      2268-2.83468E-03 8.44547E-02 9.62444E-05
 -1      2270-2.83421E-03 8.44827E-02 9.48147E-05
 -1      2271-2.86563E-03 9.08016E-02 9.93920E-05
 -1      2273-2.86519E-03 9.08305E-02 9.82841E-05
 -1      2274-2.89018E-03 9.72089E-02 1.02318E-04
 -1      2276-2.88978E-03 9.72386E-02 1.01413E-04
 -1      2277-2.90899E-03 1.03663E-01 1.04906E-04
 -1      2279-2.90864E-03 1.03693E-01 1.04260E-04
 -1      2280-2.92273E-03 1.10152E-01 1.07206E-04
 -1      2282-2.92243E-03 1.10183E-01 1.06715E-04
 -1      2283-2.93216E-03 1.16665E-01 1.09119E-04
 -1      2285-2.93191E-03 1.16697E-01 1.08821E-04
 -1      2286-2.93803E-03 1.23194E-01 1.10677E-04
 -1      2288-2.93784E-03 1.23226E-01 1.10477E-04
 -1      2289-2.94119E-03 1.29731E-01 1.11803E-04
 -1      2291-2.94106E-03 1.29763E-01 1.11724E-04
 -1      2292-2.94249E-03 1.36271E-01 1.12502E-04
 -1      2294-2.94243E-03 1.36303E-01 1.12451E-04
 -3
    1PSTEP                         2           1           1          
    1PGM                1.000000E+00                                  
    1PGK                6.453065E+03                                  
    1PHID                         -1                                  
    1PSUBC                         0                                  
    1PMODE                         1                                  
  100CL  101 12.78507090         930                     2    1MODAL      1
 -4  STRESS      6    1
 -5  SXX         1    4    1    1
 -5  SYY         1    4    2    2
 -5  SZZ         1    4    3    3
 -5  SXY         1    4    1    2
 -5  SYZ         1    4    2    3
 -5  SZX         1    4    3    1
 -1       404-7.73928E+08-6.12922E+07-9.11653E+05 2.57830E+07-2.89949E+04-3.10225E+05
 -1       406-7.73928E+08-6.12922E+07-9.11653E+05 2.57830E+07-2.89949E+04-3.10225E+05
 -1       407-7.39265E+05 1.54045E+04 4.44599E+03 3.39603E+05 3.13336E+04 2.70278E+03
 -1       409-7.39265E+05 1.54045E+04 4.44599E+03 3.39603E+05 3.13336E+04 2.70278E+03
 -1       410 1.21159E-04 6.32748E-04 1.22826E-04 8.81813E+05 3.78635E+04-1.78647E-05
 -1       412 1.21159E-04 6.32748E-04 1.22826E-04 8.81813E+05 3.78635E+04-1.78647E-05
 -1       413 1.57909E-04 4.08500E-04-3.96924E-05-8.82191E+03 5.94513E+05 3.28949E-04
 -1       415 1.57909E-04 4.08500E-04-3.96924E-05-8.82191E+03 5.94513E+05 3.28949E-04
 -1       424-1.88485E-03-2.51796E-04 2.27243E-07 6.07062E+06 2.15013E+05-2.86781E-05
 -1       426-1.88485E-03-2.51796E-04 2.27243E-07 6.07062E+06 2.15013E+05-2.86781E-05
 -1       427-1.42809E-03-1.01072E-06-2.49202E-04-3.15470E+06 4.68893E+05-2.90755E-04
 -1       429-1.42809E-03-1.01072E-06-2.49202E-04-3.15470E+06 4.68893E+05-2.90755E-04
 -1       438 7.39265E+05-1.54045E+04-4.44599E+03 3.39603E+05 3.13336E+04-2.70278E+03
 -1       440 7.39265E+05-1.54045E+04-4.44599E+03 3.39603E+05 3.13336E+04-2.70278E+03
 -1       441 7.73928E+08 6.12922E+07 9.11653E+05 2.57830E+07-2.89949E+04 3.10225E+05
 -1       443 7.73928E+08 6.12922E+07 9.11653E+05 2.57830E+07-2.89949E+04 3.10225E+05
 -1       444 1.40404E-03 3.94627E-06 2.50861E-04-3.15470E+06-4.68893E+05-2.84431E-04
 -1       446 1.40404E-03 3.94627E-06 2.50861E-04-3.15470E+06-4.68893E+05-2.84431E-04
 -1       447 1.85561E-03 2.46804E-04 1.22190E-06 6.07062E+06-2.15013E+05-2.66220E-05
 -1       449 1.85561E-03 2.46804E-04 1.22190E-06 6.07062E+06-2.15013E+05-2.66220E-05
 -1       458-1.05577E-04-5.17051E-04 2.47247E-04-8.82191E+03-5.94513E+05 1.01853E-04
 -1       460-1.05577E-04-5.17051E-04 2.47247E-04-8.82191E+03-5.94513E+05 1.01853E-04
 -1       461 3.35873E-05-5.93282E-05 7.95144E-05 8.81813E+05-3.78635E+04-1.46045E-06
 -1       463 3.35873E-05-5.93282E-05 7.95144E-05 8.81813E+05-3.78635E+04-1.46045E-06
 -1       472 7.73928E+08 6.12922E+07 9.11653E+05 2.57830E+07 2.89949E+04-3.10225E+05
 -1       474 7.73928E+08 6.12922E+07 9.11653E+05 2.57830E+07 2.89949E+04-3.10225E+05
 -1       475 7.39265E+05-1.54045E+04-4.44599E+03 3.39603E+05-3.13336E+04 2.70278E+03
 -1       477 7.39265E+05-1.54045E+04-4.44599E+03 3.39603E+05-3.13336E+04 2.70278E+03
 -1       478-7.39265E+05 1.54045E+04 4.44599E+03 3.39603E+05-3.13336E+04-2.70278E+03
 -1       480-7.39265E+05 1.54045E+04 4.44599E+03 3.39603E+05-3.13336E+04-2.70278E+03
 -1       481-7.73928E+08-6.12922E+07-9.11653E+05 2.57830E+07 2.89949E+04 3.10225E+05
 -1       483-7.73928E+08-6.12922E+07-9.11653E+05 2.57830E+07 2.89949E+04 3.10225E+05
 -1       484-7.53608E+08-1.50159E+07-1.46627E+05 1.17459E+07-2.08717E+04-1.00546E+05
 -1       486-7.53608E+08-1.50159E+07-1.46627E+05 1.17459E+07-2.08717E+04-1.00546E+05
 -1       487-7.17430E+08 8.07607E+06-5.21145E+05 6.27295E+06 2.66907E+03 7.48562E+03
 -1       489-7.17430E+08 8.07607E+06-5.21145E+05 6.27295E+06 2.66907E+03 7.48562E+03
 -1       490-6.81864E+08-3.92279E+06-4.11287E+05 1.07044E+07 5.56968E+03-4.71762E+04
 -1       492-6.81864E+08-3.92279E+06-4.11287E+05 1.07044E+07 5.56968E+03-4.71762E+04
 -1       493-6.45081E+08 1.80722E+06-3.16778E+05 8.21496E+06 3.31416E+02-2.05784E+04
 -1       495-6.45081E+08 1.80722E+06-3.16778E+05 8.21496E+06 3.31416E+02-2.05784E+04
 -1       496-6.09406E+08-8.25894E+05-4.36072E+05 9.31240E+06 4.49707E+03-3.27156E+04
 -1       498-6.09406E+08-8.25894E+05-4.36072E+05 9.31240E+06 4.49707E+03-3.27156E+04
 -1       499-5.73227E+08 3.95829E+05-2.58786E+05 8.83936E+06 1.19359E+03-2.71563E+04
 -1       501-5.73227E+08 3.95829E+05-2.58786E+05 8.83936E+06 1.19359E+03-2.71563E+04
 -1       502-5.37628E+08-2.07973E+05-3.84852E+05 8.90898E+06 2.78741E+03-2.91733E+04
 -1       504-5.37628E+08-2.07973E+05-3.84852E+05 8.90898E+06 2.78741E+03-2.91733E+04
 -1       505-5.02081E+08 1.23703E+05-2.35339E+05 8.81526E+06 2.45223E+03-2.82549E+04
 -1       507-5.02081E+08 1.23703E+05-2.35339E+05 8.81526E+06 2.45223E+03-2.82549E+04
 -1       508-4.67000E+08-7.89545E+04-3.22698E+05 8.70747E+06 2.92313E+03-2.82326E+04
 -1       510-4.67000E+08-7.89545E+04-3.22698E+05 8.70747E+06 2.92313E+03-2.82326E+04
 -1       511-4.32272E+08 5.50895E+04-2.13311E+05 8.60524E+06 3.86018E+03-2.80145E+04
 -1       513-4.32272E+08 5.50895E+04-2.13311E+05 8.60524E+06 3.86018E+03-2.80145E+04
 -1       514-3.98103E+08-3.67791E+04-2.65457E+05 8.45462E+06 4.35079E+03-2.76380E+04
 -1       516-3.98103E+08-3.67791E+04-2.65457E+05 8.45462E+06 4.35079E+03-2.76380E+04
 -1       517-3.64515E+08 2.76704E+04-1.87087E+05 8.29579E+06 5.72050E+03-2.73319E+04
 -1       519-3.64515E+08 2.76704E+04-1.87087E+05 8.29579E+06 5.72050E+03-2.73319E+04
 -1       520-3.31660E+08-1.73725E+04-2.14996E+05 8.10148E+06 6.58025E+03-2.68195E+04
 -1       522-3.31660E+08-1.73725E+04-2.14996E+05 8.10148E+06 6.58025E+03-2.68195E+04
 -1       523-2.99612E+08 1.47875E+04-1.57739E+05 7.88433E+06 8.14012E+03-2.62979E+04
 -1       525-2.99612E+08 1.47875E+04-1.57739E+05 7.88433E+06 8.14012E+03-2.62979E+04
 -1       526-2.68506E+08-7.83448E+03-1.70458E+05 7.63630E+06 9.37638E+03-2.56129E+04
 -1       528-2.68506E+08-7.83448E+03-1.70458E+05 7.63630E+06 9.37638E+03-2.56129E+04
 -1       529-2.38444E+08 8.83050E+03-1.27293E+05 7.35937E+06 1.10789E+04-2.48485E+04
 -1       531-2.38444E+08 8.83050E+03-1.27293E+05 7.35937E+06 1.10789E+04-2.48485E+04
 -1       532-2.09559E+08-3.04779E+03-1.30994E+05 7.05139E+06 1.26114E+04-2.39384E+04
 -1       534-2.09559E+08-3.04779E+03-1.30994E+05 7.05139E+06 1.26114E+04-2.39384E+04
 -1       535-1.81968E+08 6.17481E+03-9.75022E+04 6.71183E+06 1.44386E+04-2.29107E+04
 -1       537-1.81968E+08 6.17481E+03-9.75022E+04 6.71183E+06 1.44386E+04-2.29107E+04
 -1       538-1.55804E+08-4.68208E+02-9.62107E+04 6.34002E+06 1.61752E+04-2.17381E+04
 -1       540-1.55804E+08-4.68208E+02-9.62107E+04 6.34002E+06 1.61752E+04-2.17381E+04
 -1       541-1.31194E+08 5.05007E+03-6.97451E+04 5.93509E+06 1.80912E+04-2.04289E+04
 -1       543-1.31194E+08 5.05007E+03-6.97451E+04 5.93509E+06 1.80912E+04-2.04289E+04
 -1       544-1.08274E+08 1.10237E+03-6.61088E+04 5.49678E+06 1.99335E+04-1.89695E+04
 -1       546-1.08274E+08 1.10237E+03-6.61088E+04 5.49678E+06 1.99335E+04-1.89695E+04
 -1       547-8.71785E+07 4.62602E+03-4.51185E+04 5.02436E+06 2.18687E+04-1.73719E+04
 -1       549-8.71785E+07 4.62602E+03-4.51185E+04 5.02436E+06 2.18687E+04-1.73719E+04
 -1       550-6.80448E+07 2.26708E+03-4.09595E+04 4.51780E+06 2.36965E+04-1.56090E+04
 -1       552-6.80448E+07 2.26708E+03-4.09595E+04 4.51780E+06 2.36965E+04-1.56090E+04
 -1       553-5.10104E+07 4.34738E+03-2.45356E+04 3.97621E+06 2.55303E+04-1.37472E+04
 -1       555-5.10104E+07 4.34738E+03-2.45356E+04 3.97621E+06 2.55303E+04-1.37472E+04
 -1       556-3.62149E+07 3.69719E+03-2.12155E+04 3.40064E+06 2.71756E+04-1.16474E+04
 -1       558-3.62149E+07 3.69719E+03-2.12155E+04 3.40064E+06 2.71756E+04-1.16474E+04
 -1       559-2.37984E+07 3.26715E+03-8.78371E+03 2.78850E+06 2.86975E+04-9.64695E+03
 -1       561-2.37984E+07 3.26715E+03-8.78371E+03 2.78850E+06 2.86975E+04-9.64695E+03
 -1       562-1.39014E+07 6.36061E+03-7.44237E+03 2.14292E+06 2.99154E+04-7.04061E+03
 -1       564-1.39014E+07 6.36061E+03-7.44237E+03 2.14292E+06 2.99154E+04-7.04061E+03
 -1       565-6.66270E+06 2.28355E+03 1.37033E+03 1.46466E+06 3.07655E+04-5.41551E+03
 -1       567-6.66270E+06 2.28355E+03 1.37033E+03 1.46466E+06 3.07655E+04-5.41551E+03
 -1       568-2.23283E+06 1.39640E+02-1.97539E+01 7.28092E+05 3.12864E+04-1.42196E+03
 -1       570-2.23283E+06 1.39640E+02-1.97539E+01 7.28092E+05 3.12864E+04-1.42196E+03
 -1       571-5.68849E+05-1.02327E+05 1.54471E+03 6.10708E+05 3.45986E+04 2.05736E+03
 -1       573-5.68849E+05-1.02327E+05 1.54471E+03 6.10708E+05 3.45986E+04 2.05736E+03
 -1       574-1.86108E-03-9.80403E-05-3.44589E-07 1.74539E+07 1.20115E+05-5.26906E-06
 -1       576-1.86108E-03-9.80403E-05-3.44589E-07 1.74539E+07 1.20115E+05-5.26906E-06
 -1       577-1.40710E-03-3.32892E-06-1.35540E-04-2.04337E+05 2.75444E+05-2.86953E-04
 -1       579-1.40710E-03-3.32892E-06-1.35540E-04-2.04337E+05 2.75444E+05-2.86953E-04
 -1       588-1.77122E-03 3.31104E-05 1.75089E-07 2.22734E+07-1.18921E+04 4.02344E-06
 -1       590-1.77122E-03 3.31104E-05 1.75089E-07 2.22734E+07-1.18921E+04 4.02344E-06
 -1       591-1.34867E-03-5.70515E-06-6.08820E-06 4.33241E+05 2.28819E+04-2.68470E-04
 -1       593-1.34867E-03-5.70515E-06-6.08820E-06 4.33241E+05 2.28819E+04-2.68470E-04
 -1       602-1.67222E-03-4.74975E-07-8.43778E-07 1.85783E+07 1.59704E+03-2.68375E-06
 -1       604-1.67222E-03-4.74975E-07-8.43778E-07 1.85783E+07 1.59704E+03-2.68375E-06
 -1       605-1.27065E-03-1.00014E-05 3.57515E-06-3.08372E+05 7.15670E+04-2.64307E-04
 -1       607-1.27065E-03-1.00014E-05 3.57515E-06-3.08372E+05 7.15670E+04-2.64307E-04
 -1       616-1.59619E-03-3.84636E-06-3.10875E-06 2.04266E+07 6.38682E+03 1.32641E-06
 -1       618-1.59619E-03-3.84636E-06-3.10875E-06 2.04266E+07 6.38682E+03 1.32641E-06
 -1       619-1.20165E-03-2.37656E-06-1.15146E-06 2.84916E+05 8.99970E+04-2.72512E-04
 -1       621-1.20165E-03-2.37656E-06-1.15146E-06 2.84916E+05 8.99970E+04-2.72512E-04
 -1       630-1.51688E-03-1.94181E-05 2.25753E-06 1.95932E+07-8.02372E+03-1.54657E-06
 -1       632-1.51688E-03-1.94181E-05 2.25753E-06 1.95932E+07-8.02372E+03-1.54657E-06
 -1       633-1.13604E-03 4.49064E-06 4.70437E-06-1.20426E+05 7.93859E+04-2.84064E-04
 -1       635-1.13604E-03 4.49064E-06 4.70437E-06-1.20426E+05 7.93859E+04-2.84064E-04
 -1       644-1.43221E-03-1.84439E-05-3.86499E-06 1.97375E+07 4.32934E+03-4.28408E-07
 -1       646-1.43221E-03-1.84439E-05-3.86499E-06 1.97375E+07 4.32934E+03-4.28408E-07
 -1       647-1.07069E-03 4.13843E-06 1.58986E-05 1.29808E+05 1.21456E+05-2.83024E-04
 -1       649-1.07069E-03 4.13843E-06 1.58986E-05 1.29808E+05 1.21456E+05-2.83024E-04
 -1       658-1.34647E-03 3.04785E-05-1.15205E-05 1.95708E+07-3.98867E+03-1.25465E-06
 -1       660-1.34647E-03 3.04785E-05-1.15205E-05 1.95708E+07-3.98867E+03-1.25465E-06
 -1       661-1.03104E-03-2.96040E-05-2.28298E-07-1.76102E+04 1.21724E+05-2.65844E-04
 -1       663-1.03104E-03-2.96040E-05-2.28298E-07-1.76102E+04 1.21724E+05-2.65844E-04
 -1       672-1.27466E-03 7.32020E-06-9.96701E-06 1.93861E+07 1.82498E+03 3.61842E-07
 -1       674-1.27466E-03 7.32020E-06-9.96701E-06 1.93861E+07 1.82498E+03 3.61842E-07
 -1       675-1.01062E-03-1.16042E-04-5.61987E-05 6.35080E+04 1.53829E+05-2.64403E-04
 -1       677-1.01062E-03-1.16042E-04-5.61987E-05 6.35080E+04 1.53829E+05-2.64403E-04
 -1       686-1.19305E-03-2.52388E-05-1.31056E-05 1.91970E+07-4.52562E+02-3.37281E-07
 -1       688-1.19305E-03-2.52388E-05-1.31056E-05 1.91970E+07-4.52562E+02-3.37281E-07
 -1       689-9.38358E-04-8.67733E-05-8.91843E-05 1.77128E+04 1.67399E+05-2.68508E-04
 -1       691-9.38358E-04-8.67733E-05-8.91843E-05 1.77128E+04 1.67399E+05-2.68508E-04
 -1       700-1.08567E-03-8.27946E-06 1.37724E-05 1.89256E+07 1.89008E+03 1.56347E-06
 -1       702-1.08567E-03-8.27946E-06 1.37724E-05 1.89256E+07 1.89008E+03 1.56347E-06
 -1       703-8.45067E-04-3.99122E-05-1.03987E-04 4.04638E+04 1.93317E+05-3.00790E-04
 -1       705-8.45067E-04-3.99122E-05-1.03987E-04 4.04638E+04 1.93317E+05-3.00790E-04
 -1       714-9.85678E-04-4.02974E-05 1.34669E-06 1.86226E+07 2.21804E+03 5.52103E-07
 -1       716-9.85678E-04-4.02974E-05 1.34669E-06 1.86226E+07 2.21804E+03 5.52103E-07
 -1       717-7.50561E-04-7.85562E-05-5.53024E-05 2.66305E+04 2.13576E+05-3.30364E-04
 -1       719-7.50561E-04-7.85562E-05-5.53024E-05 2.66305E+04 2.13576E+05-3.30364E-04
 -1       728-8.85200E-04-3.51295E-06 1.86171E-05 1.82578E+07 3.62676E+03 3.57656E-06
 -1       730-8.85200E-04-3.51295E-06 1.86171E-05 1.82578E+07 3.62676E+03 3.57656E-06
 -1       731-6.05353E-04 9.49723E-05 1.05913E-04 3.18658E+04 2.37778E+05-2.82460E-04
 -1       733-6.05353E-04 9.49723E-05 1.05913E-04 3.18658E+04 2.37778E+05-2.82460E-04
 -1       742-7.85626E-04 8.99872E-05 4.12762E-05 1.78360E+07 4.87578E+03 2.43418E-06
 -1       744-7.85626E-04 8.99872E-05 4.12762E-05 1.78360E+07 4.87578E+03 2.43418E-06
 -1       745-5.67631E-04 3.11385E-05 1.27417E-04 2.71368E+04 2.60869E+05-2.36427E-04
 -1       747-5.67631E-04 3.11385E-05 1.27417E-04 2.71368E+04 2.60869E+05-2.36427E-04
 -1       756-7.29073E-04 4.59962E-05-6.48201E-06 1.73557E+07 6.29057E+03-1.16797E-06
 -1       758-7.29073E-04 4.59962E-05-6.48201E-06 1.73557E+07 6.29057E+03-1.16797E-06
 -1       759-5.60237E-04-1.57251E-05 1.19241E-04 2.73268E+04 2.85033E+05-2.32638E-04
 -1       761-5.60237E-04-1.57251E-05 1.19241E-04 2.73268E+04 2.85033E+05-2.32638E-04
 -1       770-6.67363E-04-9.91579E-06-6.51265E-05 1.68094E+07 7.90624E+03 1.14847E-06
 -1       772-6.67363E-04-9.91579E-06-6.51265E-05 1.68094E+07 7.90624E+03 1.14847E-06
 -1       773-4.74482E-04 1.69667E-08 8.59605E-05 2.50428E+04 3.09258E+05-1.97034E-04
 -1       775-4.74482E-04 1.69667E-08 8.59605E-05 2.50428E+04 3.09258E+05-1.97034E-04
 -1       784-6.02935E-04 3.01180E-05-5.43976E-05 1.62001E+07 9.55495E+03-7.38463E-07
 -1       786-6.02935E-04 3.01180E-05-5.43976E-05 1.62001E+07 9.55495E+03-7.38463E-07
 -1       787-5.29378E-04-2.02015E-04-6.62887E-05 2.37622E+04 3.33612E+05-1.92903E-04
 -1       789-5.29378E-04-2.02015E-04-6.62887E-05 2.37622E+04 3.33612E+05-1.92903E-04
 -1       798-5.48808E-04-3.88362E-06 3.07071E-05 1.55210E+07 1.13859E+04-2.09231E-06
 -1       800-5.48808E-04-3.88362E-06 3.07071E-05 1.55210E+07 1.13859E+04-2.09231E-06
 -1       801-5.17334E-04-3.27622E-04-1.08447E-04 2.20479E+04 3.58114E+05-1.94037E-04
 -1       803-5.17334E-04-3.27622E-04-1.08447E-04 2.20479E+04 3.58114E+05-1.94037E-04
 -1       812-5.40558E-04-1.25695E-04-9.21395E-05 1.47740E+07 1.32796E+04 1.89843E-06
 -1       814-5.40558E-04-1.25695E-04-9.21395E-05 1.47740E+07 1.32796E+04 1.89843E-06
 -1       815-3.43518E-04-5.41338E-05 7.64091E-06 2.03342E+04 3.82340E+05-1.32953E-04
 -1       817-3.43518E-04-5.41338E-05 7.64091E-06 2.03342E+04 3.82340E+05-1.32953E-04
 -1       826-4.85225E-04-1.19908E-04-1.28184E-04 1.39545E+07 1.52784E+04 3.24817E-06
 -1       828-4.85225E-04-1.19908E-04-1.28184E-04 1.39545E+07 1.52784E+04 3.24817E-06
 -1       829-1.78742E-04 2.96326E-04 7.84768E-05 1.86669E+04 4.06494E+05-1.28071E-04
 -1       831-1.78742E-04 2.96326E-04 7.84768E-05 1.86669E+04 4.06494E+05-1.28071E-04
 -1       840-3.98453E-04 5.92121E-05-6.46990E-06 1.30633E+07 1.73790E+04 5.00901E-06
 -1       842-3.98453E-04 5.92121E-05-6.46990E-06 1.30633E+07 1.73790E+04 5.00901E-06
 -1       843-9.00159E-05 4.72535E-04 1.10820E-04 1.68515E+04 4.30069E+05-1.24244E-04
 -1       845-9.00159E-05 4.72535E-04 1.10820E-04 1.68515E+04 4.30069E+05-1.24244E-04
 -1       854-4.05220E-04 1.42535E-04-1.10542E-04 1.20977E+07 1.95118E+04 5.45330E-07
 -1       856-4.05220E-04 1.42535E-04-1.10542E-04 1.20977E+07 1.95118E+04 5.45330E-07
 -1       857-2.04306E-04 3.06902E-04-1.61362E-05 1.50857E+04 4.53268E+05-6.48448E-05
 -1       859-2.04306E-04 3.06902E-04-1.61362E-05 1.50857E+04 4.53268E+05-6.48448E-05
 -1       868-3.50792E-04 2.05818E-04-1.09454E-04 1.10577E+07 2.17737E+04 8.00148E-06
 -1       870-3.50792E-04 2.05818E-04-1.09454E-04 1.10577E+07 2.17737E+04 8.00148E-06
 -1       871-3.60801E-04-1.61377E-04-3.32554E-04 1.33328E+04 4.75546E+05-1.59587E-04
 -1       873-3.60801E-04-1.61377E-04-3.32554E-04 1.33328E+04 4.75546E+05-1.59587E-04
 -1       882-2.31531E-04 9.16845E-05-4.57203E-05 9.94191E+06 2.39981E+04 4.81393E-06
 -1       884-2.31531E-04 9.16845E-05-4.57203E-05 9.94191E+06 2.39981E+04 4.81393E-06
 -1       885-3.57644E-04-4.55801E-04-3.84537E-04 1.13893E+04 4.97111E+05-3.35284E-04
 -1       887-3.57644E-04-4.55801E-04-3.84537E-04 1.13893E+04 4.97111E+05-3.35284E-04
 -1       896-1.60997E-04-1.71148E-04-4.03491E-05 8.74988E+06 2.63731E+04 8.86631E-06
 -1       898-1.60997E-04-1.71148E-04-4.03491E-05 8.74988E+06 2.63731E+04 8.86631E-06
 -1       899-2.69400E-04-4.94919E-04-1.36882E-04 9.90438E+03 5.17320E+05-3.16889E-04
 -1       901-2.69400E-04-4.94919E-04-1.36882E-04 9.90438E+03 5.17320E+05-3.16889E-04
 -1       910-1.39995E-04 6.89019E-05-7.71967E-05 7.48129E+06 2.86316E+04 6.49288E-06
 -1       912-1.39995E-04 6.89019E-05-7.71967E-05 7.48129E+06 2.86316E+04 6.49288E-06
 -1       913-1.05044E-04-5.26590E-05 8.49446E-05 7.62054E+03 5.36395E+05-1.34144E-04
 -1       915-1.05044E-04-5.26590E-05 8.49446E-05 7.62054E+03 5.36395E+05-1.34144E-04
 -1       924-1.29296E-04 8.80879E-05-1.59945E-04 6.13522E+06 3.10597E+04 6.31141E-06
 -1       926-1.29296E-04 8.80879E-05-1.59945E-04 6.13522E+06 3.10597E+04 6.31141E-06
 -1       927-2.74803E-05-1.00759E-04 2.47940E-06 6.76939E+03 5.53591E+05-1.28763E-04
 -1       929-2.74803E-05-1.00759E-04 2.47940E-06 6.76939E+03 5.53591E+05-1.28763E-04
 -1       938-9.56468E-06-2.48507E-04 1.66494E-05 4.71363E+06 3.32762E+04-4.67572E-06
 -1       940-9.56468E-06-2.48507E-04 1.66494E-05 4.71363E+06 3.32762E+04-4.67572E-06
 -1       941 6.32136E-05-1.23740E-04 3.01476E-04 3.84596E+03 5.68906E+05-2.81643E-04
 -1       943 6.32136E-05-1.23740E-04 3.01476E-04 3.84596E+03 5.68906E+05-2.81643E-04
 -1       952 9.80550E-05-2.15923E-04-1.78492E-06 3.20632E+06 3.55530E+04-1.64599E-05
 -1       954 9.80550E-05-2.15923E-04-1.78492E-06 3.20632E+06 3.55530E+04-1.64599E-05
 -1       955 3.67828E-04 3.46767E-04 9.43494E-04 4.15104E+03 5.81746E+05-1.34499E-04
 -1       957 3.67828E-04 3.46767E-04 9.43494E-04 4.15104E+03 5.81746E+05-1.34499E-04
 -1       966 1.07658E-04 2.55387E-04-3.35251E-05 1.65419E+06 3.75392E+04-2.50350E-06
 -1       968 1.07658E-04 2.55387E-04-3.35251E-05 1.65419E+06 3.75392E+04-2.50350E-06
 -1       969 3.45579E-04 4.58404E-04 5.60710E-04 4.32092E+01 5.90707E+05 1.96486E-04
 -1       971 3.45579E-04 4.58404E-04 5.60710E-04 4.32092E+01 5.90707E+05 1.96486E-04
 -1       980-5.13572E+08-4.51152E+07-1.31707E+05 1.59268E+07 9.30092E+04-1.81223E+05
 -1       982-5.13572E+08-4.51152E+07-1.31707E+05 1.59268E+07 9.30092E+04-1.81223E+05
 -1       983 5.68849E+05 1.02327E+05-1.54471E+03 6.10708E+05 3.45986E+04-2.05736E+03
 -1       985 5.68849E+05 1.02327E+05-1.54471E+03 6.10708E+05 3.45986E+04-2.05736E+03
 -1       986 7.53608E+08 1.50159E+07 1.46627E+05 1.17459E+07-2.08717E+04 1.00546E+05
 -1       988 7.53608E+08 1.50159E+07 1.46627E+05 1.17459E+07-2.08717E+04 1.00546E+05
 -1       989 7.17430E+08-8.07607E+06 5.21145E+05 6.27295E+06 2.66907E+03-7.48562E+03
 -1       991 7.17430E+08-8.07607E+06 5.21145E+05 6.27295E+06 2.66907E+03-7.48562E+03
 -1       992 6.81864E+08 3.92279E+06 4.11287E+05 1.07044E+07 5.56968E+03 4.71762E+04
 -1       994 6.81864E+08 3.92279E+06 4.11287E+05 1.07044E+07 5.56968E+03 4.71762E+04
 -1       995 6.45081E+08-1.80722E+06 3.16778E+05 8.21496E+06 3.31416E+02 2.05784E+04
 -1       997 6.45081E+08-1.80722E+06 3.16778E+05 8.21496E+06 3.31416E+02 2.05784E+04
 -1       998 6.09406E+08 8.25894E+05 4.36072E+05 9.31240E+06 4.49707E+03 3.27156E+04
 -1      1000 6.09406E+08 8.25894E+05 4.36072E+05 9.31240E+06 4.49707E+03 3.27156E+04
 -1      1001 5.73227E+08-3.95829E+05 2.58786E+05 8.83936E+06 1.19359E+03 2.71563E+04
 -1      1003 5.73227E+08-3.95829E+05 2.58786E+05 8.83936E+06 1.19359E+03 2.71563E+04
 -1      1004 5.37628E+08 2.07973E+05 3.84852E+05 8.90898E+06 2.78741E+03 2.91733E+04
 -1      1006 5.37628E+08 2.07973E+05 3.84852E+05 8.90898E+06 2.78741E+03 2.91733E+04
 -1      1007 5.02081E+08-1.23703E+05 2.35339E+05 8.81526E+06 2.45223E+03 2.82549E+04
 -1      1009 5.02081E+08-1.23703E+05 2.35339E+05 8.81526E+06 2.45223E+03 2.82549E+04
 -1      1010 4.67000E+08 7.89545E+04 3.22698E+05 8.70747E+06 2.92313E+03 2.82326E+04
 -1      1012 4.67000E+08 7.89545E+04 3.22698E+05 8.70747E+06 2.92313E+03 2.82326E+04
 -1      1013 4.32272E+08-5.50895E+04 2.13311E+05 8.60524E+06 3.86018E+03 2.80145E+04
 -1      1015 4.32272E+08-5.50895E+04 2.13311E+05 8.60524E+06 3.86018E+03 2.80145E+04
 -1      1016 3.98103E+08 3.67791E+04 2.65457E+05 8.45462E+06 4.35079E+03 2.76380E+04
 -1      1018 3.98103E+08 3.67791E+04 2.65457E+05 8.45462E+06 4.35079E+03 2.76380E+04
 -1      1019 3.64515E+08-2.76704E+04 1.87087E+05 8.29579E+06 5.72050E+03 2.73319E+04
 -1      1021 3.64515E+08-2.76704E+04 1.87087E+05 8.29579E+06 5.72050E+03 2.73319E+04
 -1      1022 3.31660E+08 1.73725E+04 2.14996E+05 8.10148E+06 6.58025E+03 2.68195E+04
 -1      1024 3.31660E+08 1.73725E+04 2.14996E+05 8.10148E+06 6.58025E+03 2.68195E+04
 -1      1025 2.99612E+08-1.47875E+04 1.57739E+05 7.88433E+06 8.14012E+03 2.62979E+04
 -1      1027 2.99612E+08-1.47875E+04 1.57739E+05 7.88433E+06 8.14012E+03 2.62979E+04
 -1      1028 2.68506E+08 7.83448E+03 1.70458E+05 7.63630E+06 9.37638E+03 2.56129E+04
 -1      1030 2.68506E+08 7.83448E+03 1.70458E+05 7.63630E+06 9.37638E+03 2.56129E+04
 -1      1031 2.38444E+08-8.83050E+03 1.27293E+05 7.35937E+06 1.10789E+04 2.48485E+04
 -1      1033 2.38444E+08-8.83050E+03 1.27293E+05 7.35937E+06 1.10789E+04 2.48485E+04
 -1      1034 2.09559E+08 3.04779E+03 1.30994E+05 7.05139E+06 1.26114E+04 2.39384E+04
 -1      1036 2.09559E+08 3.04779E+03 1.30994E+05 7.05139E+06 1.26114E+04 2.39384E+04
 -1      1037 1.81968E+08-6.17481E+03 9.75022E+04 6.71183E+06 1.44386E+04 2.29107E+04
 -1      1039 1.81968E+08-6.17481E+03 9.75022E+04 6.71183E+06 1.44386E+04 2.29107E+04
 -1      1040 1.55804E+08 4.68209E+02 9.62107E+04 6.34002E+06 1.61752E+04 2.17381E+04
 -1      1042 1.55804E+08 4.68209E+02 9.62107E+04 6.34002E+06 1.61752E+04 2.17381E+04
 -1      1043 1.31194E+08-5.05007E+03 6.97451E+04 5.93509E+06 1.80912E+04 2.04289E+04
 -1      1045 1.31194E+08-5.05007E+03 6.97451E+04 5.93509E+06 1.80912E+04 2.04289E+04
 -1      1046 1.08274E+08-1.10237E+03 6.61088E+04 5.49678E+06 1.99335E+04 1.89695E+04
 -1      1048 1.08274E+08-1.10237E+03 6.61088E+04 5.49678E+06 1.99335E+04 1.89695E+04
 -1      1049 8.71785E+07-4.62602E+03 4.51185E+04 5.02436E+06 2.18687E+04 1.73719E+04
 -1      1051 8.71785E+07-4.62602E+03 4.51185E+04 5.02436E+06 2.18687E+04 1.73719E+04
 -1      1052 6.80448E+07-2.26708E+03 4.09595E+04 4.51780E+06 2.36965E+04 1.56090E+04
 -1      1054 6.80448E+07-2.26708E+03 4.09595E+04 4.51780E+06 2.36965E+04 1.56090E+04
 -1      1055 5.10104E+07-4.34738E+03 2.45356E+04 3.97621E+06 2.55303E+04 1.37472E+04
 -1      1057 5.10104E+07-4.34738E+03 2.45356E+04 3.97621E+06 2.55303E+04 1.37472E+04
 -1      1058 3.62149E+07-3.69719E+03 2.12155E+04 3.40064E+06 2.71756E+04 1.16474E+04
 -1      1060 3.62149E+07-3.69719E+03 2.12155E+04 3.40064E+06 2.71756E+04 1.16474E+04
 -1      1061 2.37984E+07-3.26715E+03 8.78371E+03 2.78850E+06 2.86975E+04 9.64695E+03
 -1      1063 2.37984E+07-3.26715E+03 8.78371E+03 2.78850E+06 2.86975E+04 9.64695E+03
 -1      1064 1.39014E+07-6.36061E+03 7.44237E+03 2.14292E+06 2.99154E+04 7.04061E+03
 -1      1066 1.39014E+07-6.36061E+03 7.44237E+03 2.14292E+06 2.99154E+04 7.04061E+03
 -1      1067 6.66270E+06-2.28355E+03-1.37033E+03 1.46466E+06 3.07655E+04 5.41551E+03
 -1      1069 6.66270E+06-2.28355E+03-1.37033E+03 1.46466E+06 3.07655E+04 5.41551E+03
 -1      1070 2.23283E+06-1.39640E+02 1.97540E+01 7.28092E+05 3.12864E+04 1.42196E+03
 -1      1072 2.23283E+06-1.39640E+02 1.97540E+01 7.28092E+05 3.12864E+04 1.42196E+03
 -1      1073 5.13572E+08 4.51152E+07 1.31707E+05 1.59268E+07 9.30092E+04 1.81223E+05
 -1      1075 5.13572E+08 4.51152E+07 1.31707E+05 1.59268E+07 9.30092E+04 1.81223E+05
 -1      1076-9.43954E-04 9.87260E-07-1.67792E-04-1.95559E+06 9.47464E+04-2.60265E-04
 -1      1078-9.43954E-04 9.87260E-07-1.67792E-04-1.95559E+06 9.47464E+04-2.60265E-04
 -1      1079-1.23038E-05-2.74422E-07-1.36113E-06-7.56479E+05-2.39233E-05-2.28963E-04
 -1      1081-1.23038E-05-2.74422E-07-1.36113E-06-7.56479E+05-2.39233E-05-2.28963E-04
 -1      1082 9.19624E-04 2.06094E-07 1.67260E-04-1.95559E+06-9.47464E+04-2.56291E-04
 -1      1084 9.19624E-04 2.06094E-07 1.67260E-04-1.95559E+06-9.47464E+04-2.56291E-04
 -1      1085 1.38328E-03 1.72019E-06 1.37910E-04-2.04337E+05-2.75444E+05-2.84360E-04
 -1      1087 1.38328E-03 1.72019E-06 1.37910E-04-2.04337E+05-2.75444E+05-2.84360E-04
 -1      1088 1.83307E-03 9.39779E-05-1.69128E-06 1.74539E+07-1.20115E+05-3.84467E-06
 -1      1090 1.83307E-03 9.39779E-05-1.69128E-06 1.74539E+07-1.20115E+05-3.84467E-06
 -1      1099 1.32195E-03 3.81620E-06 1.19384E-05 4.33241E+05-2.28819E+04-2.66707E-04
 -1      1101 1.32195E-03 3.81620E-06 1.19384E-05 4.33241E+05-2.28819E+04-2.66707E-04
 -1      1102 1.74394E-03-3.12701E-05 1.49012E-07 2.22734E+07 1.18921E+04 4.36647E-06
 -1      1104 1.74394E-03-3.12701E-05 1.49012E-07 2.22734E+07 1.18921E+04 4.36647E-06
 -1      1113 1.24516E-03 8.10601E-06 5.88138E-06-3.08372E+05-7.15670E+04-2.60023E-04
 -1      1115 1.24516E-03 8.10601E-06 5.88138E-06-3.08372E+05-7.15670E+04-2.60023E-04
 -1      1116 1.64341E-03-1.01533E-05-3.63402E-06 1.85783E+07-1.59704E+03-9.81196E-07
 -1      1118 1.64341E-03-1.01533E-05-3.63402E-06 1.85783E+07-1.59704E+03-9.81196E-07
 -1      1127 1.18400E-03 3.43787E-05 1.37592E-05 2.84916E+05-8.99970E+04-2.71397E-04
 -1      1129 1.18400E-03 3.43787E-05 1.37592E-05 2.84916E+05-8.99970E+04-2.71397E-04
 -1      1130 1.56828E-03 1.60187E-07 5.42030E-07 2.04266E+07-6.38682E+03 2.18152E-06
 -1      1132 1.56828E-03 1.60187E-07 5.42030E-07 2.04266E+07-6.38682E+03 2.18152E-06
 -1      1141 1.11615E-03 2.45626E-05-4.54385E-06-1.20426E+05-7.93859E+04-2.74428E-04
 -1      1143 1.11615E-03 2.45626E-05-4.54385E-06-1.20426E+05-7.93859E+04-2.74428E-04
 -1      1144 1.48601E-03-1.89990E-06 8.54023E-06 1.95932E+07 8.02372E+03 1.30404E-06
 -1      1146 1.48601E-03-1.89990E-06 8.54023E-06 1.95932E+07 8.02372E+03 1.30404E-06
 -1      1155 1.04155E-03-1.01519E-05-2.62317E-05 1.29808E+05-1.21456E+05-2.66809E-04
 -1      1157 1.04155E-03-1.01519E-05-2.62317E-05 1.29808E+05-1.21456E+05-2.66809E-04
 -1      1158 1.40397E-03-1.25654E-05 2.80701E-06 1.97375E+07-4.32934E+03 1.55464E-06
 -1      1160 1.40397E-03-1.25654E-05 2.80701E-06 1.97375E+07-4.32934E+03 1.55464E-06
 -1      1169 1.00557E-03 4.65666E-05 4.52859E-06-1.76102E+04-1.21724E+05-2.53930E-04
 -1      1171 1.00557E-03 4.65666E-05 4.52859E-06-1.76102E+04-1.21724E+05-2.53930E-04
 -1      1172 1.32380E-03-1.12094E-05-5.99958E-06 1.95708E+07 3.98867E+03-3.54317E-07
 -1      1174 1.32380E-03-1.12094E-05-5.99958E-06 1.95708E+07 3.98867E+03-3.54317E-07
 -1      1183 9.70333E-04 8.07738E-05 3.72107E-05 6.35080E+04-1.53829E+05-2.56589E-04
 -1      1185 9.70333E-04 8.07738E-05 3.72107E-05 6.35080E+04-1.53829E+05-2.56589E-04
 -1      1186 1.24038E-03-3.69009E-05-5.79469E-06 1.93861E+07-1.82498E+03 9.36180E-07
 -1      1188 1.24038E-03-3.69009E-05-5.79469E-06 1.93861E+07-1.82498E+03 9.36180E-07
 -1      1197 8.92567E-04 2.94977E-05 2.17721E-05 1.77128E+04-1.67399E+05-2.71543E-04
 -1      1199 8.92567E-04 2.94977E-05 2.17721E-05 1.77128E+04-1.67399E+05-2.71543E-04
 -1      1200 1.16619E-03-2.82153E-05-4.66034E-06 1.91970E+07 4.52562E+02 6.65329E-07
 -1      1202 1.16619E-03-2.82153E-05-4.66034E-06 1.91970E+07 4.52562E+02 6.65329E-07
 -1      1211 7.85761E-04-4.55253E-05-4.37824E-05 4.04638E+04-1.93317E+05-3.09291E-04
 -1      1213 7.85761E-04-4.55253E-05-4.37824E-05 4.04638E+04-1.93317E+05-3.09291E-04
 -1      1214 1.10173E-03 4.22997E-05 5.85243E-06 1.89256E+07-1.89008E+03 2.54302E-06
 -1      1216 1.10173E-03 4.22997E-05 5.85243E-06 1.89256E+07-1.89008E+03 2.54302E-06
 -1      1225 6.49240E-04-1.71153E-04-1.70588E-04 2.66305E+04-2.13576E+05-3.21657E-04
 -1      1227 6.49240E-04-1.71153E-04-1.70588E-04 2.66305E+04-2.13576E+05-3.21657E-04
 -1      1228 9.97107E-04 4.93582E-05-1.17086E-05 1.86226E+07-2.21804E+03-1.29235E-07
 -1      1230 9.97107E-04 4.93582E-05-1.17086E-05 1.86226E+07-2.21804E+03-1.29235E-07
 -1      1239 5.09330E-04-3.13138E-04-2.70815E-04 3.18658E+04-2.37778E+05-2.67771E-04
 -1      1241 5.09330E-04-3.13138E-04-2.70815E-04 3.18658E+04-2.37778E+05-2.67771E-04
 -1      1242 8.90467E-04 1.25980E-05-1.78907E-05 1.82578E+07-3.62676E+03 2.07432E-07
 -1      1244 8.90467E-04 1.25980E-05-1.78907E-05 1.82578E+07-3.62676E+03 2.07432E-07
 -1      1253 5.31858E-04-1.68283E-04-1.60215E-04 2.71368E+04-2.60869E+05-2.09979E-04
 -1      1255 5.31858E-04-1.68283E-04-1.60215E-04 2.71368E+04-2.60869E+05-2.09979E-04
 -1      1256 8.32841E-04 3.93596E-05 2.69404E-05 1.78360E+07-4.87578E+03-2.07993E-06
 -1      1258 8.32841E-04 3.93596E-05 2.69404E-05 1.78360E+07-4.87578E+03-2.07993E-06
 -1      1267 5.91299E-04 6.72956E-07 3.26693E-05 2.73268E+04-2.85033E+05-1.57989E-04
 -1      1269 5.91299E-04 6.72956E-07 3.26693E-05 2.73268E+04-2.85033E+05-1.57989E-04
 -1      1270 7.72513E-04-3.95086E-05 4.09130E-06 1.73557E+07-6.29057E+03-2.40770E-06
 -1      1272 7.72513E-04-3.95086E-05 4.09130E-06 1.73557E+07-6.29057E+03-2.40770E-06
 -1      1281 5.63835E-04 2.66826E-06 1.44499E-04 2.50428E+04-3.09258E+05-1.47686E-04
 -1      1283 5.63835E-04 2.66826E-06 1.44499E-04 2.50428E+04-3.09258E+05-1.47686E-04
 -1      1284 6.99379E-04-1.13605E-04-6.77640E-05 1.68094E+07-7.90624E+03 2.14451E-06
 -1      1286 6.99379E-04-1.13605E-04-6.77640E-05 1.68094E+07-7.90624E+03 2.14451E-06
 -1      1295 4.51345E-04-1.01748E-04 6.43655E-05 2.37622E+04-3.33612E+05-1.98856E-04
 -1      1297 4.51345E-04-1.01748E-04 6.43655E-05 2.37622E+04-3.33612E+05-1.98856E-04
 -1      1298 6.48808E-04-4.68930E-05-4.73969E-05 1.62001E+07-9.55495E+03 4.92035E-07
 -1      1300 6.48808E-04-4.68930E-05-4.73969E-05 1.62001E+07-9.55495E+03 4.92035E-07
 -1      1309 3.29391E-04-2.50700E-04-2.32470E-04 2.20479E+04-3.58114E+05-2.16361E-04
 -1      1311 3.29391E-04-2.50700E-04-2.32470E-04 2.20479E+04-3.58114E+05-2.16361E-04
 -1      1312 6.17797E-04 4.10751E-05 1.45561E-05 1.55210E+07-1.13859E+04 4.04485E-06
 -1      1314 6.17797E-04 4.10751E-05 1.45561E-05 1.55210E+07-1.13859E+04 4.04485E-06
 -1      1323 3.73333E-04-1.57284E-06-3.00860E-04 2.03342E+04-3.82340E+05-1.29390E-04
 -1      1325 3.73333E-04-1.57284E-06-3.00860E-04 2.03342E+04-3.82340E+05-1.29390E-04
 -1      1326 5.56303E-04 1.29009E-04-3.88459E-05 1.47740E+07-1.32796E+04-3.40723E-06
 -1      1328 5.56303E-04 1.29009E-04-3.88459E-05 1.47740E+07-1.32796E+04-3.40723E-06
 -1      1337 2.84060E-04-2.63901E-04-2.31144E-04 1.86669E+04-4.06494E+05 3.39334E-08
 -1      1339 2.84060E-04-2.63901E-04-2.31144E-04 1.86669E+04-4.06494E+05 3.39334E-08
 -1      1340 5.20831E-04 4.52902E-06-5.88750E-05 1.39545E+07-1.52784E+04-5.83586E-08
 -1      1342 5.20831E-04 4.52902E-06-5.88750E-05 1.39545E+07-1.52784E+04-5.83586E-08
 -1      1351 1.91840E-04-6.87452E-04-1.51879E-04 1.68515E+04-4.30069E+05 1.65980E-05
 -1      1353 1.91840E-04-6.87452E-04-1.51879E-04 1.68515E+04-4.30069E+05 1.65980E-05
 -1      1354 5.75123E-04-4.30970E-06-1.63373E-05 1.30633E+07-1.73790E+04-1.21943E-05
 -1      1356 5.75123E-04-4.30970E-06-1.63373E-05 1.30633E+07-1.73790E+04-1.21943E-05
 -1      1365 5.31998E-04-8.03819E-06 2.18364E-04 1.50857E+04-4.53268E+05-1.12822E-04
 -1      1367 5.31998E-04-8.03819E-06 2.18364E-04 1.50857E+04-4.53268E+05-1.12822E-04
 -1      1368 5.84554E-04 1.12107E-04-5.54323E-05 1.20977E+07-1.95118E+04-2.70715E-07
 -1      1370 5.84554E-04 1.12107E-04-5.54323E-05 1.20977E+07-1.95118E+04-2.70715E-07
 -1      1379 7.79048E-04 8.23727E-04 4.12395E-04 1.33328E+04-4.75546E+05-3.80835E-04
 -1      1381 7.79048E-04 8.23727E-04 4.12395E-04 1.33328E+04-4.75546E+05-3.80835E-04
 -1      1382 4.31908E-04-8.91390E-05-8.78843E-05 1.10577E+07-2.17737E+04-2.18970E-06
 -1      1384 4.31908E-04-8.91390E-05-8.78843E-05 1.10577E+07-2.17737E+04-2.18970E-06
 -1      1393 6.02171E-04 9.69537E-04 1.42718E-04 1.13893E+04-4.97111E+05-4.74233E-04
 -1      1395 6.02171E-04 9.69537E-04 1.42718E-04 1.13893E+04-4.97111E+05-4.74233E-04
 -1      1396 3.33787E-04 7.16529E-05 2.16300E-05 9.94191E+06-2.39981E+04-7.97090E-06
 -1      1398 3.33787E-04 7.16529E-05 2.16300E-05 9.94191E+06-2.39981E+04-7.97090E-06
 -1      1407 1.33747E-04-1.67600E-05-3.45045E-04 9.90438E+03-5.17320E+05-2.92362E-04
 -1      1409 1.33747E-04-1.67600E-05-3.45045E-04 9.90438E+03-5.17320E+05-2.92362E-04
 -1      1410 2.73814E-04 3.99976E-05 3.43701E-05 8.74988E+06-2.63731E+04 7.24027E-06
 -1      1412 2.73814E-04 3.99976E-05 3.43701E-05 8.74988E+06-2.63731E+04 7.24027E-06
 -1      1421-7.70780E-05-5.61166E-04-3.94594E-04 7.62054E+03-5.36395E+05-2.21150E-04
 -1      1423-7.70780E-05-5.61166E-04-3.94594E-04 7.62054E+03-5.36395E+05-2.21150E-04
 -1      1424 1.64974E-04-1.45798E-04-6.80997E-05 7.48129E+06-2.86316E+04-1.06302E-05
 -1      1426 1.64974E-04-1.45798E-04-6.80997E-05 7.48129E+06-2.86316E+04-1.06302E-05
 -1      1435-1.19556E-04-5.56303E-04-1.80477E-04 6.76939E+03-5.53591E+05-2.20497E-04
 -1      1437-1.19556E-04-5.56303E-04-1.80477E-04 6.76939E+03-5.53591E+05-2.20497E-04
 -1      1438 1.33216E-04-4.84773E-05-2.28020E-05 6.13522E+06-3.10597E+04-1.69975E-07
 -1      1440 1.33216E-04-4.84773E-05-2.28020E-05 6.13522E+06-3.10597E+04-1.69975E-07
 -1      1449-1.20712E-04-4.24519E-04-5.09021E-05 3.84596E+03-5.68906E+05-2.61038E-04
 -1      1451-1.20712E-04-4.24519E-04-5.09021E-05 3.84596E+03-5.68906E+05-2.61038E-04
 -1      1452 1.50828E-05-3.44758E-04 1.18033E-04 4.71363E+06-3.32762E+04-5.41464E-06
 -1      1454 1.50828E-05-3.44758E-04 1.18033E-04 4.71363E+06-3.32762E+04-5.41464E-06
 -1      1463 3.28410E-05 6.59425E-05 3.15362E-05 4.15104E+03-5.81746E+05-2.18470E-04
 -1      1465 3.28410E-05 6.59425E-05 3.15362E-05 4.15104E+03-5.81746E+05-2.18470E-04
 -1      1466-8.22445E-06 3.89346E-06 6.00603E-05 3.20632E+06-3.55530E+04-8.08008E-06
 -1      1468-8.22445E-06 3.89346E-06 6.00603E-05 3.20632E+06-3.55530E+04-8.08008E-06
 -1      1477-4.14379E-05-2.14792E-04 1.02621E-04 4.32093E+01-5.90707E+05-2.47865E-06
 -1      1479-4.14379E-05-2.14792E-04 1.02621E-04 4.32093E+01-5.90707E+05-2.47865E-06
 -1      1480 5.79959E-05 2.56211E-04-5.45864E-07 1.65419E+06-3.75392E+04 6.06804E-07
 -1      1482 5.79959E-05 2.56211E-04-5.45864E-07 1.65419E+06-3.75392E+04 6.06804E-07
 -1      1491-3.30385E-05-1.18017E-04-4.94878E-05-9.44989E+03 3.69499E+05 2.38239E-04
 -1      1493-3.30385E-05-1.18017E-04-4.94878E-05-9.44989E+03 3.69499E+05 2.38239E-04
 -1      1494-2.22848E-04-4.79201E-04-1.31039E-04-1.00779E+04 2.25331E-04 1.34617E-04
 -1      1496-2.22848E-04-4.79201E-04-1.31039E-04-1.00779E+04 2.25331E-04 1.34617E-04
 -1      1497-1.63643E-04-4.15460E-04 2.22265E-05-9.44989E+03-3.69499E+05 1.11779E-04
 -1      1499-1.63643E-04-4.15460E-04 2.22265E-05-9.44989E+03-3.69499E+05 1.11779E-04
 -1      1500 7.53608E+08 1.50159E+07 1.46627E+05 1.17459E+07 2.08717E+04-1.00546E+05
 -1      1502 7.53608E+08 1.50159E+07 1.46627E+05 1.17459E+07 2.08717E+04-1.00546E+05
 -1      1503 7.17430E+08-8.07607E+06 5.21145E+05 6.27295E+06-2.66907E+03 7.48562E+03
 -1      1505 7.17430E+08-8.07607E+06 5.21145E+05 6.27295E+06-2.66907E+03 7.48562E+03
 -1      1506 6.81864E+08 3.92279E+06 4.11287E+05 1.07044E+07-5.56968E+03-4.71762E+04
 -1      1508 6.81864E+08 3.92279E+06 4.11287E+05 1.07044E+07-5.56968E+03-4.71762E+04
 -1      1509 6.45081E+08-1.80722E+06 3.16778E+05 8.21496E+06-3.31416E+02-2.05784E+04
 -1      1511 6.45081E+08-1.80722E+06 3.16778E+05 8.21496E+06-3.31416E+02-2.05784E+04
 -1      1512 6.09406E+08 8.25894E+05 4.36072E+05 9.31240E+06-4.49707E+03-3.27156E+04
 -1      1514 6.09406E+08 8.25894E+05 4.36072E+05 9.31240E+06-4.49707E+03-3.27156E+04
 -1      1515 5.73227E+08-3.95829E+05 2.58786E+05 8.83936E+06-1.19359E+03-2.71563E+04
 -1      1517 5.73227E+08-3.95829E+05 2.58786E+05 8.83936E+06-1.19359E+03-2.71563E+04
 -1      1518 5.37628E+08 2.07973E+05 3.84852E+05 8.90898E+06-2.78741E+03-2.91733E+04
 -1      1520 5.37628E+08 2.07973E+05 3.84852E+05 8.90898E+06-2.78741E+03-2.91733E+04
 -1      1521 5.02081E+08-1.23703E+05 2.35339E+05 8.81526E+06-2.45223E+03-2.82549E+04
 -1      1523 5.02081E+08-1.23703E+05 2.35339E+05 8.81526E+06-2.45223E+03-2.82549E+04
 -1      1524 4.67000E+08 7.89545E+04 3.22698E+05 8.70747E+06-2.92313E+03-2.82326E+04
 -1      1526 4.67000E+08 7.89545E+04 3.22698E+05 8.70747E+06-2.92313E+03-2.82326E+04
 -1      1527 4.32272E+08-5.50895E+04 2.13311E+05 8.60524E+06-3.86018E+03-2.80145E+04
 -1      1529 4.32272E+08-5.50895E+04 2.13311E+05 8.60524E+06-3.86018E+03-2.80145E+04
 -1      1530 3.98103E+08 3.67791E+04 2.65457E+05 8.45462E+06-4.35079E+03-2.76380E+04
 -1      1532 3.98103E+08 3.67791E+04 2.65457E+05 8.45462E+06-4.35079E+03-2.76380E+04
 -1      1533 3.64515E+08-2.76704E+04 1.87087E+05 8.29579E+06-5.72050E+03-2.73319E+04
 -1      1535 3.64515E+08-2.76704E+04 1.87087E+05 8.29579E+06-5.72050E+03-2.73319E+04
 -1      1536 3.31660E+08 1.73725E+04 2.14996E+05 8.10148E+06-6.58025E+03-2.68195E+04
 -1      1538 3.31660E+08 1.73725E+04 2.14996E+05 8.10148E+06-6.58025E+03-2.68195E+04
 -1      1539 2.99612E+08-1.47875E+04 1.57739E+05 7.88433E+06-8.14012E+03-2.62979E+04
 -1      1541 2.99612E+08-1.47875E+04 1.57739E+05 7.88433E+06-8.14012E+03-2.62979E+04
 -1      1542 2.68506E+08 7.83448E+03 1.70458E+05 7.63630E+06-9.37638E+03-2.56129E+04
 -1      1544 2.68506E+08 7.83448E+03 1.70458E+05 7.63630E+06-9.37638E+03-2.56129E+04
 -1      1545 2.38444E+08-8.83050E+03 1.27293E+05 7.35937E+06-1.10789E+04-2.48485E+04
 -1      1547 2.38444E+08-8.83050E+03 1.27293E+05 7.35937E+06-1.10789E+04-2.48485E+04
 -1      1548 2.09559E+08 3.04779E+03 1.30994E+05 7.05139E+06-1.26114E+04-2.39384E+04
 -1      1550 2.09559E+08 3.04779E+03 1.30994E+05 7.05139E+06-1.26114E+04-2.39384E+04
 -1      1551 1.81968E+08-6.17481E+03 9.75022E+04 6.71183E+06-1.44386E+04-2.29107E+04
 -1      1553 1.81968E+08-6.17481E+03 9.75022E+04 6.71183E+06-1.44386E+04-2.29107E+04
 -1      1554 1.55804E+08 4.68209E+02 9.62107E+04 6.34002E+06-1.61752E+04-2.17381E+04
 -1      1556 1.55804E+08 4.68209E+02 9.62107E+04 6.34002E+06-1.61752E+04-2.17381E+04
 -1      1557 1.31194E+08-5.05007E+03 6.97451E+04 5.93509E+06-1.80912E+04-2.04289E+04
 -1      1559 1.31194E+08-5.05007E+03 6.97451E+04 5.93509E+06-1.80912E+04-2.04289E+04
 -1      1560 1.08274E+08-1.10237E+03 6.61088E+04 5.49678E+06-1.99335E+04-1.89695E+04
 -1      1562 1.08274E+08-1.10237E+03 6.61088E+04 5.49678E+06-1.99335E+04-1.89695E+04
 -1      1563 8.71785E+07-4.62602E+03 4.51185E+04 5.02436E+06-2.18687E+04-1.73719E+04
 -1      1565 8.71785E+07-4.62602E+03 4.51185E+04 5.02436E+06-2.18687E+04-1.73719E+04
 -1      1566 6.80448E+07-2.26708E+03 4.09595E+04 4.51780E+06-2.36965E+04-1.56090E+04
 -1      1568 6.80448E+07-2.26708E+03 4.09595E+04 4.51780E+06-2.36965E+04-1.56090E+04
 -1      1569 5.10104E+07-4.34738E+03 2.45356E+04 3.97621E+06-2.55303E+04-1.37472E+04
 -1      1571 5.10104E+07-4.34738E+03 2.45356E+04 3.97621E+06-2.55303E+04-1.37472E+04
 -1      1572 3.62149E+07-3.69719E+03 2.12155E+04 3.40064E+06-2.71756E+04-1.16474E+04
 -1      1574 3.62149E+07-3.69719E+03 2.12155E+04 3.40064E+06-2.71756E+04-1.16474E+04
 -1      1575 2.37984E+07-3.26715E+03 8.78371E+03 2.78850E+06-2.86975E+04-9.64695E+03
 -1      1577 2.37984E+07-3.26715E+03 8.78371E+03 2.78850E+06-2.86975E+04-9.64695E+03
 -1      1578 1.39014E+07-6.36061E+03 7.44237E+03 2.14292E+06-2.99154E+04-7.04061E+03
 -1      1580 1.39014E+07-6.36061E+03 7.44237E+03 2.14292E+06-2.99154E+04-7.04061E+03
 -1      1581 6.66270E+06-2.28355E+03-1.37033E+03 1.46466E+06-3.07655E+04-5.41551E+03
 -1      1583 6.66270E+06-2.28355E+03-1.37033E+03 1.46466E+06-3.07655E+04-5.41551E+03
 -1      1584 2.23283E+06-1.39640E+02 1.97539E+01 7.28092E+05-3.12864E+04-1.42196E+03
 -1      1586 2.23283E+06-1.39640E+02 1.97539E+01 7.28092E+05-3.12864E+04-1.42196E+03
 -1      1587 5.68849E+05 1.02327E+05-1.54471E+03 6.10708E+05-3.45986E+04 2.05736E+03
 -1      1589 5.68849E+05 1.02327E+05-1.54471E+03 6.10708E+05-3.45986E+04 2.05736E+03
 -1      1590 5.13572E+08 4.51152E+07 1.31707E+05 1.59268E+07-9.30092E+04-1.81223E+05
 -1      1592 5.13572E+08 4.51152E+07 1.31707E+05 1.59268E+07-9.30092E+04-1.81223E+05
 -1      1593-5.68849E+05-1.02327E+05 1.54471E+03 6.10708E+05-3.45986E+04-2.05736E+03
 -1      1595-5.68849E+05-1.02327E+05 1.54471E+03 6.10708E+05-3.45986E+04-2.05736E+03
 -1      1596-7.53608E+08-1.50159E+07-1.46627E+05 1.17459E+07 2.08717E+04 1.00546E+05
 -1      1598-7.53608E+08-1.50159E+07-1.46627E+05 1.17459E+07 2.08717E+04 1.00546E+05
 -1      1599-7.17430E+08 8.07607E+06-5.21145E+05 6.27295E+06-2.66907E+03-7.48562E+03
 -1      1601-7.17430E+08 8.07607E+06-5.21145E+05 6.27295E+06-2.66907E+03-7.48562E+03
 -1      1602-6.81864E+08-3.92279E+06-4.11287E+05 1.07044E+07-5.56968E+03 4.71762E+04
 -1      1604-6.81864E+08-3.92279E+06-4.11287E+05 1.07044E+07-5.56968E+03 4.71762E+04
 -1      1605-6.45081E+08 1.80722E+06-3.16778E+05 8.21496E+06-3.31416E+02 2.05784E+04
 -1      1607-6.45081E+08 1.80722E+06-3.16778E+05 8.21496E+06-3.31416E+02 2.05784E+04
 -1      1608-6.09406E+08-8.25894E+05-4.36072E+05 9.31240E+06-4.49707E+03 3.27156E+04
 -1      1610-6.09406E+08-8.25894E+05-4.36072E+05 9.31240E+06-4.49707E+03 3.27156E+04
 -1      1611-5.73227E+08 3.95829E+05-2.58786E+05 8.83936E+06-1.19359E+03 2.71563E+04
 -1      1613-5.73227E+08 3.95829E+05-2.58786E+05 8.83936E+06-1.19359E+03 2.71563E+04
 -1      1614-5.37628E+08-2.07973E+05-3.84852E+05 8.90898E+06-2.78741E+03 2.91733E+04
 -1      1616-5.37628E+08-2.07973E+05-3.84852E+05 8.90898E+06-2.78741E+03 2.91733E+04
 -1      1617-5.02081E+08 1.23703E+05-2.35339E+05 8.81526E+06-2.45223E+03 2.82549E+04
 -1      1619-5.02081E+08 1.23703E+05-2.35339E+05 8.81526E+06-2.45223E+03 2.82549E+04
 -1      1620-4.67000E+08-7.89545E+04-3.22698E+05 8.70747E+06-2.92313E+03 2.82326E+04
 -1      1622-4.67000E+08-7.89545E+04-3.22698E+05 8.70747E+06-2.92313E+03 2.82326E+04
 -1      1623-4.32272E+08 5.50895E+04-2.13311E+05 8.60524E+06-3.86018E+03 2.80145E+04
 -1      1625-4.32272E+08 5.50895E+04-2.13311E+05 8.60524E+06-3.86018E+03 2.80145E+04
 -1      1626-3.98103E+08-3.67791E+04-2.65457E+05 8.45462E+06-4.35079E+03 2.76380E+04
 -1      1628-3.98103E+08-3.67791E+04-2.65457E+05 8.45462E+06-4.35079E+03 2.76380E+04
 -1      1629-3.64515E+08 2.76704E+04-1.87087E+05 8.29579E+06-5.72050E+03 2.73319E+04
 -1      1631-3.64515E+08 2.76704E+04-1.87087E+05 8.29579E+06-5.72050E+03 2.73319E+04
 -1      1632-3.31660E+08-1.73725E+04-2.14996E+05 8.10148E+06-6.58025E+03 2.68195E+04
 -1      1634-3.31660E+08-1.73725E+04-2.14996E+05 8.10148E+06-6.58025E+03 2.68195E+04
 -1      1635-2.99612E+08 1.47875E+04-1.57739E+05 7.88433E+06-8.14012E+03 2.62979E+04
 -1      1637-2.99612E+08 1.47875E+04-1.57739E+05 7.88433E+06-8.14012E+03 2.62979E+04
 -1      1638-2.68506E+08-7.83448E+03-1.70458E+05 7.63630E+06-9.37638E+03 2.56129E+04
 -1      1640-2.68506E+08-7.83448E+03-1.70458E+05 7.63630E+06-9.37638E+03 2.56129E+04
 -1      1641-2.38444E+08 8.83050E+03-1.27293E+05 7.35937E+06-1.10789E+04 2.48485E+04
 -1      1643-2.38444E+08 8.83050E+03-1.27293E+05 7.35937E+06-1.10789E+04 2.48485E+04
 -1      1644-2.09559E+08-3.04779E+03-1.30994E+05 7.05139E+06-1.26114E+04 2.39384E+04
 -1      1646-2.09559E+08-3.04779E+03-1.30994E+05 7.05139E+06-1.26114E+04 2.39384E+04
 -1      1647-1.81968E+08 6.17481E+03-9.75022E+04 6.71183E+06-1.44386E+04 2.29107E+04
 -1      1649-1.81968E+08 6.17481E+03-9.75022E+04 6.71183E+06-1.44386E+04 2.29107E+04
 -1      1650-1.55804E+08-4.68209E+02-9.62107E+04 6.34002E+06-1.61752E+04 2.17381E+04
 -1      1652-1.55804E+08-4.68209E+02-9.62107E+04 6.34002E+06-1.61752E+04 2.17381E+04
 -1      1653-1.31194E+08 5.05007E+03-6.97451E+04 5.93509E+06-1.80912E+04 2.04289E+04
 -1      1655-1.31194E+08 5.05007E+03-6.97451E+04 5.93509E+06-1.80912E+04 2.04289E+04
 -1      1656-1.08274E+08 1.10237E+03-6.61088E+04 5.49678E+06-1.99335E+04 1.89695E+04
 -1      1658-1.08274E+08 1.10237E+03-6.61088E+04 5.49678E+06-1.99335E+04 1.89695E+04
 -1      1659-8.71785E+07 4.62602E+03-4.51185E+04 5.02436E+06-2.18687E+04 1.73719E+04
 -1      1661-8.71785E+07 4.62602E+03-4.51185E+04 5.02436E+06-2.18687E+04 1.73719E+04
 -1      1662-6.80448E+07 2.26708E+03-4.09595E+04 4.51780E+06-2.36965E+04 1.56090E+04
 -1      1664-6.80448E+07 2.26708E+03-4.09595E+04 4.51780E+06-2.36965E+04 1.56090E+04
 -1      1665-5.10104E+07 4.34738E+03-2.45356E+04 3.97621E+06-2.55303E+04 1.37472E+04
 -1      1667-5.10104E+07 4.34738E+03-2.45356E+04 3.97621E+06-2.55303E+04 1.37472E+04
 -1      1668-3.62149E+07 3.69719E+03-2.12155E+04 3.40064E+06-2.71756E+04 1.16474E+04
 -1      1670-3.62149E+07 3.69719E+03-2.12155E+04 3.40064E+06-2.71756E+04 1.16474E+04
 -1      1671-2.37984E+07 3.26715E+03-8.78371E+03 2.78850E+06-2.86975E+04 9.64695E+03
 -1      1673-2.37984E+07 3.26715E+03-8.78371E+03 2.78850E+06-2.86975E+04 9.64695E+03
 -1      1674-1.39014E+07 6.36061E+03-7.44237E+03 2.14292E+06-2.99154E+04 7.04061E+03
 -1      1676-1.39014E+07 6.36061E+03-7.44237E+03 2.14292E+06-2.99154E+04 7.04061E+03
 -1      1677-6.66270E+06 2.28355E+03 1.37033E+03 1.46466E+06-3.07655E+04 5.41551E+03
 -1      1679-6.66270E+06 2.28355E+03 1.37033E+03 1.46466E+06-3.07655E+04 5.41551E+03
 -1      1680-2.23283E+06 1.39640E+02-1.97541E+01 7.28092E+05-3.12864E+04 1.42196E+03
 -1      1682-2.23283E+06 1.39640E+02-1.97541E+01 7.28092E+05-3.12864E+04 1.42196E+03
 -1      1683-5.13572E+08-4.51152E+07-1.31707E+05 1.59268E+07-9.30092E+04 1.81223E+05
 -1      1685-5.13572E+08-4.51152E+07-1.31707E+05 1.59268E+07-9.30092E+04 1.81223E+05
 -1      1686-5.03400E+08-1.21599E+07 1.82231E+04 1.45999E+07 4.96214E+04-4.53104E+04
 -1      1688-5.03400E+08-1.21599E+07 1.82231E+04 1.45999E+07 4.96214E+04-4.53104E+04
 -1      1689-4.78782E+08 6.33065E+06 1.85528E+04 1.42732E+07-4.61152E+03 2.41811E+04
 -1      1691-4.78782E+08 6.33065E+06 1.85528E+04 1.42732E+07-4.61152E+03 2.41811E+04
 -1      1692-4.53831E+08-2.77447E+06-2.32972E+04 1.46413E+07 3.58336E+03-1.26077E+04
 -1      1694-4.53831E+08-2.77447E+06-2.32972E+04 1.46413E+07 3.58336E+03-1.26077E+04
 -1      1695-4.30428E+08 1.02294E+06 2.73881E+03 1.43208E+07 3.35912E+03 5.18345E+03
 -1      1697-4.30428E+08 1.02294E+06 2.73881E+03 1.43208E+07 3.35912E+03 5.18345E+03
 -1      1698-4.05957E+08-3.02211E+05-2.36616E+03 1.44528E+07-1.76332E+03-3.10947E+03
 -1      1700-4.05957E+08-3.02211E+05-2.36616E+03 1.44528E+07-1.76332E+03-3.10947E+03
 -1      1701-3.82221E+08 3.38306E+04-8.25624E+03 1.42884E+07 2.76147E+03 1.10746E+00
 -1      1703-3.82221E+08 3.38306E+04-8.25624E+03 1.42884E+07 2.76147E+03 1.10746E+00
 -1      1704-3.58301E+08 1.52969E+04 1.07731E+03 1.42399E+07-6.00632E+02-1.13087E+03
 -1      1706-3.58301E+08 1.52969E+04 1.07731E+03 1.42399E+07-6.00632E+02-1.13087E+03
 -1      1707-3.34710E+08-4.18402E+04-5.96049E+03 1.41007E+07 2.13860E+03-1.11959E+03
 -1      1709-3.34710E+08-4.18402E+04-5.96049E+03 1.41007E+07 2.13860E+03-1.11959E+03
 -1      1710-3.11276E+08 3.09382E+03-2.24397E+03 1.39522E+07 1.23528E+03-1.04520E+03
 -1      1712-3.11276E+08 3.09382E+03-2.24397E+03 1.39522E+07 1.23528E+03-1.04520E+03
 -1      1713-2.88163E+08-2.84310E+04-1.66703E+03 1.37654E+07 2.87513E+03-1.33615E+03
 -1      1715-2.88163E+08-2.84310E+04-1.66703E+03 1.37654E+07 2.87513E+03-1.33615E+03
 -1      1716-2.65371E+08-1.93142E+04-5.01341E+03 1.35386E+07 3.28442E+03-1.25035E+03
 -1      1718-2.65371E+08-1.93142E+04-5.01341E+03 1.35386E+07 3.28442E+03-1.25035E+03
 -1      1719-2.43000E+08-2.67445E+04 1.00434E+03 1.32768E+07 4.67363E+03-1.42537E+03
 -1      1721-2.43000E+08-2.67445E+04 1.00434E+03 1.32768E+07 4.67363E+03-1.42537E+03
 -1      1722-2.21095E+08-3.15605E+04-6.01304E+03 1.29687E+07 5.72801E+03-1.42237E+03
 -1      1724-2.21095E+08-3.15605E+04-6.01304E+03 1.29687E+07 5.72801E+03-1.42237E+03
 -1      1725-1.99744E+08-3.31273E+04 2.08414E+03 1.26200E+07 7.21534E+03-1.50615E+03
 -1      1727-1.99744E+08-3.31273E+04 2.08414E+03 1.26200E+07 7.21534E+03-1.50615E+03
 -1      1728-1.79010E+08-4.06304E+04-5.81042E+03 1.22229E+07 8.64131E+03-1.53352E+03
 -1      1730-1.79010E+08-4.06304E+04-5.81042E+03 1.22229E+07 8.64131E+03-1.53352E+03
 -1      1731-1.58981E+08-4.20440E+04 2.26157E+03 1.17797E+07 1.03169E+04-1.57120E+03
 -1      1733-1.58981E+08-4.20440E+04 2.26157E+03 1.17797E+07 1.03169E+04-1.57120E+03
 -1      1734-1.39730E+08-4.95366E+04-5.05369E+03 1.12862E+07 1.19987E+04-1.59419E+03
 -1      1736-1.39730E+08-4.95366E+04-5.05369E+03 1.12862E+07 1.19987E+04-1.59419E+03
 -1      1737-1.21345E+08-5.17504E+04 2.05596E+03 1.07429E+07 1.38591E+04-1.60421E+03
 -1      1739-1.21345E+08-5.17504E+04 2.05596E+03 1.07429E+07 1.38591E+04-1.60421E+03
 -1      1740-1.03909E+08-5.88806E+04-4.14696E+03 1.01473E+07 1.57268E+04-1.60775E+03
 -1      1742-1.03909E+08-5.88806E+04-4.14696E+03 1.01473E+07 1.57268E+04-1.60775E+03
 -1      1743-8.75111E+07-6.18125E+04 1.74772E+03 9.49919E+06 1.77351E+04-1.59283E+03
 -1      1745-8.75111E+07-6.18125E+04 1.74772E+03 9.49919E+06 1.77351E+04-1.59283E+03
 -1      1746-7.22387E+07-6.86523E+04-3.29279E+03 8.79724E+06 1.97227E+04-1.56811E+03
 -1      1748-7.22387E+07-6.86523E+04-3.29279E+03 8.79724E+06 1.97227E+04-1.56811E+03
 -1      1749-5.81828E+07-7.20969E+04 1.45783E+03 8.04101E+06 2.18212E+04-1.52515E+03
 -1      1751-5.81828E+07-7.20969E+04 1.45783E+03 8.04101E+06 2.18212E+04-1.52515E+03
 -1      1752-4.54342E+07-7.86781E+04-2.57361E+03 7.22986E+06 2.38473E+04-1.45868E+03
 -1      1754-4.54342E+07-7.86781E+04-2.57361E+03 7.22986E+06 2.38473E+04-1.45868E+03
 -1      1755-3.40852E+07-8.27180E+04 1.21843E+03 6.36304E+06 2.59517E+04-1.38798E+03
 -1      1757-3.40852E+07-8.27180E+04 1.21843E+03 6.36304E+06 2.59517E+04-1.38798E+03
 -1      1758-2.42286E+07-8.83644E+04-2.00987E+03 5.44097E+06 2.79036E+04-1.24070E+03
 -1      1760-2.42286E+07-8.83644E+04-2.00987E+03 5.44097E+06 2.79036E+04-1.24070E+03
 -1      1761-1.59577E+07-9.45236E+04 1.02661E+03 4.46186E+06 2.98786E+04-1.17903E+03
 -1      1763-1.59577E+07-9.45236E+04 1.02661E+03 4.46186E+06 2.98786E+04-1.17903E+03
 -1      1764-9.36493E+06-9.65130E+04-1.62893E+03 3.42827E+06 3.15958E+04-8.03464E+02
 -1      1766-9.36493E+06-9.65130E+04-1.62893E+03 3.42827E+06 3.15958E+04-8.03464E+02
 -1      1767-4.55054E+06-1.06840E+05 9.66546E+02 2.33549E+06 3.31593E+04-9.82210E+02
 -1      1769-4.55054E+06-1.06840E+05 9.66546E+02 2.33549E+06 3.31593E+04-9.82210E+02
 -1      1770-1.58522E+06-1.12951E+05-1.70055E+03 1.19114E+06 3.44128E+04 2.35683E+02
 -1      1772-1.58522E+06-1.12951E+05-1.70055E+03 1.19114E+06 3.44128E+04 2.35683E+02
 -1      1773 5.03400E+08 1.21599E+07-1.82231E+04 1.45999E+07 4.96214E+04 4.53104E+04
 -1      1775 5.03400E+08 1.21599E+07-1.82231E+04 1.45999E+07 4.96214E+04 4.53104E+04
 -1      1776 4.78782E+08-6.33065E+06-1.85528E+04 1.42732E+07-4.61152E+03-2.41811E+04
 -1      1778 4.78782E+08-6.33065E+06-1.85528E+04 1.42732E+07-4.61152E+03-2.41811E+04
 -1      1779 4.53831E+08 2.77447E+06 2.32972E+04 1.46413E+07 3.58336E+03 1.26077E+04
 -1      1781 4.53831E+08 2.77447E+06 2.32972E+04 1.46413E+07 3.58336E+03 1.26077E+04
 -1      1782 4.30428E+08-1.02294E+06-2.73881E+03 1.43208E+07 3.35912E+03-5.18345E+03
 -1      1784 4.30428E+08-1.02294E+06-2.73881E+03 1.43208E+07 3.35912E+03-5.18345E+03
 -1      1785 4.05957E+08 3.02211E+05 2.36616E+03 1.44528E+07-1.76332E+03 3.10947E+03
 -1      1787 4.05957E+08 3.02211E+05 2.36616E+03 1.44528E+07-1.76332E+03 3.10947E+03
 -1      1788 3.82221E+08-3.38306E+04 8.25624E+03 1.42884E+07 2.76147E+03-1.10747E+00
 -1      1790 3.82221E+08-3.38306E+04 8.25624E+03 1.42884E+07 2.76147E+03-1.10747E+00
 -1      1791 3.58301E+08-1.52969E+04-1.07731E+03 1.42399E+07-6.00632E+02 1.13087E+03
 -1      1793 3.58301E+08-1.52969E+04-1.07731E+03 1.42399E+07-6.00632E+02 1.13087E+03
 -1      1794 3.34710E+08 4.18402E+04 5.96049E+03 1.41007E+07 2.13860E+03 1.11959E+03
 -1      1796 3.34710E+08 4.18402E+04 5.96049E+03 1.41007E+07 2.13860E+03 1.11959E+03
 -1      1797 3.11276E+08-3.09382E+03 2.24397E+03 1.39522E+07 1.23528E+03 1.04520E+03
 -1      1799 3.11276E+08-3.09382E+03 2.24397E+03 1.39522E+07 1.23528E+03 1.04520E+03
 -1      1800 2.88163E+08 2.84310E+04 1.66703E+03 1.37654E+07 2.87513E+03 1.33615E+03
 -1      1802 2.88163E+08 2.84310E+04 1.66703E+03 1.37654E+07 2.87513E+03 1.33615E+03
 -1      1803 2.65371E+08 1.93142E+04 5.01341E+03 1.35386E+07 3.28442E+03 1.25035E+03
 -1      1805 2.65371E+08 1.93142E+04 5.01341E+03 1.35386E+07 3.28442E+03 1.25035E+03
 -1      1806 2.43000E+08 2.67445E+04-1.00434E+03 1.32768E+07 4.67363E+03 1.42537E+03
 -1      1808 2.43000E+08 2.67445E+04-1.00434E+03 1.32768E+07 4.67363E+03 1.42537E+03
 -1      1809 2.21095E+08 3.15605E+04 6.01304E+03 1.29687E+07 5.72801E+03 1.42237E+03
 -1      1811 2.21095E+08 3.15605E+04 6.01304E+03 1.29687E+07 5.72801E+03 1.42237E+03
 -1      1812 1.99744E+08 3.31273E+04-2.08414E+03 1.26200E+07 7.21534E+03 1.50615E+03
 -1      1814 1.99744E+08 3.31273E+04-2.08414E+03 1.26200E+07 7.21534E+03 1.50615E+03
 -1      1815 1.79010E+08 4.06304E+04 5.81042E+03 1.22229E+07 8.64131E+03 1.53352E+03
 -1      1817 1.79010E+08 4.06304E+04 5.81042E+03 1.22229E+07 8.64131E+03 1.53352E+03
 -1      1818 1.58981E+08 4.20440E+04-2.26157E+03 1.17797E+07 1.03169E+04 1.57120E+03
 -1      1820 1.58981E+08 4.20440E+04-2.26157E+03 1.17797E+07 1.03169E+04 1.57120E+03
 -1      1821 1.39730E+08 4.95366E+04 5.05369E+03 1.12862E+07 1.19987E+04 1.59419E+03
 -1      1823 1.39730E+08 4.95366E+04 5.05369E+03 1.12862E+07 1.19987E+04 1.59419E+03
 -1      1824 1.21345E+08 5.17504E+04-2.05596E+03 1.07429E+07 1.38591E+04 1.60421E+03
 -1      1826 1.21345E+08 5.17504E+04-2.05596E+03 1.07429E+07 1.38591E+04 1.60421E+03
 -1      1827 1.03909E+08 5.88806E+04 4.14696E+03 1.01473E+07 1.57268E+04 1.60775E+03
 -1      1829 1.03909E+08 5.88806E+04 4.14696E+03 1.01473E+07 1.57268E+04 1.60775E+03
 -1      1830 8.75111E+07 6.18125E+04-1.74772E+03 9.49919E+06 1.77351E+04 1.59283E+03
 -1      1832 8.75111E+07 6.18125E+04-1.74772E+03 9.49919E+06 1.77351E+04 1.59283E+03
 -1      1833 7.22387E+07 6.86523E+04 3.29279E+03 8.79724E+06 1.97227E+04 1.56811E+03
 -1      1835 7.22387E+07 6.86523E+04 3.29279E+03 8.79724E+06 1.97227E+04 1.56811E+03
 -1      1836 5.81828E+07 7.20969E+04-1.45783E+03 8.04101E+06 2.18212E+04 1.52515E+03
 -1      1838 5.81828E+07 7.20969E+04-1.45783E+03 8.04101E+06 2.18212E+04 1.52515E+03
 -1      1839 4.54342E+07 7.86781E+04 2.57361E+03 7.22986E+06 2.38473E+04 1.45868E+03
 -1      1841 4.54342E+07 7.86781E+04 2.57361E+03 7.22986E+06 2.38473E+04 1.45868E+03
 -1      1842 3.40852E+07 8.27180E+04-1.21843E+03 6.36304E+06 2.59517E+04 1.38798E+03
 -1      1844 3.40852E+07 8.27180E+04-1.21843E+03 6.36304E+06 2.59517E+04 1.38798E+03
 -1      1845 2.42286E+07 8.83644E+04 2.00987E+03 5.44097E+06 2.79036E+04 1.24070E+03
 -1      1847 2.42286E+07 8.83644E+04 2.00987E+03 5.44097E+06 2.79036E+04 1.24070E+03
 -1      1848 1.59577E+07 9.45236E+04-1.02661E+03 4.46186E+06 2.98786E+04 1.17903E+03
 -1      1850 1.59577E+07 9.45236E+04-1.02661E+03 4.46186E+06 2.98786E+04 1.17903E+03
 -1      1851 9.36493E+06 9.65130E+04 1.62893E+03 3.42827E+06 3.15958E+04 8.03464E+02
 -1      1853 9.36493E+06 9.65130E+04 1.62893E+03 3.42827E+06 3.15958E+04 8.03464E+02
 -1      1854 4.55054E+06 1.06840E+05-9.66546E+02 2.33549E+06 3.31593E+04 9.82210E+02
 -1      1856 4.55054E+06 1.06840E+05-9.66546E+02 2.33549E+06 3.31593E+04 9.82210E+02
 -1      1857 1.58522E+06 1.12951E+05 1.70055E+03 1.19114E+06 3.44128E+04-2.35683E+02
 -1      1859 1.58522E+06 1.12951E+05 1.70055E+03 1.19114E+06 3.44128E+04-2.35683E+02
 -1      1860-9.36956E-04-7.77132E-07-9.43038E-05-8.35297E+04 4.38827E+04-2.80095E-04
 -1      1862-9.36956E-04-7.77132E-07-9.43038E-05-8.35297E+04 4.38827E+04-2.80095E-04
 -1      1863-9.03669E-04 2.02790E-06-5.15856E-06 3.68039E+05 1.07274E+04-2.92315E-04
 -1      1865-9.03669E-04 2.02790E-06-5.15856E-06 3.68039E+05 1.07274E+04-2.92315E-04
 -1      1866-8.52589E-04-1.61678E-06 4.47078E-06-1.75146E+05 4.95296E+04-2.90746E-04
 -1      1868-8.52589E-04-1.61678E-06 4.47078E-06-1.75146E+05 4.95296E+04-2.90746E-04
 -1      1869-8.05204E-04 6.30035E-07 1.00450E-06 2.35567E+05 5.19057E+04-2.93463E-04
 -1      1871-8.05204E-04 6.30035E-07 1.00450E-06 2.35567E+05 5.19057E+04-2.93463E-04
 -1      1872-7.50135E-04 2.81367E-05 1.81950E-05-1.78525E+04 6.33980E+04-3.00456E-04
 -1      1874-7.50135E-04 2.81367E-05 1.81950E-05-1.78525E+04 6.33980E+04-3.00456E-04
 -1      1875-7.06984E-04 3.64083E-05 3.17597E-05 1.17241E+05 8.07320E+04-2.98526E-04
 -1      1877-7.06984E-04 3.64083E-05 3.17597E-05 1.17241E+05 8.07320E+04-2.98526E-04
 -1      1878-6.87348E-04-2.35003E-06 9.21745E-06 5.34506E+04 8.79682E+04-2.84164E-04
 -1      1880-6.87348E-04-2.35003E-06 9.21745E-06 5.34506E+04 8.79682E+04-2.84164E-04
 -1      1881-6.63128E-04-3.80958E-05-2.72962E-05 7.76749E+04 1.06049E+05-2.81661E-04
 -1      1883-6.63128E-04-3.80958E-05-2.72962E-05 7.76749E+04 1.06049E+05-2.81661E-04
 -1      1884-6.29671E-04-6.56973E-05-7.50426E-05 7.03559E+04 1.16186E+05-2.90059E-04
 -1      1886-6.29671E-04-6.56973E-05-7.50426E-05 7.03559E+04 1.16186E+05-2.90059E-04
 -1      1887-5.99209E-04-1.19147E-04-1.28240E-04 6.85602E+04 1.32650E+05-3.20278E-04
 -1      1889-5.99209E-04-1.19147E-04-1.28240E-04 6.85602E+04 1.32650E+05-3.20278E-04
 -1      1890-5.48040E-04-1.58081E-04-1.14900E-04 7.06142E+04 1.45582E+05-3.42471E-04
 -1      1892-5.48040E-04-1.58081E-04-1.14900E-04 7.06142E+04 1.45582E+05-3.42471E-04
 -1      1893-4.19483E-04 4.90004E-05 1.93791E-05 6.59767E+04 1.61170E+05-3.01404E-04
 -1      1895-4.19483E-04 4.90004E-05 1.93791E-05 6.59767E+04 1.61170E+05-3.01404E-04
 -1      1896-3.00372E-04 2.16384E-04 1.27923E-04 6.71968E+04 1.75666E+05-2.50070E-04
 -1      1898-3.00372E-04 2.16384E-04 1.27923E-04 6.71968E+04 1.75666E+05-2.50070E-04
 -1      1899-2.61904E-04 3.19404E-04 1.99709E-04 6.33776E+04 1.91017E+05-2.32276E-04
 -1      1901-2.61904E-04 3.19404E-04 1.99709E-04 6.33776E+04 1.91017E+05-2.32276E-04
 -1      1902-2.52625E-04 1.89849E-04 1.47157E-04 6.28602E+04 2.06168E+05-2.00820E-04
 -1      1904-2.52625E-04 1.89849E-04 1.47157E-04 6.28602E+04 2.06168E+05-2.00820E-04
 -1      1905-2.73592E-04 6.00373E-05 4.62803E-05 5.96061E+04 2.21415E+05-1.92971E-04
 -1      1907-2.73592E-04 6.00373E-05 4.62803E-05 5.96061E+04 2.21415E+05-1.92971E-04
 -1      1908-2.79479E-04-1.30444E-04-3.87597E-05 5.78229E+04 2.36626E+05-1.92159E-04
 -1      1910-2.79479E-04-1.30444E-04-3.87597E-05 5.78229E+04 2.36626E+05-1.92159E-04
 -1      1911-1.45459E-04 9.31824E-05 2.86316E-05 5.46089E+04 2.51578E+05-1.41859E-04
 -1      1913-1.45459E-04 9.31824E-05 2.86316E-05 5.46089E+04 2.51578E+05-1.41859E-04
 -1      1914-4.31241E-05 2.87839E-04 6.99987E-05 5.19241E+04 2.66376E+05-1.07146E-04
 -1      1916-4.31241E-05 2.87839E-04 6.99987E-05 5.19241E+04 2.66376E+05-1.07146E-04
 -1      1917-7.36984E-05 1.77168E-04 4.25343E-05 4.84483E+04 2.80665E+05-8.00190E-05
 -1      1919-7.36984E-05 1.77168E-04 4.25343E-05 4.84483E+04 2.80665E+05-8.00190E-05
 -1      1920-1.87974E-04 1.86172E-05-6.08311E-05 4.50210E+04 2.94580E+05-6.31135E-05
 -1      1922-1.87974E-04 1.86172E-05-6.08311E-05 4.50210E+04 2.94580E+05-6.31135E-05
 -1      1923-2.65265E-04-3.27484E-04-2.82339E-04 4.11740E+04 3.07724E+05-1.87041E-04
 -1      1925-2.65265E-04-3.27484E-04-2.82339E-04 4.11740E+04 3.07724E+05-1.87041E-04
 -1      1926-1.39343E-04-2.67402E-04-2.07986E-04 3.69979E+04 3.20222E+05-3.55322E-04
 -1      1928-1.39343E-04-2.67402E-04-2.07986E-04 3.69979E+04 3.20222E+05-3.55322E-04
 -1      1929-1.75280E-04-3.57763E-04-8.46758E-05 3.28602E+04 3.31630E+05-3.21910E-04
 -1      1931-1.75280E-04-3.57763E-04-8.46758E-05 3.28602E+04 3.31630E+05-3.21910E-04
 -1      1932-1.60543E-04-3.26396E-04 5.14273E-06 2.77059E+04 3.42062E+05-1.54108E-04
 -1      1934-1.60543E-04-3.26396E-04 5.14273E-06 2.77059E+04 3.42062E+05-1.54108E-04
 -1      1935 9.10921E-06-1.64455E-04 6.44328E-05 2.36667E+04 3.51039E+05-1.68618E-04
 -1      1937 9.10921E-06-1.64455E-04 6.44328E-05 2.36667E+04 3.51039E+05-1.68618E-04
 -1      1938 1.48077E-04 2.07003E-04 3.86501E-04 1.69035E+04 3.58583E+05-2.58295E-04
 -1      1940 1.48077E-04 2.07003E-04 3.86501E-04 1.69035E+04 3.58583E+05-2.58295E-04
 -1      1941 3.42701E-04 5.61723E-04 8.30268E-04 1.39292E+04 3.64337E+05-8.28106E-05
 -1      1943 3.42701E-04 5.61723E-04 8.30268E-04 1.39292E+04 3.64337E+05-8.28106E-05
 -1      1944 1.90562E-04 2.39058E-04 4.50867E-04 3.88731E+03 3.67932E+05 1.62861E-04
 -1      1946 1.90562E-04 2.39058E-04 4.50867E-04 3.88731E+03 3.67932E+05 1.62861E-04
 -1      1947-1.14310E-05 2.08195E-06 1.06691E-06 3.72779E+04-8.13733E-06-2.72673E-04
 -1      1949-1.14310E-05 2.08195E-06 1.06691E-06 3.72779E+04-8.13733E-06-2.72673E-04
 -1      1950-1.06310E-05 6.63675E-06 4.82444E-06 3.02837E+05 1.17068E-05-3.15811E-04
 -1      1952-1.06310E-05 6.63675E-06 4.82444E-06 3.02837E+05 1.17068E-05-3.15811E-04
 -1      1953-1.07080E-05 1.15884E-05 8.04973E-06-4.19201E+04 1.19862E-05-3.16875E-04
 -1      1955-1.07080E-05 1.15884E-05 8.04973E-06-4.19201E+04 1.19862E-05-3.16875E-04
 -1      1956-1.12458E-05 5.80188E-06 6.29932E-06 1.86218E+05 5.39542E-06-3.16135E-04
 -1      1958-1.12458E-05 5.80188E-06 6.29932E-06 1.86218E+05 5.39542E-06-3.16135E-04
 -1      1959 2.62346E-06 3.58323E-05 1.96729E-05 8.47210E+04 3.74198E-06-3.19011E-04
 -1      1961 2.62346E-06 3.58323E-05 1.96729E-05 8.47210E+04 3.74198E-06-3.19011E-04
 -1      1962 1.32951E-05 7.67113E-05 3.84056E-05 1.04675E+05 1.07657E-06-3.14108E-04
 -1      1964 1.32951E-05 7.67113E-05 3.84056E-05 1.04675E+05 1.07657E-06-3.14108E-04
 -1      1965-1.15210E-06 4.09998E-05 2.12447E-05 1.24511E+05 2.18159E-06-3.02862E-04
 -1      1967-1.15210E-06 4.09998E-05 2.12447E-05 1.24511E+05 2.18159E-06-3.02862E-04
 -1      1968-8.34339E-06 1.77503E-05-4.89982E-07 9.18417E+04-2.60849E-06-3.01714E-04
 -1      1970-8.34339E-06 1.77503E-05-4.89982E-07 9.18417E+04-2.60849E-06-3.01714E-04
 -1      1971-2.57072E-05-4.45063E-05-4.49315E-05 1.22999E+05-4.59415E-06-3.20154E-04
 -1      1973-2.57072E-05-4.45063E-05-4.49315E-05 1.22999E+05-4.59415E-06-3.20154E-04
 -1      1974-7.43812E-05-1.76017E-04-1.23765E-04 9.66566E+04 1.52919E-05-3.52095E-04
 -1      1976-7.43812E-05-1.76017E-04-1.23765E-04 9.66566E+04 1.52919E-05-3.52095E-04
 -1      1977-1.22420E-04-2.92088E-04-1.90622E-04 1.14598E+05 2.17327E-05-3.61442E-04
 -1      1979-1.22420E-04-2.92088E-04-1.90622E-04 1.14598E+05 2.17327E-05-3.61442E-04
 -1      1980-9.77804E-05-2.23816E-04-1.62550E-04 1.00088E+05 3.47238E-05-3.19562E-04
 -1      1982-9.77804E-05-2.23816E-04-1.62550E-04 1.00088E+05 3.47238E-05-3.19562E-04
 -1      1983 5.50873E-05 9.97043E-05 5.25578E-06 1.07257E+05 5.27961E-05-2.56835E-04
 -1      1985 5.50873E-05 9.97043E-05 5.25578E-06 1.07257E+05 5.27961E-05-2.56835E-04
 -1      1986 1.12497E-04 3.37127E-04 1.56389E-04 9.94284E+04 4.12587E-05-2.14044E-04
 -1      1988 1.12497E-04 3.37127E-04 1.56389E-04 9.94284E+04 4.12587E-05-2.14044E-04
 -1      1989 1.40714E-05 9.47016E-05 1.07312E-04 1.00678E+05 3.74012E-05-1.95082E-04
 -1      1991 1.40714E-05 9.47016E-05 1.07312E-04 1.00678E+05 3.74012E-05-1.95082E-04
 -1      1992 4.54522E-05 1.45768E-04 9.07215E-05 9.54500E+04 5.54604E-05-2.04553E-04
 -1      1994 4.54522E-05 1.45768E-04 9.07215E-05 9.54500E+04 5.54604E-05-2.04553E-04
 -1      1995 4.76786E-05-2.68699E-05-5.95292E-05 9.35979E+04 7.45879E-05-2.02197E-04
 -1      1997 4.76786E-05-2.68699E-05-5.95292E-05 9.35979E+04 7.45879E-05-2.02197E-04
 -1      1998 8.64954E-05 3.61461E-06-1.13305E-04 8.88836E+04 6.72254E-05-1.59678E-04
 -1      2000 8.64954E-05 3.61461E-06-1.13305E-04 8.88836E+04 6.72254E-05-1.59678E-04
 -1      2001 9.93616E-05 2.74543E-06-9.02102E-05 8.51813E+04 6.29827E-05-8.63245E-05
 -1      2003 9.93616E-05 2.74543E-06-9.02102E-05 8.51813E+04 6.29827E-05-8.63245E-05
 -1      2004-3.07910E-05-2.96908E-04-1.04031E-04 8.00451E+04 1.67960E-05-4.69836E-05
 -1      2006-3.07910E-05-2.96908E-04-1.04031E-04 8.00451E+04 1.67960E-05-4.69836E-05
 -1      2007-7.54667E-05-3.77829E-04-9.59447E-05 7.49564E+04-1.25926E-05-9.80348E-05
 -1      2009-7.54667E-05-3.77829E-04-9.59447E-05 7.49564E+04-1.25926E-05-9.80348E-05
 -1      2010 7.06356E-05-1.40001E-04-7.10130E-05 6.90151E+04-6.08262E-05-2.52419E-04
 -1      2012 7.06356E-05-1.40001E-04-7.10130E-05 6.90151E+04-6.08262E-05-2.52419E-04
 -1      2013 2.67918E-04 3.03936E-04 4.57613E-05 6.26064E+04-1.42304E-04-3.93818E-04
 -1      2015 2.67918E-04 3.03936E-04 4.57613E-05 6.26064E+04-1.42304E-04-3.93818E-04
 -1      2016 8.55662E-05 4.27575E-05-2.07567E-05 5.58161E+04-6.28141E-05-3.21317E-04
 -1      2018 8.55662E-05 4.27575E-05-2.07567E-05 5.58161E+04-6.28141E-05-3.21317E-04
 -1      2019-1.08625E-04-4.37342E-04-1.05731E-04 4.77912E+04 3.21601E-05-1.85375E-04
 -1      2021-1.08625E-04-4.37342E-04-1.05731E-04 4.77912E+04 3.21601E-05-1.85375E-04
 -1      2022 3.35284E-06-2.61236E-04 5.84476E-05 4.05640E+04 7.06691E-05-2.15423E-04
 -1      2024 3.35284E-06-2.61236E-04 5.84476E-05 4.05640E+04 7.06691E-05-2.15423E-04
 -1      2025 1.36483E-04 3.13235E-04 3.63623E-04 2.99610E+04 1.47777E-04-2.17826E-04
 -1      2027 1.36483E-04 3.13235E-04 3.63623E-04 2.99610E+04 1.47777E-04-2.17826E-04
 -1      2028 1.33429E-04 2.70367E-04 3.79216E-04 2.37073E+04 1.82713E-04-4.94837E-05
 -1      2030 1.33429E-04 2.70367E-04 3.79216E-04 2.37073E+04 1.82713E-04-4.94837E-05
 -1      2031-6.77389E-05-1.57371E-04 8.71770E-05 7.73141E+03 1.97053E-04 9.80129E-05
 -1      2033-6.77389E-05-1.57371E-04 8.71770E-05 7.73141E+03 1.97053E-04 9.80129E-05
 -1      2034 9.13614E-04 2.05471E-06 9.65555E-05-8.35297E+04-4.38827E+04-2.78235E-04
 -1      2036 9.13614E-04 2.05471E-06 9.65555E-05-8.35297E+04-4.38827E+04-2.78235E-04
 -1      2037 8.79679E-04 3.66437E-06 1.29081E-05 3.68039E+05-1.07274E+04-2.91084E-04
 -1      2039 8.79679E-04 3.66437E-06 1.29081E-05 3.68039E+05-1.07274E+04-2.91084E-04
 -1      2040 8.29136E-04 1.22575E-05 8.30721E-06-1.75146E+05-4.95296E+04-2.88294E-04
 -1      2042 8.29136E-04 1.22575E-05 8.30721E-06-1.75146E+05-4.95296E+04-2.88294E-04
 -1      2043 7.85133E-04 2.11729E-05 1.15987E-05 2.35567E+05-5.19057E+04-2.94626E-04
 -1      2045 7.85133E-04 2.11729E-05 1.15987E-05 2.35567E+05-5.19057E+04-2.94626E-04
 -1      2046 7.42813E-04 2.22222E-05 1.55813E-06-1.78525E+04-6.33980E+04-2.97801E-04
 -1      2048 7.42813E-04 2.22222E-05 1.55813E-06-1.78525E+04-6.33980E+04-2.97801E-04
 -1      2049 7.05708E-04 3.72962E-05 1.47941E-06 1.17241E+05-8.07320E+04-2.90499E-04
 -1      2051 7.05708E-04 3.72962E-05 1.47941E-06 1.17241E+05-8.07320E+04-2.90499E-04
 -1      2052 6.73459E-04 5.18311E-05 1.41774E-05 5.34506E+04-8.79682E+04-2.78585E-04
 -1      2054 6.73459E-04 5.18311E-05 1.41774E-05 5.34506E+04-8.79682E+04-2.78585E-04
 -1      2055 6.34642E-04 3.82120E-05 1.73122E-05 7.76749E+04-1.06049E+05-2.80549E-04
 -1      2057 6.34642E-04 3.82120E-05 1.73122E-05 7.76749E+04-1.06049E+05-2.80549E-04
 -1      2058 5.81069E-04-7.44673E-06-3.59508E-06 7.03559E+04-1.16186E+05-3.00121E-04
 -1      2060 5.81069E-04-7.44673E-06-3.59508E-06 7.03559E+04-1.16186E+05-3.00121E-04
 -1      2061 4.95175E-04-9.95889E-05-6.94104E-05 6.85602E+04-1.32650E+05-3.36857E-04
 -1      2063 4.95175E-04-9.95889E-05-6.94104E-05 6.85602E+04-1.32650E+05-3.36857E-04
 -1      2064 3.74959E-04-2.58861E-04-1.88668E-04 7.06142E+04-1.45582E+05-3.44981E-04
 -1      2066 3.74959E-04-2.58861E-04-1.88668E-04 7.06142E+04-1.45582E+05-3.44981E-04
 -1      2067 2.73691E-04-3.81899E-04-2.64380E-04 6.59767E+04-1.61170E+05-2.93274E-04
 -1      2069 2.73691E-04-3.81899E-04-2.64380E-04 6.59767E+04-1.61170E+05-2.93274E-04
 -1      2070 3.37572E-04-1.85252E-04-1.39066E-04 6.71968E+04-1.75666E+05-2.29967E-04
 -1      2072 3.37572E-04-1.85252E-04-1.39066E-04 6.71968E+04-1.75666E+05-2.29967E-04
 -1      2073 3.89932E-04 1.01969E-05 3.26358E-05 6.33776E+04-1.91017E+05-1.77082E-04
 -1      2075 3.89932E-04 1.01969E-05 3.26358E-05 6.33776E+04-1.91017E+05-1.77082E-04
 -1      2076 3.11374E-04-9.38048E-05 7.53841E-05 6.28602E+04-2.06168E+05-1.66623E-04
 -1      2078 3.11374E-04-9.38048E-05 7.53841E-05 6.28602E+04-2.06168E+05-1.66623E-04
 -1      2079 2.80027E-04-6.61507E-05 4.34795E-05 5.96061E+04-2.21415E+05-2.07461E-04
 -1      2081 2.80027E-04-6.61507E-05 4.34795E-05 5.96061E+04-2.21415E+05-2.07461E-04
 -1      2082 2.33187E-04-1.85587E-04-1.91228E-04 5.78229E+04-2.36626E+05-2.15237E-04
 -1      2084 2.33187E-04-1.85587E-04-1.91228E-04 5.78229E+04-2.36626E+05-2.15237E-04
 -1      2085 2.46862E-04-1.17421E-04-2.88546E-04 5.46089E+04-2.51578E+05-1.48990E-04
 -1      2087 2.46862E-04-1.17421E-04-2.88546E-04 5.46089E+04-2.51578E+05-1.48990E-04
 -1      2088 1.95145E-04-2.68881E-04-2.36543E-04 5.19241E+04-2.66376E+05-4.31967E-05
 -1      2090 1.95145E-04-2.68881E-04-2.36543E-04 5.19241E+04-2.66376E+05-4.31967E-05
 -1      2091 9.38194E-05-5.81535E-04-1.67094E-04 4.84483E+04-2.80665E+05-2.07874E-05
 -1      2093 9.38194E-05-5.81535E-04-1.67094E-04 4.84483E+04-2.80665E+05-2.07874E-05
 -1      2094 2.76353E-04-2.47014E-04 6.60002E-05 4.50210E+04-2.94580E+05-1.23754E-04
 -1      2096 2.76353E-04-2.47014E-04 6.60002E-05 4.50210E+04-2.94580E+05-1.23754E-04
 -1      2097 5.45025E-04 5.18657E-04 2.51246E-04 4.11740E+04-3.07724E+05-3.35589E-04
 -1      2099 5.45025E-04 5.18657E-04 2.51246E-04 4.11740E+04-3.07724E+05-3.35589E-04
 -1      2100 5.29526E-04 8.28205E-04 1.32838E-04 3.69979E+04-3.20222E+05-4.43254E-04
 -1      2102 5.29526E-04 8.28205E-04 1.32838E-04 3.69979E+04-3.20222E+05-4.43254E-04
 -1      2103 1.93019E-04 1.44681E-04-1.77044E-04 3.28602E+04-3.31630E+05-3.04033E-04
 -1      2105 1.93019E-04 1.44681E-04-1.77044E-04 3.28602E+04-3.31630E+05-3.04033E-04
 -1      2106-3.91432E-05-4.17858E-04-2.65698E-04 2.77059E+04-3.42062E+05-2.08914E-04
 -1      2108-3.91432E-05-4.17858E-04-2.65698E-04 2.77059E+04-3.42062E+05-2.08914E-04
 -1      2109-7.92745E-05-4.25312E-04-9.49837E-05 2.36667E+04-3.51039E+05-2.21434E-04
 -1      2111-7.92745E-05-4.25312E-04-9.49837E-05 2.36667E+04-3.51039E+05-2.21434E-04
 -1      2112-4.03429E-05-1.67898E-04 1.02409E-04 1.69035E+04-3.58583E+05-2.30872E-04
 -1      2114-4.03429E-05-1.67898E-04 1.02409E-04 1.69035E+04-3.58583E+05-2.30872E-04
 -1      2115-8.93763E-06-8.50011E-05 3.64631E-05 1.39292E+04-3.64337E+05-1.43158E-04
 -1      2117-8.93763E-06-8.50011E-05 3.64631E-05 1.39292E+04-3.64337E+05-1.43158E-04
 -1      2118-1.06230E-04-2.74623E-04-3.20241E-05 3.88731E+03-3.67932E+05 3.21556E-05
 -1      2120-1.06230E-04-2.74623E-04-3.20241E-05 3.88731E+03-3.67932E+05 3.21556E-05
 -1      2121 5.03400E+08 1.21599E+07-1.82231E+04 1.45999E+07-4.96214E+04-4.53104E+04
 -1      2123 5.03400E+08 1.21599E+07-1.82231E+04 1.45999E+07-4.96214E+04-4.53104E+04
 -1      2124 4.78782E+08-6.33065E+06-1.85528E+04 1.42732E+07 4.61152E+03 2.41811E+04
 -1      2126 4.78782E+08-6.33065E+06-1.85528E+04 1.42732E+07 4.61152E+03 2.41811E+04
 -1      2127 4.53831E+08 2.77447E+06 2.32972E+04 1.46413E+07-3.58336E+03-1.26077E+04
 -1      2129 4.53831E+08 2.77447E+06 2.32972E+04 1.46413E+07-3.58336E+03-1.26077E+04
 -1      2130 4.30428E+08-1.02294E+06-2.73881E+03 1.43208E+07-3.35912E+03 5.18345E+03
 -1      2132 4.30428E+08-1.02294E+06-2.73881E+03 1.43208E+07-3.35912E+03 5.18345E+03
 -1      2133 4.05957E+08 3.02211E+05 2.36616E+03 1.44528E+07 1.76332E+03-3.10947E+03
 -1      2135 4.05957E+08 3.02211E+05 2.36616E+03 1.44528E+07 1.76332E+03-3.10947E+03
 -1      2136 3.82221E+08-3.38306E+04 8.25624E+03 1.42884E+07-2.76147E+03 1.10747E+00
 -1      2138 3.82221E+08-3.38306E+04 8.25624E+03 1.42884E+07-2.76147E+03 1.10747E+00
 -1      2139 3.58301E+08-1.52969E+04-1.07731E+03 1.42399E+07 6.00632E+02-1.13087E+03
 -1      2141 3.58301E+08-1.52969E+04-1.07731E+03 1.42399E+07 6.00632E+02-1.13087E+03
 -1      2142 3.34710E+08 4.18402E+04 5.96049E+03 1.41007E+07-2.13860E+03-1.11959E+03
 -1      2144 3.34710E+08 4.18402E+04 5.96049E+03 1.41007E+07-2.13860E+03-1.11959E+03
 -1      2145 3.11276E+08-3.09382E+03 2.24397E+03 1.39522E+07-1.23528E+03-1.04520E+03
 -1      2147 3.11276E+08-3.09382E+03 2.24397E+03 1.39522E+07-1.23528E+03-1.04520E+03
 -1      2148 2.88163E+08 2.84310E+04 1.66703E+03 1.37654E+07-2.87513E+03-1.33615E+03
 -1      2150 2.88163E+08 2.84310E+04 1.66703E+03 1.37654E+07-2.87513E+03-1.33615E+03
 -1      2151 2.65371E+08 1.93142E+04 5.01341E+03 1.35386E+07-3.28442E+03-1.25035E+03
 -1      2153 2.65371E+08 1.93142E+04 5.01341E+03 1.35386E+07-3.28442E+03-1.25035E+03
 -1      2154 2.43000E+08 2.67445E+04-1.00434E+03 1.32768E+07-4.67363E+03-1.42537E+03
 -1      2156 2.43000E+08 2.67445E+04-1.00434E+03 1.32768E+07-4.67363E+03-1.42537E+03
 -1      2157 2.21095E+08 3.15605E+04 6.01304E+03 1.29687E+07-5.72801E+03-1.42237E+03
 -1      2159 2.21095E+08 3.15605E+04 6.01304E+03 1.29687E+07-5.72801E+03-1.42237E+03
 -1      2160 1.99744E+08 3.31273E+04-2.08414E+03 1.26200E+07-7.21534E+03-1.50614E+03
 -1      2162 1.99744E+08 3.31273E+04-2.08414E+03 1.26200E+07-7.21534E+03-1.50614E+03
 -1      2163 1.79010E+08 4.06304E+04 5.81042E+03 1.22229E+07-8.64131E+03-1.53352E+03
 -1      2165 1.79010E+08 4.06304E+04 5.81042E+03 1.22229E+07-8.64131E+03-1.53352E+03
 -1      2166 1.58981E+08 4.20440E+04-2.26157E+03 1.17797E+07-1.03169E+04-1.57120E+03
 -1      2168 1.58981E+08 4.20440E+04-2.26157E+03 1.17797E+07-1.03169E+04-1.57120E+03
 -1      2169 1.39730E+08 4.95366E+04 5.05369E+03 1.12862E+07-1.19987E+04-1.59419E+03
 -1      2171 1.39730E+08 4.95366E+04 5.05369E+03 1.12862E+07-1.19987E+04-1.59419E+03
 -1      2172 1.21345E+08 5.17504E+04-2.05596E+03 1.07429E+07-1.38591E+04-1.60421E+03
 -1      2174 1.21345E+08 5.17504E+04-2.05596E+03 1.07429E+07-1.38591E+04-1.60421E+03
 -1      2175 1.03909E+08 5.88806E+04 4.14696E+03 1.01473E+07-1.57268E+04-1.60775E+03
 -1      2177 1.03909E+08 5.88806E+04 4.14696E+03 1.01473E+07-1.57268E+04-1.60775E+03
 -1      2178 8.75111E+07 6.18125E+04-1.74772E+03 9.49919E+06-1.77351E+04-1.59283E+03
 -1      2180 8.75111E+07 6.18125E+04-1.74772E+03 9.49919E+06-1.77351E+04-1.59283E+03
 -1      2181 7.22387E+07 6.86523E+04 3.29279E+03 8.79724E+06-1.97227E+04-1.56811E+03
 -1      2183 7.22387E+07 6.86523E+04 3.29279E+03 8.79724E+06-1.97227E+04-1.56811E+03
 -1      2184 5.81828E+07 7.20969E+04-1.45783E+03 8.04101E+06-2.18212E+04-1.52515E+03
 -1      2186 5.81828E+07 7.20969E+04-1.45783E+03 8.04101E+06-2.18212E+04-1.52515E+03
 -1      2187 4.54342E+07 7.86781E+04 2.57361E+03 7.22986E+06-2.38473E+04-1.45868E+03
 -1      2189 4.54342E+07 7.86781E+04 2.57361E+03 7.22986E+06-2.38473E+04-1.45868E+03
 -1      2190 3.40852E+07 8.27180E+04-1.21843E+03 6.36304E+06-2.59517E+04-1.38798E+03
 -1      2192 3.40852E+07 8.27180E+04-1.21843E+03 6.36304E+06-2.59517E+04-1.38798E+03
 -1      2193 2.42286E+07 8.83644E+04 2.00987E+03 5.44097E+06-2.79036E+04-1.24070E+03
 -1      2195 2.42286E+07 8.83644E+04 2.00987E+03 5.44097E+06-2.79036E+04-1.24070E+03
 -1      2196 1.59577E+07 9.45236E+04-1.02661E+03 4.46186E+06-2.98786E+04-1.17903E+03
 -1      2198 1.59577E+07 9.45236E+04-1.02661E+03 4.46186E+06-2.98786E+04-1.17903E+03
 -1      2199 9.36493E+06 9.65130E+04 1.62893E+03 3.42827E+06-3.15958E+04-8.03464E+02
 -1      2201 9.36493E+06 9.65130E+04 1.62893E+03 3.42827E+06-3.15958E+04-8.03464E+02
 -1      2202 4.55054E+06 1.06840E+05-9.66546E+02 2.33549E+06-3.31593E+04-9.82210E+02
 -1      2204 4.55054E+06 1.06840E+05-9.66546E+02 2.33549E+06-3.31593E+04-9.82210E+02
 -1      2205 1.58522E+06 1.12951E+05 1.70055E+03 1.19114E+06-3.44128E+04 2.35683E+02
 -1      2207 1.58522E+06 1.12951E+05 1.70055E+03 1.19114E+06-3.44128E+04 2.35683E+02
 -1      2208-5.03400E+08-1.21599E+07 1.82231E+04 1.45999E+07-4.96214E+04 4.53104E+04
 -1      2210-5.03400E+08-1.21599E+07 1.82231E+04 1.45999E+07-4.96214E+04 4.53104E+04
 -1      2211-4.78782E+08 6.33065E+06 1.85528E+04 1.42732E+07 4.61152E+03-2.41811E+04
 -1      2213-4.78782E+08 6.33065E+06 1.85528E+04 1.42732E+07 4.61152E+03-2.41811E+04
 -1      2214-4.53831E+08-2.77447E+06-2.32972E+04 1.46413E+07-3.58336E+03 1.26077E+04
 -1      2216-4.53831E+08-2.77447E+06-2.32972E+04 1.46413E+07-3.58336E+03 1.26077E+04
 -1      2217-4.30428E+08 1.02294E+06 2.73881E+03 1.43208E+07-3.35912E+03-5.18345E+03
 -1      2219-4.30428E+08 1.02294E+06 2.73881E+03 1.43208E+07-3.35912E+03-5.18345E+03
 -1      2220-4.05957E+08-3.02211E+05-2.36616E+03 1.44528E+07 1.76332E+03 3.10947E+03
 -1      2222-4.05957E+08-3.02211E+05-2.36616E+03 1.44528E+07 1.76332E+03 3.10947E+03
 -1      2223-3.82221E+08 3.38306E+04-8.25624E+03 1.42884E+07-2.76147E+03-1.10747E+00
 -1      2225-3.82221E+08 3.38306E+04-8.25624E+03 1.42884E+07-2.76147E+03-1.10747E+00
 -1      2226-3.58301E+08 1.52969E+04 1.07731E+03 1.42399E+07 6.00632E+02 1.13087E+03
 -1      2228-3.58301E+08 1.52969E+04 1.07731E+03 1.42399E+07 6.00632E+02 1.13087E+03
 -1      2229-3.34710E+08-4.18402E+04-5.96049E+03 1.41007E+07-2.13860E+03 1.11959E+03
 -1      2231-3.34710E+08-4.18402E+04-5.96049E+03 1.41007E+07-2.13860E+03 1.11959E+03
 -1      2232-3.11276E+08 3.09382E+03-2.24397E+03 1.39522E+07-1.23528E+03 1.04520E+03
 -1      2234-3.11276E+08 3.09382E+03-2.24397E+03 1.39522E+07-1.23528E+03 1.04520E+03
 -1      2235-2.88163E+08-2.84310E+04-1.66703E+03 1.37654E+07-2.87513E+03 1.33615E+03
 -1      2237-2.88163E+08-2.84310E+04-1.66703E+03 1.37654E+07-2.87513E+03 1.33615E+03
 -1      2238-2.65371E+08-1.93142E+04-5.01341E+03 1.35386E+07-3.28442E+03 1.25035E+03
 -1      2240-2.65371E+08-1.93142E+04-5.01341E+03 1.35386E+07-3.28442E+03 1.25035E+03
 -1      2241-2.43000E+08-2.67445E+04 1.00434E+03 1.32768E+07-4.67363E+03 1.42537E+03
 -1      2243-2.43000E+08-2.67445E+04 1.00434E+03 1.32768E+07-4.67363E+03 1.42537E+03
 -1      2244-2.21095E+08-3.15605E+04-6.01304E+03 1.29687E+07-5.72801E+03 1.42237E+03
 -1      2246-2.21095E+08-3.15605E+04-6.01304E+03 1.29687E+07-5.72801E+03 1.42237E+03
 -1      2247-1.99744E+08-3.31273E+04 2.08414E+03 1.26200E+07-7.21534E+03 1.50614E+03
 -1      2249-1.99744E+08-3.31273E+04 2.08414E+03 1.26200E+07-7.21534E+03 1.50614E+03
 -1      2250-1.79010E+08-4.06304E+04-5.81042E+03 1.22229E+07-8.64131E+03 1.53352E+03
 -1      2252-1.79010E+08-4.06304E+04-5.81042E+03 1.22229E+07-8.64131E+03 1.53352E+03
 -1      2253-1.58981E+08-4.20440E+04 2.26157E+03 1.17797E+07-1.03169E+04 1.57120E+03
 -1      2255-1.58981E+08-4.20440E+04 2.26157E+03 1.17797E+07-1.03169E+04 1.57120E+03
 -1      2256-1.39730E+08-4.95366E+04-5.05369E+03 1.12862E+07-1.19987E+04 1.59419E+03
 -1      2258-1.39730E+08-4.95366E+04-5.05369E+03 1.12862E+07-1.19987E+04 1.59419E+03
 -1      2259-1.21345E+08-5.17504E+04 2.05596E+03 1.07429E+07-1.38591E+04 1.60421E+03
 -1      2261-1.21345E+08-5.17504E+04 2.05596E+03 1.07429E+07-1.38591E+04 1.60421E+03
 -1      2262-1.03909E+08-5.88806E+04-4.14696E+03 1.01473E+07-1.57268E+04 1.60775E+03
 -1      2264-1.03909E+08-5.88806E+04-4.14696E+03 1.01473E+07-1.57268E+04 1.60775E+03
 -1      2265-8.75111E+07-6.18125E+04 1.74772E+03 9.49919E+06-1.77351E+04 1.59283E+03
 -1      2267-8.75111E+07-6.18125E+04 1.74772E+03 9.49919E+06-1.77351E+04 1.59283E+03
 -1      2268-7.22387E+07-6.86523E+04-3.29279E+03 8.79724E+06-1.97227E+04 1.56811E+03
 -1      2270-7.22387E+07-6.86523E+04-3.29279E+03 8.79724E+06-1.97227E+04 1.56811E+03
 -1      2271-5.81828E+07-7.20969E+04 1.45783E+03 8.04101E+06-2.18212E+04 1.52515E+03
 -1      2273-5.81828E+07-7.20969E+04 1.45783E+03 8.04101E+06-2.18212E+04 1.52515E+03
 -1      2274-4.54342E+07-7.86781E+04-2.57361E+03 7.22986E+06-2.38473E+04 1.45868E+03
 -1      2276-4.54342E+07-7.86781E+04-2.57361E+03 7.22986E+06-2.38473E+04 1.45868E+03
 -1      2277-3.40852E+07-8.27180E+04 1.21843E+03 6.36304E+06-2.59517E+04 1.38798E+03
 -1      2279-3.40852E+07-8.27180E+04 1.21843E+03 6.36304E+06-2.59517E+04 1.38798E+03
 -1      2280-2.42286E+07-8.83644E+04-2.00987E+03 5.44097E+06-2.79036E+04 1.24070E+03
 -1      2282-2.42286E+07-8.83644E+04-2.00987E+03 5.44097E+06-2.79036E+04 1.24070E+03
 -1      2283-1.59577E+07-9.45236E+04 1.02661E+03 4.46186E+06-2.98786E+04 1.17903E+03
 -1      2285-1.59577E+07-9.45236E+04 1.02661E+03 4.46186E+06-2.98786E+04 1.17903E+03
 -1      2286-9.36493E+06-9.65130E+04-1.62893E+03 3.42827E+06-3.15958E+04 8.03464E+02
 -1      2288-9.36493E+06-9.65130E+04-1.62893E+03 3.42827E+06-3.15958E+04 8.03464E+02
 -1      2289-4.55054E+06-1.06840E+05 9.66546E+02 2.33549E+06-3.31593E+04 9.82210E+02
 -1      2291-4.55054E+06-1.06840E+05 9.66546E+02 2.33549E+06-3.31593E+04 9.82210E+02
 -1      2292-1.58522E+06-1.12951E+05-1.70055E+03 1.19114E+06-3.44128E+04-2.35683E+02
 -1      2294-1.58522E+06-1.12951E+05-1.70055E+03 1.19114E+06-3.44128E+04-2.35683E+02
 -3
    1PSTEP                         3           1           1          
    1PGM                1.000000E+00                                  
    1PGK                6.453065E+03                                  
    1PHID                         -1                                  
    1PSUBC                         0                                  
    1PMODE                         1                                  
  100CL  101 12.78507090         930                     2    1MODAL      1
 -4  FORC        4    1
 -5  F1          1    2    1    0
 -5  F2          1    2    2    0
 -5  F3          1    2    3    0
 -5  ALL         1    2    0    0    1ALL
 -1       404 1.39893E+05-2.83392E+04 2.39896E+02
 -1       406 1.39028E+05-2.85249E+04 2.39896E+02
 -1       407-1.69797E+00 5.36840E+01-6.39869E-02
 -1       409-1.69797E+00 5.36840E+01-6.39869E-02
 -1       410 9.74961E-08 7.92083E+01-6.63490E-07
 -1       412 9.42153E-08 7.60605E+02 1.44336E-08
 -1       413 4.74571E-08-2.36480E+02-5.34817E+02
 -1       415-1.23916E-07-2.36480E+02 5.34817E+02
 -1       424 5.99512E-07 1.94455E+04 1.31377E-08
 -1       426 4.36697E-07 2.01253E+04 1.23366E-08
 -1       427 2.12918E+02 2.95885E+03-1.36038E+03
 -1       429-2.12918E+02 2.95885E+03 1.36038E+03
 -1       438 1.69797E+00 5.36840E+01 6.39871E-02
 -1       440 1.69797E+00 5.36840E+01 6.39870E-02
 -1       441-1.39893E+05-2.83392E+04-2.39896E+02
 -1       443-1.39028E+05-2.85249E+04-2.39896E+02
 -1       444 2.12918E+02 2.95885E+03 1.36038E+03
 -1       446-2.12918E+02 2.95885E+03-1.36038E+03
 -1       447-5.88372E-07 1.94455E+04 3.58010E-09
 -1       449-4.32241E-07 2.01253E+04 7.06360E-09
 -1       458 1.17095E-08-2.36480E+02 5.34817E+02
 -1       460-4.79323E-09-2.36480E+02-5.34817E+02
 -1       461-1.49600E-08 7.92083E+01 1.55756E-07
 -1       463-2.11224E-08 7.60605E+02-2.95149E-07
 -1       472-1.39893E+05-2.83392E+04 2.39896E+02
 -1       474-1.39028E+05-2.85249E+04 2.39896E+02
 -1       475 1.69797E+00 5.36840E+01-6.39868E-02
 -1       477 1.69797E+00 5.36840E+01-6.39870E-02
 -1       478-1.69797E+00 5.36840E+01 6.39870E-02
 -1       480-1.69797E+00 5.36840E+01 6.39872E-02
 -1       481 1.39893E+05-2.83392E+04-2.39896E+02
 -1       483 1.39028E+05-2.85249E+04-2.39896E+02
 -1       484-2.75559E-01 3.35286E-01-5.22527E-03
 -1       486-2.75559E-01 3.35286E-01-5.22527E-03
 -1       487-5.44602E-01 9.59508E-01-1.09240E-02
 -1       489-5.44603E-01 9.59508E-01-1.09240E-02
 -1       490-8.01099E-01 1.97017E+00-1.65540E-02
 -1       492-8.01099E-01 1.97017E+00-1.65540E-02
 -1       493-1.04401E+00 3.35195E+00-2.20818E-02
 -1       495-1.04401E+00 3.35195E+00-2.20818E-02
 -1       496-1.27382E+00 5.08339E+00-2.76251E-02
 -1       498-1.27382E+00 5.08339E+00-2.76251E-02
 -1       499-1.49039E+00 7.14557E+00-3.31448E-02
 -1       501-1.49039E+00 7.14557E+00-3.31448E-02
 -1       502-1.69384E+00 9.51877E+00-3.86698E-02
 -1       504-1.69384E+00 9.51877E+00-3.86698E-02
 -1       505-1.88426E+00 1.21836E+01-4.41819E-02
 -1       507-1.88426E+00 1.21836E+01-4.41819E-02
 -1       508-2.06174E+00 1.51208E+01-4.96827E-02
 -1       510-2.06174E+00 1.51208E+01-4.96827E-02
 -1       511-2.22644E+00 1.83114E+01-5.51592E-02
 -1       513-2.22644E+00 1.83114E+01-5.51592E-02
 -1       514-2.37852E+00 2.17363E+01-6.06015E-02
 -1       516-2.37852E+00 2.17363E+01-6.06016E-02
 -1       517-2.51819E+00 2.53771E+01-6.59949E-02
 -1       519-2.51819E+00 2.53771E+01-6.59950E-02
 -1       520-2.64569E+00 2.92156E+01-7.13228E-02
 -1       522-2.64569E+00 2.92156E+01-7.13229E-02
 -1       523-2.76131E+00 3.32338E+01-7.65669E-02
 -1       525-2.76131E+00 3.32338E+01-7.65669E-02
 -1       526-2.86535E+00 3.74143E+01-8.17064E-02
 -1       528-2.86535E+00 3.74143E+01-8.17065E-02
 -1       529-2.95820E+00 4.17402E+01-8.67189E-02
 -1       531-2.95820E+00 4.17402E+01-8.67190E-02
 -1       532-3.04025E+00 4.61953E+01-9.15801E-02
 -1       534-3.04025E+00 4.61953E+01-9.15801E-02
 -1       535-3.11196E+00 5.07636E+01-9.62643E-02
 -1       537-3.11196E+00 5.07636E+01-9.62641E-02
 -1       538-3.17382E+00 5.54304E+01-1.00744E-01
 -1       540-3.17382E+00 5.54304E+01-1.00744E-01
 -1       541-3.22638E+00 6.01813E+01-1.04991E-01
 -1       543-3.22638E+00 6.01813E+01-1.04991E-01
 -1       544-3.27024E+00 6.50029E+01-1.08975E-01
 -1       546-3.27024E+00 6.50029E+01-1.08975E-01
 -1       547-3.30604E+00 6.98828E+01-1.12666E-01
 -1       549-3.30604E+00 6.98828E+01-1.12666E-01
 -1       550-3.33447E+00 7.48094E+01-1.16034E-01
 -1       552-3.33447E+00 7.48094E+01-1.16034E-01
 -1       553-3.35627E+00 7.97724E+01-1.19046E-01
 -1       555-3.35627E+00 7.97724E+01-1.19046E-01
 -1       556-3.37225E+00 8.47625E+01-1.21672E-01
 -1       558-3.37225E+00 8.47625E+01-1.21672E-01
 -1       559-3.38324E+00 8.97716E+01-1.23880E-01
 -1       561-3.38324E+00 8.97716E+01-1.23880E-01
 -1       562-3.39014E+00 9.47929E+01-1.25640E-01
 -1       564-3.39014E+00 9.47929E+01-1.25640E-01
 -1       565-3.39391E+00 9.98211E+01-1.26924E-01
 -1       567-3.39391E+00 9.98211E+01-1.26923E-01
 -1       568-3.39554E+00 1.04852E+02-1.27708E-01
 -1       570-3.39554E+00 1.04852E+02-1.27708E-01
 -1       571-2.26395E+00 1.07368E+02-8.56459E-02
 -1       573-2.26395E+00 1.07368E+02-8.56460E-02
 -1       574-1.08204E-07 2.46259E+03-3.68111E-08
 -1       576-1.07659E-07 3.98209E+03-3.07885E-08
 -1       577 1.08434E-07-3.22128E+03-1.19263E+03
 -1       579 1.07798E-07-3.22128E+03 1.19263E+03
 -1       588-9.47400E-08-2.42095E+03 1.95855E-08
 -1       590-9.09606E-08-2.45113E+03 7.73615E-09
 -1       591 9.39590E-08 2.43923E+03 2.36910E+01
 -1       593 9.38217E-08 2.43923E+03-2.36910E+01
 -1       602-9.47739E-08 1.47061E+03-4.81162E-09
 -1       604-9.30113E-08 1.57731E+03-4.64977E-09
 -1       605 9.16623E-08-1.51730E+03-8.37486E+01
 -1       607 9.26943E-08-1.51730E+03 8.37486E+01
 -1       616-1.02088E-07-8.38259E+02 2.39714E-08
 -1       618-1.03698E-07-7.15553E+02-2.24535E-08
 -1       619 1.05465E-07 7.88294E+02-9.63098E+01
 -1       621 1.01296E-07 7.88294E+02 9.63098E+01
 -1       630-9.97124E-08 4.29875E+02-3.20575E-08
 -1       632-9.91286E-08 3.81314E+02 1.17395E-08
 -1       633 1.13498E-07-3.88282E+02 3.81147E+01
 -1       635 9.11766E-08-3.88282E+02-3.81147E+01
 -1       644-1.02051E-07-1.23926E+02 1.95722E-08
 -1       646-1.07787E-07-3.50822E+01-1.70747E-08
 -1       647 1.06559E-07 1.03870E+02-6.97323E+01
 -1       649 1.02705E-07 1.03870E+02 6.97323E+01
 -1       658-1.01754E-07 1.01464E+02 7.69490E-08
 -1       660-1.05545E-07 9.37116E+01-5.70577E-08
 -1       661 9.79885E-08-6.51069E+01 6.08463E+00
 -1       663 1.19921E-07-6.51069E+01-6.08463E+00
 -1       672-9.65399E-08 7.41420E+01 7.22054E-08
 -1       674-9.34572E-08 1.47009E+02-4.58902E-08
 -1       675 9.05493E-08-6.89831E+01-5.71922E+01
 -1       677 1.19718E-07-6.89831E+01 5.71922E+01
 -1       686-1.01303E-07 5.79942E+01 9.08998E-08
 -1       688-9.40122E-08 1.14706E+02-5.58755E-08
 -1       689 6.35537E-08-3.47154E+01-4.45118E+01
 -1       691 1.12504E-07-3.47154E+01 4.45118E+01
 -1       700-1.20661E-07 1.13356E+02-1.35899E-07
 -1       702-1.23775E-07 2.20885E+02 1.93790E-09
 -1       703 1.15358E-07-1.04579E+02-8.43977E+01
 -1       705 1.12219E-07-1.04579E+02 8.43977E+01
 -1       714-1.10106E-07 7.71988E+01-3.55785E-08
 -1       716-1.06884E-07 2.10308E+02-1.51688E-08
 -1       717 8.96749E-08-6.95040E+01-1.04475E+02
 -1       719 1.21075E-07-6.95040E+01 1.04475E+02
 -1       728-1.04492E-07 1.19466E+02 7.96249E-09
 -1       730-1.14764E-07 3.00220E+02 1.18999E-07
 -1       731 7.65377E-08-1.23149E+02-1.41871E+02
 -1       733 9.45351E-08-1.23149E+02 1.41871E+02
 -1       742-1.04088E-07 9.76421E+01-1.83941E-07
 -1       744-8.95775E-08 3.24815E+02 2.82324E-07
 -1       745 1.44342E-07-1.11414E+02-1.78304E+02
 -1       747 9.01119E-08-1.11414E+02 1.78304E+02
 -1       756-5.43731E-08 1.20662E+02 1.40343E-07
 -1       758-6.35247E-08 4.02271E+02-5.69724E-09
 -1       759 1.00519E-07-1.47918E+02-2.21030E+02
 -1       761 2.19854E-08-1.47918E+02 2.21030E+02
 -1       770-8.62631E-08 1.09514E+02 3.80370E-07
 -1       772-9.09374E-08 4.50123E+02-3.52822E-07
 -1       773 8.48536E-08-1.51983E+02-2.67339E+02
 -1       775 8.47482E-08-1.51983E+02 2.67339E+02
 -1       784-7.10266E-08 1.20145E+02 3.21462E-07
 -1       786-7.21861E-08 5.23909E+02-3.97026E-07
 -1       787 6.18564E-08-1.79406E+02-3.16908E+02
 -1       789 1.59177E-07-1.79406E+02 3.16908E+02
 -1       798-6.01667E-08 1.13785E+02-2.11357E-07
 -1       800-7.24067E-08 5.85650E+02 2.00692E-07
 -1       801 6.95804E-08-1.91872E+02-3.70359E+02
 -1       803 4.07847E-08-1.91872E+02 3.70359E+02
 -1       812-3.03064E-08 1.17348E+02 4.20526E-07
 -1       814-1.69778E-08 6.60232E+02-5.58281E-07
 -1       815 2.89438E-08-2.15333E+02-4.26101E+02
 -1       817-2.73987E-08-2.15333E+02 4.26101E+02
 -1       826-9.17515E-08 1.12538E+02 5.94319E-07
 -1       828-9.06768E-08 7.30406E+02-8.42506E-07
 -1       829 4.24628E-09-2.32066E+02-4.84954E+02
 -1       831 5.71178E-08-2.32066E+02 4.84954E+02
 -1       840-2.65905E-08 1.12225E+02-7.37480E-08
 -1       842-1.98063E-08 8.07113E+02-6.98102E-08
 -1       843 5.16359E-08-2.54029E+02-5.45406E+02
 -1       845 5.07517E-08-2.54029E+02 5.45406E+02
 -1       854-3.04877E-08 1.07717E+02 5.59339E-07
 -1       856-2.63703E-08 8.82237E+02-6.30114E-07
 -1       857 8.15542E-08-2.72861E+02-6.07909E+02
 -1       859 7.75963E-08-2.72861E+02 6.07909E+02
 -1       868-9.85889E-08 1.05870E+02 4.91572E-07
 -1       870-1.08070E-07 9.60836E+02-7.76460E-07
 -1       871 6.73699E-08-2.94562E+02-6.71049E+02
 -1       873 1.27812E-07-2.94562E+02 6.71049E+02
 -1       882-8.94647E-08 1.01442E+02 4.35523E-08
 -1       884-8.27627E-08 1.03779E+03-3.23093E-07
 -1       885 9.22705E-08-3.13993E+02-7.34927E+02
 -1       887 1.15504E-07-3.13993E+02 7.34927E+02
 -1       896-8.57245E-08 1.00924E+02 4.82288E-07
 -1       898-9.67932E-08 1.11759E+03 5.43178E-08
 -1       899 1.60397E-07-3.36675E+02-7.97963E+02
 -1       901 1.19078E-08-3.36675E+02 7.97963E+02
 -1       910-1.04473E-07 9.64272E+01 6.88911E-07
 -1       912-1.07235E-07 1.19194E+03-9.86522E-08
 -1       913 6.17008E-08-3.54556E+02-8.59854E+02
 -1       915 3.83046E-08-3.54556E+02 8.59854E+02
 -1       924-2.98567E-08 1.02562E+02 9.14259E-07
 -1       926-4.76330E-08 1.27311E+03-8.39779E-07
 -1       927 8.51300E-08-3.81095E+02-9.18748E+02
 -1       929 2.84458E-08-3.81095E+02 9.18748E+02
 -1       938-7.70393E-08 9.65174E+01-8.94264E-08
 -1       940-8.05219E-08 1.33628E+03 3.96193E-07
 -1       941-5.03896E-08-3.92499E+02-9.73066E+02
 -1       943 9.76072E-08-3.92499E+02 9.73066E+02
 -1       952-5.66949E-08 1.20975E+02 5.07427E-07
 -1       954-8.93815E-08 1.42180E+03 4.64071E-07
 -1       955-1.02033E-07-4.30315E+02-1.02100E+03
 -1       957 6.58650E-08-4.30314E+02 1.02100E+03
 -1       966 9.98436E-09 1.08520E+02 3.69299E-07
 -1       968-3.81862E-08 1.45416E+03-9.78974E-08
 -1       969 7.67402E-08-4.23079E+02-1.05617E+03
 -1       971-1.25594E-08-4.23079E+02 1.05617E+03
 -1       980 1.48817E+05 8.78677E+03 1.62168E+02
 -1       982 1.47776E+05 8.94088E+03 1.62168E+02
 -1       983 2.26395E+00 1.07368E+02 8.56460E-02
 -1       985 2.26395E+00 1.07368E+02 8.56462E-02
 -1       986 2.75559E-01 3.35286E-01 5.22527E-03
 -1       988 2.75559E-01 3.35286E-01 5.22527E-03
 -1       989 5.44602E-01 9.59508E-01 1.09240E-02
 -1       991 5.44603E-01 9.59508E-01 1.09240E-02
 -1       992 8.01099E-01 1.97017E+00 1.65540E-02
 -1       994 8.01099E-01 1.97017E+00 1.65540E-02
 -1       995 1.04401E+00 3.35195E+00 2.20818E-02
 -1       997 1.04401E+00 3.35195E+00 2.20818E-02
 -1       998 1.27382E+00 5.08339E+00 2.76251E-02
 -1      1000 1.27382E+00 5.08339E+00 2.76251E-02
 -1      1001 1.49039E+00 7.14557E+00 3.31448E-02
 -1      1003 1.49039E+00 7.14557E+00 3.31448E-02
 -1      1004 1.69384E+00 9.51877E+00 3.86698E-02
 -1      1006 1.69384E+00 9.51877E+00 3.86698E-02
 -1      1007 1.88426E+00 1.21836E+01 4.41818E-02
 -1      1009 1.88426E+00 1.21836E+01 4.41819E-02
 -1      1010 2.06174E+00 1.51208E+01 4.96826E-02
 -1      1012 2.06174E+00 1.51208E+01 4.96827E-02
 -1      1013 2.22644E+00 1.83114E+01 5.51592E-02
 -1      1015 2.22644E+00 1.83114E+01 5.51592E-02
 -1      1016 2.37852E+00 2.17363E+01 6.06016E-02
 -1      1018 2.37852E+00 2.17363E+01 6.06016E-02
 -1      1019 2.51819E+00 2.53771E+01 6.59948E-02
 -1      1021 2.51819E+00 2.53771E+01 6.59948E-02
 -1      1022 2.64569E+00 2.92156E+01 7.13228E-02
 -1      1024 2.64569E+00 2.92156E+01 7.13227E-02
 -1      1025 2.76131E+00 3.32338E+01 7.65669E-02
 -1      1027 2.76131E+00 3.32338E+01 7.65669E-02
 -1      1028 2.86535E+00 3.74143E+01 8.17064E-02
 -1      1030 2.86535E+00 3.74143E+01 8.17065E-02
 -1      1031 2.95820E+00 4.17402E+01 8.67189E-02
 -1      1033 2.95820E+00 4.17402E+01 8.67190E-02
 -1      1034 3.04025E+00 4.61953E+01 9.15802E-02
 -1      1036 3.04025E+00 4.61953E+01 9.15801E-02
 -1      1037 3.11196E+00 5.07636E+01 9.62643E-02
 -1      1039 3.11196E+00 5.07636E+01 9.62642E-02
 -1      1040 3.17382E+00 5.54304E+01 1.00744E-01
 -1      1042 3.17382E+00 5.54304E+01 1.00744E-01
 -1      1043 3.22638E+00 6.01813E+01 1.04991E-01
 -1      1045 3.22638E+00 6.01813E+01 1.04991E-01
 -1      1046 3.27024E+00 6.50029E+01 1.08975E-01
 -1      1048 3.27024E+00 6.50029E+01 1.08975E-01
 -1      1049 3.30604E+00 6.98828E+01 1.12666E-01
 -1      1051 3.30604E+00 6.98828E+01 1.12667E-01
 -1      1052 3.33447E+00 7.48094E+01 1.16034E-01
 -1      1054 3.33447E+00 7.48094E+01 1.16034E-01
 -1      1055 3.35627E+00 7.97724E+01 1.19046E-01
 -1      1057 3.35627E+00 7.97724E+01 1.19046E-01
 -1      1058 3.37225E+00 8.47625E+01 1.21672E-01
 -1      1060 3.37225E+00 8.47625E+01 1.21672E-01
 -1      1061 3.38324E+00 8.97716E+01 1.23879E-01
 -1      1063 3.38324E+00 8.97716E+01 1.23879E-01
 -1      1064 3.39014E+00 9.47929E+01 1.25640E-01
 -1      1066 3.39014E+00 9.47929E+01 1.25640E-01
 -1      1067 3.39391E+00 9.98211E+01 1.26923E-01
 -1      1069 3.39391E+00 9.98211E+01 1.26924E-01
 -1      1070 3.39554E+00 1.04852E+02 1.27708E-01
 -1      1072 3.39554E+00 1.04852E+02 1.27708E-01
 -1      1073-1.48817E+05 8.78677E+03-1.62168E+02
 -1      1075-1.47776E+05 8.94088E+03-1.62168E+02
 -1      1076-5.76424E+03-5.08546E+02-7.46714E+02
 -1      1078 5.76424E+03-5.08546E+02 7.46714E+02
 -1      1079-1.19543E+04-1.53700E+03 4.80671E-08
 -1      1081 1.19543E+04-1.53700E+03 4.50635E-08
 -1      1082-5.76424E+03-5.08546E+02 7.46714E+02
 -1      1084 5.76424E+03-5.08546E+02-7.46714E+02
 -1      1085-1.08989E-07-3.22128E+03 1.19263E+03
 -1      1087-1.06042E-07-3.22128E+03-1.19263E+03
 -1      1088 1.07502E-07 2.46259E+03-4.05398E-08
 -1      1090 1.07761E-07 3.98209E+03-3.61669E-08
 -1      1099-9.06180E-08 2.43923E+03-2.36910E+01
 -1      1101-9.23419E-08 2.43923E+03 2.36910E+01
 -1      1102 9.24565E-08-2.42095E+03 5.97450E-09
 -1      1104 9.20218E-08-2.45113E+03 1.97519E-08
 -1      1113-9.19340E-08-1.51730E+03 8.37486E+01
 -1      1115-9.67834E-08-1.51730E+03-8.37486E+01
 -1      1116 9.32846E-08 1.47061E+03-2.20248E-08
 -1      1118 9.44315E-08 1.57731E+03-3.52670E-09
 -1      1127-9.80682E-08 7.88294E+02 9.63098E+01
 -1      1129-1.05337E-07 7.88294E+02-9.63098E+01
 -1      1130 9.94494E-08-8.38259E+02-1.00206E-08
 -1      1132 1.01483E-07-7.15553E+02 9.48753E-09
 -1      1141-9.90667E-08-3.88282E+02-3.81147E+01
 -1      1143-9.49269E-08-3.88282E+02 3.81147E+01
 -1      1144 1.03453E-07 4.29875E+02 5.98931E-08
 -1      1146 9.44094E-08 3.81314E+02-5.77660E-08
 -1      1155-1.00103E-07 1.03870E+02 6.97323E+01
 -1      1157-9.52715E-08 1.03870E+02-6.97323E+01
 -1      1158 9.96665E-08-1.23926E+02 2.66158E-08
 -1      1160 9.72555E-08-3.50822E+01 1.47127E-08
 -1      1169-9.79075E-08-6.51069E+01-6.08463E+00
 -1      1171-1.11021E-07-6.51069E+01 6.08463E+00
 -1      1172 8.77258E-08 1.01464E+02-9.68546E-09
 -1      1174 9.74983E-08 9.37116E+01 5.57511E-08
 -1      1183-9.08463E-08-6.89831E+01 5.71922E+01
 -1      1185-1.00783E-07-6.89831E+01-5.71922E+01
 -1      1186 9.64906E-08 7.41420E+01-4.12958E-08
 -1      1188 9.62367E-08 1.47009E+02 4.94185E-08
 -1      1197-9.44898E-08-3.47154E+01 4.45118E+01
 -1      1199-8.89421E-08-3.47154E+01-4.45118E+01
 -1      1200 1.03470E-07 5.79942E+01-2.76913E-08
 -1      1202 1.04303E-07 1.14706E+02-7.53542E-09
 -1      1211-9.99862E-08-1.04579E+02 8.43976E+01
 -1      1213-1.03849E-07-1.04579E+02-8.43976E+01
 -1      1214 9.69759E-08 1.13356E+02 4.81038E-08
 -1      1216 9.16005E-08 2.20885E+02 1.08550E-08
 -1      1225-6.33213E-08-6.95040E+01 1.04475E+02
 -1      1227-1.33668E-07-6.95040E+01-1.04475E+02
 -1      1228 1.26157E-07 7.71988E+01 4.89520E-08
 -1      1230 1.20777E-07 2.10308E+02 1.09191E-07
 -1      1239-7.02680E-08-1.23149E+02 1.41871E+02
 -1      1241-9.84096E-08-1.23149E+02-1.41871E+02
 -1      1242 1.06894E-07 1.19466E+02-1.04535E-08
 -1      1244 1.08102E-07 3.00220E+02 1.64429E-07
 -1      1253-1.18724E-07-1.11414E+02 1.78304E+02
 -1      1255-1.27371E-07-1.11414E+02-1.78304E+02
 -1      1256 7.93230E-08 9.76421E+01 1.87202E-07
 -1      1258 7.33675E-08 3.24815E+02-1.51514E-07
 -1      1267-8.75610E-08-1.47918E+02 2.21030E+02
 -1      1269-4.61810E-08-1.47918E+02-2.21030E+02
 -1      1270 9.08595E-08 1.20662E+02 1.79948E-08
 -1      1272 8.68612E-08 4.02271E+02-1.58607E-09
 -1      1281-7.70142E-08-1.51983E+02 2.67339E+02
 -1      1283-5.66059E-08-1.51983E+02-2.67339E+02
 -1      1284 6.21425E-08 1.09514E+02-4.60617E-07
 -1      1286 6.69949E-08 4.50123E+02 3.27260E-07
 -1      1295-1.39144E-08-1.79406E+02 3.16908E+02
 -1      1297-3.78414E-08-1.79406E+02-3.16908E+02
 -1      1298 6.35155E-08 1.20145E+02-4.06380E-07
 -1      1300 6.62026E-08 5.23909E+02 2.30633E-07
 -1      1309-4.70622E-08-1.91872E+02 3.70359E+02
 -1      1311-9.20953E-08-1.91872E+02-3.70359E+02
 -1      1312 6.23763E-08 1.13785E+02 2.40320E-07
 -1      1314 6.46155E-08 5.85650E+02-7.53181E-08
 -1      1323-1.02965E-07-2.15333E+02 4.26101E+02
 -1      1325-4.64556E-08-2.15333E+02-4.26101E+02
 -1      1326 5.39394E-08 1.17348E+02-5.01176E-08
 -1      1328 6.21144E-08 6.60232E+02 5.38995E-07
 -1      1337-1.20439E-09-2.32066E+02 4.84954E+02
 -1      1339 9.37217E-08-2.32066E+02-4.84954E+02
 -1      1340 8.03979E-10 1.12538E+02-3.10830E-07
 -1      1342 6.60658E-09 7.30406E+02 3.90841E-07
 -1      1351-4.43470E-08-2.54029E+02 5.45406E+02
 -1      1353-2.38026E-09-2.54029E+02-5.45406E+02
 -1      1354 9.22430E-09 1.12225E+02-3.19920E-07
 -1      1356 2.32501E-08 8.07113E+02-8.21847E-08
 -1      1365-1.70196E-07-2.72861E+02 6.07909E+02
 -1      1367-1.34540E-07-2.72861E+02-6.07909E+02
 -1      1368 4.21218E-08 1.07717E+02-6.37781E-07
 -1      1370 4.23759E-08 8.82237E+02 4.10304E-08
 -1      1379-1.18689E-07-2.94562E+02 6.71049E+02
 -1      1381-1.99359E-07-2.94562E+02-6.71049E+02
 -1      1382 1.23544E-07 1.05870E+02-7.94191E-07
 -1      1384 1.22994E-07 9.60836E+02 3.11461E-07
 -1      1393-9.34317E-08-3.13993E+02 7.34927E+02
 -1      1395-1.23909E-07-3.13993E+02-7.34927E+02
 -1      1396 1.39641E-07 1.01442E+02 2.33775E-07
 -1      1398 1.32408E-07 1.03779E+03 7.29354E-09
 -1      1407-1.08384E-07-3.36675E+02 7.97963E+02
 -1      1409 8.19567E-08-3.36675E+02-7.97963E+02
 -1      1410 1.52767E-07 1.00924E+02 2.94484E-07
 -1      1412 1.48053E-07 1.11759E+03 4.31833E-08
 -1      1421-1.04938E-07-3.54556E+02 8.59854E+02
 -1      1423-1.46015E-07-3.54556E+02-8.59854E+02
 -1      1424 1.16162E-07 9.64272E+01-2.22919E-07
 -1      1426 9.53109E-08 1.19194E+03 5.22631E-07
 -1      1435-1.09358E-07-3.81095E+02 9.18748E+02
 -1      1437 1.09772E-08-3.81095E+02-9.18748E+02
 -1      1438 7.59734E-08 1.02562E+02-1.34186E-07
 -1      1440 6.33681E-08 1.27311E+03 3.70107E-07
 -1      1449-2.30469E-07-3.92499E+02 9.73066E+02
 -1      1451-1.04041E-07-3.92499E+02-9.73066E+02
 -1      1452 1.05743E-07 9.65174E+01 6.23114E-07
 -1      1454 1.05711E-07 1.33628E+03-7.06613E-07
 -1      1463-6.08210E-08-4.30314E+02 1.02100E+03
 -1      1465-7.35064E-08-4.30314E+02-1.02100E+03
 -1      1466 2.50379E-08 1.20975E+02 3.36856E-07
 -1      1468 1.65755E-08 1.42180E+03-3.64882E-07
 -1      1477-2.42692E-08-4.23079E+02 1.05617E+03
 -1      1479 2.98829E-08-4.23079E+02-1.05617E+03
 -1      1480 5.13962E-08 1.08521E+02-1.38093E-07
 -1      1482 5.92097E-08 1.45416E+03 2.63531E-07
 -1      1491 9.92771E-08 1.52206E+02 1.22695E-07
 -1      1493-2.47795E-08 1.52206E+02-1.40141E-07
 -1      1494-1.31455E-07 1.52294E+02 9.59747E-08
 -1      1496-7.59345E-08 1.52294E+02 2.00850E-08
 -1      1497-7.56241E-08 1.52206E+02-1.14928E-07
 -1      1499-6.02342E-08 1.52206E+02-1.08194E-07
 -1      1500 2.75559E-01 3.35286E-01-5.22527E-03
 -1      1502 2.75559E-01 3.35286E-01-5.22527E-03
 -1      1503 5.44602E-01 9.59508E-01-1.09240E-02
 -1      1505 5.44602E-01 9.59508E-01-1.09240E-02
 -1      1506 8.01099E-01 1.97017E+00-1.65540E-02
 -1      1508 8.01099E-01 1.97017E+00-1.65540E-02
 -1      1509 1.04401E+00 3.35195E+00-2.20818E-02
 -1      1511 1.04401E+00 3.35195E+00-2.20818E-02
 -1      1512 1.27382E+00 5.08339E+00-2.76251E-02
 -1      1514 1.27382E+00 5.08339E+00-2.76251E-02
 -1      1515 1.49039E+00 7.14557E+00-3.31448E-02
 -1      1517 1.49039E+00 7.14557E+00-3.31448E-02
 -1      1518 1.69384E+00 9.51877E+00-3.86698E-02
 -1      1520 1.69384E+00 9.51877E+00-3.86698E-02
 -1      1521 1.88426E+00 1.21836E+01-4.41819E-02
 -1      1523 1.88426E+00 1.21836E+01-4.41819E-02
 -1      1524 2.06174E+00 1.51208E+01-4.96827E-02
 -1      1526 2.06174E+00 1.51208E+01-4.96827E-02
 -1      1527 2.22644E+00 1.83114E+01-5.51592E-02
 -1      1529 2.22644E+00 1.83114E+01-5.51592E-02
 -1      1530 2.37852E+00 2.17363E+01-6.06015E-02
 -1      1532 2.37852E+00 2.17363E+01-6.06016E-02
 -1      1533 2.51819E+00 2.53771E+01-6.59948E-02
 -1      1535 2.51819E+00 2.53771E+01-6.59948E-02
 -1      1536 2.64569E+00 2.92156E+01-7.13230E-02
 -1      1538 2.64569E+00 2.92156E+01-7.13228E-02
 -1      1539 2.76131E+00 3.32338E+01-7.65671E-02
 -1      1541 2.76131E+00 3.32338E+01-7.65669E-02
 -1      1542 2.86535E+00 3.74143E+01-8.17065E-02
 -1      1544 2.86535E+00 3.74143E+01-8.17064E-02
 -1      1545 2.95820E+00 4.17402E+01-8.67190E-02
 -1      1547 2.95820E+00 4.17402E+01-8.67189E-02
 -1      1548 3.04025E+00 4.61953E+01-9.15801E-02
 -1      1550 3.04025E+00 4.61953E+01-9.15801E-02
 -1      1551 3.11196E+00 5.07636E+01-9.62642E-02
 -1      1553 3.11196E+00 5.07636E+01-9.62642E-02
 -1      1554 3.17382E+00 5.54304E+01-1.00744E-01
 -1      1556 3.17382E+00 5.54304E+01-1.00744E-01
 -1      1557 3.22638E+00 6.01813E+01-1.04991E-01
 -1      1559 3.22638E+00 6.01813E+01-1.04991E-01
 -1      1560 3.27024E+00 6.50029E+01-1.08975E-01
 -1      1562 3.27024E+00 6.50029E+01-1.08975E-01
 -1      1563 3.30604E+00 6.98828E+01-1.12666E-01
 -1      1565 3.30604E+00 6.98828E+01-1.12666E-01
 -1      1566 3.33447E+00 7.48094E+01-1.16034E-01
 -1      1568 3.33447E+00 7.48094E+01-1.16034E-01
 -1      1569 3.35627E+00 7.97724E+01-1.19046E-01
 -1      1571 3.35627E+00 7.97724E+01-1.19046E-01
 -1      1572 3.37225E+00 8.47625E+01-1.21672E-01
 -1      1574 3.37225E+00 8.47625E+01-1.21672E-01
 -1      1575 3.38324E+00 8.97716E+01-1.23880E-01
 -1      1577 3.38324E+00 8.97716E+01-1.23879E-01
 -1      1578 3.39014E+00 9.47929E+01-1.25640E-01
 -1      1580 3.39014E+00 9.47929E+01-1.25640E-01
 -1      1581 3.39391E+00 9.98211E+01-1.26924E-01
 -1      1583 3.39391E+00 9.98211E+01-1.26923E-01
 -1      1584 3.39554E+00 1.04852E+02-1.27708E-01
 -1      1586 3.39554E+00 1.04852E+02-1.27708E-01
 -1      1587 2.26395E+00 1.07368E+02-8.56461E-02
 -1      1589 2.26395E+00 1.07368E+02-8.56461E-02
 -1      1590-1.48817E+05 8.78677E+03 1.62168E+02
 -1      1592-1.47776E+05 8.94088E+03 1.62168E+02
 -1      1593-2.26395E+00 1.07368E+02 8.56460E-02
 -1      1595-2.26395E+00 1.07368E+02 8.56460E-02
 -1      1596-2.75559E-01 3.35286E-01 5.22527E-03
 -1      1598-2.75559E-01 3.35286E-01 5.22527E-03
 -1      1599-5.44603E-01 9.59508E-01 1.09240E-02
 -1      1601-5.44602E-01 9.59508E-01 1.09240E-02
 -1      1602-8.01099E-01 1.97017E+00 1.65540E-02
 -1      1604-8.01099E-01 1.97017E+00 1.65540E-02
 -1      1605-1.04401E+00 3.35195E+00 2.20818E-02
 -1      1607-1.04401E+00 3.35195E+00 2.20818E-02
 -1      1608-1.27382E+00 5.08339E+00 2.76251E-02
 -1      1610-1.27382E+00 5.08339E+00 2.76251E-02
 -1      1611-1.49039E+00 7.14557E+00 3.31448E-02
 -1      1613-1.49039E+00 7.14557E+00 3.31448E-02
 -1      1614-1.69384E+00 9.51877E+00 3.86698E-02
 -1      1616-1.69384E+00 9.51877E+00 3.86698E-02
 -1      1617-1.88426E+00 1.21836E+01 4.41819E-02
 -1      1619-1.88426E+00 1.21836E+01 4.41819E-02
 -1      1620-2.06174E+00 1.51208E+01 4.96827E-02
 -1      1622-2.06174E+00 1.51208E+01 4.96827E-02
 -1      1623-2.22644E+00 1.83114E+01 5.51592E-02
 -1      1625-2.22644E+00 1.83114E+01 5.51592E-02
 -1      1626-2.37852E+00 2.17363E+01 6.06016E-02
 -1      1628-2.37852E+00 2.17363E+01 6.06015E-02
 -1      1629-2.51819E+00 2.53771E+01 6.59950E-02
 -1      1631-2.51819E+00 2.53771E+01 6.59947E-02
 -1      1632-2.64569E+00 2.92156E+01 7.13229E-02
 -1      1634-2.64569E+00 2.92156E+01 7.13228E-02
 -1      1635-2.76131E+00 3.32338E+01 7.65670E-02
 -1      1637-2.76131E+00 3.32338E+01 7.65668E-02
 -1      1638-2.86535E+00 3.74143E+01 8.17065E-02
 -1      1640-2.86535E+00 3.74143E+01 8.17064E-02
 -1      1641-2.95820E+00 4.17402E+01 8.67190E-02
 -1      1643-2.95820E+00 4.17402E+01 8.67189E-02
 -1      1644-3.04025E+00 4.61953E+01 9.15802E-02
 -1      1646-3.04025E+00 4.61953E+01 9.15800E-02
 -1      1647-3.11196E+00 5.07636E+01 9.62641E-02
 -1      1649-3.11196E+00 5.07636E+01 9.62642E-02
 -1      1650-3.17382E+00 5.54304E+01 1.00744E-01
 -1      1652-3.17382E+00 5.54304E+01 1.00744E-01
 -1      1653-3.22638E+00 6.01813E+01 1.04991E-01
 -1      1655-3.22638E+00 6.01813E+01 1.04991E-01
 -1      1656-3.27024E+00 6.50029E+01 1.08975E-01
 -1      1658-3.27024E+00 6.50029E+01 1.08975E-01
 -1      1659-3.30604E+00 6.98828E+01 1.12667E-01
 -1      1661-3.30604E+00 6.98828E+01 1.12666E-01
 -1      1662-3.33447E+00 7.48094E+01 1.16034E-01
 -1      1664-3.33447E+00 7.48094E+01 1.16034E-01
 -1      1665-3.35627E+00 7.97724E+01 1.19046E-01
 -1      1667-3.35627E+00 7.97724E+01 1.19046E-01
 -1      1668-3.37225E+00 8.47625E+01 1.21672E-01
 -1      1670-3.37225E+00 8.47625E+01 1.21672E-01
 -1      1671-3.38324E+00 8.97716E+01 1.23879E-01
 -1      1673-3.38324E+00 8.97716E+01 1.23879E-01
 -1      1674-3.39014E+00 9.47929E+01 1.25640E-01
 -1      1676-3.39014E+00 9.47929E+01 1.25640E-01
 -1      1677-3.39391E+00 9.98211E+01 1.26923E-01
 -1      1679-3.39391E+00 9.98211E+01 1.26924E-01
 -1      1680-3.39554E+00 1.04852E+02 1.27708E-01
 -1      1682-3.39554E+00 1.04852E+02 1.27708E-01
 -1      1683 1.48817E+05 8.78677E+03-1.62168E+02
 -1      1685 1.47776E+05 8.94088E+03-1.62168E+02
 -1      1686-3.66266E-01 6.47681E-01-7.02012E-03
 -1      1688-3.66266E-01 6.47681E-01-7.02012E-03
 -1      1689-7.25457E-01 1.89429E+00-1.46373E-02
 -1      1691-7.25457E-01 1.89429E+00-1.46373E-02
 -1      1692-1.06752E+00 3.91835E+00-2.21302E-02
 -1      1694-1.06752E+00 3.91835E+00-2.21302E-02
 -1      1695-1.39127E+00 6.68244E+00-2.94866E-02
 -1      1697-1.39127E+00 6.68244E+00-2.94867E-02
 -1      1698-1.69777E+00 1.01468E+01-3.68690E-02
 -1      1700-1.69777E+00 1.01468E+01-3.68690E-02
 -1      1701-1.98649E+00 1.42722E+01-4.42244E-02
 -1      1703-1.98649E+00 1.42722E+01-4.42244E-02
 -1      1704-2.25779E+00 1.90198E+01-5.15929E-02
 -1      1706-2.25779E+00 1.90198E+01-5.15929E-02
 -1      1707-2.51167E+00 2.43507E+01-5.89482E-02
 -1      1709-2.51167E+00 2.43507E+01-5.89482E-02
 -1      1710-2.74833E+00 3.02263E+01-6.62931E-02
 -1      1712-2.74833E+00 3.02263E+01-6.62931E-02
 -1      1713-2.96793E+00 3.66085E+01-7.36093E-02
 -1      1715-2.96793E+00 3.66085E+01-7.36093E-02
 -1      1716-3.17072E+00 4.34595E+01-8.08835E-02
 -1      1718-3.17072E+00 4.34595E+01-8.08835E-02
 -1      1719-3.35696E+00 5.07423E+01-8.80955E-02
 -1      1721-3.35696E+00 5.07423E+01-8.80955E-02
 -1      1722-3.52697E+00 5.84202E+01-9.52235E-02
 -1      1724-3.52697E+00 5.84202E+01-9.52236E-02
 -1      1725-3.68114E+00 6.64577E+01-1.02243E-01
 -1      1727-3.68114E+00 6.64577E+01-1.02243E-01
 -1      1728-3.81989E+00 7.48197E+01-1.09125E-01
 -1      1730-3.81989E+00 7.48197E+01-1.09125E-01
 -1      1731-3.94371E+00 8.34726E+01-1.15840E-01
 -1      1733-3.94371E+00 8.34726E+01-1.15840E-01
 -1      1734-4.05313E+00 9.23836E+01-1.22355E-01
 -1      1736-4.05313E+00 9.23836E+01-1.22355E-01
 -1      1737-4.14877E+00 1.01521E+02-1.28636E-01
 -1      1739-4.14877E+00 1.01521E+02-1.28636E-01
 -1      1740-4.23128E+00 1.10856E+02-1.34646E-01
 -1      1742-4.23128E+00 1.10856E+02-1.34646E-01
 -1      1743-4.30139E+00 1.20358E+02-1.40347E-01
 -1      1745-4.30139E+00 1.20358E+02-1.40347E-01
 -1      1746-4.35990E+00 1.30002E+02-1.45698E-01
 -1      1748-4.35990E+00 1.30002E+02-1.45698E-01
 -1      1749-4.40767E+00 1.39763E+02-1.50659E-01
 -1      1751-4.40767E+00 1.39763E+02-1.50660E-01
 -1      1752-4.44561E+00 1.49617E+02-1.55189E-01
 -1      1754-4.44561E+00 1.49617E+02-1.55189E-01
 -1      1755-4.47473E+00 1.59543E+02-1.59244E-01
 -1      1757-4.47473E+00 1.59543E+02-1.59244E-01
 -1      1758-4.49607E+00 1.69524E+02-1.62781E-01
 -1      1760-4.49607E+00 1.69524E+02-1.62781E-01
 -1      1761-4.51077E+00 1.79542E+02-1.65759E-01
 -1      1763-4.51077E+00 1.79542E+02-1.65758E-01
 -1      1764-4.52003E+00 1.89585E+02-1.68135E-01
 -1      1766-4.52003E+00 1.89585E+02-1.68136E-01
 -1      1767-4.52510E+00 1.99642E+02-1.69870E-01
 -1      1769-4.52510E+00 1.99642E+02-1.69871E-01
 -1      1770-4.52733E+00 2.09704E+02-1.70932E-01
 -1      1772-4.52733E+00 2.09704E+02-1.70932E-01
 -1      1773 3.66266E-01 6.47681E-01 7.02012E-03
 -1      1775 3.66266E-01 6.47681E-01 7.02012E-03
 -1      1776 7.25457E-01 1.89429E+00 1.46373E-02
 -1      1778 7.25457E-01 1.89429E+00 1.46373E-02
 -1      1779 1.06752E+00 3.91835E+00 2.21302E-02
 -1      1781 1.06752E+00 3.91835E+00 2.21302E-02
 -1      1782 1.39127E+00 6.68244E+00 2.94867E-02
 -1      1784 1.39127E+00 6.68244E+00 2.94867E-02
 -1      1785 1.69777E+00 1.01468E+01 3.68690E-02
 -1      1787 1.69777E+00 1.01468E+01 3.68690E-02
 -1      1788 1.98649E+00 1.42722E+01 4.42244E-02
 -1      1790 1.98649E+00 1.42722E+01 4.42244E-02
 -1      1791 2.25779E+00 1.90198E+01 5.15929E-02
 -1      1793 2.25779E+00 1.90198E+01 5.15929E-02
 -1      1794 2.51167E+00 2.43507E+01 5.89482E-02
 -1      1796 2.51167E+00 2.43507E+01 5.89482E-02
 -1      1797 2.74833E+00 3.02263E+01 6.62931E-02
 -1      1799 2.74833E+00 3.02263E+01 6.62931E-02
 -1      1800 2.96793E+00 3.66085E+01 7.36093E-02
 -1      1802 2.96793E+00 3.66085E+01 7.36093E-02
 -1      1803 3.17072E+00 4.34595E+01 8.08835E-02
 -1      1805 3.17072E+00 4.34595E+01 8.08835E-02
 -1      1806 3.35696E+00 5.07423E+01 8.80954E-02
 -1      1808 3.35696E+00 5.07423E+01 8.80956E-02
 -1      1809 3.52697E+00 5.84202E+01 9.52236E-02
 -1      1811 3.52697E+00 5.84202E+01 9.52236E-02
 -1      1812 3.68114E+00 6.64577E+01 1.02242E-01
 -1      1814 3.68114E+00 6.64577E+01 1.02243E-01
 -1      1815 3.81989E+00 7.48197E+01 1.09125E-01
 -1      1817 3.81989E+00 7.48197E+01 1.09125E-01
 -1      1818 3.94371E+00 8.34726E+01 1.15840E-01
 -1      1820 3.94371E+00 8.34726E+01 1.15840E-01
 -1      1821 4.05313E+00 9.23836E+01 1.22355E-01
 -1      1823 4.05313E+00 9.23836E+01 1.22355E-01
 -1      1824 4.14877E+00 1.01521E+02 1.28636E-01
 -1      1826 4.14877E+00 1.01521E+02 1.28636E-01
 -1      1827 4.23128E+00 1.10856E+02 1.34646E-01
 -1      1829 4.23128E+00 1.10856E+02 1.34646E-01
 -1      1830 4.30139E+00 1.20358E+02 1.40347E-01
 -1      1832 4.30139E+00 1.20358E+02 1.40347E-01
 -1      1833 4.35990E+00 1.30002E+02 1.45698E-01
 -1      1835 4.35990E+00 1.30002E+02 1.45698E-01
 -1      1836 4.40767E+00 1.39763E+02 1.50660E-01
 -1      1838 4.40767E+00 1.39763E+02 1.50660E-01
 -1      1839 4.44561E+00 1.49617E+02 1.55189E-01
 -1      1841 4.44561E+00 1.49617E+02 1.55189E-01
 -1      1842 4.47473E+00 1.59543E+02 1.59244E-01
 -1      1844 4.47473E+00 1.59543E+02 1.59244E-01
 -1      1845 4.49607E+00 1.69524E+02 1.62781E-01
 -1      1847 4.49607E+00 1.69524E+02 1.62781E-01
 -1      1848 4.51077E+00 1.79542E+02 1.65759E-01
 -1      1850 4.51077E+00 1.79542E+02 1.65758E-01
 -1      1851 4.52003E+00 1.89585E+02 1.68136E-01
 -1      1853 4.52003E+00 1.89585E+02 1.68136E-01
 -1      1854 4.52510E+00 1.99642E+02 1.69870E-01
 -1      1856 4.52510E+00 1.99642E+02 1.69871E-01
 -1      1857 4.52733E+00 2.09704E+02 1.70931E-01
 -1      1859 4.52733E+00 2.09704E+02 1.70932E-01
 -1      1860 6.95337E-11 8.90266E-01 4.25104E-10
 -1      1862-1.58660E-09 8.90266E-01-1.29845E-09
 -1      1863 9.79938E-10 2.66553E+00 1.84002E-10
 -1      1865 7.42958E-10 2.66553E+00-2.57151E-09
 -1      1866-3.19690E-09 5.55319E+00 4.94465E-09
 -1      1868 3.56764E-09 5.55319E+00-3.05974E-09
 -1      1869-2.11864E-09 9.48382E+00 1.04603E-09
 -1      1871-1.73054E-09 9.48382E+00-6.92280E-09
 -1      1872-2.04928E-09 1.44074E+01 4.37932E-09
 -1      1874-2.85755E-08 1.44074E+01-1.13036E-08
 -1      1875 5.93703E-09 2.02670E+01-3.09358E-08
 -1      1877 8.05381E-09 2.02670E+01-2.03944E-08
 -1      1878 8.04214E-10 2.70072E+01-2.05051E-08
 -1      1880 1.00294E-08 2.70072E+01 1.25838E-09
 -1      1881-7.00593E-09 3.45735E+01-2.07934E-08
 -1      1883 1.43326E-08 3.45735E+01-2.53170E-08
 -1      1884-5.69852E-10 4.29110E+01 2.51332E-08
 -1      1886 8.67679E-11 4.29110E+01-2.97433E-08
 -1      1887 1.48119E-08 5.19658E+01 3.91333E-08
 -1      1889-1.16454E-08 5.19658E+01 2.16434E-08
 -1      1890-5.39732E-08 6.16842E+01 5.61515E-08
 -1      1892 2.20514E-08 6.16842E+01 3.69671E-08
 -1      1893-5.75168E-08 7.20138E+01 6.39608E-08
 -1      1895-6.13055E-08 7.20139E+01 3.97521E-08
 -1      1896 2.92660E-08 8.29028E+01-4.03389E-10
 -1      1898-6.06302E-08 8.29028E+01-2.76438E-08
 -1      1899 5.24583E-08 9.43005E+01-6.72063E-08
 -1      1901-3.23760E-08 9.43005E+01-4.94188E-08
 -1      1902 1.03426E-09 1.06158E+02-1.25721E-07
 -1      1904-5.83078E-08 1.06158E+02-5.31999E-08
 -1      1905-7.61830E-09 1.18426E+02-9.94547E-08
 -1      1907 8.74057E-08 1.18426E+02-7.14720E-08
 -1      1908-1.04795E-08 1.31059E+02-1.69781E-07
 -1      1910-6.19789E-08 1.31059E+02 1.55609E-08
 -1      1911-1.60484E-09 1.44013E+02-1.34441E-07
 -1      1913-1.17737E-07 1.44013E+02 5.16842E-08
 -1      1914-8.25504E-08 1.57244E+02-1.65453E-08
 -1      1916 3.62065E-08 1.57244E+02 8.60320E-08
 -1      1917-8.50146E-08 1.70713E+02-1.70153E-07
 -1      1919 6.32168E-09 1.70713E+02 1.51165E-07
 -1      1920 1.72872E-07 1.84381E+02-9.73981E-08
 -1      1922 1.03892E-08 1.84381E+02 2.64934E-07
 -1      1923-4.12466E-08 1.98213E+02-1.70351E-08
 -1      1925-3.85215E-10 1.98213E+02 8.64394E-08
 -1      1926-3.57771E-08 2.12176E+02-9.04329E-08
 -1      1928-4.49564E-08 2.12176E+02-1.78104E-07
 -1      1929 1.98626E-07 2.26241E+02-1.33036E-07
 -1      1931 1.05960E-07 2.26241E+02-2.05620E-08
 -1      1932-1.83230E-07 2.40381E+02-1.42640E-07
 -1      1934-1.38459E-07 2.40381E+02 1.63361E-07
 -1      1935 4.72826E-08 2.54573E+02-1.82422E-07
 -1      1937-3.99920E-08 2.54573E+02 1.28100E-07
 -1      1938-9.60751E-08 2.68797E+02-1.36625E-07
 -1      1940 8.70308E-09 2.68797E+02-2.27564E-08
 -1      1941-1.76898E-07 2.83039E+02-8.43607E-09
 -1      1943-4.98992E-08 2.83040E+02 3.21380E-09
 -1      1944 1.93504E-07 2.97287E+02 3.78579E-07
 -1      1946 1.38751E-07 2.97287E+02-1.15729E-07
 -1      1947-4.37439E-10 8.99043E-01-7.37334E-10
 -1      1949-1.26600E-09 8.99043E-01 5.23208E-10
 -1      1950 2.54289E-10 2.68077E+00-1.51992E-09
 -1      1952-2.00967E-09 2.68077E+00 1.28280E-09
 -1      1953 2.48583E-09 5.57507E+00 1.60298E-09
 -1      1955-2.10490E-09 5.57507E+00-2.46807E-09
 -1      1956-9.73657E-10 9.51260E+00-3.41252E-09
 -1      1958 7.52678E-10 9.51260E+00-1.07525E-08
 -1      1959-5.06850E-09 1.44429E+01 8.09331E-09
 -1      1961-8.61300E-09 1.44429E+01 1.77478E-08
 -1      1962-5.62291E-09 2.03096E+01-1.22470E-08
 -1      1964 1.11727E-08 2.03096E+01 2.20063E-08
 -1      1965-4.65683E-10 2.70568E+01-2.89432E-08
 -1      1967 1.57627E-08 2.70568E+01 2.26738E-08
 -1      1968-2.44356E-10 3.46303E+01-1.93557E-08
 -1      1970-2.34601E-09 3.46303E+01 1.61559E-08
 -1      1971 2.44970E-08 4.29749E+01 2.45524E-09
 -1      1973 2.12214E-08 4.29749E+01 1.22884E-08
 -1      1974 4.34542E-08 5.20369E+01-3.53190E-08
 -1      1976 3.88788E-08 5.20369E+01-1.01754E-08
 -1      1977 7.03819E-09 6.17627E+01 1.45976E-08
 -1      1979 3.82368E-08 6.17627E+01 1.37612E-08
 -1      1980-3.15437E-08 7.20996E+01 8.97014E-08
 -1      1982-5.39070E-08 7.20996E+01 1.79063E-08
 -1      1983-6.58284E-08 8.29958E+01 7.78554E-08
 -1      1985-1.26891E-07 8.29958E+01 7.96391E-08
 -1      1986 2.77538E-08 9.44007E+01 6.08499E-08
 -1      1988 3.04534E-08 9.44007E+01 1.34039E-07
 -1      1989-3.78425E-08 1.06265E+02 8.83730E-08
 -1      1991 1.02675E-07 1.06265E+02 8.83125E-08
 -1      1992-1.40042E-07 1.18540E+02 1.48889E-08
 -1      1994 1.82891E-08 1.18540E+02 6.31338E-08
 -1      1995 9.53686E-08 1.31180E+02 1.57751E-07
 -1      1997 5.43197E-08 1.31180E+02 2.22717E-08
 -1      1998-7.30889E-08 1.44141E+02 1.58663E-07
 -1      2000-1.09329E-07 1.44141E+02 8.81687E-08
 -1      2001 3.60692E-09 1.57379E+02 9.45405E-08
 -1      2003 1.26428E-07 1.57379E+02 6.55363E-08
 -1      2004 1.78465E-08 1.70854E+02-1.84255E-08
 -1      2006 1.40169E-07 1.70854E+02 2.03248E-07
 -1      2007 1.34087E-07 1.84528E+02-2.35239E-08
 -1      2009-8.03132E-08 1.84528E+02 3.74457E-08
 -1      2010-1.72468E-07 1.98365E+02-6.28550E-08
 -1      2012-3.72844E-08 1.98365E+02-6.85456E-08
 -1      2013-7.55031E-09 2.12333E+02 1.21054E-07
 -1      2015-5.48013E-08 2.12333E+02-1.26698E-07
 -1      2016 2.28355E-07 2.26403E+02-1.05323E-07
 -1      2018 1.83948E-07 2.26403E+02-1.27228E-07
 -1      2019-1.51092E-07 2.40547E+02 6.85520E-08
 -1      2021 7.97904E-08 2.40547E+02-4.02134E-08
 -1      2022 4.74312E-08 2.54742E+02 2.17683E-07
 -1      2024-9.63174E-08 2.54742E+02 5.79825E-08
 -1      2025-1.04590E-07 2.68970E+02 7.52647E-08
 -1      2027-1.06356E-07 2.68970E+02-1.68458E-07
 -1      2028 2.38055E-07 2.83214E+02 2.55311E-07
 -1      2030-6.56341E-08 2.83214E+02 2.44949E-07
 -1      2031 2.17023E-07 2.97463E+02 2.56086E-07
 -1      2033 1.13008E-07 2.97463E+02 1.79364E-07
 -1      2034-1.84323E-09 8.90266E-01-8.72404E-10
 -1      2036 4.44018E-10 8.90266E-01 8.36785E-10
 -1      2037 2.48252E-09 2.66553E+00 5.68246E-10
 -1      2039-1.63433E-09 2.66553E+00 1.60448E-09
 -1      2040 2.56978E-09 5.55319E+00 5.14142E-10
 -1      2042-6.44332E-09 5.55319E+00 2.17781E-09
 -1      2043 3.61084E-09 9.48382E+00-2.77377E-09
 -1      2045-7.05197E-09 9.48382E+00 3.56103E-09
 -1      2046-3.17233E-09 1.44074E+01 5.83372E-09
 -1      2048-2.90744E-09 1.44074E+01 1.11116E-08
 -1      2049-1.26890E-08 2.02670E+01 1.43022E-08
 -1      2051-1.83613E-09 2.02670E+01 1.13004E-08
 -1      2052-1.23837E-09 2.70072E+01 1.75565E-08
 -1      2054-9.39007E-09 2.70072E+01 6.13969E-09
 -1      2055 1.69162E-08 3.45735E+01-1.97839E-08
 -1      2057-1.45628E-08 3.45735E+01-1.40442E-08
 -1      2058-1.06896E-08 4.29110E+01-1.40033E-08
 -1      2060 1.62917E-08 4.29110E+01-1.28210E-10
 -1      2061 9.12491E-09 5.19658E+01-3.23121E-08
 -1      2063 2.88566E-08 5.19658E+01 9.15930E-09
 -1      2064 3.69555E-08 6.16842E+01-4.62998E-08
 -1      2066 2.62333E-08 6.16842E+01 3.03694E-09
 -1      2067 8.41602E-09 7.20139E+01-1.51881E-09
 -1      2069 9.28409E-09 7.20138E+01-5.19852E-08
 -1      2070-1.01353E-07 8.29028E+01 2.54324E-08
 -1      2072-1.08237E-07 8.29028E+01-1.95479E-08
 -1      2073-1.19614E-09 9.43005E+01-7.00993E-08
 -1      2075 6.70129E-08 9.43005E+01 1.32593E-08
 -1      2076 2.41544E-08 1.06158E+02-5.93464E-08
 -1      2078 3.77557E-08 1.06158E+02-3.08503E-08
 -1      2079-2.14094E-08 1.18426E+02-1.23270E-08
 -1      2081-3.13989E-08 1.18426E+02 2.01643E-08
 -1      2082 5.24492E-08 1.31059E+02 7.80249E-08
 -1      2084 5.99619E-09 1.31059E+02-9.87392E-08
 -1      2085-1.32055E-07 1.44013E+02 1.45370E-07
 -1      2087-3.32611E-08 1.44013E+02-8.99044E-08
 -1      2088 2.67632E-08 1.57244E+02-2.38557E-08
 -1      2090 1.76491E-07 1.57244E+02-1.35385E-07
 -1      2091-1.27163E-07 1.70713E+02 5.44039E-08
 -1      2093 5.08669E-09 1.70713E+02-6.32846E-08
 -1      2094-1.51914E-07 1.84381E+02-3.52701E-08
 -1      2096-1.87249E-07 1.84381E+02-4.14284E-08
 -1      2097 7.56844E-08 1.98213E+02 8.49297E-08
 -1      2099-1.12067E-07 1.98213E+02-1.97136E-07
 -1      2100 1.38928E-07 2.12176E+02 5.12443E-08
 -1      2102 4.44983E-08 2.12176E+02-9.65200E-08
 -1      2103 9.02766E-08 2.26241E+02 1.60470E-07
 -1      2105 2.97385E-07 2.26241E+02-2.62480E-08
 -1      2106 3.59946E-10 2.40381E+02 3.19400E-08
 -1      2108 4.10950E-08 2.40381E+02 2.19450E-07
 -1      2109 1.27261E-08 2.54573E+02 1.02155E-07
 -1      2111 7.06071E-08 2.54573E+02 1.48954E-08
 -1      2112-7.97465E-08 2.68797E+02 1.32804E-07
 -1      2114-3.54711E-09 2.68797E+02 1.24623E-07
 -1      2115 1.84352E-07 2.83039E+02-8.15449E-08
 -1      2117-6.81214E-08 2.83039E+02 7.51039E-09
 -1      2118 4.82784E-08 2.97287E+02-2.29909E-07
 -1      2120 1.86327E-07 2.97287E+02-6.61155E-08
 -1      2121 3.66266E-01 6.47681E-01-7.02011E-03
 -1      2123 3.66266E-01 6.47681E-01-7.02012E-03
 -1      2124 7.25457E-01 1.89429E+00-1.46373E-02
 -1      2126 7.25457E-01 1.89429E+00-1.46373E-02
 -1      2127 1.06752E+00 3.91835E+00-2.21302E-02
 -1      2129 1.06752E+00 3.91835E+00-2.21302E-02
 -1      2130 1.39127E+00 6.68244E+00-2.94866E-02
 -1      2132 1.39127E+00 6.68244E+00-2.94867E-02
 -1      2133 1.69777E+00 1.01468E+01-3.68690E-02
 -1      2135 1.69777E+00 1.01468E+01-3.68690E-02
 -1      2136 1.98649E+00 1.42722E+01-4.42244E-02
 -1      2138 1.98649E+00 1.42722E+01-4.42244E-02
 -1      2139 2.25779E+00 1.90198E+01-5.15929E-02
 -1      2141 2.25779E+00 1.90198E+01-5.15929E-02
 -1      2142 2.51167E+00 2.43507E+01-5.89482E-02
 -1      2144 2.51167E+00 2.43507E+01-5.89482E-02
 -1      2145 2.74833E+00 3.02263E+01-6.62931E-02
 -1      2147 2.74833E+00 3.02263E+01-6.62931E-02
 -1      2148 2.96793E+00 3.66085E+01-7.36093E-02
 -1      2150 2.96793E+00 3.66085E+01-7.36093E-02
 -1      2151 3.17072E+00 4.34595E+01-8.08835E-02
 -1      2153 3.17072E+00 4.34595E+01-8.08836E-02
 -1      2154 3.35696E+00 5.07423E+01-8.80957E-02
 -1      2156 3.35696E+00 5.07423E+01-8.80955E-02
 -1      2157 3.52697E+00 5.84202E+01-9.52237E-02
 -1      2159 3.52697E+00 5.84202E+01-9.52236E-02
 -1      2160 3.68114E+00 6.64577E+01-1.02243E-01
 -1      2162 3.68114E+00 6.64577E+01-1.02243E-01
 -1      2163 3.81989E+00 7.48197E+01-1.09125E-01
 -1      2165 3.81989E+00 7.48197E+01-1.09125E-01
 -1      2166 3.94371E+00 8.34726E+01-1.15840E-01
 -1      2168 3.94371E+00 8.34726E+01-1.15840E-01
 -1      2169 4.05313E+00 9.23836E+01-1.22355E-01
 -1      2171 4.05313E+00 9.23836E+01-1.22355E-01
 -1      2172 4.14877E+00 1.01521E+02-1.28636E-01
 -1      2174 4.14877E+00 1.01521E+02-1.28636E-01
 -1      2175 4.23128E+00 1.10856E+02-1.34646E-01
 -1      2177 4.23128E+00 1.10856E+02-1.34646E-01
 -1      2178 4.30139E+00 1.20358E+02-1.40347E-01
 -1      2180 4.30139E+00 1.20358E+02-1.40347E-01
 -1      2181 4.35990E+00 1.30002E+02-1.45698E-01
 -1      2183 4.35990E+00 1.30002E+02-1.45698E-01
 -1      2184 4.40767E+00 1.39763E+02-1.50660E-01
 -1      2186 4.40767E+00 1.39763E+02-1.50660E-01
 -1      2187 4.44561E+00 1.49617E+02-1.55190E-01
 -1      2189 4.44561E+00 1.49617E+02-1.55189E-01
 -1      2190 4.47473E+00 1.59543E+02-1.59244E-01
 -1      2192 4.47473E+00 1.59543E+02-1.59244E-01
 -1      2193 4.49607E+00 1.69524E+02-1.62781E-01
 -1      2195 4.49607E+00 1.69524E+02-1.62781E-01
 -1      2196 4.51077E+00 1.79542E+02-1.65759E-01
 -1      2198 4.51077E+00 1.79542E+02-1.65759E-01
 -1      2199 4.52003E+00 1.89585E+02-1.68135E-01
 -1      2201 4.52003E+00 1.89585E+02-1.68135E-01
 -1      2202 4.52510E+00 1.99642E+02-1.69870E-01
 -1      2204 4.52510E+00 1.99642E+02-1.69870E-01
 -1      2205 4.52733E+00 2.09704E+02-1.70932E-01
 -1      2207 4.52733E+00 2.09704E+02-1.70932E-01
 -1      2208-3.66266E-01 6.47681E-01 7.02012E-03
 -1      2210-3.66266E-01 6.47681E-01 7.02012E-03
 -1      2211-7.25457E-01 1.89429E+00 1.46373E-02
 -1      2213-7.25457E-01 1.89429E+00 1.46373E-02
 -1      2214-1.06752E+00 3.91835E+00 2.21302E-02
 -1      2216-1.06752E+00 3.91835E+00 2.21302E-02
 -1      2217-1.39127E+00 6.68244E+00 2.94867E-02
 -1      2219-1.39127E+00 6.68244E+00 2.94867E-02
 -1      2220-1.69777E+00 1.01468E+01 3.68690E-02
 -1      2222-1.69777E+00 1.01468E+01 3.68690E-02
 -1      2223-1.98649E+00 1.42722E+01 4.42244E-02
 -1      2225-1.98649E+00 1.42722E+01 4.42244E-02
 -1      2226-2.25779E+00 1.90198E+01 5.15929E-02
 -1      2228-2.25779E+00 1.90198E+01 5.15929E-02
 -1      2229-2.51167E+00 2.43507E+01 5.89482E-02
 -1      2231-2.51167E+00 2.43507E+01 5.89482E-02
 -1      2232-2.74833E+00 3.02263E+01 6.62931E-02
 -1      2234-2.74833E+00 3.02263E+01 6.62932E-02
 -1      2235-2.96793E+00 3.66085E+01 7.36092E-02
 -1      2237-2.96793E+00 3.66085E+01 7.36093E-02
 -1      2238-3.17072E+00 4.34595E+01 8.08835E-02
 -1      2240-3.17072E+00 4.34595E+01 8.08835E-02
 -1      2241-3.35696E+00 5.07423E+01 8.80956E-02
 -1      2243-3.35696E+00 5.07423E+01 8.80954E-02
 -1      2244-3.52697E+00 5.84202E+01 9.52237E-02
 -1      2246-3.52697E+00 5.84202E+01 9.52236E-02
 -1      2247-3.68114E+00 6.64577E+01 1.02243E-01
 -1      2249-3.68114E+00 6.64577E+01 1.02243E-01
 -1      2250-3.81989E+00 7.48197E+01 1.09125E-01
 -1      2252-3.81989E+00 7.48197E+01 1.09125E-01
 -1      2253-3.94371E+00 8.34726E+01 1.15840E-01
 -1      2255-3.94371E+00 8.34726E+01 1.15840E-01
 -1      2256-4.05313E+00 9.23836E+01 1.22355E-01
 -1      2258-4.05313E+00 9.23836E+01 1.22355E-01
 -1      2259-4.14877E+00 1.01521E+02 1.28636E-01
 -1      2261-4.14877E+00 1.01521E+02 1.28636E-01
 -1      2262-4.23128E+00 1.10856E+02 1.34646E-01
 -1      2264-4.23128E+00 1.10856E+02 1.34646E-01
 -1      2265-4.30139E+00 1.20358E+02 1.40347E-01
 -1      2267-4.30139E+00 1.20358E+02 1.40347E-01
 -1      2268-4.35990E+00 1.30002E+02 1.45698E-01
 -1      2270-4.35990E+00 1.30002E+02 1.45698E-01
 -1      2271-4.40767E+00 1.39763E+02 1.50660E-01
 -1      2273-4.40767E+00 1.39763E+02 1.50660E-01
 -1      2274-4.44561E+00 1.49617E+02 1.55189E-01
 -1      2276-4.44561E+00 1.49617E+02 1.55189E-01
 -1      2277-4.47473E+00 1.59543E+02 1.59244E-01
 -1      2279-4.47473E+00 1.59543E+02 1.59244E-01
 -1      2280-4.49607E+00 1.69524E+02 1.62781E-01
 -1      2282-4.49607E+00 1.69524E+02 1.62781E-01
 -1      2283-4.51077E+00 1.79542E+02 1.65759E-01
 -1      2285-4.51077E+00 1.79542E+02 1.65759E-01
 -1      2286-4.52003E+00 1.89585E+02 1.68135E-01
 -1      2288-4.52003E+00 1.89585E+02 1.68135E-01
 -1      2289-4.52510E+00 1.99642E+02 1.69870E-01
 -1      2291-4.52510E+00 1.99642E+02 1.69871E-01
 -1      2292-4.52733E+00 2.09704E+02 1.70931E-01
 -1      2294-4.52733E+00 2.09704E+02 1.70932E-01
 -3
    1PSTEP                         4           1           1          
    1PGM                1.000000E+00                                  
    1PGK                6.453065E+03                                  
    1PHID                         -1                                  
    1PSUBC                         0                                  
    1PMODE                         1                                  
  100CL  101 12.78507090         930                     2    1MODAL      1
 -4  ERROR       1    1
 -5  STR(%)      1    1    0    0
 -1       404 0.00000E+00
 -1       406 0.00000E+00
 -1       407 0.00000E+00
 -1       409 0.00000E+00
 -1       410 0.00000E+00
 -1       412 0.00000E+00
 -1       413 0.00000E+00
 -1       415 0.00000E+00
 -1       424 0.00000E+00
 -1       426 0.00000E+00
 -1       427 0.00000E+00
 -1       429 0.00000E+00
 -1       438 0.00000E+00
 -1       440 0.00000E+00
 -1       441 0.00000E+00
 -1       443 0.00000E+00
 -1       444 0.00000E+00
 -1       446 0.00000E+00
 -1       447 0.00000E+00
 -1       449 0.00000E+00
 -1       458 0.00000E+00
 -1       460 0.00000E+00
 -1       461 0.00000E+00
 -1       463 0.00000E+00
 -1       472 0.00000E+00
 -1       474 0.00000E+00
 -1       475 0.00000E+00
 -1       477 0.00000E+00
 -1       478 0.00000E+00
 -1       480 0.00000E+00
 -1       481 0.00000E+00
 -1       483 0.00000E+00
 -1       484 0.00000E+00
 -1       486 0.00000E+00
 -1       487 0.00000E+00
 -1       489 0.00000E+00
 -1       490 0.00000E+00
 -1       492 0.00000E+00
 -1       493 0.00000E+00
 -1       495 0.00000E+00
 -1       496 0.00000E+00
 -1       498 0.00000E+00
 -1       499 0.00000E+00
 -1       501 0.00000E+00
 -1       502 0.00000E+00
 -1       504 0.00000E+00
 -1       505 0.00000E+00
 -1       507 0.00000E+00
 -1       508 0.00000E+00
 -1       510 0.00000E+00
 -1       511 0.00000E+00
 -1       513 0.00000E+00
 -1       514 0.00000E+00
 -1       516 0.00000E+00
 -1       517 0.00000E+00
 -1       519 0.00000E+00
 -1       520 0.00000E+00
 -1       522 0.00000E+00
 -1       523 0.00000E+00
 -1       525 0.00000E+00
 -1       526 0.00000E+00
 -1       528 0.00000E+00
 -1       529 0.00000E+00
 -1       531 0.00000E+00
 -1       532 0.00000E+00
 -1       534 0.00000E+00
 -1       535 0.00000E+00
 -1       537 0.00000E+00
 -1       538 0.00000E+00
 -1       540 0.00000E+00
 -1       541 0.00000E+00
 -1       543 0.00000E+00
 -1       544 0.00000E+00
 -1       546 0.00000E+00
 -1       547 0.00000E+00
 -1       549 0.00000E+00
 -1       550 0.00000E+00
 -1       552 0.00000E+00
 -1       553 0.00000E+00
 -1       555 0.00000E+00
 -1       556 0.00000E+00
 -1       558 0.00000E+00
 -1       559 0.00000E+00
 -1       561 0.00000E+00
 -1       562 0.00000E+00
 -1       564 0.00000E+00
 -1       565 0.00000E+00
 -1       567 0.00000E+00
 -1       568 0.00000E+00
 -1       570 0.00000E+00
 -1       571 0.00000E+00
 -1       573 0.00000E+00
 -1       574 0.00000E+00
 -1       576 0.00000E+00
 -1       577 0.00000E+00
 -1       579 0.00000E+00
 -1       588 0.00000E+00
 -1       590 0.00000E+00
 -1       591 0.00000E+00
 -1       593 0.00000E+00
 -1       602 0.00000E+00
 -1       604 0.00000E+00
 -1       605 0.00000E+00
 -1       607 0.00000E+00
 -1       616 0.00000E+00
 -1       618 0.00000E+00
 -1       619 0.00000E+00
 -1       621 0.00000E+00
 -1       630 0.00000E+00
 -1       632 0.00000E+00
 -1       633 0.00000E+00
 -1       635 0.00000E+00
 -1       644 0.00000E+00
 -1       646 0.00000E+00
 -1       647 0.00000E+00
 -1       649 0.00000E+00
 -1       658 0.00000E+00
 -1       660 0.00000E+00
 -1       661 0.00000E+00
 -1       663 0.00000E+00
 -1       672 0.00000E+00
 -1       674 0.00000E+00
 -1       675 0.00000E+00
 -1       677 0.00000E+00
 -1       686 0.00000E+00
 -1       688 0.00000E+00
 -1       689 0.00000E+00
 -1       691 0.00000E+00
 -1       700 0.00000E+00
 -1       702 0.00000E+00
 -1       703 0.00000E+00
 -1       705 0.00000E+00
 -1       714 0.00000E+00
 -1       716 0.00000E+00
 -1       717 0.00000E+00
 -1       719 0.00000E+00
 -1       728 0.00000E+00
 -1       730 0.00000E+00
 -1       731 0.00000E+00
 -1       733 0.00000E+00
 -1       742 0.00000E+00
 -1       744 0.00000E+00
 -1       745 0.00000E+00
 -1       747 0.00000E+00
 -1       756 0.00000E+00
 -1       758 0.00000E+00
 -1       759 0.00000E+00
 -1       761 0.00000E+00
 -1       770 0.00000E+00
 -1       772 0.00000E+00
 -1       773 0.00000E+00
 -1       775 0.00000E+00
 -1       784 0.00000E+00
 -1       786 0.00000E+00
 -1       787 0.00000E+00
 -1       789 0.00000E+00
 -1       798 0.00000E+00
 -1       800 0.00000E+00
 -1       801 0.00000E+00
 -1       803 0.00000E+00
 -1       812 0.00000E+00
 -1       814 0.00000E+00
 -1       815 0.00000E+00
 -1       817 0.00000E+00
 -1       826 0.00000E+00
 -1       828 0.00000E+00
 -1       829 0.00000E+00
 -1       831 0.00000E+00
 -1       840 0.00000E+00
 -1       842 0.00000E+00
 -1       843 0.00000E+00
 -1       845 0.00000E+00
 -1       854 0.00000E+00
 -1       856 0.00000E+00
 -1       857 0.00000E+00
 -1       859 0.00000E+00
 -1       868 0.00000E+00
 -1       870 0.00000E+00
 -1       871 0.00000E+00
 -1       873 0.00000E+00
 -1       882 0.00000E+00
 -1       884 0.00000E+00
 -1       885 0.00000E+00
 -1       887 0.00000E+00
 -1       896 0.00000E+00
 -1       898 0.00000E+00
 -1       899 0.00000E+00
 -1       901 0.00000E+00
 -1       910 0.00000E+00
 -1       912 0.00000E+00
 -1       913 0.00000E+00
 -1       915 0.00000E+00
 -1       924 0.00000E+00
 -1       926 0.00000E+00
 -1       927 0.00000E+00
 -1       929 0.00000E+00
 -1       938 0.00000E+00
 -1       940 0.00000E+00
 -1       941 0.00000E+00
 -1       943 0.00000E+00
 -1       952 0.00000E+00
 -1       954 0.00000E+00
 -1       955 0.00000E+00
 -1       957 0.00000E+00
 -1       966 0.00000E+00
 -1       968 0.00000E+00
 -1       969 0.00000E+00
 -1       971 0.00000E+00
 -1       980 0.00000E+00
 -1       982 0.00000E+00
 -1       983 0.00000E+00
 -1       985 0.00000E+00
 -1       986 0.00000E+00
 -1       988 0.00000E+00
 -1       989 0.00000E+00
 -1       991 0.00000E+00
 -1       992 0.00000E+00
 -1       994 0.00000E+00
 -1       995 0.00000E+00
 -1       997 0.00000E+00
 -1       998 0.00000E+00
 -1      1000 0.00000E+00
 -1      1001 0.00000E+00
 -1      1003 0.00000E+00
 -1      1004 0.00000E+00
 -1      1006 0.00000E+00
 -1      1007 0.00000E+00
 -1      1009 0.00000E+00
 -1      1010 0.00000E+00
 -1      1012 0.00000E+00
 -1      1013 0.00000E+00
 -1      1015 0.00000E+00
 -1      1016 0.00000E+00
 -1      1018 0.00000E+00
 -1      1019 0.00000E+00
 -1      1021 0.00000E+00
 -1      1022 0.00000E+00
 -1      1024 0.00000E+00
 -1      1025 0.00000E+00
 -1      1027 0.00000E+00
 -1      1028 0.00000E+00
 -1      1030 0.00000E+00
 -1      1031 0.00000E+00
 -1      1033 0.00000E+00
 -1      1034 0.00000E+00
 -1      1036 0.00000E+00
 -1      1037 0.00000E+00
 -1      1039 0.00000E+00
 -1      1040 0.00000E+00
 -1      1042 0.00000E+00
 -1      1043 0.00000E+00
 -1      1045 0.00000E+00
 -1      1046 0.00000E+00
 -1      1048 0.00000E+00
 -1      1049 0.00000E+00
 -1      1051 0.00000E+00
 -1      1052 0.00000E+00
 -1      1054 0.00000E+00
 -1      1055 0.00000E+00
 -1      1057 0.00000E+00
 -1      1058 0.00000E+00
 -1      1060 0.00000E+00
 -1      1061 0.00000E+00
 -1      1063 0.00000E+00
 -1      1064 0.00000E+00
 -1      1066 0.00000E+00
 -1      1067 0.00000E+00
 -1      1069 0.00000E+00
 -1      1070 0.00000E+00
 -1      1072 0.00000E+00
 -1      1073 0.00000E+00
 -1      1075 0.00000E+00
 -1      1076 0.00000E+00
 -1      1078 0.00000E+00
 -1      1079 0.00000E+00
 -1      1081 0.00000E+00
 -1      1082 0.00000E+00
 -1      1084 0.00000E+00
 -1      1085 0.00000E+00
 -1      1087 0.00000E+00
 -1      1088 0.00000E+00
 -1      1090 0.00000E+00
 -1      1099 0.00000E+00
 -1      1101 0.00000E+00
 -1      1102 0.00000E+00
 -1      1104 0.00000E+00
 -1      1113 0.00000E+00
 -1      1115 0.00000E+00
 -1      1116 0.00000E+00
 -1      1118 0.00000E+00
 -1      1127 0.00000E+00
 -1      1129 0.00000E+00
 -1      1130 0.00000E+00
 -1      1132 0.00000E+00
 -1      1141 0.00000E+00
 -1      1143 0.00000E+00
 -1      1144 0.00000E+00
 -1      1146 0.00000E+00
 -1      1155 0.00000E+00
 -1      1157 0.00000E+00
 -1      1158 0.00000E+00
 -1      1160 0.00000E+00
 -1      1169 0.00000E+00
 -1      1171 0.00000E+00
 -1      1172 0.00000E+00
 -1      1174 0.00000E+00
 -1      1183 0.00000E+00
 -1      1185 0.00000E+00
 -1      1186 0.00000E+00
 -1      1188 0.00000E+00
 -1      1197 0.00000E+00
 -1      1199 0.00000E+00
 -1      1200 0.00000E+00
 -1      1202 0.00000E+00
 -1      1211 0.00000E+00
 -1      1213 0.00000E+00
 -1      1214 0.00000E+00
 -1      1216 0.00000E+00
 -1      1225 0.00000E+00
 -1      1227 0.00000E+00
 -1      1228 0.00000E+00
 -1      1230 0.00000E+00
 -1      1239 0.00000E+00
 -1      1241 0.00000E+00
 -1      1242 0.00000E+00
 -1      1244 0.00000E+00
 -1      1253 0.00000E+00
 -1      1255 0.00000E+00
 -1      1256 0.00000E+00
 -1      1258 0.00000E+00
 -1      1267 0.00000E+00
 -1      1269 0.00000E+00
 -1      1270 0.00000E+00
 -1      1272 0.00000E+00
 -1      1281 0.00000E+00
 -1      1283 0.00000E+00
 -1      1284 0.00000E+00
 -1      1286 0.00000E+00
 -1      1295 0.00000E+00
 -1      1297 0.00000E+00
 -1      1298 0.00000E+00
 -1      1300 0.00000E+00
 -1      1309 0.00000E+00
 -1      1311 0.00000E+00
 -1      1312 0.00000E+00
 -1      1314 0.00000E+00
 -1      1323 0.00000E+00
 -1      1325 0.00000E+00
 -1      1326 0.00000E+00
 -1      1328 0.00000E+00
 -1      1337 0.00000E+00
 -1      1339 0.00000E+00
 -1      1340 0.00000E+00
 -1      1342 0.00000E+00
 -1      1351 0.00000E+00
 -1      1353 0.00000E+00
 -1      1354 0.00000E+00
 -1      1356 0.00000E+00
 -1      1365 0.00000E+00
 -1      1367 0.00000E+00
 -1      1368 0.00000E+00
 -1      1370 0.00000E+00
 -1      1379 0.00000E+00
 -1      1381 0.00000E+00
 -1      1382 0.00000E+00
 -1      1384 0.00000E+00
 -1      1393 0.00000E+00
 -1      1395 0.00000E+00
 -1      1396 0.00000E+00
 -1      1398 0.00000E+00
 -1      1407 0.00000E+00
 -1      1409 0.00000E+00
 -1      1410 0.00000E+00
 -1      1412 0.00000E+00
 -1      1421 0.00000E+00
 -1      1423 0.00000E+00
 -1      1424 0.00000E+00
 -1      1426 0.00000E+00
 -1      1435 0.00000E+00
 -1      1437 0.00000E+00
 -1      1438 0.00000E+00
 -1      1440 0.00000E+00
 -1      1449 0.00000E+00
 -1      1451 0.00000E+00
 -1      1452 0.00000E+00
 -1      1454 0.00000E+00
 -1      1463 0.00000E+00
 -1      1465 0.00000E+00
 -1      1466 0.00000E+00
 -1      1468 0.00000E+00
 -1      1477 0.00000E+00
 -1      1479 0.00000E+00
 -1      1480 0.00000E+00
 -1      1482 0.00000E+00
 -1      1491 0.00000E+00
 -1      1493 0.00000E+00
 -1      1494 0.00000E+00
 -1      1496 0.00000E+00
 -1      1497 0.00000E+00
 -1      1499 0.00000E+00
 -1      1500 0.00000E+00
 -1      1502 0.00000E+00
 -1      1503 0.00000E+00
 -1      1505 0.00000E+00
 -1      1506 0.00000E+00
 -1      1508 0.00000E+00
 -1      1509 0.00000E+00
 -1      1511 0.00000E+00
 -1      1512 0.00000E+00
 -1      1514 0.00000E+00
 -1      1515 0.00000E+00
 -1      1517 0.00000E+00
 -1      1518 0.00000E+00
 -1      1520 0.00000E+00
 -1      1521 0.00000E+00
 -1      1523 0.00000E+00
 -1      1524 0.00000E+00
 -1      1526 0.00000E+00
 -1      1527 0.00000E+00
 -1      1529 0.00000E+00
 -1      1530 0.00000E+00
 -1      1532 0.00000E+00
 -1      1533 0.00000E+00
 -1      1535 0.00000E+00
 -1      1536 0.00000E+00
 -1      1538 0.00000E+00
 -1      1539 0.00000E+00
 -1      1541 0.00000E+00
 -1      1542 0.00000E+00
 -1      1544 0.00000E+00
 -1      1545 0.00000E+00
 -1      1547 0.00000E+00
 -1      1548 0.00000E+00
 -1      1550 0.00000E+00
 -1      1551 0.00000E+00
 -1      1553 0.00000E+00
 -1      1554 0.00000E+00
 -1      1556 0.00000E+00
 -1      1557 0.00000E+00
 -1      1559 0.00000E+00
 -1      1560 0.00000E+00
 -1      1562 0.00000E+00
 -1      1563 0.00000E+00
 -1      1565 0.00000E+00
 -1      1566 0.00000E+00
 -1      1568 0.00000E+00
 -1      1569 0.00000E+00
 -1      1571 0.00000E+00
 -1      1572 0.00000E+00
 -1      1574 0.00000E+00
 -1      1575 0.00000E+00
 -1      1577 0.00000E+00
 -1      1578 0.00000E+00
 -1      1580 0.00000E+00
 -1      1581 0.00000E+00
 -1      1583 0.00000E+00
 -1      1584 0.00000E+00
 -1      1586 0.00000E+00
 -1      1587 0.00000E+00
 -1      1589 0.00000E+00
 -1      1590 0.00000E+00
 -1      1592 0.00000E+00
 -1      1593 0.00000E+00
 -1      1595 0.00000E+00
 -1      1596 0.00000E+00
 -1      1598 0.00000E+00
 -1      1599 0.00000E+00
 -1      1601 0.00000E+00
 -1      1602 0.00000E+00
 -1      1604 0.00000E+00
 -1      1605 0.00000E+00
 -1      1607 0.00000E+00
 -1      1608 0.00000E+00
 -1      1610 0.00000E+00
 -1      1611 0.00000E+00
 -1      1613 0.00000E+00
 -1      1614 0.00000E+00
 -1      1616 0.00000E+00
 -1      1617 0.00000E+00
 -1      1619 0.00000E+00
 -1      1620 0.00000E+00
 -1      1622 0.00000E+00
 -1      1623 0.00000E+00
 -1      1625 0.00000E+00
 -1      1626 0.00000E+00
 -1      1628 0.00000E+00
 -1      1629 0.00000E+00
 -1      1631 0.00000E+00
 -1      1632 0.00000E+00
 -1      1634 0.00000E+00
 -1      1635 0.00000E+00
 -1      1637 0.00000E+00
 -1      1638 0.00000E+00
 -1      1640 0.00000E+00
 -1      1641 0.00000E+00
 -1      1643 0.00000E+00
 -1      1644 0.00000E+00
 -1      1646 0.00000E+00
 -1      1647 0.00000E+00
 -1      1649 0.00000E+00
 -1      1650 0.00000E+00
 -1      1652 0.00000E+00
 -1      1653 0.00000E+00
 -1      1655 0.00000E+00
 -1      1656 0.00000E+00
 -1      1658 0.00000E+00
 -1      1659 0.00000E+00
 -1      1661 0.00000E+00
 -1      1662 0.00000E+00
 -1      1664 0.00000E+00
 -1      1665 0.00000E+00
 -1      1667 0.00000E+00
 -1      1668 0.00000E+00
 -1      1670 0.00000E+00
 -1      1671 0.00000E+00
 -1      1673 0.00000E+00
 -1      1674 0.00000E+00
 -1      1676 0.00000E+00
 -1      1677 0.00000E+00
 -1      1679 0.00000E+00
 -1      1680 0.00000E+00
 -1      1682 0.00000E+00
 -1      1683 0.00000E+00
 -1      1685 0.00000E+00
 -1      1686 0.00000E+00
 -1      1688 0.00000E+00
 -1      1689 0.00000E+00
 -1      1691 0.00000E+00
 -1      1692 0.00000E+00
 -1      1694 0.00000E+00
 -1      1695 0.00000E+00
 -1      1697 0.00000E+00
 -1      1698 0.00000E+00
 -1      1700 0.00000E+00
 -1      1701 0.00000E+00
 -1      1703 0.00000E+00
 -1      1704 0.00000E+00
 -1      1706 0.00000E+00
 -1      1707 0.00000E+00
 -1      1709 0.00000E+00
 -1      1710 0.00000E+00
 -1      1712 0.00000E+00
 -1      1713 0.00000E+00
 -1      1715 0.00000E+00
 -1      1716 0.00000E+00
 -1      1718 0.00000E+00
 -1      1719 0.00000E+00
 -1      1721 0.00000E+00
 -1      1722 0.00000E+00
 -1      1724 0.00000E+00
 -1      1725 0.00000E+00
 -1      1727 0.00000E+00
 -1      1728 0.00000E+00
 -1      1730 0.00000E+00
 -1      1731 0.00000E+00
 -1      1733 0.00000E+00
 -1      1734 0.00000E+00
 -1      1736 0.00000E+00
 -1      1737 0.00000E+00
 -1      1739 0.00000E+00
 -1      1740 0.00000E+00
 -1      1742 0.00000E+00
 -1      1743 0.00000E+00
 -1      1745 0.00000E+00
 -1      1746 0.00000E+00
 -1      1748 0.00000E+00
 -1      1749 0.00000E+00
 -1      1751 0.00000E+00
 -1      1752 0.00000E+00
 -1      1754 0.00000E+00
 -1      1755 0.00000E+00
 -1      1757 0.00000E+00
 -1      1758 0.00000E+00
 -1      1760 0.00000E+00
 -1      1761 0.00000E+00
 -1      1763 0.00000E+00
 -1      1764 0.00000E+00
 -1      1766 0.00000E+00
 -1      1767 0.00000E+00
 -1      1769 0.00000E+00
 -1      1770 0.00000E+00
 -1      1772 0.00000E+00
 -1      1773 0.00000E+00
 -1      1775 0.00000E+00
 -1      1776 0.00000E+00
 -1      1778 0.00000E+00
 -1      1779 0.00000E+00
 -1      1781 0.00000E+00
 -1      1782 0.00000E+00
 -1      1784 0.00000E+00
 -1      1785 0.00000E+00
 -1      1787 0.00000E+00
 -1      1788 0.00000E+00
 -1      1790 0.00000E+00
 -1      1791 0.00000E+00
 -1      1793 0.00000E+00
 -1      1794 0.00000E+00
 -1      1796 0.00000E+00
 -1      1797 0.00000E+00
 -1      1799 0.00000E+00
 -1      1800 0.00000E+00
 -1      1802 0.00000E+00
 -1      1803 0.00000E+00
 -1      1805 0.00000E+00
 -1      1806 0.00000E+00
 -1      1808 0.00000E+00
 -1      1809 0.00000E+00
 -1      1811 0.00000E+00
 -1      1812 0.00000E+00
 -1      1814 0.00000E+00
 -1      1815 0.00000E+00
 -1      1817 0.00000E+00
 -1      1818 0.00000E+00
 -1      1820 0.00000E+00
 -1      1821 0.00000E+00
 -1      1823 0.00000E+00
 -1      1824 0.00000E+00
 -1      1826 0.00000E+00
 -1      1827 0.00000E+00
 -1      1829 0.00000E+00
 -1      1830 0.00000E+00
 -1      1832 0.00000E+00
 -1      1833 0.00000E+00
 -1      1835 0.00000E+00
 -1      1836 0.00000E+00
 -1      1838 0.00000E+00
 -1      1839 0.00000E+00
 -1      1841 0.00000E+00
 -1      1842 0.00000E+00
 -1      1844 0.00000E+00
 -1      1845 0.00000E+00
 -1      1847 0.00000E+00
 -1      1848 0.00000E+00
 -1      1850 0.00000E+00
 -1      1851 0.00000E+00
 -1      1853 0.00000E+00
 -1      1854 0.00000E+00
 -1      1856 0.00000E+00
 -1      1857 0.00000E+00
 -1      1859 0.00000E+00
 -1      1860 0.00000E+00
 -1      1862 0.00000E+00
 -1      1863 0.00000E+00
 -1      1865 0.00000E+00
 -1      1866 0.00000E+00
 -1      1868 0.00000E+00
 -1      1869 0.00000E+00
 -1      1871 0.00000E+00
 -1      1872 0.00000E+00
 -1      1874 0.00000E+00
 -1      1875 0.00000E+00
 -1      1877 0.00000E+00
 -1      1878 0.00000E+00
 -1      1880 0.00000E+00
 -1      1881 0.00000E+00
 -1      1883 0.00000E+00
 -1      1884 0.00000E+00
 -1      1886 0.00000E+00
 -1      1887 0.00000E+00
 -1      1889 0.00000E+00
 -1      1890 0.00000E+00
 -1      1892 0.00000E+00
 -1      1893 0.00000E+00
 -1      1895 0.00000E+00
 -1      1896 0.00000E+00
 -1      1898 0.00000E+00
 -1      1899 0.00000E+00
 -1      1901 0.00000E+00
 -1      1902 0.00000E+00
 -1      1904 0.00000E+00
 -1      1905 0.00000E+00
 -1      1907 0.00000E+00
 -1      1908 0.00000E+00
 -1      1910 0.00000E+00
 -1      1911 0.00000E+00
 -1      1913 0.00000E+00
 -1      1914 0.00000E+00
 -1      1916 0.00000E+00
 -1      1917 0.00000E+00
 -1      1919 0.00000E+00
 -1      1920 0.00000E+00
 -1      1922 0.00000E+00
 -1      1923 0.00000E+00
 -1      1925 0.00000E+00
 -1      1926 0.00000E+00
 -1      1928 0.00000E+00
 -1      1929 0.00000E+00
 -1      1931 0.00000E+00
 -1      1932 0.00000E+00
 -1      1934 0.00000E+00
 -1      1935 0.00000E+00
 -1      1937 0.00000E+00
 -1      1938 0.00000E+00
 -1      1940 0.00000E+00
 -1      1941 0.00000E+00
 -1      1943 0.00000E+00
 -1      1944 0.00000E+00
 -1      1946 0.00000E+00
 -1      1947 0.00000E+00
 -1      1949 0.00000E+00
 -1      1950 0.00000E+00
 -1      1952 0.00000E+00
 -1      1953 0.00000E+00
 -1      1955 0.00000E+00
 -1      1956 0.00000E+00
 -1      1958 0.00000E+00
 -1      1959 0.00000E+00
 -1      1961 0.00000E+00
 -1      1962 0.00000E+00
 -1      1964 0.00000E+00
 -1      1965 0.00000E+00
 -1      1967 0.00000E+00
 -1      1968 0.00000E+00
 -1      1970 0.00000E+00
 -1      1971 0.00000E+00
 -1      1973 0.00000E+00
 -1      1974 0.00000E+00
 -1      1976 0.00000E+00
 -1      1977 0.00000E+00
 -1      1979 0.00000E+00
 -1      1980 0.00000E+00
 -1      1982 0.00000E+00
 -1      1983 0.00000E+00
 -1      1985 0.00000E+00
 -1      1986 0.00000E+00
 -1      1988 0.00000E+00
 -1      1989 0.00000E+00
 -1      1991 0.00000E+00
 -1      1992 0.00000E+00
 -1      1994 0.00000E+00
 -1      1995 0.00000E+00
 -1      1997 0.00000E+00
 -1      1998 0.00000E+00
 -1      2000 0.00000E+00
 -1      2001 0.00000E+00
 -1      2003 0.00000E+00
 -1      2004 0.00000E+00
 -1      2006 0.00000E+00
 -1      2007 0.00000E+00
 -1      2009 0.00000E+00
 -1      2010 0.00000E+00
 -1      2012 0.00000E+00
 -1      2013 0.00000E+00
 -1      2015 0.00000E+00
 -1      2016 0.00000E+00
 -1      2018 0.00000E+00
 -1      2019 0.00000E+00
 -1      2021 0.00000E+00
 -1      2022 0.00000E+00
 -1      2024 0.00000E+00
 -1      2025 0.00000E+00
 -1      2027 0.00000E+00
 -1      2028 0.00000E+00
 -1      2030 0.00000E+00
 -1      2031 0.00000E+00
 -1      2033 0.00000E+00
 -1      2034 0.00000E+00
 -1      2036 0.00000E+00
 -1      2037 0.00000E+00
 -1      2039 0.00000E+00
 -1      2040 0.00000E+00
 -1      2042 0.00000E+00
 -1      2043 0.00000E+00
 -1      2045 0.00000E+00
 -1      2046 0.00000E+00
 -1      2048 0.00000E+00
 -1      2049 0.00000E+00
 -1      2051 0.00000E+00
 -1      2052 0.00000E+00
 -1      2054 0.00000E+00
 -1      2055 0.00000E+00
 -1      2057 0.00000E+00
 -1      2058 0.00000E+00
 -1      2060 0.00000E+00
 -1      2061 0.00000E+00
 -1      2063 0.00000E+00
 -1      2064 0.00000E+00
 -1      2066 0.00000E+00
 -1      2067 0.00000E+00
 -1      2069 0.00000E+00
 -1      2070 0.00000E+00
 -1      2072 0.00000E+00
 -1      2073 0.00000E+00
 -1      2075 0.00000E+00
 -1      2076 0.00000E+00
 -1      2078 0.00000E+00
 -1      2079 0.00000E+00
 -1      2081 0.00000E+00
 -1      2082 0.00000E+00
 -1      2084 0.00000E+00
 -1      2085 0.00000E+00
 -1      2087 0.00000E+00
 -1      2088 0.00000E+00
 -1      2090 0.00000E+00
 -1      2091 0.00000E+00
 -1      2093 0.00000E+00
 -1      2094 0.00000E+00
 -1      2096 0.00000E+00
 -1      2097 0.00000E+00
 -1      2099 0.00000E+00
 -1      2100 0.00000E+00
 -1      2102 0.00000E+00
 -1      2103 0.00000E+00
 -1      2105 0.00000E+00
 -1      2106 0.00000E+00
 -1      2108 0.00000E+00
 -1      2109 0.00000E+00
 -1      2111 0.00000E+00
 -1      2112 0.00000E+00
 -1      2114 0.00000E+00
 -1      2115 0.00000E+00
 -1      2117 0.00000E+00
 -1      2118 0.00000E+00
 -1      2120 0.00000E+00
 -1      2121 0.00000E+00
 -1      2123 0.00000E+00
 -1      2124 0.00000E+00
 -1      2126 0.00000E+00
 -1      2127 0.00000E+00
 -1      2129 0.00000E+00
 -1      2130 0.00000E+00
 -1      2132 0.00000E+00
 -1      2133 0.00000E+00
 -1      2135 0.00000E+00
 -1      2136 0.00000E+00
 -1      2138 0.00000E+00
 -1      2139 0.00000E+00
 -1      2141 0.00000E+00
 -1      2142 0.00000E+00
 -1      2144 0.00000E+00
 -1      2145 0.00000E+00
 -1      2147 0.00000E+00
 -1      2148 0.00000E+00
 -1      2150 0.00000E+00
 -1      2151 0.00000E+00
 -1      2153 0.00000E+00
 -1      2154 0.00000E+00
 -1      2156 0.00000E+00
 -1      2157 0.00000E+00
 -1      2159 0.00000E+00
 -1      2160 0.00000E+00
 -1      2162 0.00000E+00
 -1      2163 0.00000E+00
 -1      2165 0.00000E+00
 -1      2166 0.00000E+00
 -1      2168 0.00000E+00
 -1      2169 0.00000E+00
 -1      2171 0.00000E+00
 -1      2172 0.00000E+00
 -1      2174 0.00000E+00
 -1      2175 0.00000E+00
 -1      2177 0.00000E+00
 -1      2178 0.00000E+00
 -1      2180 0.00000E+00
 -1      2181 0.00000E+00
 -1      2183 0.00000E+00
 -1      2184 0.00000E+00
 -1      2186 0.00000E+00
 -1      2187 0.00000E+00
 -1      2189 0.00000E+00
 -1      2190 0.00000E+00
 -1      2192 0.00000E+00
 -1      2193 0.00000E+00
 -1      2195 0.00000E+00
 -1      2196 0.00000E+00
 -1      2198 0.00000E+00
 -1      2199 0.00000E+00
 -1      2201 0.00000E+00
 -1      2202 0.00000E+00
 -1      2204 0.00000E+00
 -1      2205 0.00000E+00
 -1      2207 0.00000E+00
 -1      2208 0.00000E+00
 -1      2210 0.00000E+00
 -1      2211 0.00000E+00
 -1      2213 0.00000E+00
 -1      2214 0.00000E+00
 -1      2216 0.00000E+00
 -1      2217 0.00000E+00
 -1      2219 0.00000E+00
 -1      2220 0.00000E+00
 -1      2222 0.00000E+00
 -1      2223 0.00000E+00
 -1      2225 0.00000E+00
 -1      2226 0.00000E+00
 -1      2228 0.00000E+00
 -1      2229 0.00000E+00
 -1      2231 0.00000E+00
 -1      2232 0.00000E+00
 -1      2234 0.00000E+00
 -1      2235 0.00000E+00
 -1      2237 0.00000E+00
 -1      2238 0.00000E+00
 -1      2240 0.00000E+00
 -1      2241 0.00000E+00
 -1      2243 0.00000E+00
 -1      2244 0.00000E+00
 -1      2246 0.00000E+00
 -1      2247 0.00000E+00
 -1      2249 0.00000E+00
 -1      2250 0.00000E+00
 -1      2252 0.00000E+00
 -1      2253 0.00000E+00
 -1      2255 0.00000E+00
 -1      2256 0.00000E+00
 -1      2258 0.00000E+00
 -1      2259 0.00000E+00
 -1      2261 0.00000E+00
 -1      2262 0.00000E+00
 -1      2264 0.00000E+00
 -1      2265 0.00000E+00
 -1      2267 0.00000E+00
 -1      2268 0.00000E+00
 -1      2270 0.00000E+00
 -1      2271 0.00000E+00
 -1      2273 0.00000E+00
 -1      2274 0.00000E+00
 -1      2276 0.00000E+00
 -1      2277 0.00000E+00
 -1      2279 0.00000E+00
 -1      2280 0.00000E+00
 -1      2282 0.00000E+00
 -1      2283 0.00000E+00
 -1      2285 0.00000E+00
 -1      2286 0.00000E+00
 -1      2288 0.00000E+00
 -1      2289 0.00000E+00
 -1      2291 0.00000E+00
 -1      2292 0.00000E+00
 -1      2294 0.00000E+00
 -3
    1PSTEP                         5           1           1          
    1PGM                1.000000E+00                                  
    1PGK                1.080057E+05                                  
    1PHID                         -1                                  
    1PSUBC                         0                                  
    1PMODE                         2                                  
  100CL  102 52.30502350         930                     2    2MODAL      1
 -4  DISP        4    1
 -5  D1          1    2    1    0
 -5  D2          1    2    2    0
 -5  D3          1    2    3    0
 -5  ALL         1    2    0    0    1ALL
 -1       404 0.00000E+00 0.00000E+00-2.91238E-05
 -1       406 0.00000E+00-0.00000E+00 2.91238E-05
 -1       407-1.22879E-02-1.39874E-04-1.40061E-01
 -1       409-1.14838E-02 1.36855E-04-1.40062E-01
 -1       410-1.22920E-02 1.12853E-13-1.38803E-01
 -1       412-1.14887E-02 5.48460E-14-1.38803E-01
 -1       413-1.18904E-02 2.11085E-07-1.38803E-01
 -1       415-1.18904E-02-2.11085E-07-1.38803E-01
 -1       424 0.00000E+00 0.00000E+00-2.64368E-05
 -1       426 0.00000E+00 0.00000E+00 2.64368E-05
 -1       427 0.00000E+00-1.68412E-05 0.00000E+00
 -1       429 0.00000E+00 1.68412E-05 0.00000E+00
 -1       438-1.22879E-02 1.39874E-04-1.40061E-01
 -1       440-1.14838E-02-1.36855E-04-1.40062E-01
 -1       441 0.00000E+00 0.00000E+00-2.91238E-05
 -1       443 0.00000E+00-0.00000E+00 2.91238E-05
 -1       444 0.00000E+00 1.68412E-05 0.00000E+00
 -1       446 0.00000E+00-1.68412E-05 0.00000E+00
 -1       447 0.00000E+00 0.00000E+00-2.64368E-05
 -1       449 0.00000E+00 0.00000E+00 2.64368E-05
 -1       458 1.18904E-02-2.11085E-07-1.38803E-01
 -1       460 1.18904E-02 2.11085E-07-1.38803E-01
 -1       461 1.22920E-02-1.78805E-13-1.38803E-01
 -1       463 1.14887E-02-1.98393E-13-1.38803E-01
 -1       472 0.00000E+00 0.00000E+00-2.91238E-05
 -1       474 0.00000E+00 0.00000E+00 2.91238E-05
 -1       475 1.22879E-02-1.39874E-04-1.40061E-01
 -1       477 1.14838E-02 1.36855E-04-1.40062E-01
 -1       478 1.22879E-02 1.39874E-04-1.40061E-01
 -1       480 1.14838E-02-1.36855E-04-1.40062E-01
 -1       481 0.00000E+00 0.00000E+00-2.91238E-05
 -1       483 0.00000E+00 0.00000E+00 2.91238E-05
 -1       484-1.07935E-03 3.21314E-04-7.06844E-04
 -1       486-8.95583E-04 3.34345E-04-6.75469E-04
 -1       487-1.95133E-03 2.39920E-04-2.04065E-03
 -1       489-1.77479E-03 2.40514E-04-2.00207E-03
 -1       490-2.90914E-03 2.32428E-04-3.63540E-03
 -1       492-2.65493E-03 2.42228E-04-3.59851E-03
 -1       493-3.78490E-03 2.12668E-04-5.73592E-03
 -1       495-3.47329E-03 2.30629E-04-5.70504E-03
 -1       496-4.61324E-03 2.00009E-04-8.22785E-03
 -1       498-4.25241E-03 2.25196E-04-8.19406E-03
 -1       499-5.40062E-03 1.79874E-04-1.11134E-02
 -1       501-4.98339E-03 2.14711E-04-1.10858E-02
 -1       502-6.13395E-03 1.65181E-04-1.43680E-02
 -1       504-5.67320E-03 2.08245E-04-1.43387E-02
 -1       505-6.82484E-03 1.46788E-04-1.79614E-02
 -1       507-6.31628E-03 1.99755E-04-1.79369E-02
 -1       508-7.46532E-03 1.30565E-04-2.18779E-02
 -1       510-6.91745E-03 1.92941E-04-2.18528E-02
 -1       511-8.06191E-03 1.12869E-04-2.60869E-02
 -1       513-7.47427E-03 1.85708E-04-2.60656E-02
 -1       514-8.61103E-03 9.60615E-05-3.05708E-02
 -1       516-7.98919E-03 1.79342E-04-3.05496E-02
 -1       517-9.11643E-03 7.86582E-05-3.53019E-02
 -1       519-8.46189E-03 1.73108E-04-3.52839E-02
 -1       520-9.57692E-03 6.17420E-05-4.02609E-02
 -1       522-8.89379E-03 1.67506E-04-4.02435E-02
 -1       523-9.99503E-03 4.46423E-05-4.54226E-02
 -1       525-9.28563E-03 1.62242E-04-4.54078E-02
 -1       526-1.03709E-02 2.79462E-05-5.07672E-02
 -1       528-9.63859E-03 1.57546E-04-5.07532E-02
 -1       529-1.07066E-02 1.13290E-05-5.62713E-02
 -1       531-9.95399E-03 1.53277E-04-5.62595E-02
 -1       532-1.10031E-02-4.84028E-06-6.19156E-02
 -1       534-1.02331E-02 1.49560E-04-6.19048E-02
 -1       535-1.12624E-02-2.07120E-05-6.76787E-02
 -1       537-1.04776E-02 1.46311E-04-6.76698E-02
 -1       538-1.14861E-02-3.60268E-05-7.35422E-02
 -1       540-1.06892E-02 1.43606E-04-7.35343E-02
 -1       541-1.16764E-02-5.08284E-05-7.94866E-02
 -1       543-1.08696E-02 1.41381E-04-7.94804E-02
 -1       544-1.18352E-02-6.49182E-05-8.54951E-02
 -1       546-1.10210E-02 1.39674E-04-8.54897E-02
 -1       547-1.19649E-02-7.82577E-05-9.15503E-02
 -1       549-1.11455E-02 1.38429E-04-9.15463E-02
 -1       550-1.20681E-02-9.06853E-05-9.76372E-02
 -1       552-1.12454E-02 1.37637E-04-9.76340E-02
 -1       553-1.21473E-02-1.02074E-04-1.03741E-01
 -1       555-1.13232E-02 1.37257E-04-1.03739E-01
 -1       556-1.22054E-02-1.12308E-04-1.09848E-01
 -1       558-1.13816E-02 1.37168E-04-1.09847E-01
 -1       559-1.22454E-02-1.21079E-04-1.15947E-01
 -1       561-1.14234E-02 1.37452E-04-1.15947E-01
 -1       562-1.22702E-02-1.28497E-04-1.22027E-01
 -1       564-1.14516E-02 1.37606E-04-1.22026E-01
 -1       565-1.22841E-02-1.33828E-04-1.28078E-01
 -1       567-1.14695E-02 1.38111E-04-1.28078E-01
 -1       568-1.22882E-02-1.36787E-04-1.34090E-01
 -1       570-1.14800E-02 1.38757E-04-1.34090E-01
 -1       571-1.22894E-02-1.20131E-04-1.39204E-01
 -1       573-1.14858E-02 1.17433E-04-1.39203E-01
 -1       574-1.07150E-03 4.41716E-15-8.07908E-04
 -1       576-8.75993E-04 3.26116E-15-7.64833E-04
 -1       577-9.73747E-04-1.37200E-05-7.86371E-04
 -1       579-9.73747E-04 1.37200E-05-7.86371E-04
 -1       588-2.00697E-03 1.33140E-14-2.01941E-03
 -1       590-1.86073E-03 1.04327E-14-1.98438E-03
 -1       591-1.93385E-03-1.11601E-05-2.00190E-03
 -1       593-1.93385E-03 1.11601E-05-2.00190E-03
 -1       602-2.97184E-03 2.51201E-14-3.60070E-03
 -1       604-2.70048E-03 2.06593E-14-3.56463E-03
 -1       605-2.83616E-03-1.14889E-05-3.58266E-03
 -1       607-2.83616E-03 1.14889E-05-3.58266E-03
 -1       616-3.82612E-03 3.85239E-14-5.66139E-03
 -1       618-3.53606E-03 3.23257E-14-5.62840E-03
 -1       619-3.68109E-03-1.05081E-05-5.64489E-03
 -1       621-3.68109E-03 1.05081E-05-5.64489E-03
 -1       630-4.67218E-03 5.25333E-14-8.11293E-03
 -1       632-4.30446E-03 4.46598E-14-8.08140E-03
 -1       633-4.48832E-03-1.00414E-05-8.09717E-03
 -1       635-4.48832E-03 1.00414E-05-8.09717E-03
 -1       644-5.44720E-03 6.60389E-14-1.09652E-02
 -1       646-5.04325E-03 5.64812E-14-1.09356E-02
 -1       647-5.24522E-03-9.44841E-06-1.09504E-02
 -1       649-5.24522E-03 9.44841E-06-1.09504E-02
 -1       658-6.18792E-03 7.85371E-14-1.41757E-02
 -1       660-5.72713E-03 6.72907E-14-1.41482E-02
 -1       661-5.95752E-03-8.77186E-06-1.41619E-02
 -1       663-5.95752E-03 8.77186E-06-1.41619E-02
 -1       672-6.87293E-03 8.98167E-14-1.77311E-02
 -1       674-6.37362E-03 7.66473E-14-1.77051E-02
 -1       675-6.62328E-03-8.28546E-06-1.77181E-02
 -1       677-6.62328E-03 8.28546E-06-1.77181E-02
 -1       686-7.51613E-03 9.94817E-14-2.16013E-02
 -1       688-6.97183E-03 8.45933E-14-2.15775E-02
 -1       689-7.24398E-03-7.59270E-06-2.15894E-02
 -1       691-7.24398E-03 7.59270E-06-2.15894E-02
 -1       700-8.10948E-03 1.07469E-13-2.57668E-02
 -1       702-7.52958E-03 9.07891E-14-2.57445E-02
 -1       703-7.81953E-03-7.10493E-06-2.57557E-02
 -1       705-7.81953E-03 7.10493E-06-2.57557E-02
 -1       714-8.65914E-03 1.14126E-13-3.02016E-02
 -1       716-8.04275E-03 9.52209E-14-3.01813E-02
 -1       717-8.35095E-03-6.45717E-06-3.01915E-02
 -1       719-8.35095E-03 6.45717E-06-3.01915E-02
 -1       728-9.16230E-03 1.19666E-13-3.48844E-02
 -1       730-8.51511E-03 9.87843E-14-3.48657E-02
 -1       731-8.83871E-03-5.95395E-06-3.48751E-02
 -1       733-8.83871E-03 5.95395E-06-3.48751E-02
 -1       742-9.62219E-03 1.23604E-13-3.97913E-02
 -1       744-8.94556E-03 1.00744E-13-3.97745E-02
 -1       745-9.28388E-03-5.35974E-06-3.97829E-02
 -1       747-9.28388E-03 5.35974E-06-3.97829E-02
 -1       756-1.00383E-02 1.25613E-13-4.49009E-02
 -1       758-9.33634E-03 1.00220E-13-4.48856E-02
 -1       759-9.68734E-03-4.85407E-06-4.48932E-02
 -1       761-9.68734E-03 4.85407E-06-4.48932E-02
 -1       770-1.04129E-02 1.26458E-13-5.01906E-02
 -1       772-9.68773E-03 9.89170E-14-5.01771E-02
 -1       773-1.00503E-02-4.31157E-06-5.01839E-02
 -1       775-1.00503E-02 4.31157E-06-5.01839E-02
 -1       784-1.07466E-02 1.26427E-13-5.56398E-02
 -1       786-1.00015E-02 9.64781E-14-5.56278E-02
 -1       787-1.03741E-02-3.82026E-06-5.56338E-02
 -1       789-1.03741E-02 3.82026E-06-5.56338E-02
 -1       798-1.10413E-02 1.24449E-13-6.12275E-02
 -1       800-1.02788E-02 9.21830E-14-6.12171E-02
 -1       801-1.06601E-02-3.32872E-06-6.12223E-02
 -1       803-1.06601E-02 3.32872E-06-6.12223E-02
 -1       812-1.12984E-02 1.21828E-13-6.69340E-02
 -1       814-1.05213E-02 8.72133E-14-6.69250E-02
 -1       815-1.09099E-02-2.86689E-06-6.69295E-02
 -1       817-1.09099E-02 2.86689E-06-6.69295E-02
 -1       826-1.15199E-02 1.18412E-13-7.27402E-02
 -1       828-1.07306E-02 8.17753E-14-7.27326E-02
 -1       829-1.11252E-02-2.42856E-06-7.27364E-02
 -1       831-1.11252E-02 2.42856E-06-7.27364E-02
 -1       840-1.17077E-02 1.12385E-13-7.86279E-02
 -1       842-1.09085E-02 7.33621E-14-7.86216E-02
 -1       843-1.13081E-02-2.00914E-06-7.86248E-02
 -1       845-1.13081E-02 2.00914E-06-7.86248E-02
 -1       854-1.18640E-02 1.05393E-13-8.45800E-02
 -1       856-1.10572E-02 6.32919E-14-8.45749E-02
 -1       857-1.14606E-02-1.62885E-06-8.45774E-02
 -1       859-1.14606E-02 1.62886E-06-8.45774E-02
 -1       868-1.19910E-02 9.94598E-14-9.05802E-02
 -1       870-1.11788E-02 5.53192E-14-9.05762E-02
 -1       871-1.15849E-02-1.26309E-06-9.05782E-02
 -1       873-1.15849E-02 1.26309E-06-9.05782E-02
 -1       882-1.20912E-02 9.46445E-14-9.66137E-02
 -1       884-1.12755E-02 4.78527E-14-9.66107E-02
 -1       885-1.16834E-02-9.47366E-07-9.66122E-02
 -1       887-1.16834E-02 9.47367E-07-9.66122E-02
 -1       896-1.21674E-02 9.11177E-14-1.02667E-01
 -1       898-1.13499E-02 4.18731E-14-1.02665E-01
 -1       899-1.17587E-02-6.45537E-07-1.02666E-01
 -1       901-1.17587E-02 6.45538E-07-1.02666E-01
 -1       910-1.22223E-02 8.99914E-14-1.08727E-01
 -1       912-1.14046E-02 3.92525E-14-1.08725E-01
 -1       913-1.18135E-02-4.01574E-07-1.08726E-01
 -1       915-1.18135E-02 4.01574E-07-1.08726E-01
 -1       924-1.22591E-02 9.17688E-14-1.14783E-01
 -1       926-1.14425E-02 3.88212E-14-1.14782E-01
 -1       927-1.18508E-02-1.74235E-07-1.14782E-01
 -1       929-1.18508E-02 1.74235E-07-1.14782E-01
 -1       938-1.22807E-02 9.44808E-14-1.20825E-01
 -1       940-1.14665E-02 4.00782E-14-1.20825E-01
 -1       941-1.18736E-02-8.22699E-09-1.20825E-01
 -1       943-1.18736E-02 8.22712E-09-1.20825E-01
 -1       952-1.22907E-02 9.97670E-14-1.26847E-01
 -1       954-1.14795E-02 4.41457E-14-1.26847E-01
 -1       955-1.18851E-02 1.35082E-07-1.26847E-01
 -1       957-1.18851E-02-1.35081E-07-1.26847E-01
 -1       966-1.22924E-02 1.07452E-13-1.32840E-01
 -1       968-1.14858E-02 4.97974E-14-1.32841E-01
 -1       969-1.18891E-02 2.12506E-07-1.32840E-01
 -1       971-1.18891E-02-2.12506E-07-1.32840E-01
 -1       980 0.00000E+00 0.00000E+00-2.44389E-05
 -1       982 0.00000E+00-0.00000E+00 2.44389E-05
 -1       983-1.22894E-02 1.20131E-04-1.39204E-01
 -1       985-1.14858E-02-1.17433E-04-1.39203E-01
 -1       986-1.07935E-03-3.21314E-04-7.06844E-04
 -1       988-8.95583E-04-3.34345E-04-6.75469E-04
 -1       989-1.95133E-03-2.39920E-04-2.04065E-03
 -1       991-1.77479E-03-2.40514E-04-2.00207E-03
 -1       992-2.90914E-03-2.32428E-04-3.63540E-03
 -1       994-2.65493E-03-2.42228E-04-3.59851E-03
 -1       995-3.78490E-03-2.12668E-04-5.73592E-03
 -1       997-3.47329E-03-2.30629E-04-5.70504E-03
 -1       998-4.61324E-03-2.00009E-04-8.22785E-03
 -1      1000-4.25241E-03-2.25196E-04-8.19406E-03
 -1      1001-5.40062E-03-1.79874E-04-1.11134E-02
 -1      1003-4.98339E-03-2.14711E-04-1.10858E-02
 -1      1004-6.13395E-03-1.65181E-04-1.43680E-02
 -1      1006-5.67320E-03-2.08245E-04-1.43387E-02
 -1      1007-6.82484E-03-1.46788E-04-1.79614E-02
 -1      1009-6.31628E-03-1.99755E-04-1.79369E-02
 -1      1010-7.46532E-03-1.30565E-04-2.18779E-02
 -1      1012-6.91745E-03-1.92941E-04-2.18528E-02
 -1      1013-8.06191E-03-1.12869E-04-2.60869E-02
 -1      1015-7.47427E-03-1.85708E-04-2.60656E-02
 -1      1016-8.61103E-03-9.60615E-05-3.05708E-02
 -1      1018-7.98919E-03-1.79342E-04-3.05496E-02
 -1      1019-9.11643E-03-7.86582E-05-3.53019E-02
 -1      1021-8.46189E-03-1.73108E-04-3.52839E-02
 -1      1022-9.57692E-03-6.17420E-05-4.02609E-02
 -1      1024-8.89379E-03-1.67506E-04-4.02435E-02
 -1      1025-9.99503E-03-4.46423E-05-4.54226E-02
 -1      1027-9.28563E-03-1.62242E-04-4.54078E-02
 -1      1028-1.03709E-02-2.79462E-05-5.07672E-02
 -1      1030-9.63859E-03-1.57546E-04-5.07532E-02
 -1      1031-1.07066E-02-1.13290E-05-5.62713E-02
 -1      1033-9.95399E-03-1.53277E-04-5.62595E-02
 -1      1034-1.10031E-02 4.84028E-06-6.19156E-02
 -1      1036-1.02331E-02-1.49560E-04-6.19048E-02
 -1      1037-1.12624E-02 2.07120E-05-6.76787E-02
 -1      1039-1.04776E-02-1.46311E-04-6.76698E-02
 -1      1040-1.14861E-02 3.60268E-05-7.35422E-02
 -1      1042-1.06892E-02-1.43606E-04-7.35343E-02
 -1      1043-1.16764E-02 5.08284E-05-7.94866E-02
 -1      1045-1.08696E-02-1.41381E-04-7.94804E-02
 -1      1046-1.18352E-02 6.49182E-05-8.54951E-02
 -1      1048-1.10210E-02-1.39674E-04-8.54897E-02
 -1      1049-1.19649E-02 7.82577E-05-9.15503E-02
 -1      1051-1.11455E-02-1.38429E-04-9.15463E-02
 -1      1052-1.20681E-02 9.06853E-05-9.76372E-02
 -1      1054-1.12454E-02-1.37637E-04-9.76340E-02
 -1      1055-1.21473E-02 1.02074E-04-1.03741E-01
 -1      1057-1.13232E-02-1.37257E-04-1.03739E-01
 -1      1058-1.22054E-02 1.12308E-04-1.09848E-01
 -1      1060-1.13816E-02-1.37168E-04-1.09847E-01
 -1      1061-1.22454E-02 1.21079E-04-1.15947E-01
 -1      1063-1.14234E-02-1.37452E-04-1.15947E-01
 -1      1064-1.22702E-02 1.28497E-04-1.22027E-01
 -1      1066-1.14516E-02-1.37606E-04-1.22026E-01
 -1      1067-1.22841E-02 1.33828E-04-1.28078E-01
 -1      1069-1.14695E-02-1.38111E-04-1.28078E-01
 -1      1070-1.22882E-02 1.36787E-04-1.34090E-01
 -1      1072-1.14800E-02-1.38757E-04-1.34090E-01
 -1      1073 0.00000E+00 0.00000E+00-2.44389E-05
 -1      1075 0.00000E+00-0.00000E+00 2.44389E-05
 -1      1076 0.00000E+00-7.96086E-06 0.00000E+00
 -1      1078 0.00000E+00 7.96086E-06 0.00000E+00
 -1      1079 0.00000E+00 3.97820E-18 0.00000E+00
 -1      1081 0.00000E+00-3.97820E-18 0.00000E+00
 -1      1082 0.00000E+00 7.96086E-06 0.00000E+00
 -1      1084 0.00000E+00-7.96086E-06 0.00000E+00
 -1      1085 9.73747E-04 1.37200E-05-7.86371E-04
 -1      1087 9.73747E-04-1.37200E-05-7.86371E-04
 -1      1088 1.07150E-03 3.93470E-16-8.07908E-04
 -1      1090 8.75993E-04-2.72256E-16-7.64833E-04
 -1      1099 1.93385E-03 1.11601E-05-2.00190E-03
 -1      1101 1.93385E-03-1.11601E-05-2.00190E-03
 -1      1102 2.00697E-03 8.36598E-16-2.01941E-03
 -1      1104 1.86073E-03-6.30166E-16-1.98438E-03
 -1      1113 2.83616E-03 1.14889E-05-3.58266E-03
 -1      1115 2.83616E-03-1.14889E-05-3.58266E-03
 -1      1116 2.97184E-03 1.87576E-15-3.60070E-03
 -1      1118 2.70048E-03-2.53798E-16-3.56463E-03
 -1      1127 3.68109E-03 1.05081E-05-5.64489E-03
 -1      1129 3.68109E-03-1.05081E-05-5.64489E-03
 -1      1130 3.82612E-03 3.13335E-15-5.66139E-03
 -1      1132 3.53606E-03 2.56304E-16-5.62840E-03
 -1      1141 4.48832E-03 1.00414E-05-8.09717E-03
 -1      1143 4.48832E-03-1.00414E-05-8.09717E-03
 -1      1144 4.67218E-03 4.55054E-15-8.11293E-03
 -1      1146 4.30446E-03 9.65878E-16-8.08140E-03
 -1      1155 5.24522E-03 9.44841E-06-1.09504E-02
 -1      1157 5.24522E-03-9.44841E-06-1.09504E-02
 -1      1158 5.44720E-03 5.49664E-15-1.09652E-02
 -1      1160 5.04325E-03 1.19246E-15-1.09356E-02
 -1      1169 5.95752E-03 8.77186E-06-1.41619E-02
 -1      1171 5.95752E-03-8.77186E-06-1.41619E-02
 -1      1172 6.18792E-03 5.57809E-15-1.41757E-02
 -1      1174 5.72713E-03 5.55890E-16-1.41482E-02
 -1      1183 6.62328E-03 8.28546E-06-1.77181E-02
 -1      1185 6.62328E-03-8.28546E-06-1.77181E-02
 -1      1186 6.87293E-03 4.27780E-15-1.77311E-02
 -1      1188 6.37362E-03-1.48837E-15-1.77051E-02
 -1      1197 7.24398E-03 7.59270E-06-2.15894E-02
 -1      1199 7.24398E-03-7.59270E-06-2.15894E-02
 -1      1200 7.51613E-03 1.45450E-15-2.16013E-02
 -1      1202 6.97183E-03-5.00027E-15-2.15775E-02
 -1      1211 7.81953E-03 7.10493E-06-2.57557E-02
 -1      1213 7.81953E-03-7.10493E-06-2.57557E-02
 -1      1214 8.10948E-03-3.35295E-15-2.57668E-02
 -1      1216 7.52958E-03-1.03930E-14-2.57445E-02
 -1      1225 8.35095E-03 6.45717E-06-3.01915E-02
 -1      1227 8.35095E-03-6.45717E-06-3.01915E-02
 -1      1228 8.65914E-03-9.50134E-15-3.02016E-02
 -1      1230 8.04275E-03-1.72412E-14-3.01813E-02
 -1      1239 8.83871E-03 5.95395E-06-3.48751E-02
 -1      1241 8.83871E-03-5.95395E-06-3.48751E-02
 -1      1242 9.16230E-03-1.68014E-14-3.48844E-02
 -1      1244 8.51511E-03-2.52760E-14-3.48657E-02
 -1      1253 9.28388E-03 5.35974E-06-3.97829E-02
 -1      1255 9.28388E-03-5.35974E-06-3.97829E-02
 -1      1256 9.62219E-03-2.61921E-14-3.97913E-02
 -1      1258 8.94556E-03-3.52310E-14-3.97745E-02
 -1      1267 9.68734E-03 4.85407E-06-4.48932E-02
 -1      1269 9.68734E-03-4.85407E-06-4.48932E-02
 -1      1270 1.00383E-02-3.78532E-14-4.49009E-02
 -1      1272 9.33634E-03-4.74050E-14-4.48856E-02
 -1      1281 1.00503E-02 4.31157E-06-5.01839E-02
 -1      1283 1.00503E-02-4.31157E-06-5.01839E-02
 -1      1284 1.04129E-02-5.07536E-14-5.01906E-02
 -1      1286 9.68773E-03-6.09192E-14-5.01771E-02
 -1      1295 1.03741E-02 3.82026E-06-5.56338E-02
 -1      1297 1.03741E-02-3.82026E-06-5.56338E-02
 -1      1298 1.07466E-02-6.47498E-14-5.56398E-02
 -1      1300 1.00015E-02-7.56262E-14-5.56278E-02
 -1      1309 1.06601E-02 3.32872E-06-6.12223E-02
 -1      1311 1.06601E-02-3.32872E-06-6.12223E-02
 -1      1312 1.10413E-02-7.98866E-14-6.12275E-02
 -1      1314 1.02788E-02-9.14173E-14-6.12171E-02
 -1      1323 1.09099E-02 2.86689E-06-6.69295E-02
 -1      1325 1.09099E-02-2.86689E-06-6.69295E-02
 -1      1326 1.12984E-02-9.48505E-14-6.69340E-02
 -1      1328 1.05213E-02-1.07196E-13-6.69250E-02
 -1      1337 1.11252E-02 2.42856E-06-7.27364E-02
 -1      1339 1.11252E-02-2.42856E-06-7.27364E-02
 -1      1340 1.15199E-02-1.10431E-13-7.27402E-02
 -1      1342 1.07306E-02-1.22951E-13-7.27326E-02
 -1      1351 1.13081E-02 2.00914E-06-7.86248E-02
 -1      1353 1.13081E-02-2.00914E-06-7.86248E-02
 -1      1354 1.17077E-02-1.26518E-13-7.86279E-02
 -1      1356 1.09085E-02-1.39852E-13-7.86216E-02
 -1      1365 1.14606E-02 1.62885E-06-8.45774E-02
 -1      1367 1.14606E-02-1.62886E-06-8.45774E-02
 -1      1368 1.18640E-02-1.42029E-13-8.45800E-02
 -1      1370 1.10572E-02-1.56662E-13-8.45749E-02
 -1      1379 1.15849E-02 1.26309E-06-9.05782E-02
 -1      1381 1.15849E-02-1.26309E-06-9.05782E-02
 -1      1382 1.19910E-02-1.54798E-13-9.05802E-02
 -1      1384 1.11788E-02-1.69831E-13-9.05762E-02
 -1      1393 1.16834E-02 9.47366E-07-9.66122E-02
 -1      1395 1.16834E-02-9.47367E-07-9.66122E-02
 -1      1396 1.20912E-02-1.65363E-13-9.66137E-02
 -1      1398 1.12755E-02-1.80943E-13-9.66107E-02
 -1      1407 1.17587E-02 6.45537E-07-1.02666E-01
 -1      1409 1.17587E-02-6.45538E-07-1.02666E-01
 -1      1410 1.21674E-02-1.75036E-13-1.02667E-01
 -1      1412 1.13499E-02-1.92447E-13-1.02665E-01
 -1      1421 1.18135E-02 4.01574E-07-1.08726E-01
 -1      1423 1.18135E-02-4.01574E-07-1.08726E-01
 -1      1424 1.22223E-02-1.81468E-13-1.08727E-01
 -1      1426 1.14046E-02-2.00615E-13-1.08725E-01
 -1      1435 1.18508E-02 1.74235E-07-1.14782E-01
 -1      1437 1.18508E-02-1.74235E-07-1.14782E-01
 -1      1438 1.22591E-02-1.84981E-13-1.14783E-01
 -1      1440 1.14425E-02-2.04319E-13-1.14782E-01
 -1      1449 1.18736E-02 8.22686E-09-1.20825E-01
 -1      1451 1.18736E-02-8.22725E-09-1.20825E-01
 -1      1452 1.22807E-02-1.85399E-13-1.20825E-01
 -1      1454 1.14665E-02-2.05732E-13-1.20825E-01
 -1      1463 1.18851E-02-1.35082E-07-1.26847E-01
 -1      1465 1.18851E-02 1.35081E-07-1.26847E-01
 -1      1466 1.22907E-02-1.83747E-13-1.26847E-01
 -1      1468 1.14795E-02-2.04554E-13-1.26847E-01
 -1      1477 1.18891E-02-2.12506E-07-1.32840E-01
 -1      1479 1.18891E-02 2.12506E-07-1.32840E-01
 -1      1480 1.22924E-02-1.80664E-13-1.32840E-01
 -1      1482 1.14858E-02-2.00628E-13-1.32841E-01
 -1      1491-5.94603E-03 1.26375E-07-1.38791E-01
 -1      1493-5.94603E-03-1.26376E-07-1.38791E-01
 -1      1494-8.13802E-16-3.06465E-13-1.38787E-01
 -1      1496-7.87998E-16-3.06250E-13-1.38787E-01
 -1      1497 5.94603E-03-1.26376E-07-1.38791E-01
 -1      1499 5.94603E-03 1.26375E-07-1.38791E-01
 -1      1500 1.07935E-03 3.21314E-04-7.06844E-04
 -1      1502 8.95583E-04 3.34345E-04-6.75469E-04
 -1      1503 1.95133E-03 2.39920E-04-2.04065E-03
 -1      1505 1.77479E-03 2.40514E-04-2.00207E-03
 -1      1506 2.90914E-03 2.32428E-04-3.63540E-03
 -1      1508 2.65493E-03 2.42228E-04-3.59851E-03
 -1      1509 3.78490E-03 2.12668E-04-5.73592E-03
 -1      1511 3.47329E-03 2.30629E-04-5.70504E-03
 -1      1512 4.61324E-03 2.00009E-04-8.22785E-03
 -1      1514 4.25241E-03 2.25196E-04-8.19406E-03
 -1      1515 5.40062E-03 1.79874E-04-1.11134E-02
 -1      1517 4.98339E-03 2.14711E-04-1.10858E-02
 -1      1518 6.13395E-03 1.65181E-04-1.43680E-02
 -1      1520 5.67320E-03 2.08245E-04-1.43387E-02
 -1      1521 6.82484E-03 1.46788E-04-1.79614E-02
 -1      1523 6.31628E-03 1.99755E-04-1.79369E-02
 -1      1524 7.46532E-03 1.30565E-04-2.18779E-02
 -1      1526 6.91745E-03 1.92941E-04-2.18528E-02
 -1      1527 8.06191E-03 1.12869E-04-2.60869E-02
 -1      1529 7.47427E-03 1.85708E-04-2.60656E-02
 -1      1530 8.61103E-03 9.60615E-05-3.05708E-02
 -1      1532 7.98919E-03 1.79342E-04-3.05496E-02
 -1      1533 9.11643E-03 7.86582E-05-3.53019E-02
 -1      1535 8.46189E-03 1.73108E-04-3.52839E-02
 -1      1536 9.57692E-03 6.17420E-05-4.02609E-02
 -1      1538 8.89379E-03 1.67506E-04-4.02435E-02
 -1      1539 9.99503E-03 4.46423E-05-4.54226E-02
 -1      1541 9.28563E-03 1.62242E-04-4.54078E-02
 -1      1542 1.03709E-02 2.79462E-05-5.07672E-02
 -1      1544 9.63859E-03 1.57546E-04-5.07532E-02
 -1      1545 1.07066E-02 1.13290E-05-5.62713E-02
 -1      1547 9.95399E-03 1.53277E-04-5.62595E-02
 -1      1548 1.10031E-02-4.84028E-06-6.19156E-02
 -1      1550 1.02331E-02 1.49560E-04-6.19048E-02
 -1      1551 1.12624E-02-2.07120E-05-6.76787E-02
 -1      1553 1.04776E-02 1.46311E-04-6.76698E-02
 -1      1554 1.14861E-02-3.60268E-05-7.35422E-02
 -1      1556 1.06892E-02 1.43606E-04-7.35343E-02
 -1      1557 1.16764E-02-5.08284E-05-7.94866E-02
 -1      1559 1.08696E-02 1.41381E-04-7.94804E-02
 -1      1560 1.18352E-02-6.49182E-05-8.54951E-02
 -1      1562 1.10210E-02 1.39674E-04-8.54897E-02
 -1      1563 1.19649E-02-7.82577E-05-9.15503E-02
 -1      1565 1.11455E-02 1.38429E-04-9.15463E-02
 -1      1566 1.20681E-02-9.06853E-05-9.76372E-02
 -1      1568 1.12454E-02 1.37637E-04-9.76340E-02
 -1      1569 1.21473E-02-1.02074E-04-1.03741E-01
 -1      1571 1.13232E-02 1.37257E-04-1.03739E-01
 -1      1572 1.22054E-02-1.12308E-04-1.09848E-01
 -1      1574 1.13816E-02 1.37168E-04-1.09847E-01
 -1      1575 1.22454E-02-1.21079E-04-1.15947E-01
 -1      1577 1.14234E-02 1.37452E-04-1.15947E-01
 -1      1578 1.22702E-02-1.28497E-04-1.22027E-01
 -1      1580 1.14516E-02 1.37606E-04-1.22026E-01
 -1      1581 1.22841E-02-1.33828E-04-1.28078E-01
 -1      1583 1.14695E-02 1.38111E-04-1.28078E-01
 -1      1584 1.22882E-02-1.36787E-04-1.34090E-01
 -1      1586 1.14800E-02 1.38757E-04-1.34090E-01
 -1      1587 1.22894E-02-1.20131E-04-1.39204E-01
 -1      1589 1.14858E-02 1.17433E-04-1.39203E-01
 -1      1590 0.00000E+00 0.00000E+00-2.44389E-05
 -1      1592 0.00000E+00 0.00000E+00 2.44389E-05
 -1      1593 1.22894E-02 1.20131E-04-1.39204E-01
 -1      1595 1.14858E-02-1.17433E-04-1.39203E-01
 -1      1596 1.07935E-03-3.21314E-04-7.06844E-04
 -1      1598 8.95583E-04-3.34345E-04-6.75469E-04
 -1      1599 1.95133E-03-2.39920E-04-2.04065E-03
 -1      1601 1.77479E-03-2.40514E-04-2.00207E-03
 -1      1602 2.90914E-03-2.32428E-04-3.63540E-03
 -1      1604 2.65493E-03-2.42228E-04-3.59851E-03
 -1      1605 3.78490E-03-2.12668E-04-5.73592E-03
 -1      1607 3.47329E-03-2.30629E-04-5.70504E-03
 -1      1608 4.61324E-03-2.00009E-04-8.22785E-03
 -1      1610 4.25241E-03-2.25196E-04-8.19406E-03
 -1      1611 5.40062E-03-1.79874E-04-1.11134E-02
 -1      1613 4.98339E-03-2.14711E-04-1.10858E-02
 -1      1614 6.13395E-03-1.65181E-04-1.43680E-02
 -1      1616 5.67320E-03-2.08245E-04-1.43387E-02
 -1      1617 6.82484E-03-1.46788E-04-1.79614E-02
 -1      1619 6.31628E-03-1.99755E-04-1.79369E-02
 -1      1620 7.46532E-03-1.30565E-04-2.18779E-02
 -1      1622 6.91745E-03-1.92941E-04-2.18528E-02
 -1      1623 8.06191E-03-1.12869E-04-2.60869E-02
 -1      1625 7.47427E-03-1.85708E-04-2.60656E-02
 -1      1626 8.61103E-03-9.60615E-05-3.05708E-02
 -1      1628 7.98919E-03-1.79342E-04-3.05496E-02
 -1      1629 9.11643E-03-7.86582E-05-3.53019E-02
 -1      1631 8.46189E-03-1.73108E-04-3.52839E-02
 -1      1632 9.57692E-03-6.17420E-05-4.02609E-02
 -1      1634 8.89379E-03-1.67506E-04-4.02435E-02
 -1      1635 9.99503E-03-4.46423E-05-4.54226E-02
 -1      1637 9.28563E-03-1.62242E-04-4.54078E-02
 -1      1638 1.03709E-02-2.79462E-05-5.07672E-02
 -1      1640 9.63859E-03-1.57546E-04-5.07532E-02
 -1      1641 1.07066E-02-1.13290E-05-5.62713E-02
 -1      1643 9.95399E-03-1.53277E-04-5.62595E-02
 -1      1644 1.10031E-02 4.84028E-06-6.19156E-02
 -1      1646 1.02331E-02-1.49560E-04-6.19048E-02
 -1      1647 1.12624E-02 2.07120E-05-6.76787E-02
 -1      1649 1.04776E-02-1.46311E-04-6.76698E-02
 -1      1650 1.14861E-02 3.60268E-05-7.35422E-02
 -1      1652 1.06892E-02-1.43606E-04-7.35343E-02
 -1      1653 1.16764E-02 5.08284E-05-7.94866E-02
 -1      1655 1.08696E-02-1.41381E-04-7.94804E-02
 -1      1656 1.18352E-02 6.49182E-05-8.54951E-02
 -1      1658 1.10210E-02-1.39674E-04-8.54897E-02
 -1      1659 1.19649E-02 7.82577E-05-9.15503E-02
 -1      1661 1.11455E-02-1.38429E-04-9.15463E-02
 -1      1662 1.20681E-02 9.06853E-05-9.76372E-02
 -1      1664 1.12454E-02-1.37637E-04-9.76340E-02
 -1      1665 1.21473E-02 1.02074E-04-1.03741E-01
 -1      1667 1.13232E-02-1.37257E-04-1.03739E-01
 -1      1668 1.22054E-02 1.12308E-04-1.09848E-01
 -1      1670 1.13816E-02-1.37168E-04-1.09847E-01
 -1      1671 1.22454E-02 1.21079E-04-1.15947E-01
 -1      1673 1.14234E-02-1.37452E-04-1.15947E-01
 -1      1674 1.22702E-02 1.28497E-04-1.22027E-01
 -1      1676 1.14516E-02-1.37606E-04-1.22026E-01
 -1      1677 1.22841E-02 1.33828E-04-1.28078E-01
 -1      1679 1.14695E-02-1.38111E-04-1.28078E-01
 -1      1680 1.22882E-02 1.36787E-04-1.34090E-01
 -1      1682 1.14800E-02-1.38757E-04-1.34090E-01
 -1      1683 0.00000E+00 0.00000E+00-2.44389E-05
 -1      1685 0.00000E+00 0.00000E+00 2.44389E-05
 -1      1686-1.02499E-03 1.65285E-04-7.38408E-04
 -1      1688-8.35348E-04 1.33172E-04-7.01190E-04
 -1      1689-1.99269E-03 1.35133E-04-2.03622E-03
 -1      1691-1.83130E-03 1.37982E-04-2.00048E-03
 -1      1692-2.92089E-03 1.05069E-04-3.60425E-03
 -1      1694-2.65811E-03 1.12415E-04-3.56793E-03
 -1      1695-3.79742E-03 1.09834E-04-5.68835E-03
 -1      1697-3.49658E-03 1.22157E-04-5.65484E-03
 -1      1698-4.63122E-03 9.25259E-05-8.14660E-03
 -1      1700-4.26695E-03 1.14719E-04-8.11465E-03
 -1      1701-5.41348E-03 8.67058E-05-1.10126E-02
 -1      1703-5.00289E-03 1.13462E-04-1.09828E-02
 -1      1704-6.15023E-03 7.45449E-05-1.42351E-02
 -1      1706-5.68945E-03 1.10445E-04-1.42066E-02
 -1      1707-6.83844E-03 6.58481E-05-1.78033E-02
 -1      1709-6.33451E-03 1.08333E-04-1.77774E-02
 -1      1710-7.48033E-03 5.48773E-05-2.16876E-02
 -1      1712-6.93425E-03 1.06195E-04-2.16628E-02
 -1      1713-8.07549E-03 4.50690E-05-2.58670E-02
 -1      1715-7.49172E-03 1.04478E-04-2.58446E-02
 -1      1716-8.62505E-03 3.43993E-05-3.03172E-02
 -1      1718-8.00593E-03 1.02943E-04-3.02960E-02
 -1      1719-9.12954E-03 2.41075E-05-3.50152E-02
 -1      1721-8.47868E-03 1.01783E-04-3.49963E-02
 -1      1722-9.58997E-03 1.35057E-05-3.99386E-02
 -1      1724-8.91009E-03 1.00845E-04-3.99209E-02
 -1      1725-1.00074E-02 3.05409E-06-4.50646E-02
 -1      1727-9.30167E-03 1.00272E-04-4.50489E-02
 -1      1728-1.03829E-02-7.46111E-06-5.03717E-02
 -1      1730-9.65416E-03 9.99396E-05-5.03573E-02
 -1      1731-1.07179E-02-1.78464E-05-5.58382E-02
 -1      1733-9.96910E-03 9.99529E-05-5.58256E-02
 -1      1734-1.10139E-02-2.81484E-05-6.14439E-02
 -1      1736-1.02477E-02 1.00216E-04-6.14325E-02
 -1      1737-1.12725E-02-3.82592E-05-6.71683E-02
 -1      1739-1.04916E-02 1.00797E-04-6.71585E-02
 -1      1740-1.14956E-02-4.81651E-05-7.29927E-02
 -1      1742-1.07024E-02 1.01626E-04-7.29840E-02
 -1      1743-1.16851E-02-5.77786E-05-7.88984E-02
 -1      1745-1.08822E-02 1.02731E-04-7.88912E-02
 -1      1746-1.18431E-02-6.70615E-05-8.48684E-02
 -1      1748-1.10327E-02 1.04070E-04-8.48622E-02
 -1      1749-1.19721E-02-7.59193E-05-9.08862E-02
 -1      1751-1.11563E-02 1.05618E-04-9.08811E-02
 -1      1752-1.20744E-02-8.42996E-05-9.69368E-02
 -1      1754-1.12552E-02 1.07368E-04-9.69326E-02
 -1      1755-1.21527E-02-9.20843E-05-1.03006E-01
 -1      1757-1.13319E-02 1.09216E-04-1.03003E-01
 -1      1758-1.22099E-02-9.92067E-05-1.09081E-01
 -1      1760-1.13892E-02 1.11209E-04-1.09079E-01
 -1      1761-1.22490E-02-1.05490E-04-1.15151E-01
 -1      1763-1.14297E-02 1.13121E-04-1.15150E-01
 -1      1764-1.22731E-02-1.10885E-04-1.21206E-01
 -1      1766-1.14567E-02 1.15038E-04-1.21205E-01
 -1      1767-1.22855E-02-1.15195E-04-1.27238E-01
 -1      1769-1.14726E-02 1.16523E-04-1.27237E-01
 -1      1770-1.22897E-02-1.17243E-04-1.33237E-01
 -1      1772-1.14823E-02 1.18462E-04-1.33237E-01
 -1      1773-1.02499E-03-1.65285E-04-7.38408E-04
 -1      1775-8.35348E-04-1.33172E-04-7.01190E-04
 -1      1776-1.99269E-03-1.35133E-04-2.03622E-03
 -1      1778-1.83130E-03-1.37982E-04-2.00048E-03
 -1      1779-2.92089E-03-1.05069E-04-3.60425E-03
 -1      1781-2.65811E-03-1.12415E-04-3.56793E-03
 -1      1782-3.79742E-03-1.09834E-04-5.68835E-03
 -1      1784-3.49658E-03-1.22157E-04-5.65484E-03
 -1      1785-4.63122E-03-9.25259E-05-8.14660E-03
 -1      1787-4.26695E-03-1.14719E-04-8.11465E-03
 -1      1788-5.41348E-03-8.67058E-05-1.10126E-02
 -1      1790-5.00289E-03-1.13462E-04-1.09828E-02
 -1      1791-6.15023E-03-7.45449E-05-1.42351E-02
 -1      1793-5.68945E-03-1.10445E-04-1.42066E-02
 -1      1794-6.83844E-03-6.58481E-05-1.78033E-02
 -1      1796-6.33451E-03-1.08333E-04-1.77774E-02
 -1      1797-7.48033E-03-5.48773E-05-2.16876E-02
 -1      1799-6.93425E-03-1.06195E-04-2.16628E-02
 -1      1800-8.07549E-03-4.50690E-05-2.58670E-02
 -1      1802-7.49172E-03-1.04478E-04-2.58446E-02
 -1      1803-8.62505E-03-3.43993E-05-3.03172E-02
 -1      1805-8.00593E-03-1.02943E-04-3.02960E-02
 -1      1806-9.12954E-03-2.41075E-05-3.50152E-02
 -1      1808-8.47868E-03-1.01783E-04-3.49963E-02
 -1      1809-9.58997E-03-1.35057E-05-3.99386E-02
 -1      1811-8.91009E-03-1.00845E-04-3.99209E-02
 -1      1812-1.00074E-02-3.05409E-06-4.50646E-02
 -1      1814-9.30167E-03-1.00272E-04-4.50489E-02
 -1      1815-1.03829E-02 7.46111E-06-5.03717E-02
 -1      1817-9.65416E-03-9.99396E-05-5.03573E-02
 -1      1818-1.07179E-02 1.78464E-05-5.58382E-02
 -1      1820-9.96910E-03-9.99529E-05-5.58256E-02
 -1      1821-1.10139E-02 2.81484E-05-6.14439E-02
 -1      1823-1.02477E-02-1.00216E-04-6.14325E-02
 -1      1824-1.12725E-02 3.82592E-05-6.71683E-02
 -1      1826-1.04916E-02-1.00797E-04-6.71585E-02
 -1      1827-1.14956E-02 4.81651E-05-7.29927E-02
 -1      1829-1.07024E-02-1.01626E-04-7.29840E-02
 -1      1830-1.16851E-02 5.77786E-05-7.88984E-02
 -1      1832-1.08822E-02-1.02731E-04-7.88912E-02
 -1      1833-1.18431E-02 6.70615E-05-8.48684E-02
 -1      1835-1.10327E-02-1.04070E-04-8.48622E-02
 -1      1836-1.19721E-02 7.59193E-05-9.08862E-02
 -1      1838-1.11563E-02-1.05618E-04-9.08811E-02
 -1      1839-1.20744E-02 8.42996E-05-9.69368E-02
 -1      1841-1.12552E-02-1.07368E-04-9.69326E-02
 -1      1842-1.21527E-02 9.20843E-05-1.03006E-01
 -1      1844-1.13319E-02-1.09216E-04-1.03003E-01
 -1      1845-1.22099E-02 9.92067E-05-1.09081E-01
 -1      1847-1.13892E-02-1.11209E-04-1.09079E-01
 -1      1848-1.22490E-02 1.05490E-04-1.15151E-01
 -1      1850-1.14297E-02-1.13121E-04-1.15150E-01
 -1      1851-1.22731E-02 1.10885E-04-1.21206E-01
 -1      1853-1.14567E-02-1.15038E-04-1.21205E-01
 -1      1854-1.22855E-02 1.15195E-04-1.27238E-01
 -1      1856-1.14726E-02-1.16523E-04-1.27237E-01
 -1      1857-1.22897E-02 1.17243E-04-1.33237E-01
 -1      1859-1.14823E-02-1.18462E-04-1.33237E-01
 -1      1860-4.46146E-04-6.80068E-06-6.01486E-04
 -1      1862-4.46146E-04 6.80068E-06-6.01486E-04
 -1      1863-9.27170E-04-6.27334E-06-1.77302E-03
 -1      1865-9.27170E-04 6.27334E-06-1.77302E-03
 -1      1866-1.38597E-03-5.60856E-06-3.39248E-03
 -1      1868-1.38597E-03 5.60856E-06-3.39248E-03
 -1      1869-1.81381E-03-5.32008E-06-5.45329E-03
 -1      1871-1.81381E-03 5.32008E-06-5.45329E-03
 -1      1872-2.21686E-03-5.12603E-06-7.92266E-03
 -1      1874-2.21686E-03 5.12603E-06-7.92266E-03
 -1      1875-2.59616E-03-4.66532E-06-1.07828E-02
 -1      1877-2.59616E-03 4.66532E-06-1.07828E-02
 -1      1878-2.95233E-03-4.52716E-06-1.40063E-02
 -1      1880-2.95233E-03 4.52716E-06-1.40063E-02
 -1      1881-3.28558E-03-4.07894E-06-1.75714E-02
 -1      1883-3.28558E-03 4.07894E-06-1.75714E-02
 -1      1884-3.59616E-03-3.90917E-06-2.14532E-02
 -1      1886-3.59616E-03 3.90917E-06-2.14532E-02
 -1      1887-3.88436E-03-3.51210E-06-2.56288E-02
 -1      1889-3.88436E-03 3.51210E-06-2.56288E-02
 -1      1890-4.15046E-03-3.30559E-06-3.00743E-02
 -1      1892-4.15046E-03 3.30559E-06-3.00743E-02
 -1      1893-4.39488E-03-2.95695E-06-3.47671E-02
 -1      1895-4.39488E-03 2.95695E-06-3.47671E-02
 -1      1896-4.61802E-03-2.72842E-06-3.96841E-02
 -1      1898-4.61802E-03 2.72842E-06-3.96841E-02
 -1      1899-4.82043E-03-2.41905E-06-4.48032E-02
 -1      1901-4.82043E-03 2.41905E-06-4.48032E-02
 -1      1902-5.00266E-03-2.18398E-06-5.01024E-02
 -1      1904-5.00266E-03 2.18398E-06-5.01024E-02
 -1      1905-5.16537E-03-1.90742E-06-5.55606E-02
 -1      1907-5.16537E-03 1.90742E-06-5.55606E-02
 -1      1908-5.30928E-03-1.67814E-06-6.11569E-02
 -1      1910-5.30928E-03 1.67814E-06-6.11569E-02
 -1      1911-5.43520E-03-1.43166E-06-6.68716E-02
 -1      1913-5.43520E-03 1.43166E-06-6.68716E-02
 -1      1914-5.54400E-03-1.21755E-06-7.26856E-02
 -1      1916-5.54400E-03 1.21755E-06-7.26856E-02
 -1      1917-5.63664E-03-1.00130E-06-7.85805E-02
 -1      1919-5.63664E-03 1.00130E-06-7.85805E-02
 -1      1920-5.71416E-03-8.09675E-07-8.45393E-02
 -1      1922-5.71416E-03 8.09674E-07-8.45393E-02
 -1      1923-5.77768E-03-6.25657E-07-9.05457E-02
 -1      1925-5.77768E-03 6.25657E-07-9.05457E-02
 -1      1926-5.82841E-03-4.62604E-07-9.65846E-02
 -1      1928-5.82841E-03 4.62604E-07-9.65846E-02
 -1      1929-5.86764E-03-3.13820E-07-1.02642E-01
 -1      1931-5.86764E-03 3.13820E-07-1.02642E-01
 -1      1932-5.89673E-03-1.84905E-07-1.08707E-01
 -1      1934-5.89673E-03 1.84904E-07-1.08707E-01
 -1      1935-5.91717E-03-7.46050E-08-1.14766E-01
 -1      1937-5.91717E-03 7.46046E-08-1.14766E-01
 -1      1938-5.93050E-03 1.44648E-08-1.20811E-01
 -1      1940-5.93050E-03-1.44653E-08-1.20811E-01
 -1      1941-5.93850E-03 8.29353E-08-1.26835E-01
 -1      1943-5.93850E-03-8.29357E-08-1.26835E-01
 -1      1944-5.94305E-03 1.13448E-07-1.32829E-01
 -1      1946-5.94305E-03-1.13449E-07-1.32829E-01
 -1      1947-5.37168E-16-5.63460E-15-5.50923E-04
 -1      1949 4.82063E-16-5.62462E-15-5.50923E-04
 -1      1950-1.10480E-16-1.13139E-14-1.69903E-03
 -1      1952 8.45847E-17-1.13260E-14-1.69903E-03
 -1      1953-2.44921E-16-1.42698E-14-3.32584E-03
 -1      1955 2.04379E-16-1.42542E-14-3.32584E-03
 -1      1956-1.58781E-16-1.66516E-14-5.38993E-03
 -1      1958 1.99222E-18-1.66638E-14-5.38993E-03
 -1      1959-3.36482E-16-1.84609E-14-7.86419E-03
 -1      1961-2.09793E-17-1.84575E-14-7.86419E-03
 -1      1962-4.12973E-16-2.11393E-14-1.07271E-02
 -1      1964-8.39579E-17-2.11602E-14-1.07271E-02
 -1      1965-5.84222E-16-2.54102E-14-1.39544E-02
 -1      1967-1.40946E-18-2.53894E-14-1.39544E-02
 -1      1968-5.53431E-16-3.11279E-14-1.75226E-02
 -1      1970 4.92092E-17-3.12320E-14-1.75226E-02
 -1      1971-6.98985E-16-3.88370E-14-2.14078E-02
 -1      1973 1.91606E-16-3.87745E-14-2.14078E-02
 -1      1974-9.47701E-16-4.99392E-14-2.55865E-02
 -1      1976 2.59477E-16-4.99739E-14-2.55865E-02
 -1      1977-1.08236E-15-6.27692E-14-3.00352E-02
 -1      1979 1.16118E-16-6.27415E-14-3.00352E-02
 -1      1980-1.03587E-15-7.43364E-14-3.47311E-02
 -1      1982-4.42354E-17-7.43780E-14-3.47311E-02
 -1      1983-1.35851E-15-8.80684E-14-3.96511E-02
 -1      1985 2.12992E-16-8.79713E-14-3.96511E-02
 -1      1986-1.54979E-15-1.06609E-13-4.47731E-02
 -1      1988 2.69966E-16-1.06637E-13-4.47731E-02
 -1      1989-1.45688E-15-1.24435E-13-5.00751E-02
 -1      1991 2.13588E-17-1.24491E-13-5.00751E-02
 -1      1992-1.73304E-15-1.42140E-13-5.55360E-02
 -1      1994 1.81062E-17-1.42265E-13-5.55360E-02
 -1      1995-1.85473E-15-1.62273E-13-6.11349E-02
 -1      1997 9.89877E-17-1.62297E-13-6.11349E-02
 -1      1998-1.50243E-15-1.79804E-13-6.68521E-02
 -1      2000-2.15214E-16-1.79809E-13-6.68521E-02
 -1      2001-1.61202E-15-1.96507E-13-7.26683E-02
 -1      2003 1.80194E-16-1.96366E-13-7.26683E-02
 -1      2004-1.99431E-15-2.20729E-13-7.85655E-02
 -1      2006 6.26886E-16-2.20844E-13-7.85655E-02
 -1      2007-1.95406E-15-2.47062E-13-8.45262E-02
 -1      2009 2.50776E-16-2.46848E-13-8.45262E-02
 -1      2010-1.68106E-15-2.65859E-13-9.05344E-02
 -1      2012-4.83120E-16-2.65720E-13-9.05344E-02
 -1      2013-2.16016E-15-2.81448E-13-9.65751E-02
 -1      2015-3.74158E-16-2.81504E-13-9.65751E-02
 -1      2016-2.34361E-15-3.00998E-13-1.02634E-01
 -1      2018-5.27031E-16-3.00810E-13-1.02634E-01
 -1      2019-1.71326E-15-3.13389E-13-1.08700E-01
 -1      2021-1.11337E-15-3.13443E-13-1.08700E-01
 -1      2022-1.62804E-15-3.20042E-13-1.14760E-01
 -1      2024-9.58109E-16-3.19774E-13-1.14760E-01
 -1      2025-1.23534E-15-3.24631E-13-1.20806E-01
 -1      2027-8.92190E-16-3.24752E-13-1.20806E-01
 -1      2028-5.21068E-16-3.22086E-13-1.26830E-01
 -1      2030-1.24423E-15-3.22105E-13-1.26830E-01
 -1      2031-2.97505E-16-3.12025E-13-1.32825E-01
 -1      2033-1.22146E-15-3.11629E-13-1.32825E-01
 -1      2034 4.46146E-04 6.80068E-06-6.01486E-04
 -1      2036 4.46146E-04-6.80068E-06-6.01486E-04
 -1      2037 9.27170E-04 6.27334E-06-1.77302E-03
 -1      2039 9.27170E-04-6.27334E-06-1.77302E-03
 -1      2040 1.38597E-03 5.60856E-06-3.39248E-03
 -1      2042 1.38597E-03-5.60856E-06-3.39248E-03
 -1      2043 1.81381E-03 5.32008E-06-5.45329E-03
 -1      2045 1.81381E-03-5.32008E-06-5.45329E-03
 -1      2046 2.21686E-03 5.12603E-06-7.92266E-03
 -1      2048 2.21686E-03-5.12603E-06-7.92266E-03
 -1      2049 2.59616E-03 4.66532E-06-1.07828E-02
 -1      2051 2.59616E-03-4.66532E-06-1.07828E-02
 -1      2052 2.95233E-03 4.52716E-06-1.40063E-02
 -1      2054 2.95233E-03-4.52716E-06-1.40063E-02
 -1      2055 3.28558E-03 4.07894E-06-1.75714E-02
 -1      2057 3.28558E-03-4.07894E-06-1.75714E-02
 -1      2058 3.59616E-03 3.90917E-06-2.14532E-02
 -1      2060 3.59616E-03-3.90917E-06-2.14532E-02
 -1      2061 3.88436E-03 3.51210E-06-2.56288E-02
 -1      2063 3.88436E-03-3.51210E-06-2.56288E-02
 -1      2064 4.15046E-03 3.30559E-06-3.00743E-02
 -1      2066 4.15046E-03-3.30559E-06-3.00743E-02
 -1      2067 4.39488E-03 2.95695E-06-3.47671E-02
 -1      2069 4.39488E-03-2.95695E-06-3.47671E-02
 -1      2070 4.61802E-03 2.72842E-06-3.96841E-02
 -1      2072 4.61802E-03-2.72842E-06-3.96841E-02
 -1      2073 4.82043E-03 2.41905E-06-4.48032E-02
 -1      2075 4.82043E-03-2.41905E-06-4.48032E-02
 -1      2076 5.00266E-03 2.18398E-06-5.01024E-02
 -1      2078 5.00266E-03-2.18398E-06-5.01024E-02
 -1      2079 5.16537E-03 1.90742E-06-5.55606E-02
 -1      2081 5.16537E-03-1.90742E-06-5.55606E-02
 -1      2082 5.30928E-03 1.67814E-06-6.11569E-02
 -1      2084 5.30928E-03-1.67814E-06-6.11569E-02
 -1      2085 5.43520E-03 1.43166E-06-6.68716E-02
 -1      2087 5.43520E-03-1.43166E-06-6.68716E-02
 -1      2088 5.54400E-03 1.21755E-06-7.26856E-02
 -1      2090 5.54400E-03-1.21755E-06-7.26856E-02
 -1      2091 5.63664E-03 1.00130E-06-7.85805E-02
 -1      2093 5.63664E-03-1.00130E-06-7.85805E-02
 -1      2094 5.71416E-03 8.09674E-07-8.45393E-02
 -1      2096 5.71416E-03-8.09675E-07-8.45393E-02
 -1      2097 5.77768E-03 6.25657E-07-9.05457E-02
 -1      2099 5.77768E-03-6.25657E-07-9.05457E-02
 -1      2100 5.82841E-03 4.62604E-07-9.65846E-02
 -1      2102 5.82841E-03-4.62604E-07-9.65846E-02
 -1      2103 5.86764E-03 3.13820E-07-1.02642E-01
 -1      2105 5.86764E-03-3.13820E-07-1.02642E-01
 -1      2106 5.89673E-03 1.84904E-07-1.08707E-01
 -1      2108 5.89673E-03-1.84905E-07-1.08707E-01
 -1      2109 5.91717E-03 7.46045E-08-1.14766E-01
 -1      2111 5.91717E-03-7.46051E-08-1.14766E-01
 -1      2112 5.93050E-03-1.44654E-08-1.20811E-01
 -1      2114 5.93050E-03 1.44648E-08-1.20811E-01
 -1      2115 5.93850E-03-8.29358E-08-1.26835E-01
 -1      2117 5.93850E-03 8.29352E-08-1.26835E-01
 -1      2118 5.94305E-03-1.13449E-07-1.32829E-01
 -1      2120 5.94305E-03 1.13448E-07-1.32829E-01
 -1      2121 1.02499E-03 1.65285E-04-7.38408E-04
 -1      2123 8.35348E-04 1.33172E-04-7.01190E-04
 -1      2124 1.99269E-03 1.35133E-04-2.03622E-03
 -1      2126 1.83130E-03 1.37982E-04-2.00048E-03
 -1      2127 2.92089E-03 1.05069E-04-3.60425E-03
 -1      2129 2.65811E-03 1.12415E-04-3.56793E-03
 -1      2130 3.79742E-03 1.09834E-04-5.68835E-03
 -1      2132 3.49658E-03 1.22157E-04-5.65484E-03
 -1      2133 4.63122E-03 9.25259E-05-8.14660E-03
 -1      2135 4.26695E-03 1.14719E-04-8.11465E-03
 -1      2136 5.41348E-03 8.67058E-05-1.10126E-02
 -1      2138 5.00289E-03 1.13462E-04-1.09828E-02
 -1      2139 6.15023E-03 7.45449E-05-1.42351E-02
 -1      2141 5.68945E-03 1.10445E-04-1.42066E-02
 -1      2142 6.83844E-03 6.58481E-05-1.78033E-02
 -1      2144 6.33451E-03 1.08333E-04-1.77774E-02
 -1      2145 7.48033E-03 5.48773E-05-2.16876E-02
 -1      2147 6.93425E-03 1.06195E-04-2.16628E-02
 -1      2148 8.07549E-03 4.50690E-05-2.58670E-02
 -1      2150 7.49172E-03 1.04478E-04-2.58446E-02
 -1      2151 8.62505E-03 3.43993E-05-3.03172E-02
 -1      2153 8.00593E-03 1.02943E-04-3.02960E-02
 -1      2154 9.12954E-03 2.41075E-05-3.50152E-02
 -1      2156 8.47868E-03 1.01783E-04-3.49963E-02
 -1      2157 9.58997E-03 1.35057E-05-3.99386E-02
 -1      2159 8.91009E-03 1.00845E-04-3.99209E-02
 -1      2160 1.00074E-02 3.05409E-06-4.50646E-02
 -1      2162 9.30167E-03 1.00272E-04-4.50489E-02
 -1      2163 1.03829E-02-7.46111E-06-5.03717E-02
 -1      2165 9.65416E-03 9.99396E-05-5.03573E-02
 -1      2166 1.07179E-02-1.78464E-05-5.58382E-02
 -1      2168 9.96910E-03 9.99529E-05-5.58256E-02
 -1      2169 1.10139E-02-2.81484E-05-6.14439E-02
 -1      2171 1.02477E-02 1.00216E-04-6.14325E-02
 -1      2172 1.12725E-02-3.82592E-05-6.71683E-02
 -1      2174 1.04916E-02 1.00797E-04-6.71585E-02
 -1      2175 1.14956E-02-4.81651E-05-7.29927E-02
 -1      2177 1.07024E-02 1.01626E-04-7.29840E-02
 -1      2178 1.16851E-02-5.77786E-05-7.88984E-02
 -1      2180 1.08822E-02 1.02731E-04-7.88912E-02
 -1      2181 1.18431E-02-6.70615E-05-8.48684E-02
 -1      2183 1.10327E-02 1.04070E-04-8.48622E-02
 -1      2184 1.19721E-02-7.59193E-05-9.08862E-02
 -1      2186 1.11563E-02 1.05618E-04-9.08811E-02
 -1      2187 1.20744E-02-8.42996E-05-9.69368E-02
 -1      2189 1.12552E-02 1.07368E-04-9.69326E-02
 -1      2190 1.21527E-02-9.20843E-05-1.03006E-01
 -1      2192 1.13319E-02 1.09216E-04-1.03003E-01
 -1      2193 1.22099E-02-9.92067E-05-1.09081E-01
 -1      2195 1.13892E-02 1.11209E-04-1.09079E-01
 -1      2196 1.22490E-02-1.05490E-04-1.15151E-01
 -1      2198 1.14297E-02 1.13121E-04-1.15150E-01
 -1      2199 1.22731E-02-1.10885E-04-1.21206E-01
 -1      2201 1.14567E-02 1.15038E-04-1.21205E-01
 -1      2202 1.22855E-02-1.15195E-04-1.27238E-01
 -1      2204 1.14726E-02 1.16523E-04-1.27237E-01
 -1      2205 1.22897E-02-1.17243E-04-1.33237E-01
 -1      2207 1.14823E-02 1.18462E-04-1.33237E-01
 -1      2208 1.02499E-03-1.65285E-04-7.38408E-04
 -1      2210 8.35348E-04-1.33172E-04-7.01190E-04
 -1      2211 1.99269E-03-1.35133E-04-2.03622E-03
 -1      2213 1.83130E-03-1.37982E-04-2.00048E-03
 -1      2214 2.92089E-03-1.05069E-04-3.60425E-03
 -1      2216 2.65811E-03-1.12415E-04-3.56793E-03
 -1      2217 3.79742E-03-1.09834E-04-5.68835E-03
 -1      2219 3.49658E-03-1.22157E-04-5.65484E-03
 -1      2220 4.63122E-03-9.25259E-05-8.14660E-03
 -1      2222 4.26695E-03-1.14719E-04-8.11465E-03
 -1      2223 5.41348E-03-8.67058E-05-1.10126E-02
 -1      2225 5.00289E-03-1.13462E-04-1.09828E-02
 -1      2226 6.15023E-03-7.45449E-05-1.42351E-02
 -1      2228 5.68945E-03-1.10445E-04-1.42066E-02
 -1      2229 6.83844E-03-6.58481E-05-1.78033E-02
 -1      2231 6.33451E-03-1.08333E-04-1.77774E-02
 -1      2232 7.48033E-03-5.48773E-05-2.16876E-02
 -1      2234 6.93425E-03-1.06195E-04-2.16628E-02
 -1      2235 8.07549E-03-4.50690E-05-2.58670E-02
 -1      2237 7.49172E-03-1.04478E-04-2.58446E-02
 -1      2238 8.62505E-03-3.43993E-05-3.03172E-02
 -1      2240 8.00593E-03-1.02943E-04-3.02960E-02
 -1      2241 9.12954E-03-2.41075E-05-3.50152E-02
 -1      2243 8.47868E-03-1.01783E-04-3.49963E-02
 -1      2244 9.58997E-03-1.35057E-05-3.99386E-02
 -1      2246 8.91009E-03-1.00845E-04-3.99209E-02
 -1      2247 1.00074E-02-3.05409E-06-4.50646E-02
 -1      2249 9.30167E-03-1.00272E-04-4.50489E-02
 -1      2250 1.03829E-02 7.46111E-06-5.03717E-02
 -1      2252 9.65416E-03-9.99396E-05-5.03573E-02
 -1      2253 1.07179E-02 1.78464E-05-5.58382E-02
 -1      2255 9.96910E-03-9.99529E-05-5.58256E-02
 -1      2256 1.10139E-02 2.81484E-05-6.14439E-02
 -1      2258 1.02477E-02-1.00216E-04-6.14325E-02
 -1      2259 1.12725E-02 3.82592E-05-6.71683E-02
 -1      2261 1.04916E-02-1.00797E-04-6.71585E-02
 -1      2262 1.14956E-02 4.81651E-05-7.29927E-02
 -1      2264 1.07024E-02-1.01626E-04-7.29840E-02
 -1      2265 1.16851E-02 5.77786E-05-7.88984E-02
 -1      2267 1.08822E-02-1.02731E-04-7.88912E-02
 -1      2268 1.18431E-02 6.70615E-05-8.48684E-02
 -1      2270 1.10327E-02-1.04070E-04-8.48622E-02
 -1      2271 1.19721E-02 7.59193E-05-9.08862E-02
 -1      2273 1.11563E-02-1.05618E-04-9.08811E-02
 -1      2274 1.20744E-02 8.42996E-05-9.69368E-02
 -1      2276 1.12552E-02-1.07368E-04-9.69326E-02
 -1      2277 1.21527E-02 9.20843E-05-1.03006E-01
 -1      2279 1.13319E-02-1.09216E-04-1.03003E-01
 -1      2280 1.22099E-02 9.92067E-05-1.09081E-01
 -1      2282 1.13892E-02-1.11209E-04-1.09079E-01
 -1      2283 1.22490E-02 1.05490E-04-1.15151E-01
 -1      2285 1.14297E-02-1.13121E-04-1.15150E-01
 -1      2286 1.22731E-02 1.10885E-04-1.21206E-01
 -1      2288 1.14567E-02-1.15038E-04-1.21205E-01
 -1      2289 1.22855E-02 1.15195E-04-1.27238E-01
 -1      2291 1.14726E-02-1.16523E-04-1.27237E-01
 -1      2292 1.22897E-02 1.17243E-04-1.33237E-01
 -1      2294 1.14823E-02-1.18462E-04-1.33237E-01
 -3
    1PSTEP                         6           1           1          
    1PGM                1.000000E+00                                  
    1PGK                1.080057E+05                                  
    1PHID                         -1                                  
    1PSUBC                         0                                  
    1PMODE                         2                                  
  100CL  102 52.30502350         930                     2    2MODAL      1
 -4  STRESS      6    1
 -5  SXX         1    4    1    1
 -5  SYY         1    4    2    2
 -5  SZZ         1    4    3    3
 -5  SXY         1    4    1    2
 -5  SYZ         1    4    2    3
 -5  SZX         1    4    3    1
 -1       404-2.07584E+09-2.06414E+08-1.32910E+06 1.41235E+08-2.83656E+06-1.12897E+07
 -1       406-2.07584E+09-2.06414E+08-1.32910E+06 1.41235E+08-2.83656E+06-1.12897E+07
 -1       407-3.65732E+06-5.65474E+05 9.69017E+04 1.44082E+06-1.88845E+06 1.66063E+05
 -1       409-3.65732E+06-5.65474E+05 9.69017E+04 1.44082E+06-1.88845E+06 1.66063E+05
 -1       410-4.01732E+06-3.00394E+06-2.43386E+05 2.31708E-05 6.40663E-04 1.85604E+05
 -1       412-4.01732E+06-3.00394E+06-2.43386E+05 2.31708E-05 6.40663E-04 1.85604E+05
 -1       413 3.22997E+06 4.58539E+05 2.52980E+07-1.90553E-05 1.11249E-03-1.39147E+07
 -1       415 3.22997E+06 4.58539E+05 2.52980E+07-1.90553E-05 1.11249E-03-1.39147E+07
 -1       424-2.08179E+09-2.76172E+08 5.57242E+05 1.24028E-03-7.32224E-05-3.21854E+07
 -1       426-2.08179E+09-2.76172E+08 5.57242E+05 1.24028E-03-7.32224E-05-3.21854E+07
 -1       427-1.57572E+09-3.22337E+06-2.79555E+08 4.43362E-05-3.36696E-05-3.47411E+08
 -1       429-1.57572E+09-3.22337E+06-2.79555E+08 4.43362E-05-3.36696E-05-3.47411E+08
 -1       438-3.65732E+06-5.65474E+05 9.69017E+04-1.44082E+06 1.88845E+06 1.66063E+05
 -1       440-3.65732E+06-5.65474E+05 9.69017E+04-1.44082E+06 1.88845E+06 1.66063E+05
 -1       441-2.07584E+09-2.06414E+08-1.32910E+06-1.41235E+08 2.83656E+06-1.12897E+07
 -1       443-2.07584E+09-2.06414E+08-1.32910E+06-1.41235E+08 2.83656E+06-1.12897E+07
 -1       444 1.57572E+09 3.22337E+06 2.79555E+08-2.45626E-05 3.23928E-05-3.47411E+08
 -1       446 1.57572E+09 3.22337E+06 2.79555E+08-2.45626E-05 3.23928E-05-3.47411E+08
 -1       447 2.08179E+09 2.76172E+08-5.57242E+05-2.08691E-05 3.70685E-05-3.21854E+07
 -1       449 2.08179E+09 2.76172E+08-5.57242E+05-2.08691E-05 3.70685E-05-3.21854E+07
 -1       458-3.22997E+06-4.58539E+05-2.52980E+07-3.12450E-05-6.24482E-04-1.39147E+07
 -1       460-3.22997E+06-4.58539E+05-2.52980E+07-3.12450E-05-6.24482E-04-1.39147E+07
 -1       461 4.01732E+06 3.00394E+06 2.43386E+05 1.81606E-04-5.14211E-05 1.85604E+05
 -1       463 4.01732E+06 3.00394E+06 2.43386E+05 1.81606E-04-5.14211E-05 1.85604E+05
 -1       472 2.07584E+09 2.06414E+08 1.32910E+06 1.41235E+08 2.83656E+06-1.12897E+07
 -1       474 2.07584E+09 2.06414E+08 1.32910E+06 1.41235E+08 2.83656E+06-1.12897E+07
 -1       475 3.65732E+06 5.65474E+05-9.69017E+04 1.44082E+06 1.88845E+06 1.66063E+05
 -1       477 3.65732E+06 5.65474E+05-9.69017E+04 1.44082E+06 1.88845E+06 1.66063E+05
 -1       478 3.65732E+06 5.65474E+05-9.69017E+04-1.44082E+06-1.88845E+06 1.66063E+05
 -1       480 3.65732E+06 5.65474E+05-9.69017E+04-1.44082E+06-1.88845E+06 1.66063E+05
 -1       481 2.07584E+09 2.06414E+08 1.32910E+06-1.41235E+08-2.83656E+06-1.12897E+07
 -1       483 2.07584E+09 2.06414E+08 1.32910E+06-1.41235E+08-2.83656E+06-1.12897E+07
 -1       484-2.00033E+09-6.21889E+07 7.84641E+05 4.66137E+07-1.61248E+06-4.47214E+06
 -1       486-2.00033E+09-6.21889E+07 7.84641E+05 4.66137E+07-1.61248E+06-4.47214E+06
 -1       487-1.91022E+09 2.71289E+07-2.10891E+05-4.89609E+06 2.31281E+03 1.78665E+06
 -1       489-1.91022E+09 2.71289E+07-2.10891E+05-4.89609E+06 2.31281E+03 1.78665E+06
 -1       490-1.84046E+09-7.94040E+06-1.15805E+05 2.87889E+07-1.20505E+05-5.72336E+05
 -1       492-1.84046E+09-7.94040E+06-1.15805E+05 2.87889E+07-1.20505E+05-5.72336E+05
 -1       493-1.73709E+09 2.63135E+06 2.40110E+05 2.06894E+07-2.15763E+05-3.00803E+05
 -1       495-1.73709E+09 2.63135E+06 2.40110E+05 2.06894E+07-2.15763E+05-3.00803E+05
 -1       496-1.64059E+09-1.27807E+06-1.98650E+05 2.17642E+07-1.72415E+05 4.45866E+04
 -1       498-1.64059E+09-1.27807E+06-1.98650E+05 2.17642E+07-1.72415E+05 4.45866E+04
 -1       499-1.54401E+09 7.43858E+05 2.00637E+05 2.16501E+07-3.38379E+05-4.12526E+05
 -1       501-1.54401E+09 7.43858E+05 2.00637E+05 2.16501E+07-3.38379E+05-4.12526E+05
 -1       502-1.44754E+09-5.04201E+05-1.33718E+05 2.15285E+07-3.42717E+05-3.08563E+04
 -1       504-1.44754E+09-5.04201E+05-1.33718E+05 2.15285E+07-3.42717E+05-3.08563E+04
 -1       505-1.35190E+09 2.37250E+05 1.46124E+05 2.12630E+07-4.66143E+05-3.25101E+05
 -1       507-1.35190E+09 2.37250E+05 1.46124E+05 2.12630E+07-4.66143E+05-3.25101E+05
 -1       508-1.25729E+09-2.26337E+05-8.36113E+04 2.10472E+07-5.09615E+05-1.29001E+05
 -1       510-1.25729E+09-2.26337E+05-8.36113E+04 2.10472E+07-5.09615E+05-1.29001E+05
 -1       511-1.16384E+09 3.90313E+04 1.09878E+05 2.07104E+07-6.11431E+05-2.71187E+05
 -1       513-1.16384E+09 3.90313E+04 1.09878E+05 2.07104E+07-6.11431E+05-2.71187E+05
 -1       514-1.07189E+09-1.46296E+05-4.78802E+04 2.03582E+07-6.75606E+05-1.85764E+05
 -1       516-1.07189E+09-1.46296E+05-4.78802E+04 2.03582E+07-6.75606E+05-1.85764E+05
 -1       517-9.81625E+08-4.60045E+04 8.66905E+04 1.99234E+07-7.70697E+05-2.49717E+05
 -1       519-9.81625E+08-4.60045E+04 8.66905E+04 1.99234E+07-7.70697E+05-2.49717E+05
 -1       520-8.93376E+08-1.35243E+05-2.18154E+04 1.94402E+07-8.46621E+05-2.15054E+05
 -1       522-8.93376E+08-1.35243E+05-2.18154E+04 1.94402E+07-8.46621E+05-2.15054E+05
 -1       523-8.07390E+08-9.53353E+04 7.25125E+04 1.88836E+07-9.40553E+05-2.43022E+05
 -1       525-8.07390E+08-9.53353E+04 7.25125E+04 1.88836E+07-9.40553E+05-2.43022E+05
 -1       526-7.23991E+08-1.48373E+05-2.21203E+03 1.82649E+07-1.02378E+06-2.29165E+05
 -1       528-7.23991E+08-1.48373E+05-2.21203E+03 1.82649E+07-1.02378E+06-2.29165E+05
 -1       529-6.43468E+08-1.33559E+05 6.45479E+04 1.75729E+07-1.11766E+06-2.40471E+05
 -1       531-6.43468E+08-1.33559E+05 6.45479E+04 1.75729E+07-1.11766E+06-2.40471E+05
 -1       532-5.66154E+08-1.70974E+05 1.30953E+04 1.68118E+07-1.20495E+06-2.33977E+05
 -1       534-5.66154E+08-1.70974E+05 1.30953E+04 1.68118E+07-1.20495E+06-2.33977E+05
 -1       535-4.92362E+08-1.68475E+05 6.08810E+04 1.59754E+07-1.29769E+06-2.36664E+05
 -1       537-4.92362E+08-1.68475E+05 6.08810E+04 1.59754E+07-1.29769E+06-2.36664E+05
 -1       538-4.22433E+08-1.97724E+05 2.55517E+04 1.50659E+07-1.38564E+06-2.31605E+05
 -1       540-4.22433E+08-1.97724E+05 2.55517E+04 1.50659E+07-1.38564E+06-2.31605E+05
 -1       541-3.56698E+08-2.02729E+05 6.02026E+04 1.40790E+07-1.47462E+06-2.28585E+05
 -1       543-3.56698E+08-2.02729E+05 6.02026E+04 1.40790E+07-1.47462E+06-2.28585E+05
 -1       544-2.95504E+08-2.26077E+05 3.61156E+04 1.30166E+07-1.55888E+06-2.22174E+05
 -1       546-2.95504E+08-2.26077E+05 3.61156E+04 1.30166E+07-1.55888E+06-2.22174E+05
 -1       547-2.39194E+08-2.37835E+05 6.16253E+04 1.18751E+07-1.63989E+06-2.13919E+05
 -1       549-2.39194E+08-2.37835E+05 6.16253E+04 1.18751E+07-1.63989E+06-2.13919E+05
 -1       550-1.88118E+08-2.53313E+05 4.53928E+04 1.06578E+07-1.71427E+06-2.04379E+05
 -1       552-1.88118E+08-2.53313E+05 4.53928E+04 1.06578E+07-1.71427E+06-2.04379E+05
 -1       553-1.42627E+08-2.77219E+05 6.46091E+04 9.35757E+06-1.78112E+06-1.90332E+05
 -1       555-1.42627E+08-2.77219E+05 6.46091E+04 9.35757E+06-1.78112E+06-1.90332E+05
 -1       556-1.03064E+08-2.73148E+05 5.36916E+04 7.98604E+06-1.83623E+06-1.74536E+05
 -1       558-1.03064E+08-2.73148E+05 5.36916E+04 7.98604E+06-1.83623E+06-1.74536E+05
 -1       559-6.97697E+07-3.19447E+05 6.86522E+04 6.54752E+06-1.88027E+06-1.56866E+05
 -1       561-6.97697E+07-3.19447E+05 6.86522E+04 6.54752E+06-1.88027E+06-1.56866E+05
 -1       562-4.31881E+07-3.31390E+05 6.21363E+04 4.91906E+06-1.90257E+06-1.20690E+05
 -1       564-4.31881E+07-3.31390E+05 6.21363E+04 4.91906E+06-1.90257E+06-1.20690E+05
 -1       565-2.32938E+07-1.88462E+05 7.17307E+04 3.62765E+06-1.91366E+06-1.26460E+05
 -1       567-2.32938E+07-1.88462E+05 7.17307E+04 3.62765E+06-1.91366E+06-1.26460E+05
 -1       568-9.30406E+06-3.57919E+05 6.42806E+04 2.33361E+06-1.90178E+06 6.28085E+03
 -1       570-9.30406E+06-3.57919E+05 6.42806E+04 2.33361E+06-1.90178E+06 6.28085E+03
 -1       571-3.83732E+06-1.78471E+06-7.32420E+04 2.95398E+06-4.66104E+06 1.75833E+05
 -1       573-3.83732E+06-1.78471E+06-7.32420E+04 2.95398E+06-4.66104E+06 1.75833E+05
 -1       574-2.05150E+09-1.07973E+08-1.32041E+05 1.19220E-03-3.50568E-05-5.64079E+06
 -1       576-2.05150E+09-1.07973E+08-1.32041E+05 1.19220E-03-3.50568E-05-5.64079E+06
 -1       577-1.54736E+09-8.85180E+05-1.50183E+08 3.96590E-05-1.97185E-05-3.45901E+08
 -1       579-1.54736E+09-8.85180E+05-1.50183E+08 3.96590E-05-1.97185E-05-3.45901E+08
 -1       588-1.94274E+09 3.68838E+07 3.60623E+05 1.02728E-03 1.40982E-05 4.23081E+06
 -1       590-1.94274E+09 3.68838E+07 3.60623E+05 1.02728E-03 1.40982E-05 4.23081E+06
 -1       591-1.47290E+09-8.41359E+05-4.89334E+06 4.43219E-05 4.15151E-06-3.22298E+08
 -1       593-1.47290E+09-8.41359E+05-4.89334E+06 4.43219E-05 4.15151E-06-3.22298E+08
 -1       602-1.82822E+09-1.05146E+05-4.70101E+04 8.78137E-04 2.26287E-05-2.36792E+06
 -1       604-1.82822E+09-1.05146E+05-4.70101E+04 8.78137E-04 2.26287E-05-2.36792E+06
 -1       605-1.38131E+09-8.55873E+05 5.78909E+06 4.33307E-05 2.56698E-05-3.12766E+08
 -1       607-1.38131E+09-8.55873E+05 5.78909E+06 4.33307E-05 2.56698E-05-3.12766E+08
 -1       616-1.73982E+09-3.60119E+06-2.34412E+05 7.76798E-04 4.74992E-05 1.47905E+06
 -1       618-1.73982E+09-3.60119E+06-2.34412E+05 7.76798E-04 4.74992E-05 1.47905E+06
 -1       619-1.30320E+09-2.59815E+05 1.60428E+06 4.56787E-05 4.88906E-05-3.20750E+08
 -1       621-1.30320E+09-2.59815E+05 1.60428E+06 4.56787E-05 4.88906E-05-3.20750E+08
 -1       630-1.64020E+09 1.86115E+06 1.39152E+05 6.03363E-04 6.00578E-05-8.39023E+05
 -1       632-1.64020E+09 1.86115E+06 1.39152E+05 6.03363E-04 6.00578E-05-8.39023E+05
 -1       633-1.23153E+09-8.55057E+05 2.11266E+06 4.63432E-05 5.96345E-05-3.18174E+08
 -1       635-1.23153E+09-8.55057E+05 2.11266E+06 4.63432E-05 5.96345E-05-3.18174E+08
 -1       644-1.54379E+09-8.63363E+05-1.92674E+05 3.93800E-04 5.93661E-05 5.91803E+05
 -1       646-1.54379E+09-8.63363E+05-1.92674E+05 3.93800E-04 5.93661E-05 5.91803E+05
 -1       647-1.15692E+09-3.43099E+05 2.12139E+06 5.33141E-05 5.57438E-05-3.17760E+08
 -1       649-1.15692E+09-3.43099E+05 2.12139E+06 5.33141E-05 5.57438E-05-3.17760E+08
 -1       658-1.44704E+09 9.30733E+04 4.13079E+04 2.37929E-04 3.12451E-05-2.94750E+05
 -1       660-1.44704E+09 9.30733E+04 4.13079E+04 2.37929E-04 3.12451E-05-2.94750E+05
 -1       661-1.08476E+09-5.80408E+05 2.79047E+06 5.43651E-05 2.38655E-05-3.14849E+08
 -1       663-1.08476E+09-5.80408E+05 2.79047E+06 5.43651E-05 2.38655E-05-3.14849E+08
 -1       672-1.35146E+09-3.93926E+05-1.24491E+05 1.46048E-04 3.98663E-05 2.77793E+05
 -1       674-1.35146E+09-3.93926E+05-1.24491E+05 1.46048E-04 3.98663E-05 2.77793E+05
 -1       675-1.01250E+09-3.76306E+05 3.37535E+06 4.59582E-05 5.08673E-06-3.12155E+08
 -1       677-1.01250E+09-3.76306E+05 3.37535E+06 4.59582E-05 5.08673E-06-3.12155E+08
 -1       686-1.25660E+09-2.26445E+05-1.75819E+04 2.22214E-06 5.21918E-05-7.78956E+04
 -1       688-1.25660E+09-2.26445E+05-1.75819E+04 2.22214E-06 5.21918E-05-7.78956E+04
 -1       689-9.41271E+08-4.14922E+05 4.14367E+06 3.95130E-05 3.62047E-05-3.08211E+08
 -1       691-9.41271E+08-4.14922E+05 4.14367E+06 3.95130E-05 3.62047E-05-3.08211E+08
 -1       700-1.16311E+09-4.16482E+05-9.81657E+04-1.06080E-04 4.44594E-05 1.62390E+05
 -1       702-1.16311E+09-4.16482E+05-9.81657E+04-1.06080E-04 4.44594E-05 1.62390E+05
 -1       703-8.70784E+08-3.23033E+05 4.90851E+06 4.62387E-05 3.90043E-05-3.03808E+08
 -1       705-8.70784E+08-3.23033E+05 4.90851E+06 4.62387E-05 3.90043E-05-3.03808E+08
 -1       714-1.07097E+09-4.02429E+05-5.07882E+04 2.51364E-05 9.29207E-05 1.87054E+04
 -1       716-1.07097E+09-4.02429E+05-5.07882E+04 2.51364E-05 9.29207E-05 1.87054E+04
 -1       717-8.01451E+08-2.98007E+05 5.76476E+06 4.39971E-05 3.16994E-05-2.98397E+08
 -1       719-8.01451E+08-2.98007E+05 5.76476E+06 4.39971E-05 3.16994E-05-2.98397E+08
 -1       728-9.80607E+08-5.17229E+05-9.18221E+04 9.42089E-05 6.88301E-05 1.23065E+05
 -1       730-9.80607E+08-5.17229E+05-9.18221E+04 9.42089E-05 6.88301E-05 1.23065E+05
 -1       731-7.33340E+08-2.39930E+05 6.64194E+06 5.40849E-05-6.97455E-06-2.92234E+08
 -1       733-7.33340E+08-2.39930E+05 6.64194E+06 5.40849E-05-6.97455E-06-2.92234E+08
 -1       742-8.92184E+08-5.58717E+05-7.36253E+04-1.41593E-04 4.32946E-05 6.65835E+04
 -1       744-8.92184E+08-5.58717E+05-7.36253E+04-1.41593E-04 4.32946E-05 6.65835E+04
 -1       745-6.66730E+08-1.96282E+05 7.58064E+06 5.39447E-05-1.16013E-05-2.85084E+08
 -1       747-6.66730E+08-1.96282E+05 7.58064E+06 5.39447E-05-1.16013E-05-2.85084E+08
 -1       756-8.06064E+08-6.50283E+05-9.53216E+04-1.86713E-04 1.42124E-05 1.13727E+05
 -1       758-8.06064E+08-6.50283E+05-9.53216E+04-1.86713E-04 1.42124E-05 1.13727E+05
 -1       759-6.01798E+08-1.48016E+05 8.54398E+06 4.35763E-05-2.95386E-05-2.77027E+08
 -1       761-6.01798E+08-1.48016E+05 8.54398E+06 4.35763E-05-2.95386E-05-2.77027E+08
 -1       770-7.22493E+08-7.15137E+05-9.22115E+04 2.31694E-05 1.91167E-05 9.31592E+04
 -1       772-7.22493E+08-7.15137E+05-9.22115E+04 2.31694E-05 1.91167E-05 9.31592E+04
 -1       773-5.38791E+08-1.00129E+05 9.55185E+06 6.68347E-05-1.06883E-04-2.67950E+08
 -1       775-5.38791E+08-1.00129E+05 9.55185E+06 6.68347E-05-1.06883E-04-2.67950E+08
 -1       784-6.41818E+08-8.00430E+05-1.04243E+05-7.72215E-05 6.13166E-05 1.15494E+05
 -1       786-6.41818E+08-8.00430E+05-1.04243E+05-7.72215E-05 6.13166E-05 1.15494E+05
 -1       787-4.77929E+08-5.48701E+04 1.05824E+07 5.16326E-05-6.63231E-05-2.57870E+08
 -1       789-4.77929E+08-5.48701E+04 1.05824E+07 5.16326E-05-6.63231E-05-2.57870E+08
 -1       798-5.64329E+08-8.76663E+05-1.09183E+05-7.09128E-05 4.52562E-05 1.09246E+05
 -1       800-5.64329E+08-8.76663E+05-1.09183E+05-7.09128E-05 4.52562E-05 1.09246E+05
 -1       801-4.19459E+08-7.50428E+03 1.16449E+07 3.80418E-05-5.67979E-05-2.46726E+08
 -1       803-4.19459E+08-7.50428E+03 1.16449E+07 3.80418E-05-5.67979E-05-2.46726E+08
 -1       812-4.90371E+08-9.60928E+05-1.16390E+05 2.73202E-04 5.90748E-05 1.20072E+05
 -1       814-4.90371E+08-9.60928E+05-1.16390E+05 2.73202E-04 5.90748E-05 1.20072E+05
 -1       815-3.63624E+08 3.61099E+04 1.27259E+07 5.10722E-05-2.82178E-05-2.34515E+08
 -1       817-3.63624E+08 3.61099E+04 1.27259E+07 5.10722E-05-2.82178E-05-2.34515E+08
 -1       826-4.20264E+08-1.04356E+06-1.25764E+05-9.86569E-05 5.28223E-05 1.18844E+05
 -1       828-4.20264E+08-1.04356E+06-1.25764E+05-9.86569E-05 5.28223E-05 1.18844E+05
 -1       829-3.10676E+08 8.12505E+04 1.38289E+07 4.69738E-05 1.17742E-04-2.21203E+08
 -1       831-3.10676E+08 8.12505E+04 1.38289E+07 4.69738E-05 1.17742E-04-2.21203E+08
 -1       840-3.54356E+08-1.12791E+06-1.30535E+05-8.77783E-04 1.27572E-04 1.23264E+05
 -1       842-3.54356E+08-1.12791E+06-1.30535E+05-8.77783E-04 1.27572E-04 1.23264E+05
 -1       843-2.60869E+08 1.22837E+05 1.49449E+07 3.20517E-05 2.27308E-04-2.06780E+08
 -1       845-2.60869E+08 1.22837E+05 1.49449E+07 3.20517E-05 2.27308E-04-2.06780E+08
 -1       854-2.92983E+08-1.21480E+06-1.42558E+05-7.46571E-04 2.85234E-04 1.22877E+05
 -1       856-2.92983E+08-1.21480E+06-1.42558E+05-7.46571E-04 2.85234E-04 1.22877E+05
 -1       857-2.14460E+08 1.65073E+05 1.60753E+07 6.35068E-05 1.58931E-04-1.91228E+08
 -1       859-2.14460E+08 1.65073E+05 1.60753E+07 6.35068E-05 1.58931E-04-1.91228E+08
 -1       868-2.36494E+08-1.29848E+06-1.45922E+05-3.58531E-04 9.67125E-05 1.22105E+05
 -1       870-2.36494E+08-1.29848E+06-1.45922E+05-3.58531E-04 9.67125E-05 1.22105E+05
 -1       871-1.71714E+08 2.03617E+05 1.72127E+07 4.58526E-05-7.21863E-05-1.74539E+08
 -1       873-1.71714E+08 2.03617E+05 1.72127E+07 4.58526E-05-7.21863E-05-1.74539E+08
 -1       882-1.85239E+08-1.38848E+06-1.59867E+05-4.34577E-04 6.02484E-05 1.20604E+05
 -1       884-1.85239E+08-1.38848E+06-1.59867E+05-4.34577E-04 6.02484E-05 1.20604E+05
 -1       885-1.32889E+08 2.42726E+05 1.83596E+07 2.02120E-05-8.85109E-05-1.56705E+08
 -1       887-1.32889E+08 2.42726E+05 1.83596E+07 2.02120E-05-8.85109E-05-1.56705E+08
 -1       896-1.39564E+08-1.47327E+06-1.62060E+05-2.16773E-04 2.47491E-04 1.13160E+05
 -1       898-1.39564E+08-1.47327E+06-1.62060E+05-2.16773E-04 2.47491E-04 1.13160E+05
 -1       899-9.82529E+07 2.76847E+05 1.95067E+07 7.42665E-06 1.30238E-04-1.37719E+08
 -1       901-9.82529E+07 2.76847E+05 1.95067E+07 7.42665E-06 1.30238E-04-1.37719E+08
 -1       910-9.98247E+07-1.55351E+06-1.78019E+05 1.56655E-04 1.60271E-04 1.10373E+05
 -1       912-9.98247E+07-1.55351E+06-1.78019E+05 1.56655E-04 1.60271E-04 1.10373E+05
 -1       913-6.80772E+07 3.13334E+05 2.06679E+07 2.65869E-05 2.94273E-04-1.17592E+08
 -1       915-6.80772E+07 3.13334E+05 2.06679E+07 2.65869E-05 2.94273E-04-1.17592E+08
 -1       924-6.63870E+07-1.64287E+06-1.77600E+05 6.93947E-05 3.54975E-04 9.03392E+04
 -1       926-6.63870E+07-1.64287E+06-1.77600E+05 6.93947E-05 3.54975E-04 9.03392E+04
 -1       927-4.26273E+07 3.39198E+05 2.18235E+07 4.14737E-05 5.29345E-04-9.63115E+07
 -1       929-4.26273E+07 3.39198E+05 2.18235E+07 4.14737E-05 5.29345E-04-9.63115E+07
 -1       938-3.94822E+07-1.83399E+06-1.99576E+05 2.12800E-04 3.40683E-04 9.13223E+04
 -1       940-3.94822E+07-1.83399E+06-1.99576E+05 2.12800E-04 3.40683E-04 9.13223E+04
 -1       941-2.21847E+07 3.79802E+05 2.30774E+07 1.40515E-07 6.49981E-04-7.40036E+07
 -1       943-2.21847E+07 3.79802E+05 2.30774E+07 1.40515E-07 6.49981E-04-7.40036E+07
 -1       952-1.96508E+07-1.27085E+06-1.92381E+05 7.78150E-04 4.65769E-04 3.80134E+04
 -1       954-1.96508E+07-1.27085E+06-1.92381E+05 7.78150E-04 4.65769E-04 3.80134E+04
 -1       955-7.32150E+06 3.89126E+05 2.42511E+07 1.68164E-06 8.29464E-04-5.05687E+07
 -1       957-7.32150E+06 3.89126E+05 2.42511E+07 1.68164E-06 8.29464E-04-5.05687E+07
 -1       966-7.81830E+06-1.78322E+06-2.00701E+05 5.28196E-04 7.54050E-04 6.98657E+04
 -1       968-7.81830E+06-1.78322E+06-2.00701E+05 5.28196E-04 7.54050E-04 6.98657E+04
 -1       969 9.18764E+05 4.10070E+05 2.50171E+07-6.44507E-06 1.09091E-03-2.62093E+07
 -1       971 9.18764E+05 4.10070E+05 2.50171E+07-6.44507E-06 1.09091E-03-2.62093E+07
 -1       980-2.07882E+09-2.41293E+08-3.85927E+05 1.20305E+08 4.43785E+06-2.17375E+07
 -1       982-2.07882E+09-2.41293E+08-3.85927E+05 1.20305E+08 4.43785E+06-2.17375E+07
 -1       983-3.83732E+06-1.78471E+06-7.32420E+04-2.95398E+06 4.66104E+06 1.75833E+05
 -1       985-3.83732E+06-1.78471E+06-7.32420E+04-2.95398E+06 4.66104E+06 1.75833E+05
 -1       986-2.00033E+09-6.21889E+07 7.84641E+05-4.66137E+07 1.61248E+06-4.47214E+06
 -1       988-2.00033E+09-6.21889E+07 7.84641E+05-4.66137E+07 1.61248E+06-4.47214E+06
 -1       989-1.91022E+09 2.71289E+07-2.10891E+05 4.89609E+06-2.31281E+03 1.78665E+06
 -1       991-1.91022E+09 2.71289E+07-2.10891E+05 4.89609E+06-2.31281E+03 1.78665E+06
 -1       992-1.84046E+09-7.94040E+06-1.15805E+05-2.87889E+07 1.20505E+05-5.72336E+05
 -1       994-1.84046E+09-7.94040E+06-1.15805E+05-2.87889E+07 1.20505E+05-5.72336E+05
 -1       995-1.73709E+09 2.63135E+06 2.40110E+05-2.06894E+07 2.15763E+05-3.00803E+05
 -1       997-1.73709E+09 2.63135E+06 2.40110E+05-2.06894E+07 2.15763E+05-3.00803E+05
 -1       998-1.64059E+09-1.27807E+06-1.98650E+05-2.17642E+07 1.72415E+05 4.45866E+04
 -1      1000-1.64059E+09-1.27807E+06-1.98650E+05-2.17642E+07 1.72415E+05 4.45866E+04
 -1      1001-1.54401E+09 7.43858E+05 2.00637E+05-2.16501E+07 3.38379E+05-4.12526E+05
 -1      1003-1.54401E+09 7.43858E+05 2.00637E+05-2.16501E+07 3.38379E+05-4.12526E+05
 -1      1004-1.44754E+09-5.04201E+05-1.33718E+05-2.15285E+07 3.42717E+05-3.08563E+04
 -1      1006-1.44754E+09-5.04201E+05-1.33718E+05-2.15285E+07 3.42717E+05-3.08563E+04
 -1      1007-1.35190E+09 2.37250E+05 1.46124E+05-2.12630E+07 4.66143E+05-3.25101E+05
 -1      1009-1.35190E+09 2.37250E+05 1.46124E+05-2.12630E+07 4.66143E+05-3.25101E+05
 -1      1010-1.25729E+09-2.26337E+05-8.36113E+04-2.10472E+07 5.09615E+05-1.29001E+05
 -1      1012-1.25729E+09-2.26337E+05-8.36113E+04-2.10472E+07 5.09615E+05-1.29001E+05
 -1      1013-1.16384E+09 3.90313E+04 1.09878E+05-2.07104E+07 6.11431E+05-2.71187E+05
 -1      1015-1.16384E+09 3.90313E+04 1.09878E+05-2.07104E+07 6.11431E+05-2.71187E+05
 -1      1016-1.07189E+09-1.46296E+05-4.78802E+04-2.03582E+07 6.75606E+05-1.85764E+05
 -1      1018-1.07189E+09-1.46296E+05-4.78802E+04-2.03582E+07 6.75606E+05-1.85764E+05
 -1      1019-9.81625E+08-4.60045E+04 8.66905E+04-1.99234E+07 7.70697E+05-2.49717E+05
 -1      1021-9.81625E+08-4.60045E+04 8.66905E+04-1.99234E+07 7.70697E+05-2.49717E+05
 -1      1022-8.93376E+08-1.35243E+05-2.18154E+04-1.94402E+07 8.46621E+05-2.15054E+05
 -1      1024-8.93376E+08-1.35243E+05-2.18154E+04-1.94402E+07 8.46621E+05-2.15054E+05
 -1      1025-8.07390E+08-9.53353E+04 7.25125E+04-1.88836E+07 9.40553E+05-2.43022E+05
 -1      1027-8.07390E+08-9.53353E+04 7.25125E+04-1.88836E+07 9.40553E+05-2.43022E+05
 -1      1028-7.23991E+08-1.48373E+05-2.21203E+03-1.82649E+07 1.02378E+06-2.29165E+05
 -1      1030-7.23991E+08-1.48373E+05-2.21203E+03-1.82649E+07 1.02378E+06-2.29165E+05
 -1      1031-6.43468E+08-1.33559E+05 6.45479E+04-1.75729E+07 1.11766E+06-2.40471E+05
 -1      1033-6.43468E+08-1.33559E+05 6.45479E+04-1.75729E+07 1.11766E+06-2.40471E+05
 -1      1034-5.66154E+08-1.70974E+05 1.30953E+04-1.68118E+07 1.20495E+06-2.33977E+05
 -1      1036-5.66154E+08-1.70974E+05 1.30953E+04-1.68118E+07 1.20495E+06-2.33977E+05
 -1      1037-4.92362E+08-1.68475E+05 6.08810E+04-1.59754E+07 1.29769E+06-2.36664E+05
 -1      1039-4.92362E+08-1.68475E+05 6.08810E+04-1.59754E+07 1.29769E+06-2.36664E+05
 -1      1040-4.22433E+08-1.97724E+05 2.55517E+04-1.50659E+07 1.38564E+06-2.31605E+05
 -1      1042-4.22433E+08-1.97724E+05 2.55517E+04-1.50659E+07 1.38564E+06-2.31605E+05
 -1      1043-3.56698E+08-2.02729E+05 6.02026E+04-1.40790E+07 1.47462E+06-2.28585E+05
 -1      1045-3.56698E+08-2.02729E+05 6.02026E+04-1.40790E+07 1.47462E+06-2.28585E+05
 -1      1046-2.95504E+08-2.26077E+05 3.61156E+04-1.30166E+07 1.55888E+06-2.22174E+05
 -1      1048-2.95504E+08-2.26077E+05 3.61156E+04-1.30166E+07 1.55888E+06-2.22174E+05
 -1      1049-2.39194E+08-2.37835E+05 6.16253E+04-1.18751E+07 1.63989E+06-2.13919E+05
 -1      1051-2.39194E+08-2.37835E+05 6.16253E+04-1.18751E+07 1.63989E+06-2.13919E+05
 -1      1052-1.88118E+08-2.53313E+05 4.53928E+04-1.06578E+07 1.71427E+06-2.04379E+05
 -1      1054-1.88118E+08-2.53313E+05 4.53928E+04-1.06578E+07 1.71427E+06-2.04379E+05
 -1      1055-1.42627E+08-2.77219E+05 6.46091E+04-9.35757E+06 1.78112E+06-1.90332E+05
 -1      1057-1.42627E+08-2.77219E+05 6.46091E+04-9.35757E+06 1.78112E+06-1.90332E+05
 -1      1058-1.03064E+08-2.73148E+05 5.36916E+04-7.98604E+06 1.83623E+06-1.74536E+05
 -1      1060-1.03064E+08-2.73148E+05 5.36916E+04-7.98604E+06 1.83623E+06-1.74536E+05
 -1      1061-6.97697E+07-3.19447E+05 6.86522E+04-6.54752E+06 1.88027E+06-1.56866E+05
 -1      1063-6.97697E+07-3.19447E+05 6.86522E+04-6.54752E+06 1.88027E+06-1.56866E+05
 -1      1064-4.31881E+07-3.31390E+05 6.21363E+04-4.91906E+06 1.90257E+06-1.20690E+05
 -1      1066-4.31881E+07-3.31390E+05 6.21363E+04-4.91906E+06 1.90257E+06-1.20690E+05
 -1      1067-2.32938E+07-1.88462E+05 7.17307E+04-3.62765E+06 1.91366E+06-1.26460E+05
 -1      1069-2.32938E+07-1.88462E+05 7.17307E+04-3.62765E+06 1.91366E+06-1.26460E+05
 -1      1070-9.30406E+06-3.57919E+05 6.42806E+04-2.33361E+06 1.90178E+06 6.28085E+03
 -1      1072-9.30406E+06-3.57919E+05 6.42806E+04-2.33361E+06 1.90178E+06 6.28085E+03
 -1      1073-2.07882E+09-2.41293E+08-3.85927E+05-1.20305E+08-4.43785E+06-2.17375E+07
 -1      1075-2.07882E+09-2.41293E+08-3.85927E+05-1.20305E+08-4.43785E+06-2.17375E+07
 -1      1076-1.03586E+09-1.20172E+05-1.87184E+08-1.43550E-04 5.23287E-06-3.16316E+08
 -1      1078-1.03586E+09-1.20172E+05-1.87184E+08-1.43550E-04 5.23287E-06-3.16316E+08
 -1      1079-7.46250E-05 6.36280E-06-8.67993E-05-3.15846E-04 6.25703E-06-2.85221E+08
 -1      1081-7.46250E-05 6.36280E-06-8.67993E-05-3.15846E-04 6.25703E-06-2.85221E+08
 -1      1082 1.03586E+09 1.20172E+05 1.87184E+08-1.62410E-04 3.85719E-07-3.16316E+08
 -1      1084 1.03586E+09 1.20172E+05 1.87184E+08-1.62410E-04 3.85719E-07-3.16316E+08
 -1      1085 1.54736E+09 8.85180E+05 1.50183E+08 4.91419E-06 4.95383E-05-3.45901E+08
 -1      1087 1.54736E+09 8.85180E+05 1.50183E+08 4.91419E-06 4.95383E-05-3.45901E+08
 -1      1088 2.05150E+09 1.07973E+08 1.32041E+05-7.01007E-05 3.05447E-05-5.64079E+06
 -1      1090 2.05150E+09 1.07973E+08 1.32041E+05-7.01007E-05 3.05447E-05-5.64079E+06
 -1      1099 1.47290E+09 8.41359E+05 4.89334E+06 1.81592E-05 6.81017E-05-3.22298E+08
 -1      1101 1.47290E+09 8.41359E+05 4.89334E+06 1.81592E-05 6.81017E-05-3.22298E+08
 -1      1102 1.94274E+09-3.68838E+07-3.60623E+05 2.33017E-06 2.33102E-05 4.23081E+06
 -1      1104 1.94274E+09-3.68838E+07-3.60623E+05 2.33017E-06 2.33102E-05 4.23081E+06
 -1      1113 1.38131E+09 8.55873E+05-5.78909E+06 2.36351E-06 6.70727E-05-3.12766E+08
 -1      1115 1.38131E+09 8.55873E+05-5.78909E+06 2.36351E-06 6.70727E-05-3.12766E+08
 -1      1116 1.82822E+09 1.05146E+05 4.70101E+04 1.65533E-04 2.80137E-05-2.36792E+06
 -1      1118 1.82822E+09 1.05146E+05 4.70101E+04 1.65533E-04 2.80137E-05-2.36792E+06
 -1      1127 1.30320E+09 2.59815E+05-1.60428E+06 8.75524E-06 4.69816E-05-3.20750E+08
 -1      1129 1.30320E+09 2.59815E+05-1.60428E+06 8.75524E-06 4.69816E-05-3.20750E+08
 -1      1130 1.73982E+09 3.60119E+06 2.34412E+05 2.87943E-04 5.94929E-06 1.47905E+06
 -1      1132 1.73982E+09 3.60119E+06 2.34412E+05 2.87943E-04 5.94929E-06 1.47905E+06
 -1      1141 1.23153E+09 8.55057E+05-2.11266E+06 7.84492E-06 1.35033E-05-3.18174E+08
 -1      1143 1.23153E+09 8.55057E+05-2.11266E+06 7.84492E-06 1.35033E-05-3.18174E+08
 -1      1144 1.64020E+09-1.86115E+06-1.39152E+05 3.70054E-04-1.31443E-05-8.39023E+05
 -1      1146 1.64020E+09-1.86115E+06-1.39152E+05 3.70054E-04-1.31443E-05-8.39023E+05
 -1      1155 1.15692E+09 3.43099E+05-2.12139E+06 1.74424E-05 1.02074E-05-3.17760E+08
 -1      1157 1.15692E+09 3.43099E+05-2.12139E+06 1.74424E-05 1.02074E-05-3.17760E+08
 -1      1158 1.54379E+09 8.63363E+05 1.92674E+05 3.56527E-04-2.25559E-05 5.91803E+05
 -1      1160 1.54379E+09 8.63363E+05 1.92674E+05 3.56527E-04-2.25559E-05 5.91803E+05
 -1      1169 1.08476E+09 5.80408E+05-2.79047E+06 1.69520E-05 2.37250E-05-3.14849E+08
 -1      1171 1.08476E+09 5.80408E+05-2.79047E+06 1.69520E-05 2.37250E-05-3.14849E+08
 -1      1172 1.44704E+09-9.30733E+04-4.13079E+04 2.82751E-04-2.11394E-05-2.94750E+05
 -1      1174 1.44704E+09-9.30733E+04-4.13079E+04 2.82751E-04-2.11394E-05-2.94750E+05
 -1      1183 1.01250E+09 3.76306E+05-3.37535E+06 1.14876E-05 8.44991E-06-3.12155E+08
 -1      1185 1.01250E+09 3.76306E+05-3.37535E+06 1.14876E-05 8.44991E-06-3.12155E+08
 -1      1186 1.35146E+09 3.93926E+05 1.24491E+05 1.70901E-04 2.42126E-06 2.77793E+05
 -1      1188 1.35146E+09 3.93926E+05 1.24491E+05 1.70901E-04 2.42126E-06 2.77793E+05
 -1      1197 9.41271E+08 4.14922E+05-4.14367E+06 1.38697E-05 7.76200E-06-3.08211E+08
 -1      1199 9.41271E+08 4.14922E+05-4.14367E+06 1.38697E-05 7.76200E-06-3.08211E+08
 -1      1200 1.25660E+09 2.26445E+05 1.75819E+04 1.70581E-05 2.86398E-05-7.78956E+04
 -1      1202 1.25660E+09 2.26445E+05 1.75819E+04 1.70581E-05 2.86398E-05-7.78956E+04
 -1      1211 8.70784E+08 3.23033E+05-4.90851E+06 4.20186E-06 9.72905E-05-3.03808E+08
 -1      1213 8.70784E+08 3.23033E+05-4.90851E+06 4.20186E-06 9.72905E-05-3.03808E+08
 -1      1214 1.16311E+09 4.16482E+05 9.81657E+04-3.90615E-05 8.42951E-05 1.62390E+05
 -1      1216 1.16311E+09 4.16482E+05 9.81657E+04-3.90615E-05 8.42951E-05 1.62390E+05
 -1      1225 8.01451E+08 2.98007E+05-5.76476E+06 8.26508E-06 8.98456E-05-2.98397E+08
 -1      1227 8.01451E+08 2.98007E+05-5.76476E+06 8.26508E-06 8.98456E-05-2.98397E+08
 -1      1228 1.07097E+09 4.02429E+05 5.07882E+04 1.31907E-04 7.09319E-05 1.87054E+04
 -1      1230 1.07097E+09 4.02429E+05 5.07882E+04 1.31907E-04 7.09319E-05 1.87054E+04
 -1      1239 7.33340E+08 2.39930E+05-6.64194E+06 7.42445E-06 6.05585E-06-2.92234E+08
 -1      1241 7.33340E+08 2.39930E+05-6.64194E+06 7.42445E-06 6.05585E-06-2.92234E+08
 -1      1242 9.80607E+08 5.17229E+05 9.18221E+04 1.49626E-04-7.27712E-06 1.23065E+05
 -1      1244 9.80607E+08 5.17229E+05 9.18221E+04 1.49626E-04-7.27712E-06 1.23065E+05
 -1      1253 6.66730E+08 1.96282E+05-7.58064E+06 8.96575E-06 2.41277E-05-2.85084E+08
 -1      1255 6.66730E+08 1.96282E+05-7.58064E+06 8.96575E-06 2.41277E-05-2.85084E+08
 -1      1256 8.92184E+08 5.58717E+05 7.36253E+04-1.35250E-04-1.77680E-05 6.65835E+04
 -1      1258 8.92184E+08 5.58717E+05 7.36253E+04-1.35250E-04-1.77680E-05 6.65835E+04
 -1      1267 6.01798E+08 1.48016E+05-8.54398E+06-7.88272E-06 2.98341E-05-2.77027E+08
 -1      1269 6.01798E+08 1.48016E+05-8.54398E+06-7.88272E-06 2.98341E-05-2.77027E+08
 -1      1270 8.06064E+08 6.50283E+05 9.53216E+04-2.55348E-04-7.53102E-06 1.13727E+05
 -1      1272 8.06064E+08 6.50283E+05 9.53216E+04-2.55348E-04-7.53102E-06 1.13727E+05
 -1      1281 5.38791E+08 1.00129E+05-9.55185E+06-6.17507E-06-9.16374E-06-2.67950E+08
 -1      1283 5.38791E+08 1.00129E+05-9.55185E+06-6.17507E-06-9.16374E-06-2.67950E+08
 -1      1284 7.22493E+08 7.15137E+05 9.22115E+04-2.05640E-04-2.51849E-05 9.31592E+04
 -1      1286 7.22493E+08 7.15137E+05 9.22115E+04-2.05640E-04-2.51849E-05 9.31592E+04
 -1      1295 4.77929E+08 5.48701E+04-1.05824E+07-1.12206E-06 1.12114E-05-2.57870E+08
 -1      1297 4.77929E+08 5.48701E+04-1.05824E+07-1.12206E-06 1.12114E-05-2.57870E+08
 -1      1298 6.41818E+08 8.00430E+05 1.04243E+05-3.01516E-04-1.10514E-05 1.15494E+05
 -1      1300 6.41818E+08 8.00430E+05 1.04243E+05-3.01516E-04-1.10514E-05 1.15494E+05
 -1      1309 4.19459E+08 7.50428E+03-1.16449E+07-1.43539E-05 7.28670E-05-2.46726E+08
 -1      1311 4.19459E+08 7.50428E+03-1.16449E+07-1.43539E-05 7.28670E-05-2.46726E+08
 -1      1312 5.64329E+08 8.76663E+05 1.09183E+05-2.16540E-04-3.73223E-05 1.09246E+05
 -1      1314 5.64329E+08 8.76663E+05 1.09183E+05-2.16540E-04-3.73223E-05 1.09246E+05
 -1      1323 3.63624E+08-3.61099E+04-1.27259E+07 3.04628E-06 8.67094E-05-2.34515E+08
 -1      1325 3.63624E+08-3.61099E+04-1.27259E+07 3.04628E-06 8.67094E-05-2.34515E+08
 -1      1326 4.90371E+08 9.60928E+05 1.16390E+05-6.48089E-05-4.83213E-05 1.20072E+05
 -1      1328 4.90371E+08 9.60928E+05 1.16390E+05-6.48089E-05-4.83213E-05 1.20072E+05
 -1      1337 3.10676E+08-8.12505E+04-1.38289E+07 9.31636E-06 2.48502E-04-2.21203E+08
 -1      1339 3.10676E+08-8.12505E+04-1.38289E+07 9.31636E-06 2.48502E-04-2.21203E+08
 -1      1340 4.20264E+08 1.04356E+06 1.25764E+05-4.35349E-04 3.83542E-06 1.18844E+05
 -1      1342 4.20264E+08 1.04356E+06 1.25764E+05-4.35349E-04 3.83542E-06 1.18844E+05
 -1      1351 2.60869E+08-1.22837E+05-1.49449E+07 1.69525E-05 2.57537E-04-2.06780E+08
 -1      1353 2.60869E+08-1.22837E+05-1.49449E+07 1.69525E-05 2.57537E-04-2.06780E+08
 -1      1354 3.54356E+08 1.12791E+06 1.30535E+05-8.61652E-04 5.42232E-05 1.23264E+05
 -1      1356 3.54356E+08 1.12791E+06 1.30535E+05-8.61652E-04 5.42232E-05 1.23264E+05
 -1      1365 2.14460E+08-1.65073E+05-1.60753E+07-5.67553E-06 2.60828E-04-1.91228E+08
 -1      1367 2.14460E+08-1.65073E+05-1.60753E+07-5.67553E-06 2.60828E-04-1.91228E+08
 -1      1368 2.92983E+08 1.21480E+06 1.42558E+05-4.09240E-04 5.16651E-06 1.22877E+05
 -1      1370 2.92983E+08 1.21480E+06 1.42558E+05-4.09240E-04 5.16651E-06 1.22877E+05
 -1      1379 1.71714E+08-2.03617E+05-1.72127E+07 3.06137E-05 2.33083E-04-1.74539E+08
 -1      1381 1.71714E+08-2.03617E+05-1.72127E+07 3.06137E-05 2.33083E-04-1.74539E+08
 -1      1382 2.36494E+08 1.29848E+06 1.45922E+05 1.84435E-04 3.72699E-05 1.22105E+05
 -1      1384 2.36494E+08 1.29848E+06 1.45922E+05 1.84435E-04 3.72699E-05 1.22105E+05
 -1      1393 1.32889E+08-2.42726E+05-1.83596E+07-1.19173E-06-5.91925E-05-1.56705E+08
 -1      1395 1.32889E+08-2.42726E+05-1.83596E+07-1.19173E-06-5.91925E-05-1.56705E+08
 -1      1396 1.85239E+08 1.38848E+06 1.59867E+05-2.41196E-04 2.67792E-05 1.20604E+05
 -1      1398 1.85239E+08 1.38848E+06 1.59867E+05-2.41196E-04 2.67792E-05 1.20604E+05
 -1      1407 9.82529E+07-2.76847E+05-1.95067E+07 2.94167E-06-1.68552E-04-1.37719E+08
 -1      1409 9.82529E+07-2.76847E+05-1.95067E+07 2.94167E-06-1.68552E-04-1.37719E+08
 -1      1410 1.39564E+08 1.47327E+06 1.62060E+05-5.18519E-04-1.85982E-04 1.13160E+05
 -1      1412 1.39564E+08 1.47327E+06 1.62060E+05-5.18519E-04-1.85982E-04 1.13160E+05
 -1      1421 6.80772E+07-3.13334E+05-2.06679E+07 3.19450E-05-2.26980E-04-1.17592E+08
 -1      1423 6.80772E+07-3.13334E+05-2.06679E+07 3.19450E-05-2.26980E-04-1.17592E+08
 -1      1424 9.98247E+07 1.55351E+06 1.78019E+05 8.68179E-06-1.97681E-04 1.10373E+05
 -1      1426 9.98247E+07 1.55351E+06 1.78019E+05 8.68179E-06-1.97681E-04 1.10373E+05
 -1      1435 4.26273E+07-3.39198E+05-2.18235E+07-8.89764E-06-1.65962E-04-9.63115E+07
 -1      1437 4.26273E+07-3.39198E+05-2.18235E+07-8.89764E-06-1.65962E-04-9.63115E+07
 -1      1438 6.63870E+07 1.64287E+06 1.77600E+05 3.91151E-04-1.34018E-04 9.03392E+04
 -1      1440 6.63870E+07 1.64287E+06 1.77600E+05 3.91151E-04-1.34018E-04 9.03392E+04
 -1      1449 2.21847E+07-3.79802E+05-2.30774E+07-2.37494E-05-3.22749E-04-7.40036E+07
 -1      1451 2.21847E+07-3.79802E+05-2.30774E+07-2.37494E-05-3.22749E-04-7.40036E+07
 -1      1452 3.94822E+07 1.83399E+06 1.99576E+05 5.48675E-04-2.61555E-04 9.13223E+04
 -1      1454 3.94822E+07 1.83399E+06 1.99576E+05 5.48675E-04-2.61555E-04 9.13223E+04
 -1      1463 7.32150E+06-3.89126E+05-2.42511E+07-2.73922E-05-6.84659E-04-5.05687E+07
 -1      1465 7.32150E+06-3.89126E+05-2.42511E+07-2.73922E-05-6.84659E-04-5.05687E+07
 -1      1466 1.96508E+07 1.27085E+06 1.92381E+05 8.25790E-04-4.61460E-04 3.80134E+04
 -1      1468 1.96508E+07 1.27085E+06 1.92381E+05 8.25790E-04-4.61460E-04 3.80134E+04
 -1      1477-9.18764E+05-4.10070E+05-2.50171E+07-5.46448E-06-6.99442E-04-2.62093E+07
 -1      1479-9.18764E+05-4.10070E+05-2.50171E+07-5.46448E-06-6.99442E-04-2.62093E+07
 -1      1480 7.81830E+06 1.78322E+06 2.00701E+05 5.96830E-04-2.98019E-04 6.98657E+04
 -1      1482 7.81830E+06 1.78322E+06 2.00701E+05 5.96830E-04-2.98019E-04 6.98657E+04
 -1      1491 1.30843E+06 3.59480E+03 1.70834E+07-3.35569E-05 5.12320E-04-1.41710E+07
 -1      1493 1.30843E+06 3.59480E+03 1.70834E+07-3.35569E-05 5.12320E-04-1.41710E+07
 -1      1494-3.62727E-06-1.44735E-04 4.74243E-04-5.39392E-05 2.00431E-04-1.44274E+07
 -1      1496-3.62727E-06-1.44735E-04 4.74243E-04-5.39392E-05 2.00431E-04-1.44274E+07
 -1      1497-1.30843E+06-3.59480E+03-1.70834E+07-4.55324E-05-6.78850E-05-1.41710E+07
 -1      1499-1.30843E+06-3.59480E+03-1.70834E+07-4.55324E-05-6.78850E-05-1.41710E+07
 -1      1500 2.00033E+09 6.21889E+07-7.84641E+05 4.66137E+07 1.61248E+06-4.47214E+06
 -1      1502 2.00033E+09 6.21889E+07-7.84641E+05 4.66137E+07 1.61248E+06-4.47214E+06
 -1      1503 1.91022E+09-2.71289E+07 2.10891E+05-4.89609E+06-2.31281E+03 1.78665E+06
 -1      1505 1.91022E+09-2.71289E+07 2.10891E+05-4.89609E+06-2.31281E+03 1.78665E+06
 -1      1506 1.84046E+09 7.94040E+06 1.15805E+05 2.87889E+07 1.20505E+05-5.72336E+05
 -1      1508 1.84046E+09 7.94040E+06 1.15805E+05 2.87889E+07 1.20505E+05-5.72336E+05
 -1      1509 1.73709E+09-2.63135E+06-2.40110E+05 2.06894E+07 2.15763E+05-3.00803E+05
 -1      1511 1.73709E+09-2.63135E+06-2.40110E+05 2.06894E+07 2.15763E+05-3.00803E+05
 -1      1512 1.64059E+09 1.27807E+06 1.98650E+05 2.17642E+07 1.72415E+05 4.45866E+04
 -1      1514 1.64059E+09 1.27807E+06 1.98650E+05 2.17642E+07 1.72415E+05 4.45866E+04
 -1      1515 1.54401E+09-7.43858E+05-2.00637E+05 2.16501E+07 3.38379E+05-4.12526E+05
 -1      1517 1.54401E+09-7.43858E+05-2.00637E+05 2.16501E+07 3.38379E+05-4.12526E+05
 -1      1518 1.44754E+09 5.04201E+05 1.33718E+05 2.15285E+07 3.42717E+05-3.08563E+04
 -1      1520 1.44754E+09 5.04201E+05 1.33718E+05 2.15285E+07 3.42717E+05-3.08563E+04
 -1      1521 1.35190E+09-2.37250E+05-1.46124E+05 2.12630E+07 4.66143E+05-3.25101E+05
 -1      1523 1.35190E+09-2.37250E+05-1.46124E+05 2.12630E+07 4.66143E+05-3.25101E+05
 -1      1524 1.25729E+09 2.26337E+05 8.36113E+04 2.10472E+07 5.09615E+05-1.29001E+05
 -1      1526 1.25729E+09 2.26337E+05 8.36113E+04 2.10472E+07 5.09615E+05-1.29001E+05
 -1      1527 1.16384E+09-3.90313E+04-1.09878E+05 2.07104E+07 6.11431E+05-2.71187E+05
 -1      1529 1.16384E+09-3.90313E+04-1.09878E+05 2.07104E+07 6.11431E+05-2.71187E+05
 -1      1530 1.07189E+09 1.46296E+05 4.78802E+04 2.03582E+07 6.75606E+05-1.85764E+05
 -1      1532 1.07189E+09 1.46296E+05 4.78802E+04 2.03582E+07 6.75606E+05-1.85764E+05
 -1      1533 9.81625E+08 4.60045E+04-8.66905E+04 1.99234E+07 7.70697E+05-2.49717E+05
 -1      1535 9.81625E+08 4.60045E+04-8.66905E+04 1.99234E+07 7.70697E+05-2.49717E+05
 -1      1536 8.93376E+08 1.35243E+05 2.18154E+04 1.94402E+07 8.46621E+05-2.15054E+05
 -1      1538 8.93376E+08 1.35243E+05 2.18154E+04 1.94402E+07 8.46621E+05-2.15054E+05
 -1      1539 8.07390E+08 9.53353E+04-7.25125E+04 1.88836E+07 9.40553E+05-2.43022E+05
 -1      1541 8.07390E+08 9.53353E+04-7.25125E+04 1.88836E+07 9.40553E+05-2.43022E+05
 -1      1542 7.23991E+08 1.48373E+05 2.21203E+03 1.82649E+07 1.02378E+06-2.29165E+05
 -1      1544 7.23991E+08 1.48373E+05 2.21203E+03 1.82649E+07 1.02378E+06-2.29165E+05
 -1      1545 6.43468E+08 1.33559E+05-6.45479E+04 1.75729E+07 1.11766E+06-2.40471E+05
 -1      1547 6.43468E+08 1.33559E+05-6.45479E+04 1.75729E+07 1.11766E+06-2.40471E+05
 -1      1548 5.66154E+08 1.70974E+05-1.30953E+04 1.68118E+07 1.20495E+06-2.33977E+05
 -1      1550 5.66154E+08 1.70974E+05-1.30953E+04 1.68118E+07 1.20495E+06-2.33977E+05
 -1      1551 4.92362E+08 1.68475E+05-6.08810E+04 1.59754E+07 1.29769E+06-2.36664E+05
 -1      1553 4.92362E+08 1.68475E+05-6.08810E+04 1.59754E+07 1.29769E+06-2.36664E+05
 -1      1554 4.22433E+08 1.97724E+05-2.55517E+04 1.50659E+07 1.38564E+06-2.31605E+05
 -1      1556 4.22433E+08 1.97724E+05-2.55517E+04 1.50659E+07 1.38564E+06-2.31605E+05
 -1      1557 3.56698E+08 2.02729E+05-6.02026E+04 1.40790E+07 1.47462E+06-2.28585E+05
 -1      1559 3.56698E+08 2.02729E+05-6.02026E+04 1.40790E+07 1.47462E+06-2.28585E+05
 -1      1560 2.95504E+08 2.26077E+05-3.61156E+04 1.30166E+07 1.55888E+06-2.22174E+05
 -1      1562 2.95504E+08 2.26077E+05-3.61156E+04 1.30166E+07 1.55888E+06-2.22174E+05
 -1      1563 2.39194E+08 2.37835E+05-6.16253E+04 1.18751E+07 1.63989E+06-2.13919E+05
 -1      1565 2.39194E+08 2.37835E+05-6.16253E+04 1.18751E+07 1.63989E+06-2.13919E+05
 -1      1566 1.88118E+08 2.53313E+05-4.53928E+04 1.06578E+07 1.71427E+06-2.04379E+05
 -1      1568 1.88118E+08 2.53313E+05-4.53928E+04 1.06578E+07 1.71427E+06-2.04379E+05
 -1      1569 1.42627E+08 2.77219E+05-6.46091E+04 9.35757E+06 1.78112E+06-1.90332E+05
 -1      1571 1.42627E+08 2.77219E+05-6.46091E+04 9.35757E+06 1.78112E+06-1.90332E+05
 -1      1572 1.03064E+08 2.73148E+05-5.36916E+04 7.98604E+06 1.83623E+06-1.74536E+05
 -1      1574 1.03064E+08 2.73148E+05-5.36916E+04 7.98604E+06 1.83623E+06-1.74536E+05
 -1      1575 6.97697E+07 3.19447E+05-6.86522E+04 6.54752E+06 1.88027E+06-1.56866E+05
 -1      1577 6.97697E+07 3.19447E+05-6.86522E+04 6.54752E+06 1.88027E+06-1.56866E+05
 -1      1578 4.31881E+07 3.31390E+05-6.21363E+04 4.91906E+06 1.90257E+06-1.20690E+05
 -1      1580 4.31881E+07 3.31390E+05-6.21363E+04 4.91906E+06 1.90257E+06-1.20690E+05
 -1      1581 2.32938E+07 1.88462E+05-7.17307E+04 3.62765E+06 1.91366E+06-1.26460E+05
 -1      1583 2.32938E+07 1.88462E+05-7.17307E+04 3.62765E+06 1.91366E+06-1.26460E+05
 -1      1584 9.30406E+06 3.57919E+05-6.42806E+04 2.33361E+06 1.90178E+06 6.28085E+03
 -1      1586 9.30406E+06 3.57919E+05-6.42806E+04 2.33361E+06 1.90178E+06 6.28085E+03
 -1      1587 3.83732E+06 1.78471E+06 7.32420E+04 2.95398E+06 4.66104E+06 1.75833E+05
 -1      1589 3.83732E+06 1.78471E+06 7.32420E+04 2.95398E+06 4.66104E+06 1.75833E+05
 -1      1590 2.07882E+09 2.41293E+08 3.85927E+05 1.20305E+08-4.43785E+06-2.17375E+07
 -1      1592 2.07882E+09 2.41293E+08 3.85927E+05 1.20305E+08-4.43785E+06-2.17375E+07
 -1      1593 3.83732E+06 1.78471E+06 7.32420E+04-2.95398E+06-4.66104E+06 1.75833E+05
 -1      1595 3.83732E+06 1.78471E+06 7.32420E+04-2.95398E+06-4.66104E+06 1.75833E+05
 -1      1596 2.00033E+09 6.21889E+07-7.84641E+05-4.66137E+07-1.61248E+06-4.47214E+06
 -1      1598 2.00033E+09 6.21889E+07-7.84641E+05-4.66137E+07-1.61248E+06-4.47214E+06
 -1      1599 1.91022E+09-2.71289E+07 2.10891E+05 4.89609E+06 2.31281E+03 1.78665E+06
 -1      1601 1.91022E+09-2.71289E+07 2.10891E+05 4.89609E+06 2.31281E+03 1.78665E+06
 -1      1602 1.84046E+09 7.94040E+06 1.15805E+05-2.87889E+07-1.20505E+05-5.72336E+05
 -1      1604 1.84046E+09 7.94040E+06 1.15805E+05-2.87889E+07-1.20505E+05-5.72336E+05
 -1      1605 1.73709E+09-2.63135E+06-2.40110E+05-2.06894E+07-2.15763E+05-3.00803E+05
 -1      1607 1.73709E+09-2.63135E+06-2.40110E+05-2.06894E+07-2.15763E+05-3.00803E+05
 -1      1608 1.64059E+09 1.27807E+06 1.98650E+05-2.17642E+07-1.72415E+05 4.45866E+04
 -1      1610 1.64059E+09 1.27807E+06 1.98650E+05-2.17642E+07-1.72415E+05 4.45866E+04
 -1      1611 1.54401E+09-7.43858E+05-2.00637E+05-2.16501E+07-3.38379E+05-4.12526E+05
 -1      1613 1.54401E+09-7.43858E+05-2.00637E+05-2.16501E+07-3.38379E+05-4.12526E+05
 -1      1614 1.44754E+09 5.04201E+05 1.33718E+05-2.15285E+07-3.42717E+05-3.08563E+04
 -1      1616 1.44754E+09 5.04201E+05 1.33718E+05-2.15285E+07-3.42717E+05-3.08563E+04
 -1      1617 1.35190E+09-2.37250E+05-1.46124E+05-2.12630E+07-4.66143E+05-3.25101E+05
 -1      1619 1.35190E+09-2.37250E+05-1.46124E+05-2.12630E+07-4.66143E+05-3.25101E+05
 -1      1620 1.25729E+09 2.26337E+05 8.36113E+04-2.10472E+07-5.09615E+05-1.29001E+05
 -1      1622 1.25729E+09 2.26337E+05 8.36113E+04-2.10472E+07-5.09615E+05-1.29001E+05
 -1      1623 1.16384E+09-3.90313E+04-1.09878E+05-2.07104E+07-6.11431E+05-2.71187E+05
 -1      1625 1.16384E+09-3.90313E+04-1.09878E+05-2.07104E+07-6.11431E+05-2.71187E+05
 -1      1626 1.07189E+09 1.46296E+05 4.78802E+04-2.03582E+07-6.75606E+05-1.85764E+05
 -1      1628 1.07189E+09 1.46296E+05 4.78802E+04-2.03582E+07-6.75606E+05-1.85764E+05
 -1      1629 9.81625E+08 4.60045E+04-8.66905E+04-1.99234E+07-7.70697E+05-2.49717E+05
 -1      1631 9.81625E+08 4.60045E+04-8.66905E+04-1.99234E+07-7.70697E+05-2.49717E+05
 -1      1632 8.93376E+08 1.35243E+05 2.18154E+04-1.94402E+07-8.46621E+05-2.15054E+05
 -1      1634 8.93376E+08 1.35243E+05 2.18154E+04-1.94402E+07-8.46621E+05-2.15054E+05
 -1      1635 8.07390E+08 9.53353E+04-7.25125E+04-1.88836E+07-9.40553E+05-2.43022E+05
 -1      1637 8.07390E+08 9.53353E+04-7.25125E+04-1.88836E+07-9.40553E+05-2.43022E+05
 -1      1638 7.23991E+08 1.48373E+05 2.21203E+03-1.82649E+07-1.02378E+06-2.29165E+05
 -1      1640 7.23991E+08 1.48373E+05 2.21203E+03-1.82649E+07-1.02378E+06-2.29165E+05
 -1      1641 6.43468E+08 1.33559E+05-6.45479E+04-1.75729E+07-1.11766E+06-2.40471E+05
 -1      1643 6.43468E+08 1.33559E+05-6.45479E+04-1.75729E+07-1.11766E+06-2.40471E+05
 -1      1644 5.66154E+08 1.70974E+05-1.30953E+04-1.68118E+07-1.20495E+06-2.33977E+05
 -1      1646 5.66154E+08 1.70974E+05-1.30953E+04-1.68118E+07-1.20495E+06-2.33977E+05
 -1      1647 4.92362E+08 1.68475E+05-6.08810E+04-1.59754E+07-1.29769E+06-2.36664E+05
 -1      1649 4.92362E+08 1.68475E+05-6.08810E+04-1.59754E+07-1.29769E+06-2.36664E+05
 -1      1650 4.22433E+08 1.97724E+05-2.55517E+04-1.50659E+07-1.38564E+06-2.31605E+05
 -1      1652 4.22433E+08 1.97724E+05-2.55517E+04-1.50659E+07-1.38564E+06-2.31605E+05
 -1      1653 3.56698E+08 2.02729E+05-6.02026E+04-1.40790E+07-1.47462E+06-2.28585E+05
 -1      1655 3.56698E+08 2.02729E+05-6.02026E+04-1.40790E+07-1.47462E+06-2.28585E+05
 -1      1656 2.95504E+08 2.26077E+05-3.61156E+04-1.30166E+07-1.55888E+06-2.22174E+05
 -1      1658 2.95504E+08 2.26077E+05-3.61156E+04-1.30166E+07-1.55888E+06-2.22174E+05
 -1      1659 2.39194E+08 2.37835E+05-6.16253E+04-1.18751E+07-1.63989E+06-2.13919E+05
 -1      1661 2.39194E+08 2.37835E+05-6.16253E+04-1.18751E+07-1.63989E+06-2.13919E+05
 -1      1662 1.88118E+08 2.53313E+05-4.53928E+04-1.06578E+07-1.71427E+06-2.04379E+05
 -1      1664 1.88118E+08 2.53313E+05-4.53928E+04-1.06578E+07-1.71427E+06-2.04379E+05
 -1      1665 1.42627E+08 2.77219E+05-6.46091E+04-9.35757E+06-1.78112E+06-1.90332E+05
 -1      1667 1.42627E+08 2.77219E+05-6.46091E+04-9.35757E+06-1.78112E+06-1.90332E+05
 -1      1668 1.03064E+08 2.73148E+05-5.36916E+04-7.98604E+06-1.83623E+06-1.74536E+05
 -1      1670 1.03064E+08 2.73148E+05-5.36916E+04-7.98604E+06-1.83623E+06-1.74536E+05
 -1      1671 6.97697E+07 3.19447E+05-6.86522E+04-6.54752E+06-1.88027E+06-1.56866E+05
 -1      1673 6.97697E+07 3.19447E+05-6.86522E+04-6.54752E+06-1.88027E+06-1.56866E+05
 -1      1674 4.31881E+07 3.31390E+05-6.21363E+04-4.91906E+06-1.90257E+06-1.20690E+05
 -1      1676 4.31881E+07 3.31390E+05-6.21363E+04-4.91906E+06-1.90257E+06-1.20690E+05
 -1      1677 2.32938E+07 1.88462E+05-7.17307E+04-3.62765E+06-1.91366E+06-1.26460E+05
 -1      1679 2.32938E+07 1.88462E+05-7.17307E+04-3.62765E+06-1.91366E+06-1.26460E+05
 -1      1680 9.30406E+06 3.57919E+05-6.42806E+04-2.33361E+06-1.90178E+06 6.28085E+03
 -1      1682 9.30406E+06 3.57919E+05-6.42806E+04-2.33361E+06-1.90178E+06 6.28085E+03
 -1      1683 2.07882E+09 2.41293E+08 3.85927E+05-1.20305E+08 4.43785E+06-2.17375E+07
 -1      1685 2.07882E+09 2.41293E+08 3.85927E+05-1.20305E+08 4.43785E+06-2.17375E+07
 -1      1686-2.02591E+09-8.50812E+07 3.26300E+05 6.15517E+07 2.42336E+06-5.05647E+06
 -1      1688-2.02591E+09-8.50812E+07 3.26300E+05 6.15517E+07 2.42336E+06-5.05647E+06
 -1      1689-1.92648E+09 3.20064E+07 7.48660E+04 2.35171E+07-3.46362E+05 3.00873E+06
 -1      1691-1.92648E+09 3.20064E+07 7.48660E+04 2.35171E+07-3.46362E+05 3.00873E+06
 -1      1692-1.83434E+09-4.02278E+06-8.14076E+04 4.58088E+07-1.13991E+05-1.47013E+06
 -1      1694-1.83434E+09-4.02278E+06-8.14076E+04 4.58088E+07-1.13991E+05-1.47013E+06
 -1      1695-1.73845E+09-4.84919E+05 2.84900E+03 4.43962E+07-1.03747E+05 5.89124E+05
 -1      1697-1.73845E+09-4.84919E+05 2.84900E+03 4.43962E+07-1.03747E+05 5.89124E+05
 -1      1698-1.64039E+09 2.91540E+05-2.97489E+04 4.28369E+07-4.93072E+05-3.97218E+05
 -1      1700-1.64039E+09 2.91540E+05-2.97489E+04 4.28369E+07-4.93072E+05-3.97218E+05
 -1      1701-1.54390E+09-5.97524E+04 3.98108E+03 4.35762E+07-3.88483E+05 8.96384E+04
 -1      1703-1.54390E+09-5.97524E+04 3.98108E+03 4.35762E+07-3.88483E+05 8.96384E+04
 -1      1704-1.44729E+09-2.05564E+05-4.62052E+04 4.29272E+07-6.86866E+05-1.62803E+05
 -1      1706-1.44729E+09-2.05564E+05-4.62052E+04 4.29272E+07-6.86866E+05-1.62803E+05
 -1      1707-1.35168E+09-7.83380E+04 1.08168E+04 4.26235E+07-7.19472E+05-2.36539E+04
 -1      1709-1.35168E+09-7.83380E+04 1.08168E+04 4.26235E+07-7.19472E+05-2.36539E+04
 -1      1710-1.25694E+09-2.26391E+05-5.05966E+04 4.20604E+07-9.36753E+05-1.03448E+05
 -1      1712-1.25694E+09-2.26391E+05-5.05966E+04 4.20604E+07-9.36753E+05-1.03448E+05
 -1      1713-1.16347E+09-1.88725E+05 5.85634E+03 4.14640E+07-1.05505E+06-5.43982E+04
 -1      1715-1.16347E+09-1.88725E+05 5.85634E+03 4.14640E+07-1.05505E+06-5.43982E+04
 -1      1716-1.07143E+09-2.74362E+05-4.93342E+04 4.07165E+07-1.24445E+06-8.35294E+04
 -1      1718-1.07143E+09-2.74362E+05-4.93342E+04 4.07165E+07-1.24445E+06-8.35294E+04
 -1      1719-9.81116E+08-2.81617E+05-2.56580E+03 3.98736E+07-1.40626E+06-6.33260E+04
 -1      1721-9.81116E+08-2.81617E+05-2.56580E+03 3.98736E+07-1.40626E+06-6.33260E+04
 -1      1722-8.92780E+08-3.46980E+05-4.77204E+04 3.88924E+07-1.59374E+06-7.42352E+04
 -1      1724-8.92780E+08-3.46980E+05-4.77204E+04 3.88924E+07-1.59374E+06-7.42352E+04
 -1      1725-8.06727E+08-3.72809E+05-1.14046E+04 3.77896E+07-1.77861E+06-6.46475E+04
 -1      1727-8.06727E+08-3.72809E+05-1.14046E+04 3.77896E+07-1.77861E+06-6.46475E+04
 -1      1728-7.23242E+08-4.31755E+05-4.72118E+04 3.65465E+07-1.97270E+06-6.80031E+04
 -1      1730-7.23242E+08-4.31755E+05-4.72118E+04 3.65465E+07-1.97270E+06-6.80031E+04
 -1      1731-6.42643E+08-4.66994E+05-1.98477E+04 3.51673E+07-2.17076E+06-6.24882E+04
 -1      1733-6.42643E+08-4.66994E+05-1.98477E+04 3.51673E+07-2.17076E+06-6.24882E+04
 -1      1734-5.65242E+08-5.23818E+05-4.80439E+04 3.36425E+07-2.37224E+06-6.23658E+04
 -1      1736-5.65242E+08-5.23818E+05-4.80439E+04 3.36425E+07-2.37224E+06-6.23658E+04
 -1      1737-4.91367E+08-5.64701E+05-2.77546E+04 3.19726E+07-2.57753E+06-5.82962E+04
 -1      1739-4.91367E+08-5.64701E+05-2.77546E+04 3.19726E+07-2.57753E+06-5.82962E+04
 -1      1740-4.21349E+08-6.20641E+05-5.01061E+04 3.01519E+07-2.78398E+06-5.63802E+04
 -1      1742-4.21349E+08-6.20641E+05-5.01061E+04 3.01519E+07-2.78398E+06-5.63802E+04
 -1      1743-3.55527E+08-6.65317E+05-3.51662E+04 2.81802E+07-2.99146E+06-5.26609E+04
 -1      1745-3.55527E+08-6.65317E+05-3.51662E+04 2.81802E+07-2.99146E+06-5.26609E+04
 -1      1746-2.94243E+08-7.20439E+05-5.32214E+04 2.60538E+07-3.19900E+06-4.96485E+04
 -1      1748-2.94243E+08-7.20439E+05-5.32214E+04 2.60538E+07-3.19900E+06-4.96485E+04
 -1      1749-2.37844E+08-7.68155E+05-4.21482E+04 2.37731E+07-3.40301E+06-4.59069E+04
 -1      1751-2.37844E+08-7.68155E+05-4.21482E+04 2.37731E+07-3.40301E+06-4.59069E+04
 -1      1752-1.86678E+08-8.20897E+05-5.72372E+04 2.13353E+07-3.60674E+06-4.18879E+04
 -1      1754-1.86678E+08-8.20897E+05-5.72372E+04 2.13353E+07-3.60674E+06-4.18879E+04
 -1      1755-1.41096E+08-8.75246E+05-4.87254E+04 1.87396E+07-3.79989E+06-3.85859E+04
 -1      1757-1.41096E+08-8.75246E+05-4.87254E+04 1.87396E+07-3.79989E+06-3.85859E+04
 -1      1758-1.01444E+08-9.13328E+05-6.21637E+04 1.59939E+07-3.99355E+06-3.20818E+04
 -1      1760-1.01444E+08-9.13328E+05-6.21637E+04 1.59939E+07-3.99355E+06-3.20818E+04
 -1      1761-6.80783E+07-9.81161E+05-5.44739E+04 1.30899E+07-4.16569E+06-3.32637E+04
 -1      1763-6.80783E+07-9.81161E+05-5.44739E+04 1.30899E+07-4.16569E+06-3.32637E+04
 -1      1764-4.13351E+07-1.08269E+06-6.87197E+04 9.97404E+06-4.33805E+06-1.46838E+04
 -1      1766-4.13351E+07-1.08269E+06-6.87197E+04 9.97404E+06-4.33805E+06-1.46838E+04
 -1      1767-2.14723E+07-7.29658E+05-6.03251E+04 7.02485E+06-4.47790E+06-4.42235E+04
 -1      1769-2.14723E+07-7.29658E+05-6.03251E+04 7.02485E+06-4.47790E+06-4.42235E+04
 -1      1770-8.56118E+06-1.07057E+06-6.82103E+04 4.32526E+06-4.58404E+06 3.80733E+04
 -1      1772-8.56118E+06-1.07057E+06-6.82103E+04 4.32526E+06-4.58404E+06 3.80733E+04
 -1      1773-2.02591E+09-8.50812E+07 3.26300E+05-6.15517E+07-2.42336E+06-5.05647E+06
 -1      1775-2.02591E+09-8.50812E+07 3.26300E+05-6.15517E+07-2.42336E+06-5.05647E+06
 -1      1776-1.92648E+09 3.20064E+07 7.48660E+04-2.35171E+07 3.46362E+05 3.00873E+06
 -1      1778-1.92648E+09 3.20064E+07 7.48660E+04-2.35171E+07 3.46362E+05 3.00873E+06
 -1      1779-1.83434E+09-4.02278E+06-8.14076E+04-4.58088E+07 1.13991E+05-1.47013E+06
 -1      1781-1.83434E+09-4.02278E+06-8.14076E+04-4.58088E+07 1.13991E+05-1.47013E+06
 -1      1782-1.73845E+09-4.84919E+05 2.84900E+03-4.43962E+07 1.03747E+05 5.89124E+05
 -1      1784-1.73845E+09-4.84919E+05 2.84900E+03-4.43962E+07 1.03747E+05 5.89124E+05
 -1      1785-1.64039E+09 2.91540E+05-2.97489E+04-4.28369E+07 4.93072E+05-3.97218E+05
 -1      1787-1.64039E+09 2.91540E+05-2.97489E+04-4.28369E+07 4.93072E+05-3.97218E+05
 -1      1788-1.54390E+09-5.97524E+04 3.98108E+03-4.35762E+07 3.88483E+05 8.96384E+04
 -1      1790-1.54390E+09-5.97524E+04 3.98108E+03-4.35762E+07 3.88483E+05 8.96384E+04
 -1      1791-1.44729E+09-2.05564E+05-4.62052E+04-4.29272E+07 6.86866E+05-1.62803E+05
 -1      1793-1.44729E+09-2.05564E+05-4.62052E+04-4.29272E+07 6.86866E+05-1.62803E+05
 -1      1794-1.35168E+09-7.83380E+04 1.08168E+04-4.26235E+07 7.19472E+05-2.36539E+04
 -1      1796-1.35168E+09-7.83380E+04 1.08168E+04-4.26235E+07 7.19472E+05-2.36539E+04
 -1      1797-1.25694E+09-2.26391E+05-5.05966E+04-4.20604E+07 9.36753E+05-1.03448E+05
 -1      1799-1.25694E+09-2.26391E+05-5.05966E+04-4.20604E+07 9.36753E+05-1.03448E+05
 -1      1800-1.16347E+09-1.88725E+05 5.85634E+03-4.14640E+07 1.05505E+06-5.43982E+04
 -1      1802-1.16347E+09-1.88725E+05 5.85634E+03-4.14640E+07 1.05505E+06-5.43982E+04
 -1      1803-1.07143E+09-2.74362E+05-4.93342E+04-4.07165E+07 1.24445E+06-8.35294E+04
 -1      1805-1.07143E+09-2.74362E+05-4.93342E+04-4.07165E+07 1.24445E+06-8.35294E+04
 -1      1806-9.81116E+08-2.81617E+05-2.56580E+03-3.98736E+07 1.40626E+06-6.33260E+04
 -1      1808-9.81116E+08-2.81617E+05-2.56580E+03-3.98736E+07 1.40626E+06-6.33260E+04
 -1      1809-8.92780E+08-3.46980E+05-4.77204E+04-3.88924E+07 1.59374E+06-7.42352E+04
 -1      1811-8.92780E+08-3.46980E+05-4.77204E+04-3.88924E+07 1.59374E+06-7.42352E+04
 -1      1812-8.06727E+08-3.72809E+05-1.14046E+04-3.77896E+07 1.77861E+06-6.46475E+04
 -1      1814-8.06727E+08-3.72809E+05-1.14046E+04-3.77896E+07 1.77861E+06-6.46475E+04
 -1      1815-7.23242E+08-4.31755E+05-4.72118E+04-3.65465E+07 1.97270E+06-6.80031E+04
 -1      1817-7.23242E+08-4.31755E+05-4.72118E+04-3.65465E+07 1.97270E+06-6.80031E+04
 -1      1818-6.42643E+08-4.66994E+05-1.98477E+04-3.51673E+07 2.17076E+06-6.24882E+04
 -1      1820-6.42643E+08-4.66994E+05-1.98477E+04-3.51673E+07 2.17076E+06-6.24882E+04
 -1      1821-5.65242E+08-5.23818E+05-4.80439E+04-3.36425E+07 2.37224E+06-6.23658E+04
 -1      1823-5.65242E+08-5.23818E+05-4.80439E+04-3.36425E+07 2.37224E+06-6.23658E+04
 -1      1824-4.91367E+08-5.64701E+05-2.77546E+04-3.19726E+07 2.57753E+06-5.82962E+04
 -1      1826-4.91367E+08-5.64701E+05-2.77546E+04-3.19726E+07 2.57753E+06-5.82962E+04
 -1      1827-4.21349E+08-6.20641E+05-5.01061E+04-3.01519E+07 2.78398E+06-5.63802E+04
 -1      1829-4.21349E+08-6.20641E+05-5.01061E+04-3.01519E+07 2.78398E+06-5.63802E+04
 -1      1830-3.55527E+08-6.65317E+05-3.51662E+04-2.81802E+07 2.99146E+06-5.26609E+04
 -1      1832-3.55527E+08-6.65317E+05-3.51662E+04-2.81802E+07 2.99146E+06-5.26609E+04
 -1      1833-2.94243E+08-7.20439E+05-5.32214E+04-2.60538E+07 3.19900E+06-4.96485E+04
 -1      1835-2.94243E+08-7.20439E+05-5.32214E+04-2.60538E+07 3.19900E+06-4.96485E+04
 -1      1836-2.37844E+08-7.68155E+05-4.21482E+04-2.37731E+07 3.40301E+06-4.59069E+04
 -1      1838-2.37844E+08-7.68155E+05-4.21482E+04-2.37731E+07 3.40301E+06-4.59069E+04
 -1      1839-1.86678E+08-8.20897E+05-5.72372E+04-2.13353E+07 3.60674E+06-4.18879E+04
 -1      1841-1.86678E+08-8.20897E+05-5.72372E+04-2.13353E+07 3.60674E+06-4.18879E+04
 -1      1842-1.41096E+08-8.75246E+05-4.87254E+04-1.87396E+07 3.79989E+06-3.85859E+04
 -1      1844-1.41096E+08-8.75246E+05-4.87254E+04-1.87396E+07 3.79989E+06-3.85859E+04
 -1      1845-1.01444E+08-9.13328E+05-6.21637E+04-1.59939E+07 3.99355E+06-3.20818E+04
 -1      1847-1.01444E+08-9.13328E+05-6.21637E+04-1.59939E+07 3.99355E+06-3.20818E+04
 -1      1848-6.80783E+07-9.81161E+05-5.44739E+04-1.30899E+07 4.16569E+06-3.32637E+04
 -1      1850-6.80783E+07-9.81161E+05-5.44739E+04-1.30899E+07 4.16569E+06-3.32637E+04
 -1      1851-4.13351E+07-1.08269E+06-6.87197E+04-9.97404E+06 4.33805E+06-1.46838E+04
 -1      1853-4.13351E+07-1.08269E+06-6.87197E+04-9.97404E+06 4.33805E+06-1.46838E+04
 -1      1854-2.14723E+07-7.29658E+05-6.03251E+04-7.02485E+06 4.47790E+06-4.42235E+04
 -1      1856-2.14723E+07-7.29658E+05-6.03251E+04-7.02485E+06 4.47790E+06-4.42235E+04
 -1      1857-8.56118E+06-1.07057E+06-6.82103E+04-4.32526E+06 4.58404E+06 3.80733E+04
 -1      1859-8.56118E+06-1.07057E+06-6.82103E+04-4.32526E+06 4.58404E+06 3.80733E+04
 -1      1860-1.02577E+09 3.83867E+04-1.04607E+08-2.95601E-05 5.66552E-06-3.39798E+08
 -1      1862-1.02577E+09 3.83867E+04-1.04607E+08-2.95601E-05 5.66552E-06-3.39798E+08
 -1      1863-9.84446E+08-4.89095E+04-7.12313E+06 1.91485E-05 5.42822E-06-3.50902E+08
 -1      1865-9.84446E+08-4.89095E+04-7.12313E+06 1.91485E-05 5.42822E-06-3.50902E+08
 -1      1866-9.22808E+08 8.84424E+03 4.42063E+06-1.01752E-05 8.56156E-06-3.43995E+08
 -1      1868-9.22808E+08 8.84424E+03 4.42063E+06-1.01752E-05 8.56156E-06-3.43995E+08
 -1      1869-8.69428E+08 2.91672E+03 1.59907E+06 7.12924E-06 1.01014E-05-3.45949E+08
 -1      1871-8.69428E+08 2.91672E+03 1.59907E+06 7.12924E-06 1.01014E-05-3.45949E+08
 -1      1872-8.20851E+08-2.50544E+04 1.58174E+06-2.57402E-06 1.10422E-05-3.43138E+08
 -1      1874-8.20851E+08-2.50544E+04 1.58174E+06-2.57402E-06 1.10422E-05-3.43138E+08
 -1      1875-7.71352E+08 1.72236E+04 1.43286E+06 9.35318E-06 1.70832E-05-3.41864E+08
 -1      1877-7.71352E+08 1.72236E+04 1.43286E+06 9.35318E-06 1.70832E-05-3.41864E+08
 -1      1878-7.23119E+08-2.60152E+04 1.92272E+06 1.68210E-06 2.54525E-06-3.38924E+08
 -1      1880-7.23119E+08-2.60152E+04 1.92272E+06 1.68210E-06 2.54525E-06-3.38924E+08
 -1      1881-6.75014E+08 1.43578E+04 2.28964E+06-1.68066E-06-2.37978E-05-3.35843E+08
 -1      1883-6.75014E+08 1.43578E+04 2.28964E+06-1.68066E-06-2.37978E-05-3.35843E+08
 -1      1884-6.27534E+08-1.92166E+04 2.81617E+06-1.16286E-05-1.83188E-05-3.31692E+08
 -1      1886-6.27534E+08-1.92166E+04 2.81617E+06-1.16286E-05-1.83188E-05-3.31692E+08
 -1      1887-5.80579E+08 9.07472E+03 3.33672E+06-1.21189E-05-3.22612E-05-3.26899E+08
 -1      1889-5.80579E+08 9.07472E+03 3.33672E+06-1.21189E-05-3.22612E-05-3.26899E+08
 -1      1890-5.34386E+08-1.26050E+04 3.91396E+06-2.01052E-05-4.85318E-05-3.21114E+08
 -1      1892-5.34386E+08-1.26050E+04 3.91396E+06-2.01052E-05-4.85318E-05-3.21114E+08
 -1      1893-4.89010E+08 5.16032E+03 4.51497E+06 1.23307E-05-1.76385E-05-3.14464E+08
 -1      1895-4.89010E+08 5.16032E+03 4.51497E+06 1.23307E-05-1.76385E-05-3.14464E+08
 -1      1896-4.44639E+08-7.69888E+03 5.14769E+06-1.47111E-05-1.94765E-06-3.06787E+08
 -1      1898-4.44639E+08-7.69888E+03 5.14769E+06-1.47111E-05-1.94765E-06-3.06787E+08
 -1      1899-4.01383E+08 2.93005E+03 5.80650E+06-3.46070E-05-3.27738E-05-2.98112E+08
 -1      1901-4.01383E+08 2.93005E+03 5.80650E+06-3.46070E-05-3.27738E-05-2.98112E+08
 -1      1902-3.59415E+08-4.29216E+03 6.48754E+06 1.49225E-05-6.59115E-05-2.88353E+08
 -1      1904-3.59415E+08-4.29216E+03 6.48754E+06 1.49225E-05-6.59115E-05-2.88353E+08
 -1      1905-3.18874E+08 1.93556E+03 7.19059E+06-1.57565E-06-6.34257E-05-2.77506E+08
 -1      1907-3.18874E+08 1.93556E+03 7.19059E+06-1.57565E-06-6.34257E-05-2.77506E+08
 -1      1908-2.79932E+08-1.91628E+03 7.91008E+06-2.38710E-05 1.31269E-05-2.65520E+08
 -1      1910-2.79932E+08-1.91628E+03 7.91008E+06-2.38710E-05 1.31269E-05-2.65520E+08
 -1      1911-2.42744E+08 1.70912E+03 8.64621E+06 2.58864E-05 6.89426E-05-2.52382E+08
 -1      1913-2.42744E+08 1.70912E+03 8.64621E+06 2.58864E-05 6.89426E-05-2.52382E+08
 -1      1914-2.07483E+08-1.91489E+02 9.39415E+06 6.55304E-06 1.43448E-04-2.38060E+08
 -1      1916-2.07483E+08-1.91489E+02 9.39415E+06 6.55304E-06 1.43448E-04-2.38060E+08
 -1      1917-1.74315E+08 1.90972E+03 1.01534E+07-5.31633E-05 2.62729E-04-2.22543E+08
 -1      1919-1.74315E+08 1.90972E+03 1.01534E+07-5.31633E-05 2.62729E-04-2.22543E+08
 -1      1920-1.43414E+08 1.13019E+03 1.09205E+07-8.00563E-06 1.92871E-04-2.05811E+08
 -1      1922-1.43414E+08 1.13019E+03 1.09205E+07-8.00563E-06 1.92871E-04-2.05811E+08
 -1      1923-1.14952E+08 2.31951E+03 1.16940E+07 9.93965E-06-1.87981E-05-1.87855E+08
 -1      1925-1.14952E+08 2.31951E+03 1.16940E+07 9.93965E-06-1.87981E-05-1.87855E+08
 -1      1926-8.91064E+07 2.18601E+03 1.24725E+07-2.52986E-05-6.32319E-05-1.68667E+08
 -1      1928-8.91064E+07 2.18601E+03 1.24725E+07-2.52986E-05-6.32319E-05-1.68667E+08
 -1      1929-6.60523E+07 2.82190E+03 1.32533E+07-2.84424E-05 8.29307E-05-1.48239E+08
 -1      1931-6.60523E+07 2.82190E+03 1.32533E+07-2.84424E-05 8.29307E-05-1.48239E+08
 -1      1932-4.59735E+07 3.01740E+03 1.40421E+07 1.58111E-05 1.41650E-04-1.26574E+08
 -1      1934-4.59735E+07 3.01740E+03 1.40421E+07 1.58111E-05 1.41650E-04-1.26574E+08
 -1      1935-2.90479E+07 3.40067E+03 1.48398E+07-3.34055E-06 2.28414E-04-1.03657E+08
 -1      1937-2.90479E+07 3.40067E+03 1.48398E+07-3.34055E-06 2.28414E-04-1.03657E+08
 -1      1938-1.54989E+07 3.54468E+03 1.57032E+07-4.19503E-05 3.31501E-04-7.95285E+07
 -1      1940-1.54989E+07 3.54468E+03 1.57032E+07-4.19503E-05 3.31501E-04-7.95285E+07
 -1      1941-5.69478E+06 4.41914E+03 1.65149E+07 1.51949E-06 2.10225E-04-5.40968E+07
 -1      1943-5.69478E+06 4.41914E+03 1.65149E+07 1.51949E-06 2.10225E-04-5.40968E+07
 -1      1944-2.39736E+05 2.86175E+03 1.69719E+07 1.07362E-05 3.03465E-04-2.75931E+07
 -1      1946-2.39736E+05 2.86175E+03 1.69719E+07 1.07362E-05 3.03465E-04-2.75931E+07
 -1      1947-5.21541E-05 6.48201E-06-1.09203E-04-8.51917E-05 8.48336E-09-3.33695E+08
 -1      1949-5.21541E-05 6.48201E-06-1.09203E-04-8.51917E-05 8.48336E-09-3.33695E+08
 -1      1950-3.05027E-05 1.75051E-05-7.78958E-05 9.72092E-06-7.54236E-06-3.79506E+08
 -1      1952-3.05027E-05 1.75051E-05-7.78958E-05 9.72092E-06-7.54236E-06-3.79506E+08
 -1      1953-4.75049E-05 2.32011E-05 6.72117E-05-4.54479E-05-1.00296E-05-3.75223E+08
 -1      1955-4.75049E-05 2.32011E-05 6.72117E-05-4.54479E-05-1.00296E-05-3.75223E+08
 -1      1956-8.31485E-05 5.92321E-07 2.34973E-04-1.11977E-05-9.96829E-06-3.71148E+08
 -1      1958-8.31485E-05 5.92321E-07 2.34973E-04-1.11977E-05-9.96829E-06-3.71148E+08
 -1      1959-1.17555E-04-5.72428E-05 2.70866E-04-2.92833E-05 2.50447E-06-3.68102E+08
 -1      1961-1.17555E-04-5.72428E-05 2.70866E-04-2.92833E-05 2.50447E-06-3.68102E+08
 -1      1962-1.38313E-04-1.60046E-04 1.34181E-04-1.46610E-05 1.84948E-05-3.65967E+08
 -1      1964-1.38313E-04-1.60046E-04 1.34181E-04-1.46610E-05 1.84948E-05-3.65967E+08
 -1      1965-1.14694E-04-2.73068E-04-5.43930E-05-3.52730E-05 1.96157E-05-3.62999E+08
 -1      1967-1.14694E-04-2.73068E-04-5.43930E-05-3.52730E-05 1.96157E-05-3.62999E+08
 -1      1968-9.08673E-05-3.21705E-04-9.89996E-05-2.33471E-05 9.59759E-06-3.59531E+08
 -1      1970-9.08673E-05-3.21705E-04-9.89996E-05-2.33471E-05 9.59759E-06-3.59531E+08
 -1      1971-9.43691E-05-1.88559E-04 1.71944E-04-3.43609E-05-1.11929E-05-3.55172E+08
 -1      1973-9.43691E-05-1.88559E-04 1.71944E-04-3.43609E-05-1.11929E-05-3.55172E+08
 -1      1974-6.99610E-05 7.27847E-05 4.88997E-04-4.52542E-05-4.32084E-05-3.49990E+08
 -1      1976-6.99610E-05 7.27847E-05 4.88997E-04-4.52542E-05-4.32084E-05-3.49990E+08
 -1      1977-2.44528E-05 1.46855E-04 4.43270E-04-3.43072E-05-2.70416E-05-3.43831E+08
 -1      1979-2.44528E-05 1.46855E-04 4.43270E-04-3.43072E-05-2.70416E-05-3.43831E+08
 -1      1980 4.06578E-05 1.51994E-04 2.89487E-04 3.48295E-07 4.89693E-05-3.36694E+08
 -1      1982 4.06578E-05 1.51994E-04 2.89487E-04 3.48295E-07 4.89693E-05-3.36694E+08
 -1      1983 4.17680E-05 1.30760E-04 3.23519E-04-4.29723E-05 7.51001E-05-3.28490E+08
 -1      1985 4.17680E-05 1.30760E-04 3.23519E-04-4.29723E-05 7.51001E-05-3.28490E+08
 -1      1986-2.17780E-05-2.90591E-05 4.01493E-04-6.18980E-05 7.39442E-05-3.19197E+08
 -1      1988-2.17780E-05-2.90591E-05 4.01493E-04-6.18980E-05 7.39442E-05-3.19197E+08
 -1      1989-2.79322E-05-3.77148E-05 5.55158E-04-1.45599E-05 1.14507E-04-3.08757E+08
 -1      1991-2.79322E-05-3.77148E-05 5.55158E-04-1.45599E-05 1.14507E-04-3.08757E+08
 -1      1992-3.28571E-06-5.80270E-05 5.86333E-04-3.61942E-05 1.26399E-04-2.97142E+08
 -1      1994-3.28571E-06-5.80270E-05 5.86333E-04-3.61942E-05 1.26399E-04-2.97142E+08
 -1      1995 1.88872E-06-6.80890E-05 3.00717E-04-5.51928E-05 1.57136E-04-2.84314E+08
 -1      1997 1.88872E-06-6.80890E-05 3.00717E-04-5.51928E-05 1.57136E-04-2.84314E+08
 -1      1998 8.00788E-05-9.68948E-05-6.77016E-05 1.90782E-05 1.04331E-04-2.70248E+08
 -1      2000 8.00788E-05-9.68948E-05-6.77016E-05 1.90782E-05 1.04331E-04-2.70248E+08
 -1      2001 1.59550E-04-7.86679E-05-4.87641E-06-1.35091E-05 1.48887E-04-2.54918E+08
 -1      2003 1.59550E-04-7.86679E-05-4.87641E-06-1.35091E-05 1.48887E-04-2.54918E+08
 -1      2004 8.40575E-05 5.93439E-06 6.63780E-04-7.74301E-05 3.20139E-04-2.38306E+08
 -1      2006 8.40575E-05 5.93439E-06 6.63780E-04-7.74301E-05 3.20139E-04-2.38306E+08
 -1      2007-1.83471E-06 5.97127E-05 1.23556E-03-5.42640E-05 3.08335E-04-2.20394E+08
 -1      2009-1.83471E-06 5.97127E-05 1.23556E-03-5.42640E-05 3.08335E-04-2.20394E+08
 -1      2010-7.74227E-05-7.02799E-05 1.29045E-03 2.75700E-05 1.93337E-04-2.01172E+08
 -1      2012-7.74227E-05-7.02799E-05 1.29045E-03 2.75700E-05 1.93337E-04-2.01172E+08
 -1      2013-5.74123E-05-1.30245E-04 1.17646E-03-4.86450E-05 1.03561E-04-1.80629E+08
 -1      2015-5.74123E-05-1.30245E-04 1.17646E-03-4.86450E-05 1.03561E-04-1.80629E+08
 -1      2016 1.34222E-04-4.97366E-05 8.47189E-04-6.78528E-05 1.26066E-04-1.58758E+08
 -1      2018 1.34222E-04-4.97366E-05 8.47189E-04-6.78528E-05 1.26066E-04-1.58758E+08
 -1      2019 2.72371E-04 2.55072E-05 2.67138E-04 2.23939E-05 1.53125E-04-1.35555E+08
 -1      2021 2.72371E-04 2.55072E-05 2.67138E-04 2.23939E-05 1.53125E-04-1.35555E+08
 -1      2022 3.03885E-04 1.51268E-04-2.36489E-04-2.63513E-05 1.11284E-04-1.11002E+08
 -1      2024 3.03885E-04 1.51268E-04-2.36489E-04-2.63513E-05 1.11284E-04-1.11002E+08
 -1      2025 2.87345E-04 8.55728E-05-4.38934E-04-3.74620E-05 1.72093E-04-8.50534E+07
 -1      2027 2.87345E-04 8.55728E-05-4.38934E-04-3.74620E-05 1.72093E-04-8.50534E+07
 -1      2028 1.95785E-04 6.69535E-05-2.41756E-04 3.00089E-05 4.16484E-05-5.76249E+07
 -1      2030 1.95785E-04 6.69535E-05-2.41756E-04 3.00089E-05 4.16484E-05-5.76249E+07
 -1      2031 5.92968E-05-3.24057E-05 2.03328E-04 4.57224E-05 1.02282E-05-2.89770E+07
 -1      2033 5.92968E-05-3.24057E-05 2.03328E-04 4.57224E-05 1.02282E-05-2.89770E+07
 -1      2034 1.02577E+09-3.83867E+04 1.04607E+08-3.33451E-05 9.25288E-06-3.39798E+08
 -1      2036 1.02577E+09-3.83867E+04 1.04607E+08-3.33451E-05 9.25288E-06-3.39798E+08
 -1      2037 9.84446E+08 4.89095E+04 7.12313E+06 2.18129E-05 2.31560E-05-3.50902E+08
 -1      2039 9.84446E+08 4.89095E+04 7.12313E+06 2.18129E-05 2.31560E-05-3.50902E+08
 -1      2040 9.22808E+08-8.84424E+03-4.42063E+06-1.24256E-05 2.77801E-05-3.43995E+08
 -1      2042 9.22808E+08-8.84424E+03-4.42063E+06-1.24256E-05 2.77801E-05-3.43995E+08
 -1      2043 8.69428E+08-2.91672E+03-1.59907E+06 8.89002E-06 2.78664E-05-3.45949E+08
 -1      2045 8.69428E+08-2.91672E+03-1.59907E+06 8.89002E-06 2.78664E-05-3.45949E+08
 -1      2046 8.20851E+08 2.50544E+04-1.58174E+06 3.84841E-07 2.80312E-05-3.43138E+08
 -1      2048 8.20851E+08 2.50544E+04-1.58174E+06 3.84841E-07 2.80312E-05-3.43138E+08
 -1      2049 7.71352E+08-1.72236E+04-1.43286E+06 1.13641E-05 3.43871E-05-3.41864E+08
 -1      2051 7.71352E+08-1.72236E+04-1.43286E+06 1.13641E-05 3.43871E-05-3.41864E+08
 -1      2052 7.23119E+08 2.60152E+04-1.92272E+06-1.29653E-06 4.08657E-05-3.38924E+08
 -1      2054 7.23119E+08 2.60152E+04-1.92272E+06-1.29653E-06 4.08657E-05-3.38924E+08
 -1      2055 6.75014E+08-1.43578E+04-2.28964E+06 7.05647E-06 4.01637E-05-3.35843E+08
 -1      2057 6.75014E+08-1.43578E+04-2.28964E+06 7.05647E-06 4.01637E-05-3.35843E+08
 -1      2058 6.27534E+08 1.92166E+04-2.81617E+06 3.95917E-06 2.91092E-05-3.31692E+08
 -1      2060 6.27534E+08 1.92166E+04-2.81617E+06 3.95917E-06 2.91092E-05-3.31692E+08
 -1      2061 5.80579E+08-9.07472E+03-3.33672E+06-7.91503E-06 5.72002E-05-3.26899E+08
 -1      2063 5.80579E+08-9.07472E+03-3.33672E+06-7.91503E-06 5.72002E-05-3.26899E+08
 -1      2064 5.34386E+08 1.26050E+04-3.91396E+06 1.19290E-05 8.22628E-05-3.21114E+08
 -1      2066 5.34386E+08 1.26050E+04-3.91396E+06 1.19290E-05 8.22628E-05-3.21114E+08
 -1      2067 4.89010E+08-5.16032E+03-4.51497E+06 1.87723E-05 6.61485E-05-3.14464E+08
 -1      2069 4.89010E+08-5.16032E+03-4.51497E+06 1.87723E-05 6.61485E-05-3.14464E+08
 -1      2070 4.44639E+08 7.69888E+03-5.14769E+06 3.19401E-06 8.33109E-05-3.06787E+08
 -1      2072 4.44639E+08 7.69888E+03-5.14769E+06 3.19401E-06 8.33109E-05-3.06787E+08
 -1      2073 4.01383E+08-2.93005E+03-5.80650E+06-9.44413E-06 1.06866E-04-2.98112E+08
 -1      2075 4.01383E+08-2.93005E+03-5.80650E+06-9.44413E-06 1.06866E-04-2.98112E+08
 -1      2076 3.59415E+08 4.29216E+03-6.48754E+06 8.47423E-07 1.22395E-04-2.88353E+08
 -1      2078 3.59415E+08 4.29216E+03-6.48754E+06 8.47423E-07 1.22395E-04-2.88353E+08
 -1      2079 3.18874E+08-1.93556E+03-7.19059E+06-9.36326E-06 1.62269E-04-2.77506E+08
 -1      2081 3.18874E+08-1.93556E+03-7.19059E+06-9.36326E-06 1.62269E-04-2.77506E+08
 -1      2082 2.79932E+08 1.91628E+03-7.91008E+06-1.94779E-05 1.52044E-04-2.65520E+08
 -1      2084 2.79932E+08 1.91628E+03-7.91008E+06-1.94779E-05 1.52044E-04-2.65520E+08
 -1      2085 2.42744E+08-1.70912E+03-8.64621E+06 2.02510E-05 6.46342E-05-2.52382E+08
 -1      2087 2.42744E+08-1.70912E+03-8.64621E+06 2.02510E-05 6.46342E-05-2.52382E+08
 -1      2088 2.07483E+08 1.91488E+02-9.39415E+06 8.08293E-06 1.88560E-04-2.38060E+08
 -1      2090 2.07483E+08 1.91488E+02-9.39415E+06 8.08293E-06 1.88560E-04-2.38060E+08
 -1      2091 1.74315E+08-1.90972E+03-1.01534E+07 2.35392E-07 2.99832E-04-2.22543E+08
 -1      2093 1.74315E+08-1.90972E+03-1.01534E+07 2.35392E-07 2.99832E-04-2.22543E+08
 -1      2094 1.43414E+08-1.13019E+03-1.09205E+07-1.73427E-05 3.25343E-04-2.05811E+08
 -1      2096 1.43414E+08-1.13019E+03-1.09205E+07-1.73427E-05 3.25343E-04-2.05811E+08
 -1      2097 1.14952E+08-2.31951E+03-1.16940E+07 5.58635E-05 2.92584E-04-1.87855E+08
 -1      2099 1.14952E+08-2.31951E+03-1.16940E+07 5.58635E-05 2.92584E-04-1.87855E+08
 -1      2100 8.91064E+07-2.18601E+03-1.24725E+07-1.38363E-05 9.29407E-05-1.68667E+08
 -1      2102 8.91064E+07-2.18601E+03-1.24725E+07-1.38363E-05 9.29407E-05-1.68667E+08
 -1      2103 6.60523E+07-2.82190E+03-1.32533E+07-3.42262E-05 2.39784E-05-1.48239E+08
 -1      2105 6.60523E+07-2.82190E+03-1.32533E+07-3.42262E-05 2.39784E-05-1.48239E+08
 -1      2106 4.59735E+07-3.01740E+03-1.40421E+07 3.58488E-05 4.51216E-05-1.26574E+08
 -1      2108 4.59735E+07-3.01740E+03-1.40421E+07 3.58488E-05 4.51216E-05-1.26574E+08
 -1      2109 2.90479E+07-3.40067E+03-1.48398E+07-6.72269E-06 6.45616E-05-1.03657E+08
 -1      2111 2.90479E+07-3.40067E+03-1.48398E+07-6.72269E-06 6.45616E-05-1.03657E+08
 -1      2112 1.54989E+07-3.54468E+03-1.57032E+07-7.31618E-06 4.20778E-06-7.95285E+07
 -1      2114 1.54989E+07-3.54468E+03-1.57032E+07-7.31618E-06 4.20778E-06-7.95285E+07
 -1      2115 5.69478E+06-4.41914E+03-1.65149E+07 1.56341E-05-9.61743E-05-5.40968E+07
 -1      2117 5.69478E+06-4.41914E+03-1.65149E+07 1.56341E-05-9.61743E-05-5.40968E+07
 -1      2118 2.39736E+05-2.86175E+03-1.69719E+07 2.90315E-05-9.75011E-05-2.75931E+07
 -1      2120 2.39736E+05-2.86175E+03-1.69719E+07 2.90315E-05-9.75011E-05-2.75931E+07
 -1      2121 2.02591E+09 8.50812E+07-3.26300E+05 6.15517E+07-2.42336E+06-5.05647E+06
 -1      2123 2.02591E+09 8.50812E+07-3.26300E+05 6.15517E+07-2.42336E+06-5.05647E+06
 -1      2124 1.92648E+09-3.20064E+07-7.48660E+04 2.35171E+07 3.46362E+05 3.00873E+06
 -1      2126 1.92648E+09-3.20064E+07-7.48660E+04 2.35171E+07 3.46362E+05 3.00873E+06
 -1      2127 1.83434E+09 4.02278E+06 8.14076E+04 4.58088E+07 1.13991E+05-1.47013E+06
 -1      2129 1.83434E+09 4.02278E+06 8.14076E+04 4.58088E+07 1.13991E+05-1.47013E+06
 -1      2130 1.73845E+09 4.84919E+05-2.84900E+03 4.43962E+07 1.03747E+05 5.89124E+05
 -1      2132 1.73845E+09 4.84919E+05-2.84900E+03 4.43962E+07 1.03747E+05 5.89124E+05
 -1      2133 1.64039E+09-2.91540E+05 2.97489E+04 4.28369E+07 4.93072E+05-3.97218E+05
 -1      2135 1.64039E+09-2.91540E+05 2.97489E+04 4.28369E+07 4.93072E+05-3.97218E+05
 -1      2136 1.54390E+09 5.97524E+04-3.98108E+03 4.35762E+07 3.88483E+05 8.96384E+04
 -1      2138 1.54390E+09 5.97524E+04-3.98108E+03 4.35762E+07 3.88483E+05 8.96384E+04
 -1      2139 1.44729E+09 2.05564E+05 4.62052E+04 4.29272E+07 6.86866E+05-1.62803E+05
 -1      2141 1.44729E+09 2.05564E+05 4.62052E+04 4.29272E+07 6.86866E+05-1.62803E+05
 -1      2142 1.35168E+09 7.83380E+04-1.08168E+04 4.26235E+07 7.19472E+05-2.36539E+04
 -1      2144 1.35168E+09 7.83380E+04-1.08168E+04 4.26235E+07 7.19472E+05-2.36539E+04
 -1      2145 1.25694E+09 2.26391E+05 5.05966E+04 4.20604E+07 9.36753E+05-1.03448E+05
 -1      2147 1.25694E+09 2.26391E+05 5.05966E+04 4.20604E+07 9.36753E+05-1.03448E+05
 -1      2148 1.16347E+09 1.88725E+05-5.85634E+03 4.14640E+07 1.05505E+06-5.43982E+04
 -1      2150 1.16347E+09 1.88725E+05-5.85634E+03 4.14640E+07 1.05505E+06-5.43982E+04
 -1      2151 1.07143E+09 2.74362E+05 4.93342E+04 4.07165E+07 1.24445E+06-8.35294E+04
 -1      2153 1.07143E+09 2.74362E+05 4.93342E+04 4.07165E+07 1.24445E+06-8.35294E+04
 -1      2154 9.81116E+08 2.81617E+05 2.56580E+03 3.98736E+07 1.40626E+06-6.33260E+04
 -1      2156 9.81116E+08 2.81617E+05 2.56580E+03 3.98736E+07 1.40626E+06-6.33260E+04
 -1      2157 8.92780E+08 3.46980E+05 4.77204E+04 3.88924E+07 1.59374E+06-7.42352E+04
 -1      2159 8.92780E+08 3.46980E+05 4.77204E+04 3.88924E+07 1.59374E+06-7.42352E+04
 -1      2160 8.06727E+08 3.72809E+05 1.14046E+04 3.77896E+07 1.77861E+06-6.46475E+04
 -1      2162 8.06727E+08 3.72809E+05 1.14046E+04 3.77896E+07 1.77861E+06-6.46475E+04
 -1      2163 7.23242E+08 4.31755E+05 4.72118E+04 3.65465E+07 1.97270E+06-6.80031E+04
 -1      2165 7.23242E+08 4.31755E+05 4.72118E+04 3.65465E+07 1.97270E+06-6.80031E+04
 -1      2166 6.42643E+08 4.66994E+05 1.98477E+04 3.51673E+07 2.17076E+06-6.24882E+04
 -1      2168 6.42643E+08 4.66994E+05 1.98477E+04 3.51673E+07 2.17076E+06-6.24882E+04
 -1      2169 5.65242E+08 5.23818E+05 4.80439E+04 3.36425E+07 2.37224E+06-6.23658E+04
 -1      2171 5.65242E+08 5.23818E+05 4.80439E+04 3.36425E+07 2.37224E+06-6.23658E+04
 -1      2172 4.91367E+08 5.64701E+05 2.77546E+04 3.19726E+07 2.57753E+06-5.82962E+04
 -1      2174 4.91367E+08 5.64701E+05 2.77546E+04 3.19726E+07 2.57753E+06-5.82962E+04
 -1      2175 4.21349E+08 6.20641E+05 5.01061E+04 3.01519E+07 2.78398E+06-5.63802E+04
 -1      2177 4.21349E+08 6.20641E+05 5.01061E+04 3.01519E+07 2.78398E+06-5.63802E+04
 -1      2178 3.55527E+08 6.65317E+05 3.51662E+04 2.81802E+07 2.99146E+06-5.26609E+04
 -1      2180 3.55527E+08 6.65317E+05 3.51662E+04 2.81802E+07 2.99146E+06-5.26609E+04
 -1      2181 2.94243E+08 7.20439E+05 5.32214E+04 2.60538E+07 3.19900E+06-4.96485E+04
 -1      2183 2.94243E+08 7.20439E+05 5.32214E+04 2.60538E+07 3.19900E+06-4.96485E+04
 -1      2184 2.37844E+08 7.68155E+05 4.21482E+04 2.37731E+07 3.40301E+06-4.59069E+04
 -1      2186 2.37844E+08 7.68155E+05 4.21482E+04 2.37731E+07 3.40301E+06-4.59069E+04
 -1      2187 1.86678E+08 8.20897E+05 5.72372E+04 2.13353E+07 3.60674E+06-4.18879E+04
 -1      2189 1.86678E+08 8.20897E+05 5.72372E+04 2.13353E+07 3.60674E+06-4.18879E+04
 -1      2190 1.41096E+08 8.75246E+05 4.87254E+04 1.87396E+07 3.79989E+06-3.85859E+04
 -1      2192 1.41096E+08 8.75246E+05 4.87254E+04 1.87396E+07 3.79989E+06-3.85859E+04
 -1      2193 1.01444E+08 9.13328E+05 6.21637E+04 1.59939E+07 3.99355E+06-3.20818E+04
 -1      2195 1.01444E+08 9.13328E+05 6.21637E+04 1.59939E+07 3.99355E+06-3.20818E+04
 -1      2196 6.80783E+07 9.81161E+05 5.44739E+04 1.30899E+07 4.16569E+06-3.32637E+04
 -1      2198 6.80783E+07 9.81161E+05 5.44739E+04 1.30899E+07 4.16569E+06-3.32637E+04
 -1      2199 4.13351E+07 1.08269E+06 6.87197E+04 9.97404E+06 4.33805E+06-1.46838E+04
 -1      2201 4.13351E+07 1.08269E+06 6.87197E+04 9.97404E+06 4.33805E+06-1.46838E+04
 -1      2202 2.14723E+07 7.29658E+05 6.03251E+04 7.02485E+06 4.47790E+06-4.42235E+04
 -1      2204 2.14723E+07 7.29658E+05 6.03251E+04 7.02485E+06 4.47790E+06-4.42235E+04
 -1      2205 8.56118E+06 1.07057E+06 6.82103E+04 4.32526E+06 4.58404E+06 3.80733E+04
 -1      2207 8.56118E+06 1.07057E+06 6.82103E+04 4.32526E+06 4.58404E+06 3.80733E+04
 -1      2208 2.02591E+09 8.50812E+07-3.26300E+05-6.15517E+07 2.42336E+06-5.05647E+06
 -1      2210 2.02591E+09 8.50812E+07-3.26300E+05-6.15517E+07 2.42336E+06-5.05647E+06
 -1      2211 1.92648E+09-3.20064E+07-7.48660E+04-2.35171E+07-3.46362E+05 3.00873E+06
 -1      2213 1.92648E+09-3.20064E+07-7.48660E+04-2.35171E+07-3.46362E+05 3.00873E+06
 -1      2214 1.83434E+09 4.02278E+06 8.14076E+04-4.58088E+07-1.13991E+05-1.47013E+06
 -1      2216 1.83434E+09 4.02278E+06 8.14076E+04-4.58088E+07-1.13991E+05-1.47013E+06
 -1      2217 1.73845E+09 4.84919E+05-2.84900E+03-4.43962E+07-1.03747E+05 5.89124E+05
 -1      2219 1.73845E+09 4.84919E+05-2.84900E+03-4.43962E+07-1.03747E+05 5.89124E+05
 -1      2220 1.64039E+09-2.91540E+05 2.97489E+04-4.28369E+07-4.93072E+05-3.97218E+05
 -1      2222 1.64039E+09-2.91540E+05 2.97489E+04-4.28369E+07-4.93072E+05-3.97218E+05
 -1      2223 1.54390E+09 5.97524E+04-3.98108E+03-4.35762E+07-3.88483E+05 8.96384E+04
 -1      2225 1.54390E+09 5.97524E+04-3.98108E+03-4.35762E+07-3.88483E+05 8.96384E+04
 -1      2226 1.44729E+09 2.05564E+05 4.62052E+04-4.29272E+07-6.86866E+05-1.62803E+05
 -1      2228 1.44729E+09 2.05564E+05 4.62052E+04-4.29272E+07-6.86866E+05-1.62803E+05
 -1      2229 1.35168E+09 7.83380E+04-1.08168E+04-4.26235E+07-7.19472E+05-2.36539E+04
 -1      2231 1.35168E+09 7.83380E+04-1.08168E+04-4.26235E+07-7.19472E+05-2.36539E+04
 -1      2232 1.25694E+09 2.26391E+05 5.05966E+04-4.20604E+07-9.36753E+05-1.03448E+05
 -1      2234 1.25694E+09 2.26391E+05 5.05966E+04-4.20604E+07-9.36753E+05-1.03448E+05
 -1      2235 1.16347E+09 1.88725E+05-5.85634E+03-4.14640E+07-1.05505E+06-5.43982E+04
 -1      2237 1.16347E+09 1.88725E+05-5.85634E+03-4.14640E+07-1.05505E+06-5.43982E+04
 -1      2238 1.07143E+09 2.74362E+05 4.93342E+04-4.07165E+07-1.24445E+06-8.35294E+04
 -1      2240 1.07143E+09 2.74362E+05 4.93342E+04-4.07165E+07-1.24445E+06-8.35294E+04
 -1      2241 9.81116E+08 2.81617E+05 2.56580E+03-3.98736E+07-1.40626E+06-6.33260E+04
 -1      2243 9.81116E+08 2.81617E+05 2.56580E+03-3.98736E+07-1.40626E+06-6.33260E+04
 -1      2244 8.92780E+08 3.46980E+05 4.77204E+04-3.88924E+07-1.59374E+06-7.42352E+04
 -1      2246 8.92780E+08 3.46980E+05 4.77204E+04-3.88924E+07-1.59374E+06-7.42352E+04
 -1      2247 8.06727E+08 3.72809E+05 1.14046E+04-3.77896E+07-1.77861E+06-6.46475E+04
 -1      2249 8.06727E+08 3.72809E+05 1.14046E+04-3.77896E+07-1.77861E+06-6.46475E+04
 -1      2250 7.23242E+08 4.31755E+05 4.72118E+04-3.65465E+07-1.97270E+06-6.80031E+04
 -1      2252 7.23242E+08 4.31755E+05 4.72118E+04-3.65465E+07-1.97270E+06-6.80031E+04
 -1      2253 6.42643E+08 4.66994E+05 1.98477E+04-3.51673E+07-2.17076E+06-6.24882E+04
 -1      2255 6.42643E+08 4.66994E+05 1.98477E+04-3.51673E+07-2.17076E+06-6.24882E+04
 -1      2256 5.65242E+08 5.23818E+05 4.80439E+04-3.36425E+07-2.37224E+06-6.23658E+04
 -1      2258 5.65242E+08 5.23818E+05 4.80439E+04-3.36425E+07-2.37224E+06-6.23658E+04
 -1      2259 4.91367E+08 5.64701E+05 2.77546E+04-3.19726E+07-2.57753E+06-5.82962E+04
 -1      2261 4.91367E+08 5.64701E+05 2.77546E+04-3.19726E+07-2.57753E+06-5.82962E+04
 -1      2262 4.21349E+08 6.20641E+05 5.01061E+04-3.01519E+07-2.78398E+06-5.63802E+04
 -1      2264 4.21349E+08 6.20641E+05 5.01061E+04-3.01519E+07-2.78398E+06-5.63802E+04
 -1      2265 3.55527E+08 6.65317E+05 3.51662E+04-2.81802E+07-2.99146E+06-5.26609E+04
 -1      2267 3.55527E+08 6.65317E+05 3.51662E+04-2.81802E+07-2.99146E+06-5.26609E+04
 -1      2268 2.94243E+08 7.20439E+05 5.32214E+04-2.60538E+07-3.19900E+06-4.96485E+04
 -1      2270 2.94243E+08 7.20439E+05 5.32214E+04-2.60538E+07-3.19900E+06-4.96485E+04
 -1      2271 2.37844E+08 7.68155E+05 4.21482E+04-2.37731E+07-3.40301E+06-4.59069E+04
 -1      2273 2.37844E+08 7.68155E+05 4.21482E+04-2.37731E+07-3.40301E+06-4.59069E+04
 -1      2274 1.86678E+08 8.20897E+05 5.72372E+04-2.13353E+07-3.60674E+06-4.18879E+04
 -1      2276 1.86678E+08 8.20897E+05 5.72372E+04-2.13353E+07-3.60674E+06-4.18879E+04
 -1      2277 1.41096E+08 8.75246E+05 4.87254E+04-1.87396E+07-3.79989E+06-3.85859E+04
 -1      2279 1.41096E+08 8.75246E+05 4.87254E+04-1.87396E+07-3.79989E+06-3.85859E+04
 -1      2280 1.01444E+08 9.13328E+05 6.21637E+04-1.59939E+07-3.99355E+06-3.20818E+04
 -1      2282 1.01444E+08 9.13328E+05 6.21637E+04-1.59939E+07-3.99355E+06-3.20818E+04
 -1      2283 6.80783E+07 9.81161E+05 5.44739E+04-1.30899E+07-4.16569E+06-3.32637E+04
 -1      2285 6.80783E+07 9.81161E+05 5.44739E+04-1.30899E+07-4.16569E+06-3.32637E+04
 -1      2286 4.13351E+07 1.08269E+06 6.87197E+04-9.97404E+06-4.33805E+06-1.46838E+04
 -1      2288 4.13351E+07 1.08269E+06 6.87197E+04-9.97404E+06-4.33805E+06-1.46838E+04
 -1      2289 2.14723E+07 7.29658E+05 6.03251E+04-7.02485E+06-4.47790E+06-4.42235E+04
 -1      2291 2.14723E+07 7.29658E+05 6.03251E+04-7.02485E+06-4.47790E+06-4.42235E+04
 -1      2292 8.56118E+06 1.07057E+06 6.82103E+04-4.32526E+06-4.58404E+06 3.80733E+04
 -1      2294 8.56118E+06 1.07057E+06 6.82103E+04-4.32526E+06-4.58404E+06 3.80733E+04
 -3
    1PSTEP                         7           1           1          
    1PGM                1.000000E+00                                  
    1PGK                1.080057E+05                                  
    1PHID                         -1                                  
    1PSUBC                         0                                  
    1PMODE                         2                                  
  100CL  102 52.30502350         930                     2    2MODAL      1
 -4  FORC        4    1
 -5  F1          1    2    1    0
 -5  F2          1    2    2    0
 -5  F3          1    2    3    0
 -5  ALL         1    2    0    0    1ALL
 -1       404 3.88376E+05-9.77474E+04-7.38246E+02
 -1       406 3.43477E+05-1.03133E+05-7.38246E+02
 -1       407-7.65251E+01-2.03397E-03-8.79784E+02
 -1       409-7.65251E+01-2.03420E-03-8.79784E+02
 -1       410-4.20316E+03-3.79615E-06 6.19531E+03
 -1       412-4.20316E+03 4.00280E-06 4.77322E+03
 -1       413 3.96881E+03-1.11617E+03-8.47363E+03
 -1       415 3.96881E+03 1.11617E+03-8.47363E+03
 -1       424 6.62345E+05 3.98244E-08 6.03101E+03
 -1       426 4.77291E+05-1.35818E-08 1.16141E+04
 -1       427 5.01470E+05 4.38208E+03 1.65634E+05
 -1       429 5.01470E+05-4.38208E+03 1.65634E+05
 -1       438-7.65251E+01 2.03421E-03-8.79784E+02
 -1       440-7.65251E+01 2.03395E-03-8.79784E+02
 -1       441 3.88376E+05 9.77474E+04-7.38246E+02
 -1       443 3.43477E+05 1.03133E+05-7.38246E+02
 -1       444-5.01470E+05-4.38208E+03 1.65634E+05
 -1       446-5.01470E+05 4.38208E+03 1.65634E+05
 -1       447-6.62345E+05 1.02473E-07 6.03101E+03
 -1       449-4.77291E+05 6.34308E-08 1.16141E+04
 -1       458-3.96881E+03 1.11617E+03-8.47363E+03
 -1       460-3.96881E+03-1.11617E+03-8.47363E+03
 -1       461 4.20316E+03-9.26975E-07 6.19531E+03
 -1       463 4.20316E+03 1.44552E-06 4.77322E+03
 -1       472-3.88376E+05-9.77474E+04-7.38246E+02
 -1       474-3.43477E+05-1.03133E+05-7.38246E+02
 -1       475 7.65251E+01-2.03411E-03-8.79784E+02
 -1       477 7.65251E+01-2.03420E-03-8.79784E+02
 -1       478 7.65251E+01 2.03403E-03-8.79784E+02
 -1       480 7.65251E+01 2.03396E-03-8.79784E+02
 -1       481-3.88376E+05 9.77474E+04-7.38246E+02
 -1       483-3.43477E+05 1.03133E+05-7.38246E+02
 -1       484-1.22494E+01 2.14217E+00-1.10443E+01
 -1       486-1.22494E+01 2.14217E+00-1.10443E+01
 -1       487-2.42069E+01 2.53779E+00-2.68694E+01
 -1       489-2.42069E+01 2.53779E+00-2.68694E+01
 -1       490-3.57234E+01 2.26397E+00-4.80264E+01
 -1       492-3.57234E+01 2.26397E+00-4.80264E+01
 -1       493-4.66869E+01 2.15295E+00-7.45699E+01
 -1       495-4.66869E+01 2.15295E+00-7.45699E+01
 -1       496-5.70437E+01 2.04010E+00-1.06510E+02
 -1       498-5.70437E+01 2.04010E+00-1.06510E+02
 -1       499-6.68067E+01 1.91570E+00-1.43430E+02
 -1       501-6.68067E+01 1.91570E+00-1.43430E+02
 -1       502-7.59787E+01 1.79654E+00-1.85078E+02
 -1       504-7.59787E+01 1.79654E+00-1.85078E+02
 -1       505-8.45611E+01 1.67754E+00-2.31126E+02
 -1       507-8.45611E+01 1.67754E+00-2.31126E+02
 -1       508-9.25606E+01 1.55969E+00-2.81278E+02
 -1       510-9.25606E+01 1.55969E+00-2.81278E+02
 -1       511-9.99833E+01 1.44345E+00-3.35229E+02
 -1       513-9.99833E+01 1.44345E+00-3.35229E+02
 -1       514-1.06838E+02 1.32893E+00-3.92680E+02
 -1       516-1.06838E+02 1.32893E+00-3.92680E+02
 -1       517-1.13133E+02 1.21657E+00-4.53332E+02
 -1       519-1.13133E+02 1.21657E+00-4.53332E+02
 -1       520-1.18882E+02 1.10664E+00-5.16892E+02
 -1       522-1.18882E+02 1.10664E+00-5.16892E+02
 -1       523-1.24096E+02 9.99542E-01-5.83071E+02
 -1       525-1.24096E+02 9.99542E-01-5.83071E+02
 -1       526-1.28791E+02 8.95622E-01-6.51588E+02
 -1       528-1.28791E+02 8.95622E-01-6.51588E+02
 -1       529-1.32983E+02 7.95280E-01-7.22167E+02
 -1       531-1.32983E+02 7.95279E-01-7.22167E+02
 -1       532-1.36691E+02 6.98899E-01-7.94540E+02
 -1       534-1.36691E+02 6.98899E-01-7.94540E+02
 -1       535-1.39936E+02 6.06893E-01-8.68449E+02
 -1       537-1.39936E+02 6.06893E-01-8.68449E+02
 -1       538-1.42741E+02 5.19671E-01-9.43647E+02
 -1       540-1.42741E+02 5.19671E-01-9.43647E+02
 -1       541-1.45129E+02 4.37656E-01-1.01990E+03
 -1       543-1.45129E+02 4.37656E-01-1.01990E+03
 -1       544-1.47128E+02 3.61272E-01-1.09697E+03
 -1       546-1.47128E+02 3.61272E-01-1.09697E+03
 -1       547-1.48767E+02 2.90951E-01-1.17466E+03
 -1       549-1.48767E+02 2.90951E-01-1.17466E+03
 -1       550-1.50077E+02 2.27131E-01-1.25276E+03
 -1       552-1.50077E+02 2.27131E-01-1.25276E+03
 -1       553-1.51091E+02 1.70221E-01-1.33110E+03
 -1       555-1.51091E+02 1.70221E-01-1.33110E+03
 -1       556-1.51844E+02 1.20752E-01-1.40950E+03
 -1       558-1.51844E+02 1.20752E-01-1.40950E+03
 -1       559-1.52373E+02 7.89757E-02-1.48782E+03
 -1       561-1.52373E+02 7.89758E-02-1.48782E+03
 -1       562-1.52719E+02 4.51796E-02-1.56592E+03
 -1       564-1.52719E+02 4.51794E-02-1.56592E+03
 -1       565-1.52922E+02 2.22706E-02-1.64369E+03
 -1       567-1.52922E+02 2.22705E-02-1.64369E+03
 -1       568-1.53022E+02 5.04834E-03-1.72102E+03
 -1       570-1.53022E+02 5.04805E-03-1.72102E+03
 -1       571-1.53065E+02-3.22451E-03-1.75553E+03
 -1       573-1.53065E+02-3.22494E-03-1.75553E+03
 -1       574-1.28485E+05 4.63273E-07-4.04738E+04
 -1       576-1.28485E+05 4.15588E-07-4.04625E+04
 -1       577 1.28447E+05 8.84492E+00 4.04306E+04
 -1       579 1.28447E+05-8.84492E+00 4.04306E+04
 -1       588-1.12911E+05-1.84501E-07 2.02025E+04
 -1       590-1.12911E+05 2.26714E-07 2.19932E+04
 -1       591 1.12836E+05 1.40548E+03-2.11879E+04
 -1       593 1.12836E+05-1.40548E+03-2.11879E+04
 -1       602-1.10629E+05-2.81831E-07-9.89309E+03
 -1       604-1.10629E+05 4.36448E-07-9.63750E+03
 -1       605 1.10518E+05 2.00601E+02 9.60409E+03
 -1       607 1.10518E+05-2.00601E+02 9.60409E+03
 -1       616-1.21890E+05-4.59248E-07 6.80812E+03
 -1       618-1.21890E+05 6.01224E-07 4.18269E+03
 -1       619 1.21746E+05-2.06065E+03-5.74655E+03
 -1       621 1.21746E+05 2.06065E+03-5.74655E+03
 -1       630-1.15764E+05-5.77259E-07-2.60728E+03
 -1       632-1.15764E+05 7.78752E-07-1.42179E+03
 -1       633 1.15588E+05 9.30470E+02 1.65516E+03
 -1       635 1.15588E+05-9.30470E+02 1.65516E+03
 -1       644-1.17975E+05-6.14923E-07 3.24229E+03
 -1       646-1.17975E+05 8.87332E-07 1.41313E+03
 -1       647 1.17769E+05-1.43568E+03-2.81236E+03
 -1       649 1.17769E+05 1.43568E+03-2.81236E+03
 -1       658-1.15936E+05-5.78954E-07 2.20394E+02
 -1       660-1.15936E+05 8.53629E-07 2.84344E+02
 -1       661 1.15702E+05 5.01934E+01-8.78367E+02
 -1       663 1.15702E+05-5.01934E+01-8.78367E+02
 -1       672-1.15426E+05-6.18829E-07 2.48277E+03
 -1       674-1.15426E+05 9.32725E-07 1.31977E+03
 -1       675 1.15166E+05-9.12818E+02-2.68361E+03
 -1       677 1.15166E+05 9.12818E+02-2.68361E+03
 -1       686-1.13717E+05-6.54536E-07 1.60677E+03
 -1       688-1.13717E+05 1.17925E-06 1.11425E+03
 -1       689 1.13432E+05-3.86574E+02-2.31316E+03
 -1       691 1.13432E+05 3.86574E+02-2.31316E+03
 -1       700-1.12259E+05-7.75631E-07 2.70644E+03
 -1       702-1.12259E+05 1.14395E-06 1.71687E+03
 -1       703 1.11952E+05-7.76695E+02-3.34754E+03
 -1       705 1.11952E+05 7.76695E+02-3.34754E+03
 -1       714-1.10172E+05-1.25793E-06 2.60765E+03
 -1       716-1.10172E+05 1.02298E-06 1.82775E+03
 -1       717 1.09843E+05-6.12136E+02-3.54872E+03
 -1       719 1.09843E+05 6.12136E+02-3.54872E+03
 -1       728-1.07967E+05-9.80138E-07 3.30554E+03
 -1       730-1.07967E+05 1.25888E-06 2.29273E+03
 -1       731 1.07620E+05-7.94939E+02-4.33618E+03
 -1       733 1.07620E+05 7.94939E+02-4.33618E+03
 -1       742-1.05295E+05-7.54374E-07 3.52957E+03
 -1       744-1.05295E+05 1.56986E-06 2.54499E+03
 -1       745 1.04930E+05-7.72780E+02-4.79023E+03
 -1       747 1.04930E+05 7.72780E+02-4.79023E+03
 -1       756-1.02355E+05-1.32217E-06 4.08587E+03
 -1       758-1.02355E+05 7.75681E-07 2.96698E+03
 -1       759 1.01974E+05-8.78195E+02-5.50419E+03
 -1       761 1.01974E+05 8.78195E+02-5.50419E+03
 -1       770-9.89937E+04-1.64477E-06 4.45980E+03
 -1       772-9.89937E+04 9.44088E-07 3.29127E+03
 -1       773 9.85985E+04-9.17159E+02-6.08605E+03
 -1       775 9.85985E+04 9.17159E+02-6.08605E+03
 -1       784-9.52909E+04-1.48168E-06 4.97122E+03
 -1       786-9.52909E+04 1.79154E-06 3.70485E+03
 -1       787 9.48828E+04-9.93949E+02-6.78832E+03
 -1       789 9.48828E+04 9.93949E+02-6.78832E+03
 -1       798-9.11757E+04-2.20670E-06 5.42117E+03
 -1       800-9.11757E+04 1.27576E-06 4.06865E+03
 -1       801 9.07564E+04-1.06158E+03-7.44108E+03
 -1       803 9.07564E+04 1.06158E+03-7.44108E+03
 -1       812-8.66795E+04-2.38684E-06 5.92373E+03
 -1       814-8.66795E+04 1.43392E-06 4.48564E+03
 -1       815 8.62502E+04-1.12874E+03-8.15195E+03
 -1       817 8.62502E+04 1.12874E+03-8.15195E+03
 -1       826-8.17671E+04-1.42834E-06 6.41502E+03
 -1       828-8.17671E+04 2.84607E-06 4.87163E+03
 -1       829 8.13293E+04-1.21138E+03-8.84609E+03
 -1       831 8.13293E+04 1.21138E+03-8.84609E+03
 -1       840-7.64517E+04-2.41935E-06 6.92033E+03
 -1       842-7.64517E+04 3.06852E-06 5.29470E+03
 -1       843 7.60067E+04-1.27593E+03-9.56936E+03
 -1       845 7.60067E+04 1.27593E+03-9.56936E+03
 -1       854-7.07130E+04-4.12071E-06 7.43511E+03
 -1       856-7.07130E+04 2.94205E-06 5.69194E+03
 -1       857 7.02619E+04-1.36819E+03-1.02873E+04
 -1       859 7.02619E+04 1.36819E+03-1.02873E+04
 -1       868-6.45613E+04-3.11466E-06 7.94481E+03
 -1       870-6.45613E+04 3.16945E-06 6.12097E+03
 -1       871 6.41052E+04-1.43150E+03-1.10207E+04
 -1       873 6.41052E+04 1.43150E+03-1.10207E+04
 -1       882-5.79779E+04-3.12638E-06 8.47237E+03
 -1       884-5.79779E+04 3.32689E-06 6.52006E+03
 -1       885 5.75179E+04-1.53234E+03-1.17495E+04
 -1       887 5.75179E+04 1.53234E+03-1.17495E+04
 -1       896-5.09800E+04-4.96487E-06 8.98648E+03
 -1       898-5.09800E+04 3.77943E-06 6.95742E+03
 -1       899 5.05170E+04-1.59257E+03-1.24916E+04
 -1       901 5.05170E+04 1.59257E+03-1.24916E+04
 -1       910-4.35541E+04-4.88973E-06 9.51399E+03
 -1       912-4.35541E+04 4.25971E-06 7.34125E+03
 -1       913 4.30888E+04-1.70534E+03-1.32139E+04
 -1       915 4.30888E+04 1.70534E+03-1.32139E+04
 -1       924-3.56997E+04-5.19036E-06 1.00438E+04
 -1       926-3.56997E+04 6.20057E-06 7.81582E+03
 -1       927 3.52329E+04-1.74869E+03-1.39826E+04
 -1       929 3.52329E+04 1.74869E+03-1.39826E+04
 -1       938-2.74554E+04-6.20276E-06 1.05319E+04
 -1       940-2.74554E+04 5.79874E-06 8.10231E+03
 -1       941 2.69875E+04-1.90693E+03-1.46357E+04
 -1       943 2.69875E+04 1.90693E+03-1.46357E+04
 -1       952-1.89773E+04-7.07530E-06 1.11873E+04
 -1       954-1.89773E+04 6.78815E-06 8.77483E+03
 -1       955 1.85089E+04-1.89352E+03-1.55646E+04
 -1       957 1.85089E+04 1.89352E+03-1.55646E+04
 -1       966-1.05608E+04-7.29691E-06 1.12291E+04
 -1       968-1.05608E+04 9.00278E-06 8.72149E+03
 -1       969 1.00921E+04-1.96818E+03-1.58225E+04
 -1       971 1.00921E+04 1.96818E+03-1.58225E+04
 -1       980 6.80759E+05-6.98738E+04 9.53251E+03
 -1       982 5.43333E+05-4.72304E+04 9.53251E+03
 -1       983-1.53065E+02 3.22471E-03-1.75553E+03
 -1       985-1.53065E+02 3.22453E-03-1.75553E+03
 -1       986-1.22494E+01-2.14217E+00-1.10443E+01
 -1       988-1.22494E+01-2.14217E+00-1.10443E+01
 -1       989-2.42069E+01-2.53779E+00-2.68694E+01
 -1       991-2.42069E+01-2.53779E+00-2.68694E+01
 -1       992-3.57234E+01-2.26397E+00-4.80264E+01
 -1       994-3.57234E+01-2.26397E+00-4.80264E+01
 -1       995-4.66869E+01-2.15295E+00-7.45699E+01
 -1       997-4.66869E+01-2.15295E+00-7.45699E+01
 -1       998-5.70437E+01-2.04010E+00-1.06510E+02
 -1      1000-5.70437E+01-2.04010E+00-1.06510E+02
 -1      1001-6.68067E+01-1.91570E+00-1.43430E+02
 -1      1003-6.68067E+01-1.91570E+00-1.43430E+02
 -1      1004-7.59787E+01-1.79654E+00-1.85078E+02
 -1      1006-7.59787E+01-1.79654E+00-1.85078E+02
 -1      1007-8.45611E+01-1.67754E+00-2.31126E+02
 -1      1009-8.45611E+01-1.67754E+00-2.31126E+02
 -1      1010-9.25606E+01-1.55969E+00-2.81278E+02
 -1      1012-9.25606E+01-1.55969E+00-2.81278E+02
 -1      1013-9.99833E+01-1.44345E+00-3.35229E+02
 -1      1015-9.99833E+01-1.44345E+00-3.35229E+02
 -1      1016-1.06838E+02-1.32893E+00-3.92680E+02
 -1      1018-1.06838E+02-1.32893E+00-3.92680E+02
 -1      1019-1.13133E+02-1.21657E+00-4.53332E+02
 -1      1021-1.13133E+02-1.21657E+00-4.53332E+02
 -1      1022-1.18882E+02-1.10664E+00-5.16892E+02
 -1      1024-1.18882E+02-1.10664E+00-5.16892E+02
 -1      1025-1.24096E+02-9.99542E-01-5.83071E+02
 -1      1027-1.24096E+02-9.99542E-01-5.83071E+02
 -1      1028-1.28791E+02-8.95622E-01-6.51588E+02
 -1      1030-1.28791E+02-8.95622E-01-6.51588E+02
 -1      1031-1.32983E+02-7.95279E-01-7.22167E+02
 -1      1033-1.32983E+02-7.95280E-01-7.22167E+02
 -1      1034-1.36691E+02-6.98899E-01-7.94540E+02
 -1      1036-1.36691E+02-6.98899E-01-7.94540E+02
 -1      1037-1.39936E+02-6.06893E-01-8.68449E+02
 -1      1039-1.39936E+02-6.06893E-01-8.68449E+02
 -1      1040-1.42741E+02-5.19671E-01-9.43647E+02
 -1      1042-1.42741E+02-5.19671E-01-9.43647E+02
 -1      1043-1.45129E+02-4.37656E-01-1.01990E+03
 -1      1045-1.45129E+02-4.37656E-01-1.01990E+03
 -1      1046-1.47128E+02-3.61272E-01-1.09697E+03
 -1      1048-1.47128E+02-3.61272E-01-1.09697E+03
 -1      1049-1.48767E+02-2.90950E-01-1.17466E+03
 -1      1051-1.48767E+02-2.90951E-01-1.17466E+03
 -1      1052-1.50077E+02-2.27131E-01-1.25276E+03
 -1      1054-1.50077E+02-2.27131E-01-1.25276E+03
 -1      1055-1.51091E+02-1.70221E-01-1.33110E+03
 -1      1057-1.51091E+02-1.70221E-01-1.33110E+03
 -1      1058-1.51844E+02-1.20753E-01-1.40950E+03
 -1      1060-1.51844E+02-1.20752E-01-1.40950E+03
 -1      1061-1.52373E+02-7.89761E-02-1.48782E+03
 -1      1063-1.52373E+02-7.89758E-02-1.48782E+03
 -1      1064-1.52719E+02-4.51797E-02-1.56592E+03
 -1      1066-1.52719E+02-4.51795E-02-1.56592E+03
 -1      1067-1.52922E+02-2.22703E-02-1.64369E+03
 -1      1069-1.52922E+02-2.22706E-02-1.64369E+03
 -1      1070-1.53022E+02-5.04777E-03-1.72102E+03
 -1      1072-1.53022E+02-5.04824E-03-1.72102E+03
 -1      1073 6.80759E+05 6.98738E+04 9.53251E+03
 -1      1075 5.43333E+05 4.72304E+04 9.53251E+03
 -1      1076 4.18464E+05 6.58846E-07 7.38938E+04
 -1      1078 4.18464E+05 7.71554E-07 7.38938E+04
 -1      1079 1.86610E-06 7.99216E-07 6.50084E+04
 -1      1081-1.77800E-06 8.49234E-07 6.50084E+04
 -1      1082-4.18464E+05 5.55211E-07 7.38938E+04
 -1      1084-4.18464E+05 5.84669E-07 7.38938E+04
 -1      1085-1.28447E+05-8.84492E+00 4.04306E+04
 -1      1087-1.28447E+05 8.84492E+00 4.04306E+04
 -1      1088 1.28485E+05 2.03826E-07-4.04738E+04
 -1      1090 1.28485E+05-7.25508E-08-4.04625E+04
 -1      1099-1.12836E+05-1.40548E+03-2.11879E+04
 -1      1101-1.12836E+05 1.40548E+03-2.11879E+04
 -1      1102 1.12911E+05-1.20678E-07 2.02025E+04
 -1      1104 1.12911E+05-3.74374E-07 2.19932E+04
 -1      1113-1.10518E+05-2.00601E+02 9.60409E+03
 -1      1115-1.10518E+05 2.00601E+02 9.60409E+03
 -1      1116 1.10629E+05-1.62299E-08-9.89309E+03
 -1      1118 1.10629E+05-1.97980E-07-9.63750E+03
 -1      1127-1.21746E+05 2.06065E+03-5.74655E+03
 -1      1129-1.21746E+05-2.06065E+03-5.74655E+03
 -1      1130 1.21890E+05-1.59640E-07 6.80812E+03
 -1      1132 1.21890E+05-5.34164E-08 4.18269E+03
 -1      1141-1.15588E+05-9.30470E+02 1.65516E+03
 -1      1143-1.15588E+05 9.30470E+02 1.65516E+03
 -1      1144 1.15764E+05-2.02924E-07-2.60728E+03
 -1      1146 1.15764E+05 2.30809E-07-1.42179E+03
 -1      1155-1.17769E+05 1.43568E+03-2.81236E+03
 -1      1157-1.17769E+05-1.43568E+03-2.81236E+03
 -1      1158 1.17975E+05-2.67700E-07 3.24229E+03
 -1      1160 1.17975E+05 3.81590E-07 1.41313E+03
 -1      1169-1.15702E+05-5.01934E+01-8.78367E+02
 -1      1171-1.15702E+05 5.01934E+01-8.78367E+02
 -1      1172 1.15936E+05-2.59524E-07 2.20394E+02
 -1      1174 1.15936E+05 4.84564E-07 2.84344E+02
 -1      1183-1.15166E+05 9.12818E+02-2.68361E+03
 -1      1185-1.15166E+05-9.12818E+02-2.68361E+03
 -1      1186 1.15426E+05-1.73326E-07 2.48277E+03
 -1      1188 1.15426E+05 4.30034E-07 1.31977E+03
 -1      1197-1.13432E+05 3.86574E+02-2.31316E+03
 -1      1199-1.13432E+05-3.86574E+02-2.31316E+03
 -1      1200 1.13717E+05 1.45883E-09 1.60677E+03
 -1      1202 1.13717E+05 4.24564E-07 1.11425E+03
 -1      1211-1.11952E+05 7.76695E+02-3.34754E+03
 -1      1213-1.11952E+05-7.76695E+02-3.34754E+03
 -1      1214 1.12259E+05-8.60037E-08 2.70644E+03
 -1      1216 1.12259E+05-8.24573E-08 1.71687E+03
 -1      1225-1.09843E+05 6.12136E+02-3.54872E+03
 -1      1227-1.09843E+05-6.12136E+02-3.54872E+03
 -1      1228 1.10172E+05-3.44536E-07 2.60765E+03
 -1      1230 1.10172E+05-1.75294E-07 1.82775E+03
 -1      1239-1.07620E+05 7.94939E+02-4.33618E+03
 -1      1241-1.07620E+05-7.94939E+02-4.33618E+03
 -1      1242 1.07967E+05-3.10035E-07 3.30554E+03
 -1      1244 1.07967E+05 6.00439E-07 2.29273E+03
 -1      1253-1.04930E+05 7.72780E+02-4.79023E+03
 -1      1255-1.04930E+05-7.72780E+02-4.79023E+03
 -1      1256 1.05295E+05-2.37012E-07 3.52957E+03
 -1      1258 1.05295E+05 8.35637E-07 2.54499E+03
 -1      1267-1.01974E+05 8.78195E+02-5.50419E+03
 -1      1269-1.01974E+05-8.78195E+02-5.50419E+03
 -1      1270 1.02355E+05-5.23416E-07 4.08587E+03
 -1      1272 1.02355E+05 5.31763E-07 2.96698E+03
 -1      1281-9.85985E+04 9.17159E+02-6.08605E+03
 -1      1283-9.85985E+04-9.17159E+02-6.08605E+03
 -1      1284 9.89937E+04-5.13178E-07 4.45980E+03
 -1      1286 9.89937E+04 7.44513E-07 3.29127E+03
 -1      1295-9.48828E+04 9.93949E+02-6.78832E+03
 -1      1297-9.48828E+04-9.93949E+02-6.78832E+03
 -1      1298 9.52909E+04-4.05617E-07 4.97122E+03
 -1      1300 9.52909E+04 7.16978E-07 3.70485E+03
 -1      1309-9.07564E+04 1.06158E+03-7.44108E+03
 -1      1311-9.07564E+04-1.06158E+03-7.44108E+03
 -1      1312 9.11757E+04-1.09826E-06 5.42117E+03
 -1      1314 9.11757E+04 3.58193E-07 4.06865E+03
 -1      1323-8.62502E+04 1.12874E+03-8.15195E+03
 -1      1325-8.62502E+04-1.12874E+03-8.15195E+03
 -1      1326 8.66795E+04-8.73143E-07 5.92373E+03
 -1      1328 8.66795E+04 6.15921E-07 4.48564E+03
 -1      1337-8.13293E+04 1.21138E+03-8.84609E+03
 -1      1339-8.13293E+04-1.21138E+03-8.84609E+03
 -1      1340 8.17671E+04-1.16785E-07 6.41502E+03
 -1      1342 8.17671E+04 1.25538E-06 4.87163E+03
 -1      1351-7.60067E+04 1.27593E+03-9.56936E+03
 -1      1353-7.60067E+04-1.27593E+03-9.56936E+03
 -1      1354 7.64517E+04-7.69514E-08 6.92033E+03
 -1      1356 7.64517E+04 8.16975E-07 5.29470E+03
 -1      1365-7.02619E+04 1.36819E+03-1.02873E+04
 -1      1367-7.02619E+04-1.36819E+03-1.02873E+04
 -1      1368 7.07130E+04-1.22083E-06 7.43511E+03
 -1      1370 7.07130E+04-1.50394E-07 5.69194E+03
 -1      1379-6.41052E+04 1.43150E+03-1.10207E+04
 -1      1381-6.41052E+04-1.43150E+03-1.10207E+04
 -1      1382 6.45613E+04-6.37041E-07 7.94481E+03
 -1      1384 6.45613E+04 4.78986E-07 6.12097E+03
 -1      1393-5.75179E+04 1.53234E+03-1.17495E+04
 -1      1395-5.75179E+04-1.53234E+03-1.17495E+04
 -1      1396 5.79779E+04 5.38682E-08 8.47237E+03
 -1      1398 5.79779E+04 1.69809E-06 6.52006E+03
 -1      1407-5.05170E+04 1.59257E+03-1.24916E+04
 -1      1409-5.05170E+04-1.59257E+03-1.24916E+04
 -1      1410 5.09800E+04-2.08652E-06 8.98648E+03
 -1      1412 5.09800E+04 1.45221E-06 6.95742E+03
 -1      1421-4.30888E+04 1.70534E+03-1.32139E+04
 -1      1423-4.30888E+04-1.70534E+03-1.32139E+04
 -1      1424 4.35541E+04-2.53761E-06 9.51399E+03
 -1      1426 4.35541E+04 1.16795E-06 7.34125E+03
 -1      1435-3.52329E+04 1.74869E+03-1.39826E+04
 -1      1437-3.52329E+04-1.74869E+03-1.39826E+04
 -1      1438 3.56997E+04-2.18553E-06 1.00438E+04
 -1      1440 3.56997E+04 1.91539E-06 7.81582E+03
 -1      1449-2.69875E+04 1.90693E+03-1.46357E+04
 -1      1451-2.69875E+04-1.90693E+03-1.46357E+04
 -1      1452 2.74554E+04-3.38143E-06 1.05319E+04
 -1      1454 2.74554E+04 2.14807E-06 8.10231E+03
 -1      1463-1.85089E+04 1.89352E+03-1.55646E+04
 -1      1465-1.85089E+04-1.89352E+03-1.55646E+04
 -1      1466 1.89773E+04-4.28172E-06 1.11873E+04
 -1      1468 1.89773E+04 3.44719E-06 8.77483E+03
 -1      1477-1.00921E+04 1.96818E+03-1.58225E+04
 -1      1479-1.00921E+04-1.96818E+03-1.58225E+04
 -1      1480 1.05608E+04-2.39755E-06 1.12291E+04
 -1      1482 1.05608E+04 4.50673E-06 8.72149E+03
 -1      1491-1.08364E+02 8.58042E-07-2.47567E+03
 -1      1493-1.08364E+02-1.28564E-06-2.47567E+03
 -1      1494-1.97956E-08 1.00764E-06-2.47560E+03
 -1      1496 1.02887E-08-1.37071E-07-2.47560E+03
 -1      1497 1.08364E+02 5.49353E-07-2.47567E+03
 -1      1499 1.08364E+02-3.01415E-07-2.47567E+03
 -1      1500 1.22494E+01 2.14217E+00-1.10443E+01
 -1      1502 1.22494E+01 2.14217E+00-1.10443E+01
 -1      1503 2.42069E+01 2.53779E+00-2.68694E+01
 -1      1505 2.42069E+01 2.53779E+00-2.68694E+01
 -1      1506 3.57234E+01 2.26397E+00-4.80264E+01
 -1      1508 3.57234E+01 2.26397E+00-4.80264E+01
 -1      1509 4.66869E+01 2.15295E+00-7.45699E+01
 -1      1511 4.66869E+01 2.15295E+00-7.45699E+01
 -1      1512 5.70437E+01 2.04010E+00-1.06510E+02
 -1      1514 5.70437E+01 2.04010E+00-1.06510E+02
 -1      1515 6.68067E+01 1.91570E+00-1.43430E+02
 -1      1517 6.68067E+01 1.91570E+00-1.43430E+02
 -1      1518 7.59787E+01 1.79654E+00-1.85078E+02
 -1      1520 7.59787E+01 1.79654E+00-1.85078E+02
 -1      1521 8.45611E+01 1.67754E+00-2.31126E+02
 -1      1523 8.45611E+01 1.67754E+00-2.31126E+02
 -1      1524 9.25606E+01 1.55969E+00-2.81278E+02
 -1      1526 9.25606E+01 1.55969E+00-2.81278E+02
 -1      1527 9.99833E+01 1.44345E+00-3.35229E+02
 -1      1529 9.99833E+01 1.44345E+00-3.35229E+02
 -1      1530 1.06838E+02 1.32893E+00-3.92680E+02
 -1      1532 1.06838E+02 1.32893E+00-3.92680E+02
 -1      1533 1.13133E+02 1.21657E+00-4.53332E+02
 -1      1535 1.13133E+02 1.21657E+00-4.53332E+02
 -1      1536 1.18882E+02 1.10664E+00-5.16892E+02
 -1      1538 1.18882E+02 1.10664E+00-5.16892E+02
 -1      1539 1.24096E+02 9.99542E-01-5.83071E+02
 -1      1541 1.24096E+02 9.99542E-01-5.83071E+02
 -1      1542 1.28791E+02 8.95622E-01-6.51588E+02
 -1      1544 1.28791E+02 8.95622E-01-6.51588E+02
 -1      1545 1.32983E+02 7.95279E-01-7.22167E+02
 -1      1547 1.32983E+02 7.95279E-01-7.22167E+02
 -1      1548 1.36691E+02 6.98899E-01-7.94540E+02
 -1      1550 1.36691E+02 6.98899E-01-7.94540E+02
 -1      1551 1.39936E+02 6.06893E-01-8.68449E+02
 -1      1553 1.39936E+02 6.06894E-01-8.68449E+02
 -1      1554 1.42741E+02 5.19671E-01-9.43647E+02
 -1      1556 1.42741E+02 5.19671E-01-9.43647E+02
 -1      1557 1.45129E+02 4.37656E-01-1.01990E+03
 -1      1559 1.45129E+02 4.37656E-01-1.01990E+03
 -1      1560 1.47128E+02 3.61272E-01-1.09697E+03
 -1      1562 1.47128E+02 3.61272E-01-1.09697E+03
 -1      1563 1.48767E+02 2.90951E-01-1.17466E+03
 -1      1565 1.48767E+02 2.90951E-01-1.17466E+03
 -1      1566 1.50077E+02 2.27130E-01-1.25276E+03
 -1      1568 1.50077E+02 2.27131E-01-1.25276E+03
 -1      1569 1.51091E+02 1.70221E-01-1.33110E+03
 -1      1571 1.51091E+02 1.70221E-01-1.33110E+03
 -1      1572 1.51844E+02 1.20752E-01-1.40950E+03
 -1      1574 1.51844E+02 1.20753E-01-1.40950E+03
 -1      1575 1.52373E+02 7.89757E-02-1.48782E+03
 -1      1577 1.52373E+02 7.89761E-02-1.48782E+03
 -1      1578 1.52719E+02 4.51797E-02-1.56592E+03
 -1      1580 1.52719E+02 4.51799E-02-1.56592E+03
 -1      1581 1.52922E+02 2.22704E-02-1.64369E+03
 -1      1583 1.52922E+02 2.22705E-02-1.64369E+03
 -1      1584 1.53022E+02 5.04835E-03-1.72102E+03
 -1      1586 1.53022E+02 5.04784E-03-1.72102E+03
 -1      1587 1.53065E+02-3.22457E-03-1.75553E+03
 -1      1589 1.53065E+02-3.22469E-03-1.75553E+03
 -1      1590-6.80759E+05-6.98738E+04 9.53251E+03
 -1      1592-5.43333E+05-4.72304E+04 9.53251E+03
 -1      1593 1.53065E+02 3.22469E-03-1.75553E+03
 -1      1595 1.53065E+02 3.22463E-03-1.75553E+03
 -1      1596 1.22494E+01-2.14217E+00-1.10443E+01
 -1      1598 1.22494E+01-2.14217E+00-1.10443E+01
 -1      1599 2.42069E+01-2.53779E+00-2.68694E+01
 -1      1601 2.42069E+01-2.53779E+00-2.68694E+01
 -1      1602 3.57234E+01-2.26397E+00-4.80264E+01
 -1      1604 3.57234E+01-2.26397E+00-4.80264E+01
 -1      1605 4.66869E+01-2.15295E+00-7.45699E+01
 -1      1607 4.66869E+01-2.15295E+00-7.45699E+01
 -1      1608 5.70437E+01-2.04010E+00-1.06510E+02
 -1      1610 5.70437E+01-2.04010E+00-1.06510E+02
 -1      1611 6.68067E+01-1.91570E+00-1.43430E+02
 -1      1613 6.68067E+01-1.91570E+00-1.43430E+02
 -1      1614 7.59787E+01-1.79654E+00-1.85078E+02
 -1      1616 7.59787E+01-1.79654E+00-1.85078E+02
 -1      1617 8.45611E+01-1.67754E+00-2.31126E+02
 -1      1619 8.45611E+01-1.67754E+00-2.31126E+02
 -1      1620 9.25606E+01-1.55969E+00-2.81278E+02
 -1      1622 9.25606E+01-1.55969E+00-2.81278E+02
 -1      1623 9.99833E+01-1.44345E+00-3.35229E+02
 -1      1625 9.99833E+01-1.44345E+00-3.35229E+02
 -1      1626 1.06838E+02-1.32893E+00-3.92680E+02
 -1      1628 1.06838E+02-1.32893E+00-3.92680E+02
 -1      1629 1.13133E+02-1.21657E+00-4.53332E+02
 -1      1631 1.13133E+02-1.21657E+00-4.53332E+02
 -1      1632 1.18882E+02-1.10664E+00-5.16892E+02
 -1      1634 1.18882E+02-1.10664E+00-5.16892E+02
 -1      1635 1.24096E+02-9.99542E-01-5.83071E+02
 -1      1637 1.24096E+02-9.99542E-01-5.83071E+02
 -1      1638 1.28791E+02-8.95622E-01-6.51588E+02
 -1      1640 1.28791E+02-8.95622E-01-6.51588E+02
 -1      1641 1.32983E+02-7.95279E-01-7.22167E+02
 -1      1643 1.32983E+02-7.95279E-01-7.22167E+02
 -1      1644 1.36691E+02-6.98899E-01-7.94540E+02
 -1      1646 1.36691E+02-6.98899E-01-7.94540E+02
 -1      1647 1.39936E+02-6.06893E-01-8.68449E+02
 -1      1649 1.39936E+02-6.06893E-01-8.68449E+02
 -1      1650 1.42741E+02-5.19671E-01-9.43647E+02
 -1      1652 1.42741E+02-5.19671E-01-9.43647E+02
 -1      1653 1.45129E+02-4.37656E-01-1.01990E+03
 -1      1655 1.45129E+02-4.37656E-01-1.01990E+03
 -1      1656 1.47128E+02-3.61272E-01-1.09697E+03
 -1      1658 1.47128E+02-3.61272E-01-1.09697E+03
 -1      1659 1.48767E+02-2.90951E-01-1.17466E+03
 -1      1661 1.48767E+02-2.90951E-01-1.17466E+03
 -1      1662 1.50077E+02-2.27131E-01-1.25276E+03
 -1      1664 1.50077E+02-2.27131E-01-1.25276E+03
 -1      1665 1.51091E+02-1.70221E-01-1.33110E+03
 -1      1667 1.51091E+02-1.70221E-01-1.33110E+03
 -1      1668 1.51844E+02-1.20753E-01-1.40950E+03
 -1      1670 1.51844E+02-1.20752E-01-1.40950E+03
 -1      1671 1.52373E+02-7.89762E-02-1.48782E+03
 -1      1673 1.52373E+02-7.89761E-02-1.48782E+03
 -1      1674 1.52719E+02-4.51797E-02-1.56592E+03
 -1      1676 1.52719E+02-4.51798E-02-1.56592E+03
 -1      1677 1.52922E+02-2.22705E-02-1.64369E+03
 -1      1679 1.52922E+02-2.22708E-02-1.64369E+03
 -1      1680 1.53022E+02-5.04825E-03-1.72102E+03
 -1      1682 1.53022E+02-5.04847E-03-1.72102E+03
 -1      1683-6.80759E+05 6.98738E+04 9.53251E+03
 -1      1685-5.43333E+05 4.72304E+04 9.53251E+03
 -1      1686-2.45686E+01 2.84236E+00-2.23638E+01
 -1      1688-2.45686E+01 2.84236E+00-2.23638E+01
 -1      1689-4.87068E+01 3.39261E+00-5.37742E+01
 -1      1691-4.87068E+01 3.39261E+00-5.37742E+01
 -1      1692-7.18186E+01 3.02053E+00-9.57895E+01
 -1      1694-7.18186E+01 3.02053E+00-9.57895E+01
 -1      1695-9.37176E+01 2.86817E+00-1.48658E+02
 -1      1697-9.37176E+01 2.86817E+00-1.48658E+02
 -1      1698-1.14435E+02 2.72147E+00-2.12292E+02
 -1      1700-1.14435E+02 2.72147E+00-2.12292E+02
 -1      1701-1.33961E+02 2.55355E+00-2.85889E+02
 -1      1703-1.33961E+02 2.55355E+00-2.85889E+02
 -1      1704-1.52302E+02 2.39557E+00-3.68927E+02
 -1      1706-1.52302E+02 2.39557E+00-3.68927E+02
 -1      1707-1.69464E+02 2.23641E+00-4.60755E+02
 -1      1709-1.69464E+02 2.23641E+00-4.60755E+02
 -1      1710-1.85458E+02 2.07948E+00-5.60780E+02
 -1      1712-1.85458E+02 2.07948E+00-5.60780E+02
 -1      1713-2.00299E+02 1.92432E+00-6.68389E+02
 -1      1715-2.00299E+02 1.92432E+00-6.68389E+02
 -1      1716-2.14002E+02 1.77166E+00-7.82984E+02
 -1      1718-2.14002E+02 1.77166E+00-7.82984E+02
 -1      1719-2.26586E+02 1.62176E+00-9.03969E+02
 -1      1721-2.26586E+02 1.62176E+00-9.03969E+02
 -1      1722-2.38075E+02 1.47517E+00-1.03076E+03
 -1      1724-2.38075E+02 1.47517E+00-1.03076E+03
 -1      1725-2.48495E+02 1.33231E+00-1.16278E+03
 -1      1727-2.48495E+02 1.33231E+00-1.16278E+03
 -1      1728-2.57874E+02 1.19371E+00-1.29946E+03
 -1      1730-2.57874E+02 1.19371E+00-1.29946E+03
 -1      1731-2.66248E+02 1.05986E+00-1.44027E+03
 -1      1733-2.66248E+02 1.05986E+00-1.44027E+03
 -1      1734-2.73652E+02 9.31306E-01-1.58465E+03
 -1      1736-2.73652E+02 9.31306E-01-1.58465E+03
 -1      1737-2.80129E+02 8.08577E-01-1.73210E+03
 -1      1739-2.80129E+02 8.08577E-01-1.73210E+03
 -1      1740-2.85723E+02 6.92227E-01-1.88213E+03
 -1      1742-2.85723E+02 6.92227E-01-1.88213E+03
 -1      1743-2.90484E+02 5.82819E-01-2.03426E+03
 -1      1745-2.90484E+02 5.82819E-01-2.03426E+03
 -1      1746-2.94466E+02 4.80918E-01-2.18805E+03
 -1      1748-2.94466E+02 4.80918E-01-2.18805E+03
 -1      1749-2.97726E+02 3.87103E-01-2.34307E+03
 -1      1751-2.97726E+02 3.87103E-01-2.34307E+03
 -1      1752-3.00326E+02 3.01950E-01-2.49894E+03
 -1      1754-3.00326E+02 3.01950E-01-2.49894E+03
 -1      1755-3.02332E+02 2.26020E-01-2.65529E+03
 -1      1757-3.02332E+02 2.26020E-01-2.65529E+03
 -1      1758-3.03816E+02 1.59999E-01-2.81179E+03
 -1      1760-3.03816E+02 1.60000E-01-2.81179E+03
 -1      1761-3.04851E+02 1.04260E-01-2.96816E+03
 -1      1763-3.04851E+02 1.04260E-01-2.96816E+03
 -1      1764-3.05518E+02 5.90736E-02-3.12412E+03
 -1      1766-3.05518E+02 5.90733E-02-3.12412E+03
 -1      1767-3.05900E+02 2.87301E-02-3.27946E+03
 -1      1769-3.05900E+02 2.87300E-02-3.27946E+03
 -1      1770-3.06081E+02 5.90695E-03-3.43401E+03
 -1      1772-3.06081E+02 5.90654E-03-3.43401E+03
 -1      1773-2.45686E+01-2.84236E+00-2.23638E+01
 -1      1775-2.45686E+01-2.84236E+00-2.23638E+01
 -1      1776-4.87068E+01-3.39261E+00-5.37742E+01
 -1      1778-4.87068E+01-3.39261E+00-5.37742E+01
 -1      1779-7.18186E+01-3.02053E+00-9.57895E+01
 -1      1781-7.18186E+01-3.02053E+00-9.57895E+01
 -1      1782-9.37176E+01-2.86817E+00-1.48658E+02
 -1      1784-9.37176E+01-2.86817E+00-1.48658E+02
 -1      1785-1.14435E+02-2.72147E+00-2.12292E+02
 -1      1787-1.14435E+02-2.72147E+00-2.12292E+02
 -1      1788-1.33961E+02-2.55355E+00-2.85889E+02
 -1      1790-1.33961E+02-2.55355E+00-2.85889E+02
 -1      1791-1.52302E+02-2.39557E+00-3.68927E+02
 -1      1793-1.52302E+02-2.39557E+00-3.68927E+02
 -1      1794-1.69464E+02-2.23641E+00-4.60755E+02
 -1      1796-1.69464E+02-2.23641E+00-4.60755E+02
 -1      1797-1.85458E+02-2.07948E+00-5.60780E+02
 -1      1799-1.85458E+02-2.07948E+00-5.60780E+02
 -1      1800-2.00299E+02-1.92432E+00-6.68389E+02
 -1      1802-2.00299E+02-1.92432E+00-6.68389E+02
 -1      1803-2.14002E+02-1.77166E+00-7.82984E+02
 -1      1805-2.14002E+02-1.77166E+00-7.82984E+02
 -1      1806-2.26586E+02-1.62176E+00-9.03969E+02
 -1      1808-2.26586E+02-1.62176E+00-9.03969E+02
 -1      1809-2.38075E+02-1.47517E+00-1.03076E+03
 -1      1811-2.38075E+02-1.47517E+00-1.03076E+03
 -1      1812-2.48495E+02-1.33231E+00-1.16278E+03
 -1      1814-2.48495E+02-1.33231E+00-1.16278E+03
 -1      1815-2.57874E+02-1.19371E+00-1.29946E+03
 -1      1817-2.57874E+02-1.19371E+00-1.29946E+03
 -1      1818-2.66248E+02-1.05986E+00-1.44027E+03
 -1      1820-2.66248E+02-1.05986E+00-1.44027E+03
 -1      1821-2.73652E+02-9.31306E-01-1.58465E+03
 -1      1823-2.73652E+02-9.31306E-01-1.58465E+03
 -1      1824-2.80129E+02-8.08577E-01-1.73210E+03
 -1      1826-2.80129E+02-8.08577E-01-1.73210E+03
 -1      1827-2.85723E+02-6.92227E-01-1.88213E+03
 -1      1829-2.85723E+02-6.92227E-01-1.88213E+03
 -1      1830-2.90484E+02-5.82819E-01-2.03426E+03
 -1      1832-2.90484E+02-5.82819E-01-2.03426E+03
 -1      1833-2.94466E+02-4.80918E-01-2.18805E+03
 -1      1835-2.94466E+02-4.80919E-01-2.18805E+03
 -1      1836-2.97726E+02-3.87102E-01-2.34307E+03
 -1      1838-2.97726E+02-3.87103E-01-2.34307E+03
 -1      1839-3.00326E+02-3.01950E-01-2.49894E+03
 -1      1841-3.00326E+02-3.01950E-01-2.49894E+03
 -1      1842-3.02332E+02-2.26020E-01-2.65529E+03
 -1      1844-3.02332E+02-2.26020E-01-2.65529E+03
 -1      1845-3.03816E+02-1.59999E-01-2.81179E+03
 -1      1847-3.03816E+02-1.59999E-01-2.81179E+03
 -1      1848-3.04851E+02-1.04260E-01-2.96816E+03
 -1      1850-3.04851E+02-1.04260E-01-2.96816E+03
 -1      1851-3.05518E+02-5.90740E-02-3.12412E+03
 -1      1853-3.05518E+02-5.90736E-02-3.12412E+03
 -1      1854-3.05900E+02-2.87305E-02-3.27946E+03
 -1      1856-3.05900E+02-2.87303E-02-3.27946E+03
 -1      1857-3.06081E+02-5.90665E-03-3.43401E+03
 -1      1859-3.06081E+02-5.90704E-03-3.43401E+03
 -1      1860-1.71355E+01-1.45028E-07-2.80892E+01
 -1      1862-1.71355E+01 2.33554E-07-2.80892E+01
 -1      1863-3.42939E+01-1.72269E-07-7.00155E+01
 -1      1865-3.42939E+01 2.37140E-07-7.00155E+01
 -1      1866-5.08423E+01-1.90832E-07-1.28911E+02
 -1      1868-5.08423E+01 2.09619E-07-1.28911E+02
 -1      1869-6.64151E+01-5.43357E-08-2.03666E+02
 -1      1871-6.64151E+01 2.00298E-07-2.03666E+02
 -1      1872-8.10955E+01 5.73982E-07-2.93476E+02
 -1      1874-8.10955E+01-5.26917E-07-2.93476E+02
 -1      1875-9.49242E+01 1.77863E-06-3.97434E+02
 -1      1877-9.49242E+01-1.64028E-06-3.97434E+02
 -1      1878-1.07905E+02 2.17319E-06-5.14697E+02
 -1      1880-1.07905E+02-2.07655E-06-5.14697E+02
 -1      1881-1.20053E+02 1.34045E-06-6.44382E+02
 -1      1883-1.20053E+02-1.44218E-06-6.44382E+02
 -1      1884-1.31372E+02 9.64126E-07-7.85633E+02
 -1      1886-1.31372E+02-7.27272E-07-7.85633E+02
 -1      1887-1.41875E+02-4.59973E-07-9.37587E+02
 -1      1889-1.41875E+02 1.19142E-06-9.37587E+02
 -1      1890-1.51572E+02-3.45120E-08-1.09939E+03
 -1      1892-1.51572E+02 4.59248E-07-1.09939E+03
 -1      1893-1.60478E+02 5.46872E-07-1.27021E+03
 -1      1895-1.60478E+02-9.23138E-07-1.27021E+03
 -1      1896-1.68607E+02 5.18094E-07-1.44922E+03
 -1      1898-1.68607E+02 3.06839E-07-1.44922E+03
 -1      1899-1.75979E+02 2.02833E-07-1.63559E+03
 -1      1901-1.75979E+02-6.85166E-07-1.63559E+03
 -1      1902-1.82615E+02 4.09408E-07-1.82854E+03
 -1      1904-1.82615E+02-1.09677E-06-1.82854E+03
 -1      1905-1.88539E+02 4.56010E-07-2.02729E+03
 -1      1907-1.88539E+02 3.83907E-07-2.02729E+03
 -1      1908-1.93776E+02-9.39755E-07-2.23109E+03
 -1      1910-1.93776E+02 7.38281E-07-2.23109E+03
 -1      1911-1.98356E+02-4.60394E-07-2.43921E+03
 -1      1913-1.98356E+02-8.34566E-07-2.43921E+03
 -1      1914-2.02311E+02 3.12118E-06-2.65097E+03
 -1      1916-2.02311E+02-1.53280E-06-2.65097E+03
 -1      1917-2.05676E+02 1.22059E-06-2.86568E+03
 -1      1919-2.05676E+02-6.00095E-07-2.86568E+03
 -1      1920-2.08489E+02 8.95462E-07-3.08274E+03
 -1      1922-2.08489E+02-1.91693E-06-3.08274E+03
 -1      1923-2.10791E+02 1.46576E-06-3.30154E+03
 -1      1925-2.10791E+02-1.24102E-06-3.30154E+03
 -1      1926-2.12625E+02 1.40013E-06-3.52155E+03
 -1      1928-2.12625E+02-2.33728E-06-3.52155E+03
 -1      1929-2.14039E+02 7.43253E-07-3.74226E+03
 -1      1931-2.14039E+02-1.02007E-06-3.74226E+03
 -1      1932-2.15082E+02 1.06476E-06-3.96322E+03
 -1      1934-2.15082E+02-8.52406E-07-3.96322E+03
 -1      1935-2.15809E+02 5.16148E-07-4.18403E+03
 -1      1937-2.15809E+02 6.59888E-07-4.18403E+03
 -1      1938-2.16275E+02-2.87045E-07-4.40434E+03
 -1      1940-2.16275E+02 1.06366E-08-4.40434E+03
 -1      1941-2.16543E+02-1.08145E-06-4.62386E+03
 -1      1943-2.16543E+02 1.57022E-06-4.62386E+03
 -1      1944-2.16681E+02 1.71783E-06-4.84236E+03
 -1      1946-2.16681E+02-7.35361E-07-4.84236E+03
 -1      1947-2.20071E-08-4.30754E-08-2.63261E+01
 -1      1949-1.49693E-08 1.07181E-07-2.63261E+01
 -1      1950-6.05544E-09-1.48621E-07-6.75136E+01
 -1      1952-4.01448E-09 1.63607E-07-6.75136E+01
 -1      1953 2.37522E-08-2.93081E-07-1.26470E+02
 -1      1955-2.15694E-08 2.10725E-07-1.26470E+02
 -1      1956 1.70580E-08-1.28037E-09-2.01388E+02
 -1      1958 6.07952E-09-1.69205E-08-2.01388E+02
 -1      1959 8.56672E-09 5.82564E-07-2.91325E+02
 -1      1961 2.88608E-08-5.41756E-07-2.91325E+02
 -1      1962 1.38083E-08 1.65929E-06-3.95413E+02
 -1      1964 1.02476E-07-1.57982E-06-3.95413E+02
 -1      1965 1.05195E-08 2.65218E-06-5.12797E+02
 -1      1967 2.45651E-08-2.72932E-06-5.12797E+02
 -1      1968 6.61557E-08 3.41340E-06-6.42605E+02
 -1      1970 1.46703E-09-3.26952E-06-6.42605E+02
 -1      1971-4.73450E-09 1.97867E-06-7.83974E+02
 -1      1973-7.11901E-08-1.60271E-06-7.83974E+02
 -1      1974-4.52176E-09-7.89145E-07-9.36046E+02
 -1      1976-3.42358E-09 5.79748E-07-9.36046E+02
 -1      1977 1.17765E-08-1.95297E-06-1.09797E+03
 -1      1979 8.42224E-08 1.05587E-06-1.09797E+03
 -1      1980-2.20100E-08-1.49353E-06-1.26890E+03
 -1      1982 3.00135E-08 1.42945E-06-1.26890E+03
 -1      1983 1.97197E-08-1.05543E-06-1.44802E+03
 -1      1985 3.64652E-08 1.81668E-06-1.44802E+03
 -1      1986 9.73090E-08-1.68408E-07-1.63450E+03
 -1      1988-7.14794E-08-8.08036E-07-1.63450E+03
 -1      1989 1.50129E-08 2.60374E-07-1.82755E+03
 -1      1991-1.03147E-07-6.20653E-07-1.82755E+03
 -1      1992 3.63558E-09 4.50741E-07-2.02640E+03
 -1      1994-1.06248E-07-1.01765E-06-2.02640E+03
 -1      1995 5.87485E-08 3.01820E-07-2.23029E+03
 -1      1997 5.84671E-08-1.10741E-06-2.23029E+03
 -1      1998 1.88497E-08 9.90734E-07-2.43851E+03
 -1      2000 4.79654E-08-9.50055E-07-2.43851E+03
 -1      2001-5.39044E-08 1.36047E-06-2.65034E+03
 -1      2003 1.66806E-08 1.75751E-07-2.65034E+03
 -1      2004-5.56976E-08-1.04501E-08-2.86514E+03
 -1      2006-2.25190E-08-1.74004E-07-2.86514E+03
 -1      2007-6.91601E-09-1.31793E-06-3.08227E+03
 -1      2009-6.36208E-08 4.81958E-07-3.08227E+03
 -1      2010 8.62661E-08-1.93802E-07-3.30114E+03
 -1      2012 1.71471E-08-1.18161E-06-3.30114E+03
 -1      2013 2.73616E-08 1.86693E-06-3.52121E+03
 -1      2015-4.08876E-08-8.35184E-07-3.52121E+03
 -1      2016-1.06843E-08-3.11137E-07-3.74198E+03
 -1      2018 1.62086E-08-7.65981E-07-3.74198E+03
 -1      2019 6.36018E-08-5.25140E-07-3.96298E+03
 -1      2021 7.89270E-09-1.43604E-07-3.96298E+03
 -1      2022-7.68629E-09-2.05367E-06-4.18383E+03
 -1      2024 5.11333E-09 1.67145E-06-4.18383E+03
 -1      2025 7.38453E-08-1.16427E-06-4.40416E+03
 -1      2027-2.71869E-08 2.09977E-07-4.40416E+03
 -1      2028 4.39045E-08-1.95776E-06-4.62370E+03
 -1      2030-5.48255E-08-6.78433E-07-4.62370E+03
 -1      2031 7.42118E-08-2.57017E-08-4.84221E+03
 -1      2033 2.70315E-08 3.93810E-07-4.84221E+03
 -1      2034 1.71355E+01-2.67752E-08-2.80892E+01
 -1      2036 1.71355E+01 2.61988E-08-2.80892E+01
 -1      2037 3.42939E+01-8.79427E-08-7.00155E+01
 -1      2039 3.42939E+01 5.21504E-08-7.00155E+01
 -1      2040 5.08423E+01-2.10592E-07-1.28911E+02
 -1      2042 5.08423E+01 1.17009E-07-1.28911E+02
 -1      2043 6.64151E+01-8.59767E-08-2.03666E+02
 -1      2045 6.64151E+01 4.47362E-08-2.03666E+02
 -1      2046 8.10955E+01-1.50228E-07-2.93476E+02
 -1      2048 8.10955E+01 1.27318E-07-2.93476E+02
 -1      2049 9.49242E+01 5.16353E-07-3.97434E+02
 -1      2051 9.49242E+01-3.88162E-07-3.97434E+02
 -1      2052 1.07905E+02 1.35910E-06-5.14697E+02
 -1      2054 1.07905E+02-1.19134E-06-5.14697E+02
 -1      2055 1.20053E+02 1.99338E-06-6.44382E+02
 -1      2057 1.20053E+02-2.17715E-06-6.44382E+02
 -1      2058 1.31372E+02 1.88253E-06-7.85633E+02
 -1      2060 1.31372E+02-1.64151E-06-7.85633E+02
 -1      2061 1.41875E+02-1.77836E-07-9.37587E+02
 -1      2063 1.41875E+02-2.89098E-07-9.37587E+02
 -1      2064 1.51572E+02-1.54205E-06-1.09939E+03
 -1      2066 1.51572E+02 1.22624E-06-1.09939E+03
 -1      2067 1.60478E+02-2.30793E-06-1.27021E+03
 -1      2069 1.60478E+02 2.59350E-06-1.27021E+03
 -1      2070 1.68607E+02-1.59816E-06-1.44922E+03
 -1      2072 1.68607E+02 1.38365E-06-1.44922E+03
 -1      2073 1.75979E+02 2.80599E-07-1.63559E+03
 -1      2075 1.75979E+02 3.03646E-07-1.63559E+03
 -1      2076 1.82615E+02 3.28367E-07-1.82854E+03
 -1      2078 1.82615E+02 5.27734E-08-1.82854E+03
 -1      2079 1.88539E+02 5.95516E-07-2.02729E+03
 -1      2081 1.88539E+02-9.27422E-08-2.02729E+03
 -1      2082 1.93776E+02 6.50345E-07-2.23109E+03
 -1      2084 1.93776E+02-8.92124E-07-2.23109E+03
 -1      2085 1.98356E+02 8.63493E-07-2.43921E+03
 -1      2087 1.98356E+02-1.03863E-06-2.43921E+03
 -1      2088 2.02311E+02-5.11032E-07-2.65097E+03
 -1      2090 2.02311E+02 3.73804E-07-2.65097E+03
 -1      2091 2.05676E+02-6.28021E-07-2.86568E+03
 -1      2093 2.05676E+02 8.77672E-07-2.86568E+03
 -1      2094 2.08489E+02-1.81523E-06-3.08274E+03
 -1      2096 2.08489E+02 1.17394E-06-3.08274E+03
 -1      2097 2.10791E+02-4.04922E-07-3.30154E+03
 -1      2099 2.10791E+02 6.44107E-07-3.30154E+03
 -1      2100 2.12625E+02 3.13227E-06-3.52155E+03
 -1      2102 2.12625E+02-4.09783E-07-3.52155E+03
 -1      2103 2.14039E+02 7.91030E-07-3.74226E+03
 -1      2105 2.14039E+02-1.78369E-06-3.74226E+03
 -1      2106 2.15082E+02-1.44688E-07-3.96322E+03
 -1      2108 2.15082E+02-3.75423E-08-3.96322E+03
 -1      2109 2.15809E+02-1.06138E-07-4.18403E+03
 -1      2111 2.15809E+02-1.61251E-08-4.18403E+03
 -1      2112 2.16275E+02-8.92743E-07-4.40434E+03
 -1      2114 2.16275E+02 6.87261E-07-4.40434E+03
 -1      2115 2.16543E+02-7.01387E-07-4.62386E+03
 -1      2117 2.16543E+02 1.61383E-06-4.62386E+03
 -1      2118 2.16681E+02 1.05223E-06-4.84236E+03
 -1      2120 2.16681E+02 7.00222E-07-4.84236E+03
 -1      2121 2.45686E+01 2.84236E+00-2.23638E+01
 -1      2123 2.45686E+01 2.84236E+00-2.23638E+01
 -1      2124 4.87068E+01 3.39261E+00-5.37742E+01
 -1      2126 4.87068E+01 3.39261E+00-5.37742E+01
 -1      2127 7.18186E+01 3.02053E+00-9.57895E+01
 -1      2129 7.18186E+01 3.02053E+00-9.57895E+01
 -1      2130 9.37176E+01 2.86817E+00-1.48658E+02
 -1      2132 9.37176E+01 2.86817E+00-1.48658E+02
 -1      2133 1.14435E+02 2.72147E+00-2.12292E+02
 -1      2135 1.14435E+02 2.72147E+00-2.12292E+02
 -1      2136 1.33961E+02 2.55355E+00-2.85889E+02
 -1      2138 1.33961E+02 2.55355E+00-2.85889E+02
 -1      2139 1.52302E+02 2.39557E+00-3.68927E+02
 -1      2141 1.52302E+02 2.39557E+00-3.68927E+02
 -1      2142 1.69464E+02 2.23641E+00-4.60755E+02
 -1      2144 1.69464E+02 2.23641E+00-4.60755E+02
 -1      2145 1.85458E+02 2.07948E+00-5.60780E+02
 -1      2147 1.85458E+02 2.07948E+00-5.60780E+02
 -1      2148 2.00299E+02 1.92432E+00-6.68389E+02
 -1      2150 2.00299E+02 1.92432E+00-6.68389E+02
 -1      2151 2.14002E+02 1.77166E+00-7.82984E+02
 -1      2153 2.14002E+02 1.77166E+00-7.82984E+02
 -1      2154 2.26586E+02 1.62176E+00-9.03969E+02
 -1      2156 2.26586E+02 1.62176E+00-9.03969E+02
 -1      2157 2.38075E+02 1.47517E+00-1.03076E+03
 -1      2159 2.38075E+02 1.47517E+00-1.03076E+03
 -1      2160 2.48495E+02 1.33231E+00-1.16278E+03
 -1      2162 2.48495E+02 1.33231E+00-1.16278E+03
 -1      2163 2.57874E+02 1.19371E+00-1.29946E+03
 -1      2165 2.57874E+02 1.19371E+00-1.29946E+03
 -1      2166 2.66248E+02 1.05986E+00-1.44027E+03
 -1      2168 2.66248E+02 1.05986E+00-1.44027E+03
 -1      2169 2.73652E+02 9.31306E-01-1.58465E+03
 -1      2171 2.73652E+02 9.31306E-01-1.58465E+03
 -1      2172 2.80129E+02 8.08577E-01-1.73210E+03
 -1      2174 2.80129E+02 8.08577E-01-1.73210E+03
 -1      2175 2.85723E+02 6.92227E-01-1.88213E+03
 -1      2177 2.85723E+02 6.92227E-01-1.88213E+03
 -1      2178 2.90484E+02 5.82818E-01-2.03426E+03
 -1      2180 2.90484E+02 5.82819E-01-2.03426E+03
 -1      2181 2.94466E+02 4.80918E-01-2.18805E+03
 -1      2183 2.94466E+02 4.80918E-01-2.18805E+03
 -1      2184 2.97726E+02 3.87103E-01-2.34307E+03
 -1      2186 2.97726E+02 3.87103E-01-2.34307E+03
 -1      2187 3.00326E+02 3.01950E-01-2.49894E+03
 -1      2189 3.00326E+02 3.01950E-01-2.49894E+03
 -1      2190 3.02332E+02 2.26020E-01-2.65529E+03
 -1      2192 3.02332E+02 2.26020E-01-2.65529E+03
 -1      2193 3.03816E+02 1.60000E-01-2.81179E+03
 -1      2195 3.03816E+02 1.60000E-01-2.81179E+03
 -1      2196 3.04851E+02 1.04260E-01-2.96816E+03
 -1      2198 3.04851E+02 1.04260E-01-2.96816E+03
 -1      2199 3.05518E+02 5.90736E-02-3.12412E+03
 -1      2201 3.05518E+02 5.90739E-02-3.12412E+03
 -1      2202 3.05900E+02 2.87307E-02-3.27946E+03
 -1      2204 3.05900E+02 2.87305E-02-3.27946E+03
 -1      2205 3.06081E+02 5.90709E-03-3.43401E+03
 -1      2207 3.06081E+02 5.90656E-03-3.43401E+03
 -1      2208 2.45686E+01-2.84236E+00-2.23638E+01
 -1      2210 2.45686E+01-2.84236E+00-2.23638E+01
 -1      2211 4.87068E+01-3.39261E+00-5.37742E+01
 -1      2213 4.87068E+01-3.39261E+00-5.37742E+01
 -1      2214 7.18186E+01-3.02053E+00-9.57895E+01
 -1      2216 7.18186E+01-3.02053E+00-9.57895E+01
 -1      2217 9.37176E+01-2.86817E+00-1.48658E+02
 -1      2219 9.37176E+01-2.86817E+00-1.48658E+02
 -1      2220 1.14435E+02-2.72147E+00-2.12292E+02
 -1      2222 1.14435E+02-2.72147E+00-2.12292E+02
 -1      2223 1.33961E+02-2.55355E+00-2.85889E+02
 -1      2225 1.33961E+02-2.55355E+00-2.85889E+02
 -1      2226 1.52302E+02-2.39557E+00-3.68927E+02
 -1      2228 1.52302E+02-2.39557E+00-3.68927E+02
 -1      2229 1.69464E+02-2.23641E+00-4.60755E+02
 -1      2231 1.69464E+02-2.23641E+00-4.60755E+02
 -1      2232 1.85458E+02-2.07948E+00-5.60780E+02
 -1      2234 1.85458E+02-2.07948E+00-5.60780E+02
 -1      2235 2.00299E+02-1.92432E+00-6.68389E+02
 -1      2237 2.00299E+02-1.92432E+00-6.68389E+02
 -1      2238 2.14002E+02-1.77166E+00-7.82984E+02
 -1      2240 2.14002E+02-1.77166E+00-7.82984E+02
 -1      2241 2.26586E+02-1.62176E+00-9.03969E+02
 -1      2243 2.26586E+02-1.62176E+00-9.03969E+02
 -1      2244 2.38075E+02-1.47517E+00-1.03076E+03
 -1      2246 2.38075E+02-1.47517E+00-1.03076E+03
 -1      2247 2.48495E+02-1.33231E+00-1.16278E+03
 -1      2249 2.48495E+02-1.33231E+00-1.16278E+03
 -1      2250 2.57874E+02-1.19371E+00-1.29946E+03
 -1      2252 2.57874E+02-1.19371E+00-1.29946E+03
 -1      2253 2.66248E+02-1.05986E+00-1.44027E+03
 -1      2255 2.66248E+02-1.05986E+00-1.44027E+03
 -1      2256 2.73652E+02-9.31306E-01-1.58465E+03
 -1      2258 2.73652E+02-9.31306E-01-1.58465E+03
 -1      2259 2.80129E+02-8.08577E-01-1.73210E+03
 -1      2261 2.80129E+02-8.08576E-01-1.73210E+03
 -1      2262 2.85723E+02-6.92228E-01-1.88213E+03
 -1      2264 2.85723E+02-6.92227E-01-1.88213E+03
 -1      2265 2.90484E+02-5.82819E-01-2.03426E+03
 -1      2267 2.90484E+02-5.82819E-01-2.03426E+03
 -1      2268 2.94466E+02-4.80918E-01-2.18805E+03
 -1      2270 2.94466E+02-4.80918E-01-2.18805E+03
 -1      2271 2.97726E+02-3.87103E-01-2.34307E+03
 -1      2273 2.97726E+02-3.87103E-01-2.34307E+03
 -1      2274 3.00326E+02-3.01950E-01-2.49894E+03
 -1      2276 3.00326E+02-3.01950E-01-2.49894E+03
 -1      2277 3.02332E+02-2.26020E-01-2.65529E+03
 -1      2279 3.02332E+02-2.26020E-01-2.65529E+03
 -1      2280 3.03816E+02-1.60000E-01-2.81179E+03
 -1      2282 3.03816E+02-1.59999E-01-2.81179E+03
 -1      2283 3.04851E+02-1.04260E-01-2.96816E+03
 -1      2285 3.04851E+02-1.04260E-01-2.96816E+03
 -1      2286 3.05518E+02-5.90733E-02-3.12412E+03
 -1      2288 3.05518E+02-5.90733E-02-3.12412E+03
 -1      2289 3.05900E+02-2.87301E-02-3.27946E+03
 -1      2291 3.05900E+02-2.87305E-02-3.27946E+03
 -1      2292 3.06081E+02-5.90659E-03-3.43401E+03
 -1      2294 3.06081E+02-5.90710E-03-3.43401E+03
 -3
    1PSTEP                         8           1           1          
    1PGM                1.000000E+00                                  
    1PGK                1.080057E+05                                  
    1PHID                         -1                                  
    1PSUBC                         0                                  
    1PMODE                         2                                  
  100CL  102 52.30502350         930                     2    2MODAL      1
 -4  ERROR       1    1
 -5  STR(%)      1    1    0    0
 -1       404 0.00000E+00
 -1       406 0.00000E+00
 -1       407 0.00000E+00
 -1       409 0.00000E+00
 -1       410 0.00000E+00
 -1       412 0.00000E+00
 -1       413 0.00000E+00
 -1       415 0.00000E+00
 -1       424 0.00000E+00
 -1       426 0.00000E+00
 -1       427 0.00000E+00
 -1       429 0.00000E+00
 -1       438 0.00000E+00
 -1       440 0.00000E+00
 -1       441 0.00000E+00
 -1       443 0.00000E+00
 -1       444 0.00000E+00
 -1       446 0.00000E+00
 -1       447 0.00000E+00
 -1       449 0.00000E+00
 -1       458 0.00000E+00
 -1       460 0.00000E+00
 -1       461 0.00000E+00
 -1       463 0.00000E+00
 -1       472 0.00000E+00
 -1       474 0.00000E+00
 -1       475 0.00000E+00
 -1       477 0.00000E+00
 -1       478 0.00000E+00
 -1       480 0.00000E+00
 -1       481 0.00000E+00
 -1       483 0.00000E+00
 -1       484 0.00000E+00
 -1       486 0.00000E+00
 -1       487 0.00000E+00
 -1       489 0.00000E+00
 -1       490 0.00000E+00
 -1       492 0.00000E+00
 -1       493 0.00000E+00
 -1       495 0.00000E+00
 -1       496 0.00000E+00
 -1       498 0.00000E+00
 -1       499 0.00000E+00
 -1       501 0.00000E+00
 -1       502 0.00000E+00
 -1       504 0.00000E+00
 -1       505 0.00000E+00
 -1       507 0.00000E+00
 -1       508 0.00000E+00
 -1       510 0.00000E+00
 -1       511 0.00000E+00
 -1       513 0.00000E+00
 -1       514 0.00000E+00
 -1       516 0.00000E+00
 -1       517 0.00000E+00
 -1       519 0.00000E+00
 -1       520 0.00000E+00
 -1       522 0.00000E+00
 -1       523 0.00000E+00
 -1       525 0.00000E+00
 -1       526 0.00000E+00
 -1       528 0.00000E+00
 -1       529 0.00000E+00
 -1       531 0.00000E+00
 -1       532 0.00000E+00
 -1       534 0.00000E+00
 -1       535 0.00000E+00
 -1       537 0.00000E+00
 -1       538 0.00000E+00
 -1       540 0.00000E+00
 -1       541 0.00000E+00
 -1       543 0.00000E+00
 -1       544 0.00000E+00
 -1       546 0.00000E+00
 -1       547 0.00000E+00
 -1       549 0.00000E+00
 -1       550 0.00000E+00
 -1       552 0.00000E+00
 -1       553 0.00000E+00
 -1       555 0.00000E+00
 -1       556 0.00000E+00
 -1       558 0.00000E+00
 -1       559 0.00000E+00
 -1       561 0.00000E+00
 -1       562 0.00000E+00
 -1       564 0.00000E+00
 -1       565 0.00000E+00
 -1       567 0.00000E+00
 -1       568 0.00000E+00
 -1       570 0.00000E+00
 -1       571 0.00000E+00
 -1       573 0.00000E+00
 -1       574 0.00000E+00
 -1       576 0.00000E+00
 -1       577 0.00000E+00
 -1       579 0.00000E+00
 -1       588 0.00000E+00
 -1       590 0.00000E+00
 -1       591 0.00000E+00
 -1       593 0.00000E+00
 -1       602 0.00000E+00
 -1       604 0.00000E+00
 -1       605 0.00000E+00
 -1       607 0.00000E+00
 -1       616 0.00000E+00
 -1       618 0.00000E+00
 -1       619 0.00000E+00
 -1       621 0.00000E+00
 -1       630 0.00000E+00
 -1       632 0.00000E+00
 -1       633 0.00000E+00
 -1       635 0.00000E+00
 -1       644 0.00000E+00
 -1       646 0.00000E+00
 -1       647 0.00000E+00
 -1       649 0.00000E+00
 -1       658 0.00000E+00
 -1       660 0.00000E+00
 -1       661 0.00000E+00
 -1       663 0.00000E+00
 -1       672 0.00000E+00
 -1       674 0.00000E+00
 -1       675 0.00000E+00
 -1       677 0.00000E+00
 -1       686 0.00000E+00
 -1       688 0.00000E+00
 -1       689 0.00000E+00
 -1       691 0.00000E+00
 -1       700 0.00000E+00
 -1       702 0.00000E+00
 -1       703 0.00000E+00
 -1       705 0.00000E+00
 -1       714 0.00000E+00
 -1       716 0.00000E+00
 -1       717 0.00000E+00
 -1       719 0.00000E+00
 -1       728 0.00000E+00
 -1       730 0.00000E+00
 -1       731 0.00000E+00
 -1       733 0.00000E+00
 -1       742 0.00000E+00
 -1       744 0.00000E+00
 -1       745 0.00000E+00
 -1       747 0.00000E+00
 -1       756 0.00000E+00
 -1       758 0.00000E+00
 -1       759 0.00000E+00
 -1       761 0.00000E+00
 -1       770 0.00000E+00
 -1       772 0.00000E+00
 -1       773 0.00000E+00
 -1       775 0.00000E+00
 -1       784 0.00000E+00
 -1       786 0.00000E+00
 -1       787 0.00000E+00
 -1       789 0.00000E+00
 -1       798 0.00000E+00
 -1       800 0.00000E+00
 -1       801 0.00000E+00
 -1       803 0.00000E+00
 -1       812 0.00000E+00
 -1       814 0.00000E+00
 -1       815 0.00000E+00
 -1       817 0.00000E+00
 -1       826 0.00000E+00
 -1       828 0.00000E+00
 -1       829 0.00000E+00
 -1       831 0.00000E+00
 -1       840 0.00000E+00
 -1       842 0.00000E+00
 -1       843 0.00000E+00
 -1       845 0.00000E+00
 -1       854 0.00000E+00
 -1       856 0.00000E+00
 -1       857 0.00000E+00
 -1       859 0.00000E+00
 -1       868 0.00000E+00
 -1       870 0.00000E+00
 -1       871 0.00000E+00
 -1       873 0.00000E+00
 -1       882 0.00000E+00
 -1       884 0.00000E+00
 -1       885 0.00000E+00
 -1       887 0.00000E+00
 -1       896 0.00000E+00
 -1       898 0.00000E+00
 -1       899 0.00000E+00
 -1       901 0.00000E+00
 -1       910 0.00000E+00
 -1       912 0.00000E+00
 -1       913 0.00000E+00
 -1       915 0.00000E+00
 -1       924 0.00000E+00
 -1       926 0.00000E+00
 -1       927 0.00000E+00
 -1       929 0.00000E+00
 -1       938 0.00000E+00
 -1       940 0.00000E+00
 -1       941 0.00000E+00
 -1       943 0.00000E+00
 -1       952 0.00000E+00
 -1       954 0.00000E+00
 -1       955 0.00000E+00
 -1       957 0.00000E+00
 -1       966 0.00000E+00
 -1       968 0.00000E+00
 -1       969 0.00000E+00
 -1       971 0.00000E+00
 -1       980 0.00000E+00
 -1       982 0.00000E+00
 -1       983 0.00000E+00
 -1       985 0.00000E+00
 -1       986 0.00000E+00
 -1       988 0.00000E+00
 -1       989 0.00000E+00
 -1       991 0.00000E+00
 -1       992 0.00000E+00
 -1       994 0.00000E+00
 -1       995 0.00000E+00
 -1       997 0.00000E+00
 -1       998 0.00000E+00
 -1      1000 0.00000E+00
 -1      1001 0.00000E+00
 -1      1003 0.00000E+00
 -1      1004 0.00000E+00
 -1      1006 0.00000E+00
 -1      1007 0.00000E+00
 -1      1009 0.00000E+00
 -1      1010 0.00000E+00
 -1      1012 0.00000E+00
 -1      1013 0.00000E+00
 -1      1015 0.00000E+00
 -1      1016 0.00000E+00
 -1      1018 0.00000E+00
 -1      1019 0.00000E+00
 -1      1021 0.00000E+00
 -1      1022 0.00000E+00
 -1      1024 0.00000E+00
 -1      1025 0.00000E+00
 -1      1027 0.00000E+00
 -1      1028 0.00000E+00
 -1      1030 0.00000E+00
 -1      1031 0.00000E+00
 -1      1033 0.00000E+00
 -1      1034 0.00000E+00
 -1      1036 0.00000E+00
 -1      1037 0.00000E+00
 -1      1039 0.00000E+00
 -1      1040 0.00000E+00
 -1      1042 0.00000E+00
 -1      1043 0.00000E+00
 -1      1045 0.00000E+00
 -1      1046 0.00000E+00
 -1      1048 0.00000E+00
 -1      1049 0.00000E+00
 -1      1051 0.00000E+00
 -1      1052 0.00000E+00
 -1      1054 0.00000E+00
 -1      1055 0.00000E+00
 -1      1057 0.00000E+00
 -1      1058 0.00000E+00
 -1      1060 0.00000E+00
 -1      1061 0.00000E+00
 -1      1063 0.00000E+00
 -1      1064 0.00000E+00
 -1      1066 0.00000E+00
 -1      1067 0.00000E+00
 -1      1069 0.00000E+00
 -1      1070 0.00000E+00
 -1      1072 0.00000E+00
 -1      1073 0.00000E+00
 -1      1075 0.00000E+00
 -1      1076 0.00000E+00
 -1      1078 0.00000E+00
 -1      1079 0.00000E+00
 -1      1081 0.00000E+00
 -1      1082 0.00000E+00
 -1      1084 0.00000E+00
 -1      1085 0.00000E+00
 -1      1087 0.00000E+00
 -1      1088 0.00000E+00
 -1      1090 0.00000E+00
 -1      1099 0.00000E+00
 -1      1101 0.00000E+00
 -1      1102 0.00000E+00
 -1      1104 0.00000E+00
 -1      1113 0.00000E+00
 -1      1115 0.00000E+00
 -1      1116 0.00000E+00
 -1      1118 0.00000E+00
 -1      1127 0.00000E+00
 -1      1129 0.00000E+00
 -1      1130 0.00000E+00
 -1      1132 0.00000E+00
 -1      1141 0.00000E+00
 -1      1143 0.00000E+00
 -1      1144 0.00000E+00
 -1      1146 0.00000E+00
 -1      1155 0.00000E+00
 -1      1157 0.00000E+00
 -1      1158 0.00000E+00
 -1      1160 0.00000E+00
 -1      1169 0.00000E+00
 -1      1171 0.00000E+00
 -1      1172 0.00000E+00
 -1      1174 0.00000E+00
 -1      1183 0.00000E+00
 -1      1185 0.00000E+00
 -1      1186 0.00000E+00
 -1      1188 0.00000E+00
 -1      1197 0.00000E+00
 -1      1199 0.00000E+00
 -1      1200 0.00000E+00
 -1      1202 0.00000E+00
 -1      1211 0.00000E+00
 -1      1213 0.00000E+00
 -1      1214 0.00000E+00
 -1      1216 0.00000E+00
 -1      1225 0.00000E+00
 -1      1227 0.00000E+00
 -1      1228 0.00000E+00
 -1      1230 0.00000E+00
 -1      1239 0.00000E+00
 -1      1241 0.00000E+00
 -1      1242 0.00000E+00
 -1      1244 0.00000E+00
 -1      1253 0.00000E+00
 -1      1255 0.00000E+00
 -1      1256 0.00000E+00
 -1      1258 0.00000E+00
 -1      1267 0.00000E+00
 -1      1269 0.00000E+00
 -1      1270 0.00000E+00
 -1      1272 0.00000E+00
 -1      1281 0.00000E+00
 -1      1283 0.00000E+00
 -1      1284 0.00000E+00
 -1      1286 0.00000E+00
 -1      1295 0.00000E+00
 -1      1297 0.00000E+00
 -1      1298 0.00000E+00
 -1      1300 0.00000E+00
 -1      1309 0.00000E+00
 -1      1311 0.00000E+00
 -1      1312 0.00000E+00
 -1      1314 0.00000E+00
 -1      1323 0.00000E+00
 -1      1325 0.00000E+00
 -1      1326 0.00000E+00
 -1      1328 0.00000E+00
 -1      1337 0.00000E+00
 -1      1339 0.00000E+00
 -1      1340 0.00000E+00
 -1      1342 0.00000E+00
 -1      1351 0.00000E+00
 -1      1353 0.00000E+00
 -1      1354 0.00000E+00
 -1      1356 0.00000E+00
 -1      1365 0.00000E+00
 -1      1367 0.00000E+00
 -1      1368 0.00000E+00
 -1      1370 0.00000E+00
 -1      1379 0.00000E+00
 -1      1381 0.00000E+00
 -1      1382 0.00000E+00
 -1      1384 0.00000E+00
 -1      1393 0.00000E+00
 -1      1395 0.00000E+00
 -1      1396 0.00000E+00
 -1      1398 0.00000E+00
 -1      1407 0.00000E+00
 -1      1409 0.00000E+00
 -1      1410 0.00000E+00
 -1      1412 0.00000E+00
 -1      1421 0.00000E+00
 -1      1423 0.00000E+00
 -1      1424 0.00000E+00
 -1      1426 0.00000E+00
 -1      1435 0.00000E+00
 -1      1437 0.00000E+00
 -1      1438 0.00000E+00
 -1      1440 0.00000E+00
 -1      1449 0.00000E+00
 -1      1451 0.00000E+00
 -1      1452 0.00000E+00
 -1      1454 0.00000E+00
 -1      1463 0.00000E+00
 -1      1465 0.00000E+00
 -1      1466 0.00000E+00
 -1      1468 0.00000E+00
 -1      1477 0.00000E+00
 -1      1479 0.00000E+00
 -1      1480 0.00000E+00
 -1      1482 0.00000E+00
 -1      1491 0.00000E+00
 -1      1493 0.00000E+00
 -1      1494 0.00000E+00
 -1      1496 0.00000E+00
 -1      1497 0.00000E+00
 -1      1499 0.00000E+00
 -1      1500 0.00000E+00
 -1      1502 0.00000E+00
 -1      1503 0.00000E+00
 -1      1505 0.00000E+00
 -1      1506 0.00000E+00
 -1      1508 0.00000E+00
 -1      1509 0.00000E+00
 -1      1511 0.00000E+00
 -1      1512 0.00000E+00
 -1      1514 0.00000E+00
 -1      1515 0.00000E+00
 -1      1517 0.00000E+00
 -1      1518 0.00000E+00
 -1      1520 0.00000E+00
 -1      1521 0.00000E+00
 -1      1523 0.00000E+00
 -1      1524 0.00000E+00
 -1      1526 0.00000E+00
 -1      1527 0.00000E+00
 -1      1529 0.00000E+00
 -1      1530 0.00000E+00
 -1      1532 0.00000E+00
 -1      1533 0.00000E+00
 -1      1535 0.00000E+00
 -1      1536 0.00000E+00
 -1      1538 0.00000E+00
 -1      1539 0.00000E+00
 -1      1541 0.00000E+00
 -1      1542 0.00000E+00
 -1      1544 0.00000E+00
 -1      1545 0.00000E+00
 -1      1547 0.00000E+00
 -1      1548 0.00000E+00
 -1      1550 0.00000E+00
 -1      1551 0.00000E+00
 -1      1553 0.00000E+00
 -1      1554 0.00000E+00
 -1      1556 0.00000E+00
 -1      1557 0.00000E+00
 -1      1559 0.00000E+00
 -1      1560 0.00000E+00
 -1      1562 0.00000E+00
 -1      1563 0.00000E+00
 -1      1565 0.00000E+00
 -1      1566 0.00000E+00
 -1      1568 0.00000E+00
 -1      1569 0.00000E+00
 -1      1571 0.00000E+00
 -1      1572 0.00000E+00
 -1      1574 0.00000E+00
 -1      1575 0.00000E+00
 -1      1577 0.00000E+00
 -1      1578 0.00000E+00
 -1      1580 0.00000E+00
 -1      1581 0.00000E+00
 -1      1583 0.00000E+00
 -1      1584 0.00000E+00
 -1      1586 0.00000E+00
 -1      1587 0.00000E+00
 -1      1589 0.00000E+00
 -1      1590 0.00000E+00
 -1      1592 0.00000E+00
 -1      1593 0.00000E+00
 -1      1595 0.00000E+00
 -1      1596 0.00000E+00
 -1      1598 0.00000E+00
 -1      1599 0.00000E+00
 -1      1601 0.00000E+00
 -1      1602 0.00000E+00
 -1      1604 0.00000E+00
 -1      1605 0.00000E+00
 -1      1607 0.00000E+00
 -1      1608 0.00000E+00
 -1      1610 0.00000E+00
 -1      1611 0.00000E+00
 -1      1613 0.00000E+00
 -1      1614 0.00000E+00
 -1      1616 0.00000E+00
 -1      1617 0.00000E+00
 -1      1619 0.00000E+00
 -1      1620 0.00000E+00
 -1      1622 0.00000E+00
 -1      1623 0.00000E+00
 -1      1625 0.00000E+00
 -1      1626 0.00000E+00
 -1      1628 0.00000E+00
 -1      1629 0.00000E+00
 -1      1631 0.00000E+00
 -1      1632 0.00000E+00
 -1      1634 0.00000E+00
 -1      1635 0.00000E+00
 -1      1637 0.00000E+00
 -1      1638 0.00000E+00
 -1      1640 0.00000E+00
 -1      1641 0.00000E+00
 -1      1643 0.00000E+00
 -1      1644 0.00000E+00
 -1      1646 0.00000E+00
 -1      1647 0.00000E+00
 -1      1649 0.00000E+00
 -1      1650 0.00000E+00
 -1      1652 0.00000E+00
 -1      1653 0.00000E+00
 -1      1655 0.00000E+00
 -1      1656 0.00000E+00
 -1      1658 0.00000E+00
 -1      1659 0.00000E+00
 -1      1661 0.00000E+00
 -1      1662 0.00000E+00
 -1      1664 0.00000E+00
 -1      1665 0.00000E+00
 -1      1667 0.00000E+00
 -1      1668 0.00000E+00
 -1      1670 0.00000E+00
 -1      1671 0.00000E+00
 -1      1673 0.00000E+00
 -1      1674 0.00000E+00
 -1      1676 0.00000E+00
 -1      1677 0.00000E+00
 -1      1679 0.00000E+00
 -1      1680 0.00000E+00
 -1      1682 0.00000E+00
 -1      1683 0.00000E+00
 -1      1685 0.00000E+00
 -1      1686 0.00000E+00
 -1      1688 0.00000E+00
 -1      1689 0.00000E+00
 -1      1691 0.00000E+00
 -1      1692 0.00000E+00
 -1      1694 0.00000E+00
 -1      1695 0.00000E+00
 -1      1697 0.00000E+00
 -1      1698 0.00000E+00
 -1      1700 0.00000E+00
 -1      1701 0.00000E+00
 -1      1703 0.00000E+00
 -1      1704 0.00000E+00
 -1      1706 0.00000E+00
 -1      1707 0.00000E+00
 -1      1709 0.00000E+00
 -1      1710 0.00000E+00
 -1      1712 0.00000E+00
 -1      1713 0.00000E+00
 -1      1715 0.00000E+00
 -1      1716 0.00000E+00
 -1      1718 0.00000E+00
 -1      1719 0.00000E+00
 -1      1721 0.00000E+00
 -1      1722 0.00000E+00
 -1      1724 0.00000E+00
 -1      1725 0.00000E+00
 -1      1727 0.00000E+00
 -1      1728 0.00000E+00
 -1      1730 0.00000E+00
 -1      1731 0.00000E+00
 -1      1733 0.00000E+00
 -1      1734 0.00000E+00
 -1      1736 0.00000E+00
 -1      1737 0.00000E+00
 -1      1739 0.00000E+00
 -1      1740 0.00000E+00
 -1      1742 0.00000E+00
 -1      1743 0.00000E+00
 -1      1745 0.00000E+00
 -1      1746 0.00000E+00
 -1      1748 0.00000E+00
 -1      1749 0.00000E+00
 -1      1751 0.00000E+00
 -1      1752 0.00000E+00
 -1      1754 0.00000E+00
 -1      1755 0.00000E+00
 -1      1757 0.00000E+00
 -1      1758 0.00000E+00
 -1      1760 0.00000E+00
 -1      1761 0.00000E+00
 -1      1763 0.00000E+00
 -1      1764 0.00000E+00
 -1      1766 0.00000E+00
 -1      1767 0.00000E+00
 -1      1769 0.00000E+00
 -1      1770 0.00000E+00
 -1      1772 0.00000E+00
 -1      1773 0.00000E+00
 -1      1775 0.00000E+00
 -1      1776 0.00000E+00
 -1      1778 0.00000E+00
 -1      1779 0.00000E+00
 -1      1781 0.00000E+00
 -1      1782 0.00000E+00
 -1      1784 0.00000E+00
 -1      1785 0.00000E+00
 -1      1787 0.00000E+00
 -1      1788 0.00000E+00
 -1      1790 0.00000E+00
 -1      1791 0.00000E+00
 -1      1793 0.00000E+00
 -1      1794 0.00000E+00
 -1      1796 0.00000E+00
 -1      1797 0.00000E+00
 -1      1799 0.00000E+00
 -1      1800 0.00000E+00
 -1      1802 0.00000E+00
 -1      1803 0.00000E+00
 -1      1805 0.00000E+00
 -1      1806 0.00000E+00
 -1      1808 0.00000E+00
 -1      1809 0.00000E+00
 -1      1811 0.00000E+00
 -1      1812 0.00000E+00
 -1      1814 0.00000E+00
 -1      1815 0.00000E+00
 -1      1817 0.00000E+00
 -1      1818 0.00000E+00
 -1      1820 0.00000E+00
 -1      1821 0.00000E+00
 -1      1823 0.00000E+00
 -1      1824 0.00000E+00
 -1      1826 0.00000E+00
 -1      1827 0.00000E+00
 -1      1829 0.00000E+00
 -1      1830 0.00000E+00
 -1      1832 0.00000E+00
 -1      1833 0.00000E+00
 -1      1835 0.00000E+00
 -1      1836 0.00000E+00
 -1      1838 0.00000E+00
 -1      1839 0.00000E+00
 -1      1841 0.00000E+00
 -1      1842 0.00000E+00
 -1      1844 0.00000E+00
 -1      1845 0.00000E+00
 -1      1847 0.00000E+00
 -1      1848 0.00000E+00
 -1      1850 0.00000E+00
 -1      1851 0.00000E+00
 -1      1853 0.00000E+00
 -1      1854 0.00000E+00
 -1      1856 0.00000E+00
 -1      1857 0.00000E+00
 -1      1859 0.00000E+00
 -1      1860 0.00000E+00
 -1      1862 0.00000E+00
 -1      1863 0.00000E+00
 -1      1865 0.00000E+00
 -1      1866 0.00000E+00
 -1      1868 0.00000E+00
 -1      1869 0.00000E+00
 -1      1871 0.00000E+00
 -1      1872 0.00000E+00
 -1      1874 0.00000E+00
 -1      1875 0.00000E+00
 -1      1877 0.00000E+00
 -1      1878 0.00000E+00
 -1      1880 0.00000E+00
 -1      1881 0.00000E+00
 -1      1883 0.00000E+00
 -1      1884 0.00000E+00
 -1      1886 0.00000E+00
 -1      1887 0.00000E+00
 -1      1889 0.00000E+00
 -1      1890 0.00000E+00
 -1      1892 0.00000E+00
 -1      1893 0.00000E+00
 -1      1895 0.00000E+00
 -1      1896 0.00000E+00
 -1      1898 0.00000E+00
 -1      1899 0.00000E+00
 -1      1901 0.00000E+00
 -1      1902 0.00000E+00
 -1      1904 0.00000E+00
 -1      1905 0.00000E+00
 -1      1907 0.00000E+00
 -1      1908 0.00000E+00
 -1      1910 0.00000E+00
 -1      1911 0.00000E+00
 -1      1913 0.00000E+00
 -1      1914 0.00000E+00
 -1      1916 0.00000E+00
 -1      1917 0.00000E+00
 -1      1919 0.00000E+00
 -1      1920 0.00000E+00
 -1      1922 0.00000E+00
 -1      1923 0.00000E+00
 -1      1925 0.00000E+00
 -1      1926 0.00000E+00
 -1      1928 0.00000E+00
 -1      1929 0.00000E+00
 -1      1931 0.00000E+00
 -1      1932 0.00000E+00
 -1      1934 0.00000E+00
 -1      1935 0.00000E+00
 -1      1937 0.00000E+00
 -1      1938 0.00000E+00
 -1      1940 0.00000E+00
 -1      1941 0.00000E+00
 -1      1943 0.00000E+00
 -1      1944 0.00000E+00
 -1      1946 0.00000E+00
 -1      1947 0.00000E+00
 -1      1949 0.00000E+00
 -1      1950 0.00000E+00
 -1      1952 0.00000E+00
 -1      1953 0.00000E+00
 -1      1955 0.00000E+00
 -1      1956 0.00000E+00
 -1      1958 0.00000E+00
 -1      1959 0.00000E+00
 -1      1961 0.00000E+00
 -1      1962 0.00000E+00
 -1      1964 0.00000E+00
 -1      1965 0.00000E+00
 -1      1967 0.00000E+00
 -1      1968 0.00000E+00
 -1      1970 0.00000E+00
 -1      1971 0.00000E+00
 -1      1973 0.00000E+00
 -1      1974 0.00000E+00
 -1      1976 0.00000E+00
 -1      1977 0.00000E+00
 -1      1979 0.00000E+00
 -1      1980 0.00000E+00
 -1      1982 0.00000E+00
 -1      1983 0.00000E+00
 -1      1985 0.00000E+00
 -1      1986 0.00000E+00
 -1      1988 0.00000E+00
 -1      1989 0.00000E+00
 -1      1991 0.00000E+00
 -1      1992 0.00000E+00
 -1      1994 0.00000E+00
 -1      1995 0.00000E+00
 -1      1997 0.00000E+00
 -1      1998 0.00000E+00
 -1      2000 0.00000E+00
 -1      2001 0.00000E+00
 -1      2003 0.00000E+00
 -1      2004 0.00000E+00
 -1      2006 0.00000E+00
 -1      2007 0.00000E+00
 -1      2009 0.00000E+00
 -1      2010 0.00000E+00
 -1      2012 0.00000E+00
 -1      2013 0.00000E+00
 -1      2015 0.00000E+00
 -1      2016 0.00000E+00
 -1      2018 0.00000E+00
 -1      2019 0.00000E+00
 -1      2021 0.00000E+00
 -1      2022 0.00000E+00
 -1      2024 0.00000E+00
 -1      2025 0.00000E+00
 -1      2027 0.00000E+00
 -1      2028 0.00000E+00
 -1      2030 0.00000E+00
 -1      2031 0.00000E+00
 -1      2033 0.00000E+00
 -1      2034 0.00000E+00
 -1      2036 0.00000E+00
 -1      2037 0.00000E+00
 -1      2039 0.00000E+00
 -1      2040 0.00000E+00
 -1      2042 0.00000E+00
 -1      2043 0.00000E+00
 -1      2045 0.00000E+00
 -1      2046 0.00000E+00
 -1      2048 0.00000E+00
 -1      2049 0.00000E+00
 -1      2051 0.00000E+00
 -1      2052 0.00000E+00
 -1      2054 0.00000E+00
 -1      2055 0.00000E+00
 -1      2057 0.00000E+00
 -1      2058 0.00000E+00
 -1      2060 0.00000E+00
 -1      2061 0.00000E+00
 -1      2063 0.00000E+00
 -1      2064 0.00000E+00
 -1      2066 0.00000E+00
 -1      2067 0.00000E+00
 -1      2069 0.00000E+00
 -1      2070 0.00000E+00
 -1      2072 0.00000E+00
 -1      2073 0.00000E+00
 -1      2075 0.00000E+00
 -1      2076 0.00000E+00
 -1      2078 0.00000E+00
 -1      2079 0.00000E+00
 -1      2081 0.00000E+00
 -1      2082 0.00000E+00
 -1      2084 0.00000E+00
 -1      2085 0.00000E+00
 -1      2087 0.00000E+00
 -1      2088 0.00000E+00
 -1      2090 0.00000E+00
 -1      2091 0.00000E+00
 -1      2093 0.00000E+00
 -1      2094 0.00000E+00
 -1      2096 0.00000E+00
 -1      2097 0.00000E+00
 -1      2099 0.00000E+00
 -1      2100 0.00000E+00
 -1      2102 0.00000E+00
 -1      2103 0.00000E+00
 -1      2105 0.00000E+00
 -1      2106 0.00000E+00
 -1      2108 0.00000E+00
 -1      2109 0.00000E+00
 -1      2111 0.00000E+00
 -1      2112 0.00000E+00
 -1      2114 0.00000E+00
 -1      2115 0.00000E+00
 -1      2117 0.00000E+00
 -1      2118 0.00000E+00
 -1      2120 0.00000E+00
 -1      2121 0.00000E+00
 -1      2123 0.00000E+00
 -1      2124 0.00000E+00
 -1      2126 0.00000E+00
 -1      2127 0.00000E+00
 -1      2129 0.00000E+00
 -1      2130 0.00000E+00
 -1      2132 0.00000E+00
 -1      2133 0.00000E+00
 -1      2135 0.00000E+00
 -1      2136 0.00000E+00
 -1      2138 0.00000E+00
 -1      2139 0.00000E+00
 -1      2141 0.00000E+00
 -1      2142 0.00000E+00
 -1      2144 0.00000E+00
 -1      2145 0.00000E+00
 -1      2147 0.00000E+00
 -1      2148 0.00000E+00
 -1      2150 0.00000E+00
 -1      2151 0.00000E+00
 -1      2153 0.00000E+00
 -1      2154 0.00000E+00
 -1      2156 0.00000E+00
 -1      2157 0.00000E+00
 -1      2159 0.00000E+00
 -1      2160 0.00000E+00
 -1      2162 0.00000E+00
 -1      2163 0.00000E+00
 -1      2165 0.00000E+00
 -1      2166 0.00000E+00
 -1      2168 0.00000E+00
 -1      2169 0.00000E+00
 -1      2171 0.00000E+00
 -1      2172 0.00000E+00
 -1      2174 0.00000E+00
 -1      2175 0.00000E+00
 -1      2177 0.00000E+00
 -1      2178 0.00000E+00
 -1      2180 0.00000E+00
 -1      2181 0.00000E+00
 -1      2183 0.00000E+00
 -1      2184 0.00000E+00
 -1      2186 0.00000E+00
 -1      2187 0.00000E+00
 -1      2189 0.00000E+00
 -1      2190 0.00000E+00
 -1      2192 0.00000E+00
 -1      2193 0.00000E+00
 -1      2195 0.00000E+00
 -1      2196 0.00000E+00
 -1      2198 0.00000E+00
 -1      2199 0.00000E+00
 -1      2201 0.00000E+00
 -1      2202 0.00000E+00
 -1      2204 0.00000E+00
 -1      2205 0.00000E+00
 -1      2207 0.00000E+00
 -1      2208 0.00000E+00
 -1      2210 0.00000E+00
 -1      2211 0.00000E+00
 -1      2213 0.00000E+00
 -1      2214 0.00000E+00
 -1      2216 0.00000E+00
 -1      2217 0.00000E+00
 -1      2219 0.00000E+00
 -1      2220 0.00000E+00
 -1      2222 0.00000E+00
 -1      2223 0.00000E+00
 -1      2225 0.00000E+00
 -1      2226 0.00000E+00
 -1      2228 0.00000E+00
 -1      2229 0.00000E+00
 -1      2231 0.00000E+00
 -1      2232 0.00000E+00
 -1      2234 0.00000E+00
 -1      2235 0.00000E+00
 -1      2237 0.00000E+00
 -1      2238 0.00000E+00
 -1      2240 0.00000E+00
 -1      2241 0.00000E+00
 -1      2243 0.00000E+00
 -1      2244 0.00000E+00
 -1      2246 0.00000E+00
 -1      2247 0.00000E+00
 -1      2249 0.00000E+00
 -1      2250 0.00000E+00
 -1      2252 0.00000E+00
 -1      2253 0.00000E+00
 -1      2255 0.00000E+00
 -1      2256 0.00000E+00
 -1      2258 0.00000E+00
 -1      2259 0.00000E+00
 -1      2261 0.00000E+00
 -1      2262 0.00000E+00
 -1      2264 0.00000E+00
 -1      2265 0.00000E+00
 -1      2267 0.00000E+00
 -1      2268 0.00000E+00
 -1      2270 0.00000E+00
 -1      2271 0.00000E+00
 -1      2273 0.00000E+00
 -1      2274 0.00000E+00
 -1      2276 0.00000E+00
 -1      2277 0.00000E+00
 -1      2279 0.00000E+00
 -1      2280 0.00000E+00
 -1      2282 0.00000E+00
 -1      2283 0.00000E+00
 -1      2285 0.00000E+00
 -1      2286 0.00000E+00
 -1      2288 0.00000E+00
 -1      2289 0.00000E+00
 -1      2291 0.00000E+00
 -1      2292 0.00000E+00
 -1      2294 0.00000E+00
 -3
    1PSTEP                         9           1           1          
    1PGM                1.000000E+00                                  
    1PGK                2.462806E+05                                  
    1PHID                         -1                                  
    1PSUBC                         0                                  
    1PMODE                         3                                  
  100CL  103 78.98328519         930                     2    3MODAL      1
 -4  DISP        4    1
 -5  D1          1    2    1    0
 -5  D2          1    2    2    0
 -5  D3          1    2    3    0
 -5  ALL         1    2    0    0    1ALL
 -1       404 0.00000E+00 0.00000E+00 8.06457E-05
 -1       406 0.00000E+00-0.00000E+00-8.06457E-05
 -1       407-2.00964E-02 1.41927E-01 1.14606E-03
 -1       409-2.00954E-02 1.41711E-01 1.14568E-03
 -1       410 6.13737E-15 1.41865E-01-1.84114E-14
 -1       412 6.02510E-15 1.41774E-01-1.74765E-14
 -1       413 9.60437E-04 1.41819E-01-2.87324E-05
 -1       415-9.60437E-04 1.41819E-01 2.87324E-05
 -1       424 0.00000E+00 0.00000E+00-7.90969E-18
 -1       426 0.00000E+00 0.00000E+00 7.90969E-18
 -1       427 0.00000E+00-5.03876E-18 0.00000E+00
 -1       429 0.00000E+00 5.03876E-18 0.00000E+00
 -1       438 2.00964E-02 1.41927E-01-1.14606E-03
 -1       440 2.00954E-02 1.41711E-01-1.14568E-03
 -1       441 0.00000E+00 0.00000E+00-8.06457E-05
 -1       443 0.00000E+00-0.00000E+00 8.06457E-05
 -1       444 0.00000E+00 7.38472E-19 0.00000E+00
 -1       446 0.00000E+00-7.38472E-19 0.00000E+00
 -1       447 0.00000E+00 0.00000E+00-1.15923E-18
 -1       449 0.00000E+00 0.00000E+00 1.15923E-18
 -1       458 9.60437E-04 1.41819E-01 2.87324E-05
 -1       460-9.60437E-04 1.41819E-01-2.87324E-05
 -1       461-2.97062E-15 1.41865E-01-1.70771E-14
 -1       463-2.50763E-15 1.41774E-01-1.72011E-14
 -1       472 0.00000E+00 0.00000E+00 8.06457E-05
 -1       474 0.00000E+00 0.00000E+00-8.06457E-05
 -1       475 2.00964E-02 1.41927E-01 1.14606E-03
 -1       477 2.00954E-02 1.41711E-01 1.14568E-03
 -1       478-2.00964E-02 1.41927E-01-1.14606E-03
 -1       480-2.00954E-02 1.41711E-01-1.14568E-03
 -1       481 0.00000E+00 0.00000E+00-8.06457E-05
 -1       483 0.00000E+00 0.00000E+00 8.06457E-05
 -1       484 2.84545E-03-2.25685E-03 2.79778E-04
 -1       486 2.78684E-03-2.29395E-03 1.93467E-04
 -1       487 5.11750E-03-6.80408E-03 6.03014E-04
 -1       489 5.08796E-03-6.88068E-03 5.15634E-04
 -1       490 6.97089E-03-1.38940E-02 8.65711E-04
 -1       492 6.92865E-03-1.40090E-02 7.99336E-04
 -1       493 8.30766E-03-2.26377E-02 1.13876E-03
 -1       495 8.27304E-03-2.27914E-02 1.09929E-03
 -1       496 9.18509E-03-3.26574E-02 1.40035E-03
 -1       498 9.14915E-03-3.28472E-02 1.36883E-03
 -1       499 9.60387E-03-4.33612E-02 1.64192E-03
 -1       501 9.57140E-03-4.35855E-02 1.63958E-03
 -1       502 9.58301E-03-5.42866E-02 1.87476E-03
 -1       504 9.55250E-03-5.45426E-02 1.87952E-03
 -1       505 9.15475E-03-6.49372E-02 2.07890E-03
 -1       507 9.12751E-03-6.52221E-02 2.10828E-03
 -1       508 8.34398E-03-7.48842E-02 2.26698E-03
 -1       510 8.32007E-03-7.51947E-02 2.30381E-03
 -1       511 7.19364E-03-8.37146E-02 2.42241E-03
 -1       513 7.17358E-03-8.40470E-02 2.47808E-03
 -1       514 5.74137E-03-9.10747E-02 2.55425E-03
 -1       516 5.72542E-03-9.14253E-02 2.61639E-03
 -1       517 4.03700E-03-9.66506E-02 2.65110E-03
 -1       519 4.02539E-03-9.70152E-02 2.72632E-03
 -1       520 2.12782E-03-1.00189E-01 2.71932E-03
 -1       522 2.12071E-03-1.00564E-01 2.79862E-03
 -1       523 6.80510E-05-1.01490E-01 2.75200E-03
 -1       525 6.54699E-05-1.01870E-01 2.83886E-03
 -1       526-2.09023E-03-1.00415E-01 2.75434E-03
 -1       528-2.08834E-03-1.00797E-01 2.84200E-03
 -1       529-4.29224E-03-9.68847E-02 2.72309E-03
 -1       531-4.28606E-03-9.72649E-02 2.81313E-03
 -1       532-6.48647E-03-9.08812E-02 2.66335E-03
 -1       534-6.47628E-03-9.12557E-02 2.75063E-03
 -1       535-8.62228E-03-8.24424E-02 2.57488E-03
 -1       537-8.60849E-03-8.28078E-02 2.65998E-03
 -1       538-1.06542E-02-7.16614E-02 2.46333E-03
 -1       540-1.06373E-02-7.20149E-02 2.54236E-03
 -1       541-1.25406E-02-5.86799E-02 2.33086E-03
 -1       543-1.25212E-02-5.90191E-02 2.40406E-03
 -1       544-1.42472E-02-4.36828E-02 2.18389E-03
 -1       546-1.42260E-02-4.40062E-02 2.24848E-03
 -1       547-1.57462E-02-2.68899E-02 2.02639E-03
 -1       549-1.57241E-02-2.71964E-02 2.08272E-03
 -1       550-1.70190E-02-8.54766E-03 1.86547E-03
 -1       552-1.69967E-02-8.83695E-03 1.91183E-03
 -1       553-1.80555E-02 1.10812E-02 1.70626E-03
 -1       555-1.80339E-02 1.08087E-02 1.74341E-03
 -1       556-1.88561E-02 3.17280E-02 1.55617E-03
 -1       558-1.88362E-02 3.14710E-02 1.58350E-03
 -1       559-1.94316E-02 5.31301E-02 1.42071E-03
 -1       561-1.94141E-02 5.28869E-02 1.43957E-03
 -1       562-1.98040E-02 7.50421E-02 1.30714E-03
 -1       564-1.97900E-02 7.48103E-02 1.31808E-03
 -1       565-2.00068E-02 9.72508E-02 1.22001E-03
 -1       567-1.99966E-02 9.70275E-02 1.22502E-03
 -1       568-2.00834E-02 1.19582E-01 1.16641E-03
 -1       570-2.00786E-02 1.19364E-01 1.16719E-03
 -1       571-1.00454E-02 1.41913E-01 4.68053E-04
 -1       573-1.00447E-02 1.41723E-01 4.68526E-04
 -1       574-5.76734E-16-1.73241E-03 1.52960E-16
 -1       576-6.46897E-16-1.77370E-03 2.04393E-16
 -1       577-1.55593E-04-1.75305E-03-1.31520E-05
 -1       579 1.55593E-04-1.75305E-03 1.31520E-05
 -1       588-1.40321E-15-6.58327E-03-5.96181E-17
 -1       590-1.29558E-15-6.67741E-03-3.05876E-17
 -1       591-2.66707E-04-6.63034E-03-2.99855E-05
 -1       593 2.66707E-04-6.63034E-03 2.99855E-05
 -1       602-2.04437E-15-1.36437E-02-1.43418E-15
 -1       604-1.78807E-15-1.37853E-02-1.37954E-15
 -1       605-3.47538E-04-1.37145E-02-4.51169E-05
 -1       607 3.47538E-04-1.37145E-02 4.51169E-05
 -1       616-2.35723E-15-2.24765E-02-3.18618E-15
 -1       618-2.11836E-15-2.26669E-02-3.16985E-15
 -1       619-4.17529E-04-2.25717E-02-6.06673E-05
 -1       621 4.17529E-04-2.25717E-02 6.06673E-05
 -1       630-2.65369E-15-3.25452E-02-4.60717E-15
 -1       632-2.49931E-15-3.27825E-02-4.65973E-15
 -1       633-4.54648E-04-3.26638E-02-7.55928E-05
 -1       635 4.54648E-04-3.26638E-02 7.55928E-05
 -1       644-3.06209E-15-4.33067E-02-5.44844E-15
 -1       646-3.00944E-15-4.35889E-02-5.47338E-15
 -1       647-4.76300E-04-4.34478E-02-8.98863E-05
 -1       649 4.76300E-04-4.34478E-02 8.98863E-05
 -1       658-3.69096E-15-5.42832E-02-6.52666E-15
 -1       660-3.48862E-15-5.46078E-02-6.32417E-15
 -1       661-4.73090E-04-5.44455E-02-1.03400E-04
 -1       663 4.73090E-04-5.44455E-02 1.03400E-04
 -1       672-4.10749E-15-6.49834E-02-8.67175E-15
 -1       674-3.64022E-15-6.53466E-02-8.69631E-15
 -1       675-4.51954E-04-6.51650E-02-1.15688E-04
 -1       677 4.51954E-04-6.51650E-02 1.15688E-04
 -1       686-4.07937E-15-7.49738E-02-1.17006E-14
 -1       688-3.70281E-15-7.53717E-02-1.13990E-14
 -1       689-4.11585E-04-7.51728E-02-1.26753E-04
 -1       691 4.11585E-04-7.51728E-02 1.26753E-04
 -1       700-3.69499E-15-8.38447E-02-1.31571E-14
 -1       702-3.56787E-15-8.42721E-02-1.34535E-14
 -1       703-3.55028E-04-8.40584E-02-1.36142E-04
 -1       705 3.55028E-04-8.40584E-02 1.36142E-04
 -1       714-3.57397E-15-9.12387E-02-1.44239E-14
 -1       716-3.42900E-15-9.16903E-02-1.40186E-14
 -1       717-2.83872E-04-9.14645E-02-1.43864E-04
 -1       719 2.83872E-04-9.14645E-02 1.43864E-04
 -1       728-3.55173E-15-9.68441E-02-1.53808E-14
 -1       730-3.35898E-15-9.73137E-02-1.54834E-14
 -1       731-2.00450E-04-9.70789E-02-1.49582E-04
 -1       733 2.00450E-04-9.70789E-02 1.49582E-04
 -1       742-3.50377E-15-1.00405E-01-1.73789E-14
 -1       744-3.17275E-15-1.00887E-01-1.71698E-14
 -1       745-1.07254E-04-1.00646E-01-1.53312E-04
 -1       747 1.07254E-04-1.00646E-01 1.53312E-04
 -1       756-3.45890E-15-1.01724E-01-1.96939E-14
 -1       758-3.11310E-15-1.02210E-01-1.94692E-14
 -1       759-6.70775E-06-1.01967E-01-1.54867E-04
 -1       761 6.70775E-06-1.01967E-01 1.54867E-04
 -1       770-3.20520E-15-1.00660E-01-2.17570E-14
 -1       772-3.00338E-15-1.01144E-01-2.14030E-14
 -1       773 9.84604E-05-1.00902E-01-1.54304E-04
 -1       775-9.84604E-05-1.00902E-01 1.54304E-04
 -1       784-3.13315E-15-9.71355E-02-2.38709E-14
 -1       786-2.71807E-15-9.76114E-02-2.36327E-14
 -1       787 2.05745E-04-9.73735E-02-1.51586E-04
 -1       789-2.05745E-04-9.73735E-02 1.51586E-04
 -1       798-2.86764E-15-9.11319E-02-2.61262E-14
 -1       800-2.63664E-15-9.15929E-02-2.59779E-14
 -1       801 3.12502E-04-9.13624E-02-1.46844E-04
 -1       803-3.12502E-04-9.13624E-02 1.46844E-04
 -1       812-2.89253E-15-8.26880E-02-2.86700E-14
 -1       814-2.41572E-15-8.31281E-02-2.84232E-14
 -1       815 4.16367E-04-8.29080E-02-1.40184E-04
 -1       817-4.16367E-04-8.29080E-02 1.40184E-04
 -1       826-2.30361E-15-7.18971E-02-3.09738E-14
 -1       828-2.10259E-15-7.23109E-02-3.08934E-14
 -1       829 5.15030E-04-7.21040E-02-1.31823E-04
 -1       831-5.15030E-04-7.21040E-02 1.31823E-04
 -1       840-1.35463E-15-5.89017E-02-3.18508E-14
 -1       842-1.39838E-15-5.92847E-02-3.17251E-14
 -1       843 6.06530E-04-5.90932E-02-1.21997E-04
 -1       845-6.06530E-04-5.90932E-02 1.21997E-04
 -1       854-4.61877E-16-4.38875E-02-3.24466E-14
 -1       856-1.94716E-16-4.42360E-02-3.26176E-14
 -1       857 6.89120E-04-4.40617E-02-1.11009E-04
 -1       859-6.89120E-04-4.40617E-02 1.11009E-04
 -1       868 9.56472E-16-2.70751E-02-3.24877E-14
 -1       870 6.41208E-16-2.73865E-02-3.23898E-14
 -1       871 7.61498E-04-2.72308E-02-9.92122E-05
 -1       873-7.61498E-04-2.72308E-02 9.92122E-05
 -1       882 1.99751E-15-8.71190E-03-3.10333E-14
 -1       884 1.81021E-15-8.98497E-03-3.11001E-14
 -1       885 8.22656E-04-8.84844E-03-8.69757E-05
 -1       887-8.22656E-04-8.84844E-03 8.69757E-05
 -1       896 2.95409E-15 1.09384E-02-3.01448E-14
 -1       898 2.94224E-15 1.07037E-02-3.00571E-14
 -1       899 8.72200E-04 1.08211E-02-7.47562E-05
 -1       901-8.72200E-04 1.08211E-02 7.47562E-05
 -1       910 4.04970E-15 3.16059E-02-2.85223E-14
 -1       912 3.71579E-15 3.14082E-02-2.85796E-14
 -1       913 9.09943E-04 3.15071E-02-6.29675E-05
 -1       915-9.09943E-04 3.15071E-02 6.29675E-05
 -1       924 4.62167E-15 5.30273E-02-2.60300E-14
 -1       926 4.30392E-15 5.28636E-02-2.59215E-14
 -1       927 9.36676E-04 5.29455E-02-5.21469E-05
 -1       929-9.36676E-04 5.29455E-02 5.21469E-05
 -1       938 5.24828E-15 7.49559E-02-2.35527E-14
 -1       940 5.03039E-15 7.48217E-02-2.38053E-14
 -1       941 9.52956E-04 7.48888E-02-4.27495E-05
 -1       943-9.52956E-04 7.48888E-02 4.27495E-05
 -1       952 5.74468E-15 9.71772E-02-2.13710E-14
 -1       954 5.42347E-15 9.70662E-02-2.09007E-14
 -1       955 9.61100E-04 9.71217E-02-3.53480E-05
 -1       957-9.61100E-04 9.71217E-02 3.53480E-05
 -1       966 6.08205E-15 1.19518E-01-1.88651E-14
 -1       968 5.92917E-15 1.19422E-01-1.98261E-14
 -1       969 9.62132E-04 1.19470E-01-3.05246E-05
 -1       971-9.62132E-04 1.19470E-01 3.05246E-05
 -1       980 0.00000E+00 0.00000E+00 3.46048E-05
 -1       982 0.00000E+00-0.00000E+00-3.46048E-05
 -1       983 1.00454E-02 1.41913E-01-4.68053E-04
 -1       985 1.00447E-02 1.41723E-01-4.68526E-04
 -1       986-2.84545E-03-2.25685E-03-2.79778E-04
 -1       988-2.78684E-03-2.29395E-03-1.93467E-04
 -1       989-5.11750E-03-6.80408E-03-6.03014E-04
 -1       991-5.08796E-03-6.88068E-03-5.15634E-04
 -1       992-6.97089E-03-1.38940E-02-8.65711E-04
 -1       994-6.92865E-03-1.40090E-02-7.99336E-04
 -1       995-8.30766E-03-2.26377E-02-1.13876E-03
 -1       997-8.27304E-03-2.27914E-02-1.09929E-03
 -1       998-9.18509E-03-3.26574E-02-1.40035E-03
 -1      1000-9.14915E-03-3.28472E-02-1.36883E-03
 -1      1001-9.60387E-03-4.33612E-02-1.64192E-03
 -1      1003-9.57140E-03-4.35855E-02-1.63958E-03
 -1      1004-9.58301E-03-5.42866E-02-1.87476E-03
 -1      1006-9.55250E-03-5.45426E-02-1.87952E-03
 -1      1007-9.15475E-03-6.49372E-02-2.07890E-03
 -1      1009-9.12751E-03-6.52221E-02-2.10828E-03
 -1      1010-8.34398E-03-7.48842E-02-2.26698E-03
 -1      1012-8.32007E-03-7.51947E-02-2.30381E-03
 -1      1013-7.19364E-03-8.37146E-02-2.42241E-03
 -1      1015-7.17358E-03-8.40470E-02-2.47808E-03
 -1      1016-5.74137E-03-9.10747E-02-2.55425E-03
 -1      1018-5.72542E-03-9.14253E-02-2.61639E-03
 -1      1019-4.03700E-03-9.66506E-02-2.65110E-03
 -1      1021-4.02539E-03-9.70152E-02-2.72632E-03
 -1      1022-2.12782E-03-1.00189E-01-2.71932E-03
 -1      1024-2.12071E-03-1.00564E-01-2.79862E-03
 -1      1025-6.80510E-05-1.01490E-01-2.75200E-03
 -1      1027-6.54699E-05-1.01870E-01-2.83886E-03
 -1      1028 2.09023E-03-1.00415E-01-2.75434E-03
 -1      1030 2.08834E-03-1.00797E-01-2.84200E-03
 -1      1031 4.29224E-03-9.68847E-02-2.72309E-03
 -1      1033 4.28606E-03-9.72649E-02-2.81313E-03
 -1      1034 6.48647E-03-9.08812E-02-2.66335E-03
 -1      1036 6.47628E-03-9.12557E-02-2.75063E-03
 -1      1037 8.62228E-03-8.24424E-02-2.57488E-03
 -1      1039 8.60849E-03-8.28078E-02-2.65998E-03
 -1      1040 1.06542E-02-7.16614E-02-2.46333E-03
 -1      1042 1.06373E-02-7.20149E-02-2.54236E-03
 -1      1043 1.25406E-02-5.86799E-02-2.33086E-03
 -1      1045 1.25212E-02-5.90191E-02-2.40406E-03
 -1      1046 1.42472E-02-4.36828E-02-2.18389E-03
 -1      1048 1.42260E-02-4.40062E-02-2.24848E-03
 -1      1049 1.57462E-02-2.68899E-02-2.02639E-03
 -1      1051 1.57241E-02-2.71964E-02-2.08272E-03
 -1      1052 1.70190E-02-8.54766E-03-1.86547E-03
 -1      1054 1.69967E-02-8.83695E-03-1.91183E-03
 -1      1055 1.80555E-02 1.10812E-02-1.70626E-03
 -1      1057 1.80339E-02 1.08087E-02-1.74341E-03
 -1      1058 1.88561E-02 3.17280E-02-1.55617E-03
 -1      1060 1.88362E-02 3.14710E-02-1.58350E-03
 -1      1061 1.94316E-02 5.31301E-02-1.42071E-03
 -1      1063 1.94141E-02 5.28869E-02-1.43957E-03
 -1      1064 1.98040E-02 7.50421E-02-1.30714E-03
 -1      1066 1.97900E-02 7.48103E-02-1.31808E-03
 -1      1067 2.00068E-02 9.72508E-02-1.22001E-03
 -1      1069 1.99966E-02 9.70275E-02-1.22502E-03
 -1      1070 2.00834E-02 1.19582E-01-1.16641E-03
 -1      1072 2.00786E-02 1.19364E-01-1.16719E-03
 -1      1073 0.00000E+00 0.00000E+00-3.46048E-05
 -1      1075 0.00000E+00-0.00000E+00 3.46048E-05
 -1      1076 0.00000E+00-2.95106E-18 0.00000E+00
 -1      1078 0.00000E+00 2.95106E-18 0.00000E+00
 -1      1079 0.00000E+00 2.44742E-17 0.00000E+00
 -1      1081 0.00000E+00-2.44742E-17 0.00000E+00
 -1      1082 0.00000E+00 9.28814E-18 0.00000E+00
 -1      1084 0.00000E+00-9.28814E-18 0.00000E+00
 -1      1085-1.55593E-04-1.75305E-03 1.31520E-05
 -1      1087 1.55593E-04-1.75305E-03-1.31520E-05
 -1      1088 8.61988E-16-1.73241E-03-8.38484E-16
 -1      1090 6.47004E-16-1.77370E-03-7.69171E-16
 -1      1099-2.66707E-04-6.63034E-03 2.99855E-05
 -1      1101 2.66707E-04-6.63034E-03-2.99855E-05
 -1      1102 1.30183E-15-6.58327E-03-1.20731E-15
 -1      1104 1.37138E-15-6.67741E-03-1.22304E-15
 -1      1113-3.47538E-04-1.37145E-02 4.51169E-05
 -1      1115 3.47538E-04-1.37145E-02-4.51169E-05
 -1      1116 1.92909E-15-1.36437E-02-1.40717E-15
 -1      1118 1.81921E-15-1.37853E-02-1.37186E-15
 -1      1127-4.17529E-04-2.25717E-02 6.06673E-05
 -1      1129 4.17529E-04-2.25717E-02-6.06673E-05
 -1      1130 2.49410E-15-2.24765E-02-1.97951E-15
 -1      1132 2.41560E-15-2.26669E-02-2.00689E-15
 -1      1141-4.54648E-04-3.26638E-02 7.55928E-05
 -1      1143 4.54648E-04-3.26638E-02-7.55928E-05
 -1      1144 3.13556E-15-3.25452E-02-2.96893E-15
 -1      1146 2.99018E-15-3.27825E-02-2.74872E-15
 -1      1155-4.76300E-04-4.34478E-02 8.98863E-05
 -1      1157 4.76300E-04-4.34478E-02-8.98863E-05
 -1      1158 3.69367E-15-4.33067E-02-4.39668E-15
 -1      1160 3.44234E-15-4.35889E-02-4.42265E-15
 -1      1169-4.73090E-04-5.44455E-02 1.03400E-04
 -1      1171 4.73090E-04-5.44455E-02-1.03400E-04
 -1      1172 4.04817E-15-5.42832E-02-6.84125E-15
 -1      1174 3.63340E-15-5.46078E-02-6.83531E-15
 -1      1183-4.51954E-04-6.51650E-02 1.15688E-04
 -1      1185 4.51954E-04-6.51650E-02-1.15688E-04
 -1      1186 3.98126E-15-6.49834E-02-9.49855E-15
 -1      1188 3.68188E-15-6.53466E-02-9.58341E-15
 -1      1197-4.11585E-04-7.51728E-02 1.26753E-04
 -1      1199 4.11585E-04-7.51728E-02-1.26753E-04
 -1      1200 3.81297E-15-7.49738E-02-1.13445E-14
 -1      1202 3.71573E-15-7.53717E-02-1.12763E-14
 -1      1211-3.55028E-04-8.40584E-02 1.36142E-04
 -1      1213 3.55028E-04-8.40584E-02-1.36142E-04
 -1      1214 3.92974E-15-8.38447E-02-1.26577E-14
 -1      1216 3.73883E-15-8.42721E-02-1.27802E-14
 -1      1225-2.83872E-04-9.14645E-02 1.43864E-04
 -1      1227 2.83872E-04-9.14645E-02-1.43864E-04
 -1      1228 3.85536E-15-9.12387E-02-1.44627E-14
 -1      1230 3.63822E-15-9.16903E-02-1.44795E-14
 -1      1239-2.00450E-04-9.70789E-02 1.49582E-04
 -1      1241 2.00450E-04-9.70789E-02-1.49582E-04
 -1      1242 3.77952E-15-9.68441E-02-1.66491E-14
 -1      1244 3.44127E-15-9.73137E-02-1.67340E-14
 -1      1253-1.07254E-04-1.00646E-01 1.53312E-04
 -1      1255 1.07254E-04-1.00646E-01-1.53312E-04
 -1      1256 3.66280E-15-1.00405E-01-1.89629E-14
 -1      1258 3.39405E-15-1.00887E-01-1.90137E-14
 -1      1267-6.70775E-06-1.01967E-01 1.54867E-04
 -1      1269 6.70775E-06-1.01967E-01-1.54867E-04
 -1      1270 3.71073E-15-1.01724E-01-2.07573E-14
 -1      1272 3.50572E-15-1.02210E-01-2.10704E-14
 -1      1281 9.84604E-05-1.00902E-01 1.54304E-04
 -1      1283-9.84604E-05-1.00902E-01-1.54304E-04
 -1      1284 3.88698E-15-1.00660E-01-2.28334E-14
 -1      1286 3.51682E-15-1.01144E-01-2.32061E-14
 -1      1295 2.05745E-04-9.73735E-02 1.51586E-04
 -1      1297-2.05745E-04-9.73735E-02-1.51586E-04
 -1      1298 3.82509E-15-9.71355E-02-2.57686E-14
 -1      1300 3.36187E-15-9.76114E-02-2.58984E-14
 -1      1309 3.12502E-04-9.13624E-02 1.46844E-04
 -1      1311-3.12502E-04-9.13624E-02-1.46844E-04
 -1      1312 3.38982E-15-9.11319E-02-2.81433E-14
 -1      1314 3.17090E-15-9.15929E-02-2.84434E-14
 -1      1323 4.16367E-04-8.29080E-02 1.40184E-04
 -1      1325-4.16367E-04-8.29080E-02-1.40184E-04
 -1      1326 2.80342E-15-8.26880E-02-2.99115E-14
 -1      1328 2.54127E-15-8.31281E-02-3.01203E-14
 -1      1337 5.15030E-04-7.21040E-02 1.31823E-04
 -1      1339-5.15030E-04-7.21040E-02-1.31823E-04
 -1      1340 1.95314E-15-7.18971E-02-3.08242E-14
 -1      1342 1.86499E-15-7.23109E-02-3.11471E-14
 -1      1351 6.06530E-04-5.90932E-02 1.21997E-04
 -1      1353-6.06530E-04-5.90932E-02-1.21997E-04
 -1      1354 1.12165E-15-5.89017E-02-3.15478E-14
 -1      1356 1.05716E-15-5.92847E-02-3.17107E-14
 -1      1365 6.89120E-04-4.40617E-02 1.11009E-04
 -1      1367-6.89120E-04-4.40617E-02-1.11009E-04
 -1      1368 3.74249E-16-4.38875E-02-3.21255E-14
 -1      1370 3.16171E-16-4.42360E-02-3.20731E-14
 -1      1379 7.61498E-04-2.72308E-02 9.92122E-05
 -1      1381-7.61498E-04-2.72308E-02-9.92122E-05
 -1      1382-2.85341E-16-2.70751E-02-3.23888E-14
 -1      1384-3.84262E-16-2.73865E-02-3.24527E-14
 -1      1393 8.22656E-04-8.84844E-03 8.69757E-05
 -1      1395-8.22656E-04-8.84844E-03-8.69757E-05
 -1      1396-7.69282E-16-8.71190E-03-3.27804E-14
 -1      1398-9.61972E-16-8.98497E-03-3.28129E-14
 -1      1407 8.72200E-04 1.08211E-02 7.47562E-05
 -1      1409-8.72200E-04 1.08211E-02-7.47562E-05
 -1      1410-1.35756E-15 1.09384E-02-3.21894E-14
 -1      1412-1.12309E-15 1.07037E-02-3.22365E-14
 -1      1421 9.09943E-04 3.15071E-02 6.29675E-05
 -1      1423-9.09943E-04 3.15071E-02-6.29675E-05
 -1      1424-1.70746E-15 3.16059E-02-2.98421E-14
 -1      1426-1.32831E-15 3.14082E-02-2.98948E-14
 -1      1435 9.36676E-04 5.29455E-02 5.21469E-05
 -1      1437-9.36676E-04 5.29455E-02-5.21469E-05
 -1      1438-1.92302E-15 5.30273E-02-2.74765E-14
 -1      1440-1.65572E-15 5.28636E-02-2.73164E-14
 -1      1449 9.52956E-04 7.48888E-02 4.27495E-05
 -1      1451-9.52956E-04 7.48888E-02-4.27495E-05
 -1      1452-2.08448E-15 7.49559E-02-2.58824E-14
 -1      1454-1.99212E-15 7.48217E-02-2.59928E-14
 -1      1463 9.61100E-04 9.71217E-02 3.53480E-05
 -1      1465-9.61100E-04 9.71217E-02-3.53480E-05
 -1      1466-2.54337E-15 9.71772E-02-2.38399E-14
 -1      1468-2.14212E-15 9.70662E-02-2.40246E-14
 -1      1477 9.62132E-04 1.19470E-01 3.05246E-05
 -1      1479-9.62132E-04 1.19470E-01-3.05246E-05
 -1      1480-2.91913E-15 1.19518E-01-2.08498E-14
 -1      1482-2.40647E-15 1.19422E-01-2.04644E-14
 -1      1491 9.60890E-04 1.41478E-01-1.41211E-06
 -1      1493-9.60890E-04 1.41478E-01 1.41211E-06
 -1      1494 9.61342E-04 1.41458E-01 2.67356E-14
 -1      1496-9.61342E-04 1.41458E-01-6.22696E-14
 -1      1497 9.60890E-04 1.41478E-01 1.41211E-06
 -1      1499-9.60890E-04 1.41478E-01-1.41211E-06
 -1      1500-2.84545E-03-2.25685E-03 2.79778E-04
 -1      1502-2.78684E-03-2.29395E-03 1.93467E-04
 -1      1503-5.11750E-03-6.80408E-03 6.03014E-04
 -1      1505-5.08796E-03-6.88068E-03 5.15634E-04
 -1      1506-6.97089E-03-1.38940E-02 8.65711E-04
 -1      1508-6.92865E-03-1.40090E-02 7.99336E-04
 -1      1509-8.30766E-03-2.26377E-02 1.13876E-03
 -1      1511-8.27304E-03-2.27914E-02 1.09929E-03
 -1      1512-9.18509E-03-3.26574E-02 1.40035E-03
 -1      1514-9.14915E-03-3.28472E-02 1.36883E-03
 -1      1515-9.60387E-03-4.33612E-02 1.64192E-03
 -1      1517-9.57140E-03-4.35855E-02 1.63958E-03
 -1      1518-9.58301E-03-5.42866E-02 1.87476E-03
 -1      1520-9.55250E-03-5.45426E-02 1.87952E-03
 -1      1521-9.15475E-03-6.49372E-02 2.07890E-03
 -1      1523-9.12751E-03-6.52221E-02 2.10828E-03
 -1      1524-8.34398E-03-7.48842E-02 2.26698E-03
 -1      1526-8.32007E-03-7.51947E-02 2.30381E-03
 -1      1527-7.19364E-03-8.37146E-02 2.42241E-03
 -1      1529-7.17358E-03-8.40470E-02 2.47808E-03
 -1      1530-5.74137E-03-9.10747E-02 2.55425E-03
 -1      1532-5.72542E-03-9.14253E-02 2.61639E-03
 -1      1533-4.03700E-03-9.66506E-02 2.65110E-03
 -1      1535-4.02539E-03-9.70152E-02 2.72632E-03
 -1      1536-2.12782E-03-1.00189E-01 2.71932E-03
 -1      1538-2.12071E-03-1.00564E-01 2.79862E-03
 -1      1539-6.80510E-05-1.01490E-01 2.75200E-03
 -1      1541-6.54699E-05-1.01870E-01 2.83886E-03
 -1      1542 2.09023E-03-1.00415E-01 2.75434E-03
 -1      1544 2.08834E-03-1.00797E-01 2.84200E-03
 -1      1545 4.29224E-03-9.68847E-02 2.72309E-03
 -1      1547 4.28606E-03-9.72649E-02 2.81313E-03
 -1      1548 6.48647E-03-9.08812E-02 2.66335E-03
 -1      1550 6.47628E-03-9.12557E-02 2.75063E-03
 -1      1551 8.62228E-03-8.24424E-02 2.57488E-03
 -1      1553 8.60849E-03-8.28078E-02 2.65998E-03
 -1      1554 1.06542E-02-7.16614E-02 2.46333E-03
 -1      1556 1.06373E-02-7.20149E-02 2.54236E-03
 -1      1557 1.25406E-02-5.86799E-02 2.33086E-03
 -1      1559 1.25212E-02-5.90191E-02 2.40406E-03
 -1      1560 1.42472E-02-4.36828E-02 2.18389E-03
 -1      1562 1.42260E-02-4.40062E-02 2.24848E-03
 -1      1563 1.57462E-02-2.68899E-02 2.02639E-03
 -1      1565 1.57241E-02-2.71964E-02 2.08272E-03
 -1      1566 1.70190E-02-8.54766E-03 1.86547E-03
 -1      1568 1.69967E-02-8.83695E-03 1.91183E-03
 -1      1569 1.80555E-02 1.10812E-02 1.70626E-03
 -1      1571 1.80339E-02 1.08087E-02 1.74341E-03
 -1      1572 1.88561E-02 3.17280E-02 1.55617E-03
 -1      1574 1.88362E-02 3.14710E-02 1.58350E-03
 -1      1575 1.94316E-02 5.31301E-02 1.42071E-03
 -1      1577 1.94141E-02 5.28869E-02 1.43957E-03
 -1      1578 1.98040E-02 7.50421E-02 1.30714E-03
 -1      1580 1.97900E-02 7.48103E-02 1.31808E-03
 -1      1581 2.00068E-02 9.72508E-02 1.22001E-03
 -1      1583 1.99966E-02 9.70275E-02 1.22502E-03
 -1      1584 2.00834E-02 1.19582E-01 1.16641E-03
 -1      1586 2.00786E-02 1.19364E-01 1.16719E-03
 -1      1587 1.00454E-02 1.41913E-01 4.68053E-04
 -1      1589 1.00447E-02 1.41723E-01 4.68526E-04
 -1      1590 0.00000E+00 0.00000E+00 3.46048E-05
 -1      1592 0.00000E+00 0.00000E+00-3.46048E-05
 -1      1593-1.00454E-02 1.41913E-01-4.68053E-04
 -1      1595-1.00447E-02 1.41723E-01-4.68526E-04
 -1      1596 2.84545E-03-2.25685E-03-2.79778E-04
 -1      1598 2.78684E-03-2.29395E-03-1.93467E-04
 -1      1599 5.11750E-03-6.80408E-03-6.03014E-04
 -1      1601 5.08796E-03-6.88068E-03-5.15634E-04
 -1      1602 6.97089E-03-1.38940E-02-8.65711E-04
 -1      1604 6.92865E-03-1.40090E-02-7.99336E-04
 -1      1605 8.30766E-03-2.26377E-02-1.13876E-03
 -1      1607 8.27304E-03-2.27914E-02-1.09929E-03
 -1      1608 9.18509E-03-3.26574E-02-1.40035E-03
 -1      1610 9.14915E-03-3.28472E-02-1.36883E-03
 -1      1611 9.60387E-03-4.33612E-02-1.64192E-03
 -1      1613 9.57140E-03-4.35855E-02-1.63958E-03
 -1      1614 9.58301E-03-5.42866E-02-1.87476E-03
 -1      1616 9.55250E-03-5.45426E-02-1.87952E-03
 -1      1617 9.15475E-03-6.49372E-02-2.07890E-03
 -1      1619 9.12751E-03-6.52221E-02-2.10828E-03
 -1      1620 8.34398E-03-7.48842E-02-2.26698E-03
 -1      1622 8.32007E-03-7.51947E-02-2.30381E-03
 -1      1623 7.19364E-03-8.37146E-02-2.42241E-03
 -1      1625 7.17358E-03-8.40470E-02-2.47808E-03
 -1      1626 5.74137E-03-9.10747E-02-2.55425E-03
 -1      1628 5.72542E-03-9.14253E-02-2.61639E-03
 -1      1629 4.03700E-03-9.66506E-02-2.65110E-03
 -1      1631 4.02539E-03-9.70152E-02-2.72632E-03
 -1      1632 2.12782E-03-1.00189E-01-2.71932E-03
 -1      1634 2.12071E-03-1.00564E-01-2.79862E-03
 -1      1635 6.80510E-05-1.01490E-01-2.75200E-03
 -1      1637 6.54699E-05-1.01870E-01-2.83886E-03
 -1      1638-2.09023E-03-1.00415E-01-2.75434E-03
 -1      1640-2.08834E-03-1.00797E-01-2.84200E-03
 -1      1641-4.29224E-03-9.68847E-02-2.72309E-03
 -1      1643-4.28606E-03-9.72649E-02-2.81313E-03
 -1      1644-6.48647E-03-9.08812E-02-2.66335E-03
 -1      1646-6.47628E-03-9.12557E-02-2.75063E-03
 -1      1647-8.62228E-03-8.24424E-02-2.57488E-03
 -1      1649-8.60849E-03-8.28078E-02-2.65998E-03
 -1      1650-1.06542E-02-7.16614E-02-2.46333E-03
 -1      1652-1.06373E-02-7.20149E-02-2.54236E-03
 -1      1653-1.25406E-02-5.86799E-02-2.33086E-03
 -1      1655-1.25212E-02-5.90191E-02-2.40406E-03
 -1      1656-1.42472E-02-4.36828E-02-2.18389E-03
 -1      1658-1.42260E-02-4.40062E-02-2.24848E-03
 -1      1659-1.57462E-02-2.68899E-02-2.02639E-03
 -1      1661-1.57241E-02-2.71964E-02-2.08272E-03
 -1      1662-1.70190E-02-8.54766E-03-1.86547E-03
 -1      1664-1.69967E-02-8.83695E-03-1.91183E-03
 -1      1665-1.80555E-02 1.10812E-02-1.70626E-03
 -1      1667-1.80339E-02 1.08087E-02-1.74341E-03
 -1      1668-1.88561E-02 3.17280E-02-1.55617E-03
 -1      1670-1.88362E-02 3.14710E-02-1.58350E-03
 -1      1671-1.94316E-02 5.31301E-02-1.42071E-03
 -1      1673-1.94141E-02 5.28869E-02-1.43957E-03
 -1      1674-1.98040E-02 7.50421E-02-1.30714E-03
 -1      1676-1.97900E-02 7.48103E-02-1.31808E-03
 -1      1677-2.00068E-02 9.72508E-02-1.22001E-03
 -1      1679-1.99966E-02 9.70275E-02-1.22502E-03
 -1      1680-2.00834E-02 1.19582E-01-1.16641E-03
 -1      1682-2.00786E-02 1.19364E-01-1.16719E-03
 -1      1683 0.00000E+00 0.00000E+00-3.46048E-05
 -1      1685 0.00000E+00 0.00000E+00 3.46048E-05
 -1      1686 1.31317E-03-1.84997E-03 1.46988E-04
 -1      1688 1.28090E-03-1.88254E-03 9.42753E-05
 -1      1689 2.53369E-03-6.66354E-03 3.15686E-04
 -1      1691 2.51798E-03-6.74519E-03 2.75023E-04
 -1      1692 3.41635E-03-1.36941E-02 4.54199E-04
 -1      1694 3.39334E-03-1.38163E-02 4.21022E-04
 -1      1695 4.10468E-03-2.25390E-02 6.02029E-04
 -1      1697 4.08588E-03-2.27022E-02 5.79406E-04
 -1      1698 4.53922E-03-3.25754E-02 7.38040E-04
 -1      1700 4.51960E-03-3.27778E-02 7.25048E-04
 -1      1701 4.75162E-03-4.33402E-02 8.71140E-04
 -1      1703 4.73380E-03-4.35790E-02 8.66586E-04
 -1      1704 4.74513E-03-5.42972E-02 9.93295E-04
 -1      1706 4.72838E-03-5.45705E-02 9.97919E-04
 -1      1707 4.53347E-03-6.49933E-02 1.10603E-03
 -1      1709 4.51845E-03-6.52974E-02 1.11833E-03
 -1      1710 4.13324E-03-7.49717E-02 1.20570E-03
 -1      1712 4.12008E-03-7.53036E-02 1.22534E-03
 -1      1713 3.56222E-03-8.38366E-02 1.29114E-03
 -1      1715 3.55117E-03-8.41920E-02 1.31752E-03
 -1      1716 2.84176E-03-9.12224E-02 1.36103E-03
 -1      1718 2.83304E-03-9.15973E-02 1.39259E-03
 -1      1719 1.99495E-03-9.68222E-02 1.41339E-03
 -1      1721 1.98868E-03-9.72120E-02 1.45014E-03
 -1      1722 1.04643E-03-1.00378E-01 1.44836E-03
 -1      1724 1.04274E-03-1.00778E-01 1.48810E-03
 -1      1725 2.24886E-05-1.01692E-01 1.46423E-03
 -1      1727 2.13939E-05-1.02097E-01 1.50714E-03
 -1      1728-1.05054E-03-1.00624E-01 1.46218E-03
 -1      1730-1.04905E-03-1.01031E-01 1.50592E-03
 -1      1731-2.14569E-03-9.70970E-02 1.44136E-03
 -1      1733-2.14169E-03-9.74997E-02 1.48607E-03
 -1      1734-3.23717E-03-9.10910E-02 1.40380E-03
 -1      1736-3.23083E-03-9.14857E-02 1.44730E-03
 -1      1737-4.29990E-03-8.26455E-02 1.34973E-03
 -1      1739-4.29144E-03-8.30283E-02 1.39211E-03
 -1      1740-5.31123E-03-7.18534E-02 1.28197E-03
 -1      1742-5.30092E-03-7.22208E-02 1.32139E-03
 -1      1743-6.25054E-03-5.88574E-02 1.20185E-03
 -1      1745-6.23874E-03-5.92067E-02 1.23842E-03
 -1      1746-7.10078E-03-4.38427E-02 1.11285E-03
 -1      1748-7.08788E-03-4.41717E-02 1.14516E-03
 -1      1749-7.84817E-03-2.70301E-02 1.01728E-03
 -1      1751-7.83462E-03-2.73375E-02 1.04555E-03
 -1      1752-8.48348E-03-8.66669E-03 9.19146E-04
 -1      1754-8.46977E-03-8.95203E-03 9.42479E-04
 -1      1755-9.00175E-03 1.09837E-02 8.21451E-04
 -1      1757-8.98839E-03 1.07200E-02 8.40322E-04
 -1      1758-9.40330E-03 3.16517E-02 7.28619E-04
 -1      1760-9.39085E-03 3.14083E-02 7.42601E-04
 -1      1761-9.69353E-03 5.30733E-02 6.43930E-04
 -1      1763-9.68250E-03 5.28480E-02 6.53886E-04
 -1      1764-9.88339E-03 7.50029E-02 5.72159E-04
 -1      1766-9.87446E-03 7.47926E-02 5.78124E-04
 -1      1767-9.98968E-03 9.72248E-02 5.16167E-04
 -1      1769-9.98310E-03 9.70256E-02 5.19454E-04
 -1      1770-1.00351E-02 1.19566E-01 4.81340E-04
 -1      1772-1.00320E-02 1.19374E-01 4.82567E-04
 -1      1773-1.31317E-03-1.84997E-03-1.46988E-04
 -1      1775-1.28090E-03-1.88254E-03-9.42753E-05
 -1      1776-2.53369E-03-6.66354E-03-3.15686E-04
 -1      1778-2.51798E-03-6.74519E-03-2.75023E-04
 -1      1779-3.41635E-03-1.36941E-02-4.54199E-04
 -1      1781-3.39334E-03-1.38163E-02-4.21022E-04
 -1      1782-4.10468E-03-2.25390E-02-6.02029E-04
 -1      1784-4.08588E-03-2.27022E-02-5.79406E-04
 -1      1785-4.53922E-03-3.25754E-02-7.38040E-04
 -1      1787-4.51960E-03-3.27778E-02-7.25048E-04
 -1      1788-4.75162E-03-4.33402E-02-8.71140E-04
 -1      1790-4.73380E-03-4.35790E-02-8.66586E-04
 -1      1791-4.74513E-03-5.42972E-02-9.93295E-04
 -1      1793-4.72838E-03-5.45705E-02-9.97919E-04
 -1      1794-4.53347E-03-6.49933E-02-1.10603E-03
 -1      1796-4.51845E-03-6.52974E-02-1.11833E-03
 -1      1797-4.13324E-03-7.49717E-02-1.20570E-03
 -1      1799-4.12008E-03-7.53036E-02-1.22534E-03
 -1      1800-3.56222E-03-8.38366E-02-1.29114E-03
 -1      1802-3.55117E-03-8.41920E-02-1.31752E-03
 -1      1803-2.84176E-03-9.12224E-02-1.36103E-03
 -1      1805-2.83304E-03-9.15973E-02-1.39259E-03
 -1      1806-1.99495E-03-9.68222E-02-1.41339E-03
 -1      1808-1.98868E-03-9.72120E-02-1.45014E-03
 -1      1809-1.04643E-03-1.00378E-01-1.44836E-03
 -1      1811-1.04274E-03-1.00778E-01-1.48810E-03
 -1      1812-2.24886E-05-1.01692E-01-1.46423E-03
 -1      1814-2.13939E-05-1.02097E-01-1.50714E-03
 -1      1815 1.05054E-03-1.00624E-01-1.46218E-03
 -1      1817 1.04905E-03-1.01031E-01-1.50592E-03
 -1      1818 2.14569E-03-9.70970E-02-1.44136E-03
 -1      1820 2.14169E-03-9.74997E-02-1.48607E-03
 -1      1821 3.23717E-03-9.10910E-02-1.40380E-03
 -1      1823 3.23083E-03-9.14857E-02-1.44730E-03
 -1      1824 4.29990E-03-8.26455E-02-1.34973E-03
 -1      1826 4.29144E-03-8.30283E-02-1.39211E-03
 -1      1827 5.31123E-03-7.18534E-02-1.28197E-03
 -1      1829 5.30092E-03-7.22208E-02-1.32139E-03
 -1      1830 6.25054E-03-5.88574E-02-1.20185E-03
 -1      1832 6.23874E-03-5.92067E-02-1.23842E-03
 -1      1833 7.10078E-03-4.38427E-02-1.11285E-03
 -1      1835 7.08788E-03-4.41717E-02-1.14516E-03
 -1      1836 7.84817E-03-2.70301E-02-1.01728E-03
 -1      1838 7.83462E-03-2.73375E-02-1.04555E-03
 -1      1839 8.48348E-03-8.66669E-03-9.19146E-04
 -1      1841 8.46977E-03-8.95203E-03-9.42479E-04
 -1      1842 9.00175E-03 1.09837E-02-8.21451E-04
 -1      1844 8.98839E-03 1.07200E-02-8.40322E-04
 -1      1845 9.40330E-03 3.16517E-02-7.28619E-04
 -1      1847 9.39085E-03 3.14083E-02-7.42601E-04
 -1      1848 9.69353E-03 5.30733E-02-6.43930E-04
 -1      1850 9.68250E-03 5.28480E-02-6.53886E-04
 -1      1851 9.88339E-03 7.50029E-02-5.72159E-04
 -1      1853 9.87446E-03 7.47926E-02-5.78124E-04
 -1      1854 9.98968E-03 9.72248E-02-5.16167E-04
 -1      1856 9.98310E-03 9.70256E-02-5.19454E-04
 -1      1857 1.00351E-02 1.19566E-01-4.81340E-04
 -1      1859 1.00320E-02 1.19374E-01-4.82567E-04
 -1      1860-1.71310E-04-2.04229E-03-1.13497E-05
 -1      1862 1.71310E-04-2.04229E-03 1.13497E-05
 -1      1863-2.73156E-04-7.25797E-03-2.39637E-05
 -1      1865 2.73156E-04-7.25797E-03 2.39637E-05
 -1      1866-3.60021E-04-1.46676E-02-3.64933E-05
 -1      1868 3.60021E-04-1.46676E-02 3.64933E-05
 -1      1869-4.25649E-04-2.38504E-02-4.88691E-05
 -1      1871 4.25649E-04-2.38504E-02 4.88691E-05
 -1      1872-4.65351E-04-3.42566E-02-6.09195E-05
 -1      1874 4.65351E-04-3.42566E-02 6.09195E-05
 -1      1875-4.84606E-04-4.53462E-02-7.26357E-05
 -1      1877 4.84606E-04-4.53462E-02 7.26357E-05
 -1      1878-4.82035E-04-5.66275E-02-8.35753E-05
 -1      1880 4.82035E-04-5.66275E-02 8.35753E-05
 -1      1881-4.59304E-04-6.76110E-02-9.37104E-05
 -1      1883 4.59304E-04-6.76110E-02 9.37104E-05
 -1      1884-4.18463E-04-7.78514E-02-1.02701E-04
 -1      1886 4.18463E-04-7.78514E-02 1.02701E-04
 -1      1887-3.60500E-04-8.69380E-02-1.10383E-04
 -1      1889 3.60500E-04-8.69380E-02 1.10383E-04
 -1      1890-2.88264E-04-9.45055E-02-1.16573E-04
 -1      1892 2.88264E-04-9.45055E-02 1.16573E-04
 -1      1893-2.03392E-04-1.00240E-01-1.21068E-04
 -1      1895 2.03392E-04-1.00240E-01 1.21068E-04
 -1      1896-1.08810E-04-1.03882E-01-1.23797E-04
 -1      1898 1.08810E-04-1.03882E-01 1.23797E-04
 -1      1899-6.75943E-06-1.05231E-01-1.24617E-04
 -1      1901 6.75943E-06-1.05231E-01 1.24617E-04
 -1      1902 9.98866E-05-1.04147E-01-1.23540E-04
 -1      1904-9.98866E-05-1.04147E-01 1.23540E-04
 -1      1905 2.08631E-04-1.00551E-01-1.20530E-04
 -1      1907-2.08631E-04-1.00551E-01 1.20530E-04
 -1      1908 3.16776E-04-9.44279E-02-1.15686E-04
 -1      1910-3.16776E-04-9.44279E-02 1.15686E-04
 -1      1911 4.21913E-04-8.58185E-02-1.09095E-04
 -1      1913-4.21913E-04-8.58185E-02 1.09095E-04
 -1      1914 5.21705E-04-7.48211E-02-1.00939E-04
 -1      1916-5.21705E-04-7.48211E-02 1.00939E-04
 -1      1917 6.14139E-04-6.15840E-02-9.14291E-05
 -1      1919-6.14139E-04-6.15840E-02 9.14291E-05
 -1      1920 6.97445E-04-4.62998E-02-8.08315E-05
 -1      1922-6.97445E-04-4.62998E-02 8.08315E-05
 -1      1923 7.70274E-04-2.91976E-02-6.94699E-05
 -1      1925-7.70274E-04-2.91976E-02 6.94699E-05
 -1      1926 8.31599E-04-1.05342E-02-5.76845E-05
 -1      1928-8.31599E-04-1.05342E-02 5.76845E-05
 -1      1929 8.80993E-04 9.41680E-03-4.59016E-05
 -1      1931-8.80993E-04 9.41680E-03 4.59016E-05
 -1      1932 9.18233E-04 3.03738E-02-3.45222E-05
 -1      1934-9.18233E-04 3.03738E-02 3.45222E-05
 -1      1935 9.44142E-04 5.20623E-02-2.40557E-05
 -1      1937-9.44142E-04 5.20623E-02 2.40557E-05
 -1      1938 9.59100E-04 7.42218E-02-1.49659E-05
 -1      1940-9.59100E-04 7.42218E-02 1.49659E-05
 -1      1941 9.65777E-04 9.66266E-02-7.80007E-06
 -1      1943-9.65777E-04 9.66266E-02 7.80007E-06
 -1      1944 9.64384E-04 1.19086E-01-3.12910E-06
 -1      1946-9.64384E-04 1.19086E-01 3.12910E-06
 -1      1947-1.87026E-04-2.17054E-03 5.10442E-16
 -1      1949 1.87026E-04-2.17054E-03-8.91214E-16
 -1      1950-2.79606E-04-7.54036E-03 1.24466E-15
 -1      1952 2.79606E-04-7.54036E-03-2.73045E-15
 -1      1953-3.72505E-04-1.50913E-02 2.07820E-15
 -1      1955 3.72505E-04-1.50913E-02-4.86070E-15
 -1      1956-4.33769E-04-2.44211E-02 2.97332E-15
 -1      1958 4.33769E-04-2.44211E-02-7.57554E-15
 -1      1959-4.76054E-04-3.49659E-02 3.64986E-15
 -1      1961 4.76054E-04-3.49659E-02-1.08333E-14
 -1      1962-4.92913E-04-4.61928E-02 4.19456E-15
 -1      1964 4.92913E-04-4.61928E-02-1.43878E-14
 -1      1965-4.90980E-04-5.76008E-02 4.44436E-15
 -1      1967 4.90980E-04-5.76008E-02-1.84540E-14
 -1      1968-4.66654E-04-6.87027E-02 4.55538E-15
 -1      1970 4.66654E-04-6.87027E-02-2.28116E-14
 -1      1971-4.25340E-04-7.90473E-02 4.44436E-15
 -1      1973 4.25340E-04-7.90473E-02-2.68327E-14
 -1      1974-3.65972E-04-8.82236E-02 4.20150E-15
 -1      1976 3.65972E-04-8.82236E-02-3.02085E-14
 -1      1977-2.92655E-04-9.58627E-02 4.17374E-15
 -1      1979 2.92655E-04-9.58627E-02-3.34142E-14
 -1      1980-2.06333E-04-1.01650E-01 3.88578E-15
 -1      1982 2.06333E-04-1.01650E-01-3.65298E-14
 -1      1983-1.10366E-04-1.05323E-01 3.46251E-15
 -1      1985 1.10366E-04-1.05323E-01-3.96905E-14
 -1      1986-6.81111E-06-1.06682E-01 3.20577E-15
 -1      1988 6.81111E-06-1.06682E-01-4.31807E-14
 -1      1989 1.01313E-04-1.05585E-01 2.68535E-15
 -1      1991-1.01313E-04-1.05585E-01-4.74516E-14
 -1      1992 2.11517E-04-1.01954E-01 2.09555E-15
 -1      1994-2.11517E-04-1.01954E-01-5.20729E-14
 -1      1995 3.21049E-04-9.57744E-02 1.46411E-15
 -1      1997-3.21049E-04-9.57744E-02-5.60385E-14
 -1      1998 4.27460E-04-8.70884E-02 8.88178E-16
 -1      2000-4.27460E-04-8.70884E-02-5.97959E-14
 -1      2001 5.28381E-04-7.59960E-02 1.04604E-15
 -1      2003-5.28381E-04-7.59960E-02-6.31179E-14
 -1      2004 6.21748E-04-6.26483E-02 1.43722E-15
 -1      2006-6.21748E-04-6.26483E-02-6.58414E-14
 -1      2007 7.05770E-04-4.72409E-02 2.15301E-15
 -1      2009-7.05770E-04-4.72409E-02-6.77722E-14
 -1      2010 7.79050E-04-3.00065E-02 3.45167E-15
 -1      2012-7.79050E-04-3.00065E-02-6.89429E-14
 -1      2013 8.40543E-04-1.12061E-02 5.38545E-15
 -1      2015-8.40543E-04-1.12061E-02-6.94609E-14
 -1      2016 8.89787E-04 8.88184E-03 7.39860E-15
 -1      2018-8.89787E-04 8.88184E-03-6.97853E-14
 -1      2019 9.26522E-04 2.99709E-02 1.02782E-14
 -1      2021-9.26522E-04 2.99709E-02-6.90975E-14
 -1      2022 9.51609E-04 5.17810E-02 1.33539E-14
 -1      2024-9.51609E-04 5.17810E-02-6.82024E-14
 -1      2025 9.65245E-04 7.40455E-02 1.68511E-14
 -1      2027-9.65245E-04 7.40455E-02-6.71876E-14
 -1      2028 9.70454E-04 9.65336E-02 2.00326E-14
 -1      2030-9.70454E-04 9.65336E-02-6.56801E-14
 -1      2031 9.66637E-04 1.19046E-01 2.36304E-14
 -1      2033-9.66637E-04 1.19046E-01-6.41570E-14
 -1      2034-1.71310E-04-2.04229E-03 1.13497E-05
 -1      2036 1.71310E-04-2.04229E-03-1.13497E-05
 -1      2037-2.73156E-04-7.25797E-03 2.39637E-05
 -1      2039 2.73156E-04-7.25797E-03-2.39637E-05
 -1      2040-3.60021E-04-1.46676E-02 3.64933E-05
 -1      2042 3.60021E-04-1.46676E-02-3.64933E-05
 -1      2043-4.25649E-04-2.38504E-02 4.88691E-05
 -1      2045 4.25649E-04-2.38504E-02-4.88691E-05
 -1      2046-4.65351E-04-3.42566E-02 6.09195E-05
 -1      2048 4.65351E-04-3.42566E-02-6.09195E-05
 -1      2049-4.84606E-04-4.53462E-02 7.26357E-05
 -1      2051 4.84606E-04-4.53462E-02-7.26357E-05
 -1      2052-4.82035E-04-5.66275E-02 8.35753E-05
 -1      2054 4.82035E-04-5.66275E-02-8.35753E-05
 -1      2055-4.59304E-04-6.76110E-02 9.37104E-05
 -1      2057 4.59304E-04-6.76110E-02-9.37104E-05
 -1      2058-4.18463E-04-7.78514E-02 1.02701E-04
 -1      2060 4.18463E-04-7.78514E-02-1.02701E-04
 -1      2061-3.60500E-04-8.69380E-02 1.10383E-04
 -1      2063 3.60500E-04-8.69380E-02-1.10383E-04
 -1      2064-2.88264E-04-9.45055E-02 1.16573E-04
 -1      2066 2.88264E-04-9.45055E-02-1.16573E-04
 -1      2067-2.03392E-04-1.00240E-01 1.21068E-04
 -1      2069 2.03392E-04-1.00240E-01-1.21068E-04
 -1      2070-1.08810E-04-1.03882E-01 1.23797E-04
 -1      2072 1.08810E-04-1.03882E-01-1.23797E-04
 -1      2073-6.75943E-06-1.05231E-01 1.24617E-04
 -1      2075 6.75943E-06-1.05231E-01-1.24617E-04
 -1      2076 9.98866E-05-1.04147E-01 1.23540E-04
 -1      2078-9.98866E-05-1.04147E-01-1.23540E-04
 -1      2079 2.08631E-04-1.00551E-01 1.20530E-04
 -1      2081-2.08631E-04-1.00551E-01-1.20530E-04
 -1      2082 3.16776E-04-9.44279E-02 1.15686E-04
 -1      2084-3.16776E-04-9.44279E-02-1.15686E-04
 -1      2085 4.21913E-04-8.58185E-02 1.09095E-04
 -1      2087-4.21913E-04-8.58185E-02-1.09095E-04
 -1      2088 5.21705E-04-7.48211E-02 1.00939E-04
 -1      2090-5.21705E-04-7.48211E-02-1.00939E-04
 -1      2091 6.14139E-04-6.15840E-02 9.14291E-05
 -1      2093-6.14139E-04-6.15840E-02-9.14291E-05
 -1      2094 6.97445E-04-4.62998E-02 8.08315E-05
 -1      2096-6.97445E-04-4.62998E-02-8.08315E-05
 -1      2097 7.70274E-04-2.91976E-02 6.94699E-05
 -1      2099-7.70274E-04-2.91976E-02-6.94699E-05
 -1      2100 8.31599E-04-1.05342E-02 5.76845E-05
 -1      2102-8.31599E-04-1.05342E-02-5.76845E-05
 -1      2103 8.80993E-04 9.41680E-03 4.59016E-05
 -1      2105-8.80993E-04 9.41680E-03-4.59016E-05
 -1      2106 9.18233E-04 3.03738E-02 3.45222E-05
 -1      2108-9.18233E-04 3.03738E-02-3.45222E-05
 -1      2109 9.44142E-04 5.20623E-02 2.40557E-05
 -1      2111-9.44142E-04 5.20623E-02-2.40557E-05
 -1      2112 9.59100E-04 7.42218E-02 1.49659E-05
 -1      2114-9.59100E-04 7.42218E-02-1.49659E-05
 -1      2115 9.65777E-04 9.66266E-02 7.80007E-06
 -1      2117-9.65777E-04 9.66266E-02-7.80007E-06
 -1      2118 9.64384E-04 1.19086E-01 3.12910E-06
 -1      2120-9.64384E-04 1.19086E-01-3.12910E-06
 -1      2121-1.31317E-03-1.84997E-03 1.46988E-04
 -1      2123-1.28090E-03-1.88254E-03 9.42753E-05
 -1      2124-2.53369E-03-6.66354E-03 3.15686E-04
 -1      2126-2.51798E-03-6.74519E-03 2.75023E-04
 -1      2127-3.41635E-03-1.36941E-02 4.54199E-04
 -1      2129-3.39334E-03-1.38163E-02 4.21022E-04
 -1      2130-4.10468E-03-2.25390E-02 6.02029E-04
 -1      2132-4.08588E-03-2.27022E-02 5.79406E-04
 -1      2133-4.53922E-03-3.25754E-02 7.38040E-04
 -1      2135-4.51960E-03-3.27778E-02 7.25048E-04
 -1      2136-4.75162E-03-4.33402E-02 8.71140E-04
 -1      2138-4.73380E-03-4.35790E-02 8.66586E-04
 -1      2139-4.74513E-03-5.42972E-02 9.93295E-04
 -1      2141-4.72838E-03-5.45705E-02 9.97919E-04
 -1      2142-4.53347E-03-6.49933E-02 1.10603E-03
 -1      2144-4.51845E-03-6.52974E-02 1.11833E-03
 -1      2145-4.13324E-03-7.49717E-02 1.20570E-03
 -1      2147-4.12008E-03-7.53036E-02 1.22534E-03
 -1      2148-3.56222E-03-8.38366E-02 1.29114E-03
 -1      2150-3.55117E-03-8.41920E-02 1.31752E-03
 -1      2151-2.84176E-03-9.12224E-02 1.36103E-03
 -1      2153-2.83304E-03-9.15973E-02 1.39259E-03
 -1      2154-1.99495E-03-9.68222E-02 1.41339E-03
 -1      2156-1.98868E-03-9.72120E-02 1.45014E-03
 -1      2157-1.04643E-03-1.00378E-01 1.44836E-03
 -1      2159-1.04274E-03-1.00778E-01 1.48810E-03
 -1      2160-2.24886E-05-1.01692E-01 1.46423E-03
 -1      2162-2.13939E-05-1.02097E-01 1.50714E-03
 -1      2163 1.05054E-03-1.00624E-01 1.46218E-03
 -1      2165 1.04905E-03-1.01031E-01 1.50592E-03
 -1      2166 2.14569E-03-9.70970E-02 1.44136E-03
 -1      2168 2.14169E-03-9.74997E-02 1.48607E-03
 -1      2169 3.23717E-03-9.10910E-02 1.40380E-03
 -1      2171 3.23083E-03-9.14857E-02 1.44730E-03
 -1      2172 4.29990E-03-8.26455E-02 1.34973E-03
 -1      2174 4.29144E-03-8.30283E-02 1.39211E-03
 -1      2175 5.31123E-03-7.18534E-02 1.28197E-03
 -1      2177 5.30092E-03-7.22208E-02 1.32139E-03
 -1      2178 6.25054E-03-5.88574E-02 1.20185E-03
 -1      2180 6.23874E-03-5.92067E-02 1.23842E-03
 -1      2181 7.10078E-03-4.38427E-02 1.11285E-03
 -1      2183 7.08788E-03-4.41717E-02 1.14516E-03
 -1      2184 7.84817E-03-2.70301E-02 1.01728E-03
 -1      2186 7.83462E-03-2.73375E-02 1.04555E-03
 -1      2187 8.48348E-03-8.66669E-03 9.19146E-04
 -1      2189 8.46977E-03-8.95203E-03 9.42479E-04
 -1      2190 9.00175E-03 1.09837E-02 8.21451E-04
 -1      2192 8.98839E-03 1.07200E-02 8.40322E-04
 -1      2193 9.40330E-03 3.16517E-02 7.28619E-04
 -1      2195 9.39085E-03 3.14083E-02 7.42601E-04
 -1      2196 9.69353E-03 5.30733E-02 6.43930E-04
 -1      2198 9.68250E-03 5.28480E-02 6.53886E-04
 -1      2199 9.88339E-03 7.50029E-02 5.72159E-04
 -1      2201 9.87446E-03 7.47926E-02 5.78124E-04
 -1      2202 9.98968E-03 9.72248E-02 5.16167E-04
 -1      2204 9.98310E-03 9.70256E-02 5.19454E-04
 -1      2205 1.00351E-02 1.19566E-01 4.81340E-04
 -1      2207 1.00320E-02 1.19374E-01 4.82567E-04
 -1      2208 1.31317E-03-1.84997E-03-1.46988E-04
 -1      2210 1.28090E-03-1.88254E-03-9.42753E-05
 -1      2211 2.53369E-03-6.66354E-03-3.15686E-04
 -1      2213 2.51798E-03-6.74519E-03-2.75023E-04
 -1      2214 3.41635E-03-1.36941E-02-4.54199E-04
 -1      2216 3.39334E-03-1.38163E-02-4.21022E-04
 -1      2217 4.10468E-03-2.25390E-02-6.02029E-04
 -1      2219 4.08588E-03-2.27022E-02-5.79406E-04
 -1      2220 4.53922E-03-3.25754E-02-7.38040E-04
 -1      2222 4.51960E-03-3.27778E-02-7.25048E-04
 -1      2223 4.75162E-03-4.33402E-02-8.71140E-04
 -1      2225 4.73380E-03-4.35790E-02-8.66586E-04
 -1      2226 4.74513E-03-5.42972E-02-9.93295E-04
 -1      2228 4.72838E-03-5.45705E-02-9.97919E-04
 -1      2229 4.53347E-03-6.49933E-02-1.10603E-03
 -1      2231 4.51845E-03-6.52974E-02-1.11833E-03
 -1      2232 4.13324E-03-7.49717E-02-1.20570E-03
 -1      2234 4.12008E-03-7.53036E-02-1.22534E-03
 -1      2235 3.56222E-03-8.38366E-02-1.29114E-03
 -1      2237 3.55117E-03-8.41920E-02-1.31752E-03
 -1      2238 2.84176E-03-9.12224E-02-1.36103E-03
 -1      2240 2.83304E-03-9.15973E-02-1.39259E-03
 -1      2241 1.99495E-03-9.68222E-02-1.41339E-03
 -1      2243 1.98868E-03-9.72120E-02-1.45014E-03
 -1      2244 1.04643E-03-1.00378E-01-1.44836E-03
 -1      2246 1.04274E-03-1.00778E-01-1.48810E-03
 -1      2247 2.24886E-05-1.01692E-01-1.46423E-03
 -1      2249 2.13939E-05-1.02097E-01-1.50714E-03
 -1      2250-1.05054E-03-1.00624E-01-1.46218E-03
 -1      2252-1.04905E-03-1.01031E-01-1.50592E-03
 -1      2253-2.14569E-03-9.70970E-02-1.44136E-03
 -1      2255-2.14169E-03-9.74997E-02-1.48607E-03
 -1      2256-3.23717E-03-9.10910E-02-1.40380E-03
 -1      2258-3.23083E-03-9.14857E-02-1.44730E-03
 -1      2259-4.29990E-03-8.26455E-02-1.34973E-03
 -1      2261-4.29144E-03-8.30283E-02-1.39211E-03
 -1      2262-5.31123E-03-7.18534E-02-1.28197E-03
 -1      2264-5.30092E-03-7.22208E-02-1.32139E-03
 -1      2265-6.25054E-03-5.88574E-02-1.20185E-03
 -1      2267-6.23874E-03-5.92067E-02-1.23842E-03
 -1      2268-7.10078E-03-4.38427E-02-1.11285E-03
 -1      2270-7.08788E-03-4.41717E-02-1.14516E-03
 -1      2271-7.84817E-03-2.70301E-02-1.01728E-03
 -1      2273-7.83462E-03-2.73375E-02-1.04555E-03
 -1      2274-8.48348E-03-8.66669E-03-9.19146E-04
 -1      2276-8.46977E-03-8.95203E-03-9.42479E-04
 -1      2277-9.00175E-03 1.09837E-02-8.21451E-04
 -1      2279-8.98839E-03 1.07200E-02-8.40322E-04
 -1      2280-9.40330E-03 3.16517E-02-7.28619E-04
 -1      2282-9.39085E-03 3.14083E-02-7.42601E-04
 -1      2283-9.69353E-03 5.30733E-02-6.43930E-04
 -1      2285-9.68250E-03 5.28480E-02-6.53886E-04
 -1      2286-9.88339E-03 7.50029E-02-5.72159E-04
 -1      2288-9.87446E-03 7.47926E-02-5.78124E-04
 -1      2289-9.98968E-03 9.72248E-02-5.16167E-04
 -1      2291-9.98310E-03 9.70256E-02-5.19454E-04
 -1      2292-1.00351E-02 1.19566E-01-4.81340E-04
 -1      2294-1.00320E-02 1.19374E-01-4.82567E-04
 -3
    1PSTEP                        10           1           1          
    1PGM                1.000000E+00                                  
    1PGK                2.462806E+05                                  
    1PHID                         -1                                  
    1PSUBC                         0                                  
    1PMODE                         3                                  
  100CL  103 78.98328519         930                     2    3MODAL      1
 -4  STRESS      6    1
 -5  SXX         1    4    1    1
 -5  SYY         1    4    2    2
 -5  SZZ         1    4    3    3
 -5  SXY         1    4    1    2
 -5  SYZ         1    4    2    3
 -5  SZX         1    4    3    1
 -1       404 4.43400E+09 3.77455E+08 6.39664E+06-3.09289E+08-1.10072E+05 8.34415E+06
 -1       406 4.43400E+09 3.77455E+08 6.39664E+06-3.09289E+08-1.10072E+05 8.34415E+06
 -1       407-2.75081E+07 5.03177E+05 8.38263E+04 1.22470E+07 1.10107E+06 1.28916E+05
 -1       409-2.75081E+07 5.03177E+05 8.38263E+04 1.22470E+07 1.10107E+06 1.28916E+05
 -1       410 3.06560E-04 4.58570E-04 1.72845E-04 3.15102E+07 2.05328E+06 1.08478E-05
 -1       412 3.06560E-04 4.58570E-04 1.72845E-04 3.15102E+07 2.05328E+06 1.08478E-05
 -1       413 2.14232E-04 1.65403E-04-2.84613E-04-4.06617E+05 6.30739E+06-8.47023E-06
 -1       415 2.14232E-04 1.65403E-04-2.84613E-04-4.06617E+05 6.30739E+06-8.47023E-06
 -1       424-1.38557E-03-1.20208E-04 7.27177E-06-2.97636E+08-2.21573E+06 6.58966E-06
 -1       426-1.38557E-03-1.20208E-04 7.27177E-06-2.97636E+08-2.21573E+06 6.58966E-06
 -1       427-1.11311E-03-2.41119E-06-4.39528E-04 2.36120E+06-1.75060E+06 2.21759E-04
 -1       429-1.11311E-03-2.41119E-06-4.39528E-04 2.36120E+06-1.75060E+06 2.21759E-04
 -1       438 2.75081E+07-5.03177E+05-8.38263E+04 1.22470E+07 1.10107E+06-1.28916E+05
 -1       440 2.75081E+07-5.03177E+05-8.38263E+04 1.22470E+07 1.10107E+06-1.28916E+05
 -1       441-4.43400E+09-3.77455E+08-6.39664E+06-3.09289E+08-1.10072E+05-8.34415E+06
 -1       443-4.43400E+09-3.77455E+08-6.39664E+06-3.09289E+08-1.10072E+05-8.34415E+06
 -1       444 1.32337E-03-3.76954E-05 6.15731E-05 2.36120E+06 1.75060E+06-4.22154E-04
 -1       446 1.32337E-03-3.76954E-05 6.15731E-05 2.36120E+06 1.75060E+06-4.22154E-04
 -1       447 1.55711E-03 2.24546E-04-2.95043E-06-2.97636E+08 2.21573E+06-6.57433E-05
 -1       449 1.55711E-03 2.24546E-04-2.95043E-06-2.97636E+08 2.21573E+06-6.57433E-05
 -1       458-4.27655E-04-1.07196E-03-3.69238E-05-4.06617E+05-6.30739E+06 4.94311E-04
 -1       460-4.27655E-04-1.07196E-03-3.69238E-05-4.06617E+05-6.30739E+06 4.94311E-04
 -1       461-4.62420E-05-1.61431E-04 2.07580E-04 3.15102E+07-2.05328E+06-9.65625E-06
 -1       463-4.62420E-05-1.61431E-04 2.07580E-04 3.15102E+07-2.05328E+06-9.65625E-06
 -1       472-4.43400E+09-3.77455E+08-6.39664E+06-3.09289E+08 1.10072E+05 8.34415E+06
 -1       474-4.43400E+09-3.77455E+08-6.39664E+06-3.09289E+08 1.10072E+05 8.34415E+06
 -1       475 2.75081E+07-5.03177E+05-8.38263E+04 1.22470E+07-1.10107E+06 1.28916E+05
 -1       477 2.75081E+07-5.03177E+05-8.38263E+04 1.22470E+07-1.10107E+06 1.28916E+05
 -1       478-2.75081E+07 5.03177E+05 8.38263E+04 1.22470E+07-1.10107E+06-1.28916E+05
 -1       480-2.75081E+07 5.03177E+05 8.38263E+04 1.22470E+07-1.10107E+06-1.28916E+05
 -1       481 4.43400E+09 3.77455E+08 6.39664E+06-3.09289E+08 1.10072E+05-8.34415E+06
 -1       483 4.43400E+09 3.77455E+08 6.39664E+06-3.09289E+08 1.10072E+05-8.34415E+06
 -1       484 4.03356E+09 9.45740E+07 6.25388E+05-2.15798E+08-9.16351E+03 2.80615E+06
 -1       486 4.03356E+09 9.45740E+07 6.25388E+05-2.15798E+08-9.16351E+03 2.80615E+06
 -1       487 3.26282E+09-4.87969E+07 2.37142E+06-1.73411E+08-1.23984E+05-1.19349E+05
 -1       489 3.26282E+09-4.87969E+07 2.37142E+06-1.73411E+08-1.23984E+05-1.19349E+05
 -1       490 2.50497E+09 2.33853E+07 1.64481E+06-1.98773E+08-3.36400E+05 1.26223E+06
 -1       492 2.50497E+09 2.33853E+07 1.64481E+06-1.98773E+08-3.36400E+05 1.26223E+06
 -1       493 1.75142E+09-1.08520E+07 5.51573E+05-1.80480E+08-3.89575E+05 5.71750E+05
 -1       495 1.75142E+09-1.08520E+07 5.51573E+05-1.80480E+08-3.89575E+05 5.71750E+05
 -1       496 1.02280E+09 5.01431E+06 1.09241E+06-1.81099E+08-5.31322E+05 8.43536E+05
 -1       498 1.02280E+09 5.01431E+06 1.09241E+06-1.81099E+08-5.31322E+05 8.43536E+05
 -1       499 3.18336E+08-2.48639E+06-3.50494E+05-1.70626E+08-6.20807E+05 6.53761E+05
 -1       501 3.18336E+08-2.48639E+06-3.50494E+05-1.70626E+08-6.20807E+05 6.53761E+05
 -1       502-3.47774E+08 1.26074E+06 1.79397E+05-1.61232E+08-7.25921E+05 6.61500E+05
 -1       504-3.47774E+08 1.26074E+06 1.79397E+05-1.61232E+08-7.25921E+05 6.61500E+05
 -1       505-9.69602E+08-8.07523E+05-9.95405E+05-1.48612E+08-8.23254E+05 5.68882E+05
 -1       507-9.69602E+08-8.07523E+05-9.95405E+05-1.48612E+08-8.23254E+05 5.68882E+05
 -1       508-1.53664E+09 4.20679E+05-6.72568E+05-1.34043E+08-9.02014E+05 5.07566E+05
 -1       510-1.53664E+09 4.20679E+05-6.72568E+05-1.34043E+08-9.02014E+05 5.07566E+05
 -1       511-2.04171E+09-3.82192E+05-1.52126E+06-1.17580E+08-9.79352E+05 4.23887E+05
 -1       513-2.04171E+09-3.82192E+05-1.52126E+06-1.17580E+08-9.79352E+05 4.23887E+05
 -1       514-2.47694E+09 1.44369E+05-1.34246E+06-9.93741E+07-1.02668E+06 3.39907E+05
 -1       516-2.47694E+09 1.44369E+05-1.34246E+06-9.93741E+07-1.02668E+06 3.39907E+05
 -1       517-2.83666E+09-2.25923E+05-1.91585E+06-7.98842E+07-1.06565E+06 2.50926E+05
 -1       519-2.83666E+09-2.25923E+05-1.91585E+06-7.98842E+07-1.06565E+06 2.50926E+05
 -1       520-3.11604E+09 2.54634E+04-1.79418E+06-5.94268E+07-1.07144E+06 1.59161E+05
 -1       522-3.11604E+09 2.54634E+04-1.79418E+06-5.94268E+07-1.07144E+06 1.59161E+05
 -1       523-3.31235E+09-1.54745E+05-2.14536E+06-3.84840E+07-1.06069E+06 6.82683E+04
 -1       525-3.31235E+09-1.54745E+05-2.14536E+06-3.84840E+07-1.06069E+06 6.82683E+04
 -1       526-3.42442E+09-2.47629E+04-2.01875E+06-1.75155E+07-1.01665E+06-2.18130E+04
 -1       528-3.42442E+09-2.47629E+04-2.01875E+06-1.75155E+07-1.01665E+06-2.18130E+04
 -1       529-3.45324E+09-1.14806E+05-2.18938E+06 2.97507E+06-9.50796E+05-1.06730E+05
 -1       531-3.45324E+09-1.14806E+05-2.18938E+06 2.97507E+06-9.50796E+05-1.06730E+05
 -1       532-3.40168E+09-3.83067E+04-2.02398E+06 2.24780E+07-8.53734E+05-1.86126E+05
 -1       534-3.40168E+09-3.83067E+04-2.02398E+06 2.24780E+07-8.53734E+05-1.86126E+05
 -1       535-3.27476E+09-8.33972E+04-2.04929E+06 4.04899E+07-7.33530E+05-2.56189E+05
 -1       537-3.27476E+09-8.33972E+04-2.04929E+06 4.04899E+07-7.33530E+05-2.56189E+05
 -1       538-3.07942E+09-2.96508E+04-1.83441E+06 5.65132E+07-5.86712E+05-3.16183E+05
 -1       540-3.07942E+09-2.96508E+04-1.83441E+06 5.65132E+07-5.86712E+05-3.16183E+05
 -1       541-2.82459E+09-5.08515E+04-1.74888E+06 7.00849E+07-4.19506E+05-3.63076E+05
 -1       543-2.82459E+09-5.08515E+04-1.74888E+06 7.00849E+07-4.19506E+05-3.63076E+05
 -1       544-2.52098E+09-5.66181E+03-1.49181E+06 8.07635E+07-2.33349E+05-3.96046E+05
 -1       546-2.52098E+09-5.66181E+03-1.49181E+06 8.07635E+07-2.33349E+05-3.96046E+05
 -1       547-2.18100E+09-1.43776E+04-1.33236E+06 8.81639E+07-3.37234E+04-4.13342E+05
 -1       549-2.18100E+09-1.43776E+04-1.33236E+06 8.81639E+07-3.37234E+04-4.13342E+05
 -1       550-1.81848E+09 3.20834E+04-1.05427E+06 9.19359E+07 1.73452E+05-4.13621E+05
 -1       552-1.81848E+09 3.20834E+04-1.05427E+06 9.19359E+07 1.73452E+05-4.13621E+05
 -1       553-1.44859E+09 2.02024E+04-8.60643E+05 9.17851E+07 3.82416E+05-3.98575E+05
 -1       555-1.44859E+09 2.02024E+04-8.60643E+05 9.17851E+07 3.82416E+05-3.98575E+05
 -1       556-1.08750E+09 9.59684E+04-5.93796E+05 8.75012E+07 5.82780E+05-3.62496E+05
 -1       558-1.08750E+09 9.59684E+04-5.93796E+05 8.75012E+07 5.82780E+05-3.62496E+05
 -1       559-7.52274E+08 2.48620E+04-4.06617E+05 7.88354E+07 7.66462E+05-3.20191E+05
 -1       561-7.52274E+08 2.48620E+04-4.06617E+05 7.88354E+07 7.66462E+05-3.20191E+05
 -1       562-4.60528E+08 2.15462E+05-1.92492E+05 6.57586E+07 9.19839E+05-2.41827E+05
 -1       564-4.60528E+08 2.15462E+05-1.92492E+05 6.57586E+07 9.19839E+05-2.41827E+05
 -1       565-2.30304E+08 3.31888E+04-5.28797E+04 4.82310E+07 1.02790E+06-1.99130E+05
 -1       567-2.30304E+08 3.31888E+04-5.28797E+04 4.82310E+07 1.02790E+06-1.99130E+05
 -1       568-8.01941E+07 1.81910E+04 7.15117E+04 2.52771E+07 1.08872E+06-4.45148E+04
 -1       570-8.01941E+07 1.81910E+04 7.15117E+04 2.52771E+07 1.08872E+06-4.45148E+04
 -1       571-2.09808E+07-3.68698E+06 1.88809E+02 2.18786E+07 1.57718E+06 9.33062E+04
 -1       573-2.09808E+07-3.68698E+06 1.88809E+02 2.18786E+07 1.57718E+06 9.33062E+04
 -1       574-1.44750E-03-2.00793E-05-1.96695E-06-3.95189E+08-1.15103E+06 5.04625E-06
 -1       576-1.44750E-03-2.00793E-05-1.96695E-06-3.95189E+08-1.15103E+06 5.04625E-06
 -1       577-1.15080E-03-1.90702E-05-6.27371E-04-1.70369E+06-1.81349E+06 2.11244E-04
 -1       579-1.15080E-03-1.90702E-05-6.27371E-04-1.70369E+06-1.81349E+06 2.11244E-04
 -1       588-1.31804E-03 6.55577E-05 1.62646E-05-4.39360E+08 4.97301E+04 2.79787E-06
 -1       590-1.31804E-03 6.55577E-05 1.62646E-05-4.39360E+08 4.97301E+04 2.79787E-06
 -1       591-1.04463E-03-6.52368E-05-7.17423E-04-6.49449E+05-1.83902E+06 7.29640E-05
 -1       593-1.04463E-03-6.52368E-05-7.17423E-04-6.49449E+05-1.83902E+06 7.29640E-05
 -1       602-9.20475E-04 8.97050E-06 2.26945E-05-4.06140E+08-2.59067E+05 4.44418E-06
 -1       604-9.20475E-04 8.97050E-06 2.26945E-05-4.06140E+08-2.59067E+05 4.44418E-06
 -1       605-6.79459E-04-1.16155E-04-1.54590E-04 5.95642E+05-2.75440E+06-7.53394E-05
 -1       607-6.79459E-04-1.16155E-04-1.54590E-04 5.95642E+05-2.75440E+06-7.53394E-05
 -1       616-7.08938E-04-1.91107E-06 3.22573E-05-4.11471E+08-3.52328E+05 3.80052E-06
 -1       618-7.08938E-04-1.91107E-06 3.22573E-05-4.11471E+08-3.52328E+05 3.80052E-06
 -1       619-3.90596E-04 2.52749E-05 6.69135E-04-8.77893E+05-3.95466E+06 8.19328E-06
 -1       621-3.90596E-04 2.52749E-05 6.69135E-04-8.77893E+05-3.95466E+06 8.19328E-06
 -1       630-8.18118E-04 1.31318E-04-3.13483E-05-3.92619E+08-3.93937E+05-3.68452E-06
 -1       632-8.18118E-04 1.31318E-04-3.13483E-05-3.92619E+08-3.93937E+05-3.68452E-06
 -1       633-4.23639E-04 2.49320E-04 9.04987E-04 2.30121E+05-4.91510E+06 2.97573E-04
 -1       635-4.23639E-04 2.49320E-04 9.04987E-04 2.30121E+05-4.91510E+06 2.97573E-04
 -1       644-9.93581E-04 1.22882E-04-1.99769E-05-3.77337E+08-6.15818E+05-3.69109E-06
 -1       646-9.93581E-04 1.22882E-04-1.99769E-05-3.77337E+08-6.15818E+05-3.69109E-06
 -1       647-6.39878E-04 3.12535E-04 2.82781E-04-4.49013E+05-6.13932E+06 4.80339E-04
 -1       649-6.39878E-04 3.12535E-04 2.82781E-04-4.49013E+05-6.13932E+06 4.80339E-04
 -1       658-8.56839E-04-1.57486E-04 1.13100E-05-3.54093E+08-6.86000E+05-8.01268E-06
 -1       660-8.56839E-04-1.57486E-04 1.13100E-05-3.54093E+08-6.86000E+05-8.01268E-06
 -1       661-6.82146E-04 3.61741E-05-5.18438E-04-7.69697E+04-7.16982E+06 2.15046E-04
 -1       663-6.82146E-04 3.61741E-05-5.18438E-04-7.69697E+04-7.16982E+06 2.15046E-04
 -1       672-3.29152E-04-1.34576E-04 6.84150E-06-3.26961E+08-8.72833E+05-1.50008E-05
 -1       674-3.29152E-04-1.34576E-04 6.84150E-06-3.26961E+08-8.72833E+05-1.50008E-05
 -1       675-1.65176E-04 2.44775E-04-2.62357E-04-2.65016E+05-8.23133E+06-1.61447E-04
 -1       677-1.65176E-04 2.44775E-04-2.62357E-04-2.65016E+05-8.23133E+06-1.61447E-04
 -1       686 1.95354E-04-4.36902E-05 3.78788E-05-2.94852E+08-9.65234E+05-1.18483E-05
 -1       688 1.95354E-04-4.36902E-05 3.78788E-05-2.94852E+08-9.65234E+05-1.18483E-05
 -1       689 2.73304E-04 3.27055E-04 3.50585E-04-1.93440E+05-9.15961E+06-8.43082E-06
 -1       691 2.73304E-04 3.27055E-04 3.50585E-04-1.93440E+05-9.15961E+06-8.43082E-06
 -1       700 3.84241E-04-7.44313E-06 2.80961E-05-2.58594E+08-1.10055E+06 3.06165E-06
 -1       702 3.84241E-04-7.44313E-06 2.80961E-05-2.58594E+08-1.10055E+06 3.06165E-06
 -1       703 9.04118E-05-1.39994E-04 6.46662E-05-2.33032E+05-9.97132E+06 4.21931E-04
 -1       705 9.04118E-05-1.39994E-04 6.46662E-05-2.33032E+05-9.97132E+06 4.21931E-04
 -1       714 3.25114E-04 1.74776E-04 1.02028E-04-2.18604E+08-1.17517E+06-3.42509E-06
 -1       716 3.25114E-04 1.74776E-04 1.02028E-04-2.18604E+08-1.17517E+06-3.42509E-06
 -1       717-8.10440E-05 4.52760E-05-5.45192E-04-2.44728E+05-1.06366E+07 4.53340E-04
 -1       719-8.10440E-05 4.52760E-05-5.45192E-04-2.44728E+05-1.06366E+07 4.53340E-04
 -1       728 2.20209E-04 6.74650E-05 4.35039E-05-1.75740E+08-1.25201E+06-3.89742E-06
 -1       730 2.20209E-04 6.74650E-05 4.35039E-05-1.75740E+08-1.25201E+06-3.89742E-06
 -1       731-9.87222E-05 1.51317E-04-9.51200E-04-2.57388E+05-1.11103E+07 1.21339E-04
 -1       733-9.87222E-05 1.51317E-04-9.51200E-04-2.57388E+05-1.11103E+07 1.21339E-04
 -1       742 1.92702E-04-1.11558E-04 1.15484E-04-1.30766E+08-1.28014E+06-1.13349E-05
 -1       744 1.92702E-04-1.11558E-04 1.15484E-04-1.30766E+08-1.28014E+06-1.13349E-05
 -1       745-1.37239E-04 1.24107E-04-8.47953E-04-2.86753E+05-1.14004E+07-2.57086E-04
 -1       747-1.37239E-04 1.24107E-04-8.47953E-04-2.86753E+05-1.14004E+07-2.57086E-04
 -1       756 3.27587E-04-1.09009E-04 1.83351E-04-8.47421E+07-1.28984E+06-7.48290E-06
 -1       758 3.27587E-04-1.09009E-04 1.83351E-04-8.47421E+07-1.28984E+06-7.48290E-06
 -1       759-1.00913E-04 1.59298E-04-6.11543E-04-3.00573E+05-1.14635E+07-5.19111E-04
 -1       761-1.00913E-04 1.59298E-04-6.11543E-04-3.00573E+05-1.14635E+07-5.19111E-04
 -1       770 5.00262E-04 7.75382E-05 1.07862E-04-3.86431E+07-1.25495E+06 5.80040E-06
 -1       772 5.00262E-04 7.75382E-05 1.07862E-04-3.86431E+07-1.25495E+06 5.80040E-06
 -1       773 1.43136E-04 4.89375E-04-6.87923E-04-3.30905E+05-1.13151E+07-7.13377E-04
 -1       775 1.43136E-04 4.89375E-04-6.87923E-04-3.30905E+05-1.13151E+07-7.13377E-04
 -1       784 5.12183E-04 2.93128E-04 5.69001E-05 6.37909E+06-1.19157E+06-1.10218E-05
 -1       786 5.12183E-04 2.93128E-04 5.69001E-05 6.37909E+06-1.19157E+06-1.10218E-05
 -1       787 1.85301E-04 3.54714E-04-1.02353E-03-3.47491E+05-1.09306E+07-8.21386E-04
 -1       789 1.85301E-04 3.54714E-04-1.02353E-03-3.47491E+05-1.09306E+07-8.21386E-04
 -1       798 3.92556E-04 2.37554E-04 6.90520E-05 4.92471E+07-1.08689E+06 1.30189E-05
 -1       800 3.92556E-04 2.37554E-04 6.90520E-05 4.92471E+07-1.08689E+06 1.30189E-05
 -1       801-2.80049E-05-2.31422E-04-1.20969E-03-3.73429E+05-1.03282E+07-8.38044E-04
 -1       803-2.80049E-05-2.31422E-04-1.20969E-03-3.73429E+05-1.03282E+07-8.38044E-04
 -1       812 5.59509E-04-1.20744E-04 2.89679E-05 8.88169E+07-9.50087E+05-2.37972E-06
 -1       814 5.59509E-04-1.20744E-04 2.89679E-05 8.88169E+07-9.50087E+05-2.37972E-06
 -1       815 1.60745E-04-3.18106E-04-7.54806E-04-3.88279E+05-9.50409E+06-7.84511E-04
 -1       817 1.60745E-04-3.18106E-04-7.54806E-04-3.88279E+05-9.50409E+06-7.84511E-04
 -1       826 1.22339E-03-3.05332E-04 6.11618E-05 1.24028E+08-7.77108E+05 4.72989E-06
 -1       828 1.22339E-03-3.05332E-04 6.11618E-05 1.24028E+08-7.77108E+05 4.72989E-06
 -1       829 7.54177E-04-2.48063E-04-2.59890E-04-4.06311E+05-8.47981E+06-4.55774E-04
 -1       831 7.54177E-04-2.48063E-04-2.59890E-04-4.06311E+05-8.47981E+06-4.55774E-04
 -1       840 1.87266E-03-2.64443E-04 5.81667E-05 1.53830E+08-5.72995E+05 1.42947E-05
 -1       842 1.87266E-03-2.64443E-04 5.81667E-05 1.53830E+08-5.72995E+05 1.42947E-05
 -1       843 1.38509E-03-1.00301E-05-1.75069E-04-4.13514E+05-7.27111E+06-2.15863E-04
 -1       845 1.38509E-03-1.00301E-05-1.75069E-04-4.13514E+05-7.27111E+06-2.15863E-04
 -1       854 2.21932E-03-1.72861E-04-1.23978E-05 1.77287E+08-3.40477E+05-9.99066E-06
 -1       856 2.21932E-03-1.72861E-04-1.23978E-05 1.77287E+08-3.40477E+05-9.99066E-06
 -1       857 1.74370E-03-1.19117E-05-7.36575E-05-4.20627E+05-5.90302E+06-1.17263E-04
 -1       859 1.74370E-03-1.19117E-05-7.36575E-05-4.20627E+05-5.90302E+06-1.17263E-04
 -1       868 2.29573E-03-6.58780E-05-2.11746E-05 1.93513E+08-8.11488E+04 8.22941E-06
 -1       870 2.29573E-03-6.58780E-05-2.11746E-05 1.93513E+08-8.11488E+04 8.22941E-06
 -1       871 1.87758E-03 1.40468E-04-6.87590E-05-4.12925E+05-4.40940E+06 2.04429E-04
 -1       873 1.87758E-03 1.40468E-04-6.87590E-05-4.12925E+05-4.40940E+06 2.04429E-04
 -1       882 2.25380E-03 2.06493E-05-5.31226E-06 2.01779E+08 1.96183E+05 2.04039E-06
 -1       884 2.25380E-03 2.06493E-05-5.31226E-06 2.01779E+08 1.96183E+05 2.04039E-06
 -1       885 1.83535E-03 3.33762E-04-4.89658E-04-4.07893E+05-2.81763E+06 2.22891E-04
 -1       887 1.83535E-03 3.33762E-04-4.89658E-04-4.07893E+05-2.81763E+06 2.22891E-04
 -1       896 2.03326E-03 9.26331E-05-3.29688E-05 2.01406E+08 4.93833E+05-6.84252E-06
 -1       898 2.03326E-03 9.26331E-05-3.29688E-05 2.01406E+08 4.93833E+05-6.84252E-06
 -1       899 1.52029E-03 1.03297E-04-7.29099E-04-3.74282E+05-1.17940E+06 1.59705E-04
 -1       901 1.52029E-03 1.03297E-04-7.29099E-04-3.74282E+05-1.17940E+06 1.59705E-04
 -1       910 1.62083E-03 1.60076E-04-4.11645E-06 1.91924E+08 7.96916E+05 2.58333E-07
 -1       912 1.62083E-03 1.60076E-04-4.11645E-06 1.91924E+08 7.96916E+05 2.58333E-07
 -1       913 1.17870E-03 2.12201E-04-7.82222E-04-3.60836E+05 4.75591E+05 4.58423E-04
 -1       915 1.17870E-03 2.12201E-04-7.82222E-04-3.60836E+05 4.75591E+05 4.58423E-04
 -1       924 1.22979E-03-1.12195E-04-8.83453E-05 1.72858E+08 1.11239E+06-2.30156E-05
 -1       926 1.22979E-03-1.12195E-04-8.83453E-05 1.72858E+08 1.11239E+06-2.30156E-05
 -1       927 7.99180E-04-7.51204E-05-1.28273E-03-2.82225E+05 2.07925E+06 6.17938E-04
 -1       929 7.99180E-04-7.51204E-05-1.28273E-03-2.82225E+05 2.07925E+06 6.17938E-04
 -1       938 1.04835E-03-3.73621E-04-1.08602E-05 1.44084E+08 1.41836E+06-2.00481E-05
 -1       940 1.04835E-03-3.73621E-04-1.08602E-05 1.44084E+08 1.41836E+06-2.00481E-05
 -1       941 4.32448E-04-5.53417E-04-1.65545E-03-2.72232E+05 3.58457E+06 6.05341E-04
 -1       943 4.32448E-04-5.53417E-04-1.65545E-03-2.72232E+05 3.58457E+06 6.05341E-04
 -1       952 9.51260E-04-6.15353E-05 4.82164E-05 1.04933E+08 1.71814E+06-7.90211E-06
 -1       954 9.51260E-04-6.15353E-05 4.82164E-05 1.04933E+08 1.71814E+06-7.90211E-06
 -1       955 2.95474E-04-5.57354E-04-1.53160E-03-1.17668E+05 4.91286E+06 4.07882E-04
 -1       957 2.95474E-04-5.57354E-04-1.53160E-03-1.17668E+05 4.91286E+06 4.07882E-04
 -1       966 5.68440E-04 3.06856E-04-3.13108E-05 5.70248E+07 1.97223E+06-7.32525E-06
 -1       968 5.68440E-04 3.06856E-04-3.13108E-05 5.70248E+07 1.97223E+06-7.32525E-06
 -1       969 2.46240E-04-2.29897E-04-8.57131E-04-1.39406E+05 5.89932E+06 1.00504E-04
 -1       971 2.46240E-04-2.29897E-04-8.57131E-04-1.39406E+05 5.89932E+06 1.00504E-04
 -1       980 2.92069E+09 2.67019E+08 7.22064E+05-3.03462E+08-1.16290E+06 4.39443E+06
 -1       982 2.92069E+09 2.67019E+08 7.22064E+05-3.03462E+08-1.16290E+06 4.39443E+06
 -1       983 2.09808E+07 3.68698E+06-1.88809E+02 2.18786E+07 1.57718E+06-9.33062E+04
 -1       985 2.09808E+07 3.68698E+06-1.88809E+02 2.18786E+07 1.57718E+06-9.33062E+04
 -1       986-4.03356E+09-9.45740E+07-6.25388E+05-2.15798E+08-9.16351E+03-2.80615E+06
 -1       988-4.03356E+09-9.45740E+07-6.25388E+05-2.15798E+08-9.16351E+03-2.80615E+06
 -1       989-3.26282E+09 4.87969E+07-2.37142E+06-1.73411E+08-1.23984E+05 1.19349E+05
 -1       991-3.26282E+09 4.87969E+07-2.37142E+06-1.73411E+08-1.23984E+05 1.19349E+05
 -1       992-2.50497E+09-2.33853E+07-1.64481E+06-1.98773E+08-3.36400E+05-1.26223E+06
 -1       994-2.50497E+09-2.33853E+07-1.64481E+06-1.98773E+08-3.36400E+05-1.26223E+06
 -1       995-1.75142E+09 1.08520E+07-5.51573E+05-1.80480E+08-3.89575E+05-5.71750E+05
 -1       997-1.75142E+09 1.08520E+07-5.51573E+05-1.80480E+08-3.89575E+05-5.71750E+05
 -1       998-1.02280E+09-5.01431E+06-1.09241E+06-1.81099E+08-5.31322E+05-8.43536E+05
 -1      1000-1.02280E+09-5.01431E+06-1.09241E+06-1.81099E+08-5.31322E+05-8.43536E+05
 -1      1001-3.18336E+08 2.48639E+06 3.50494E+05-1.70626E+08-6.20807E+05-6.53761E+05
 -1      1003-3.18336E+08 2.48639E+06 3.50494E+05-1.70626E+08-6.20807E+05-6.53761E+05
 -1      1004 3.47774E+08-1.26074E+06-1.79397E+05-1.61232E+08-7.25921E+05-6.61500E+05
 -1      1006 3.47774E+08-1.26074E+06-1.79397E+05-1.61232E+08-7.25921E+05-6.61500E+05
 -1      1007 9.69602E+08 8.07523E+05 9.95405E+05-1.48612E+08-8.23254E+05-5.68882E+05
 -1      1009 9.69602E+08 8.07523E+05 9.95405E+05-1.48612E+08-8.23254E+05-5.68882E+05
 -1      1010 1.53664E+09-4.20679E+05 6.72568E+05-1.34043E+08-9.02014E+05-5.07566E+05
 -1      1012 1.53664E+09-4.20679E+05 6.72568E+05-1.34043E+08-9.02014E+05-5.07566E+05
 -1      1013 2.04171E+09 3.82192E+05 1.52126E+06-1.17580E+08-9.79352E+05-4.23887E+05
 -1      1015 2.04171E+09 3.82192E+05 1.52126E+06-1.17580E+08-9.79352E+05-4.23887E+05
 -1      1016 2.47694E+09-1.44369E+05 1.34246E+06-9.93741E+07-1.02668E+06-3.39907E+05
 -1      1018 2.47694E+09-1.44369E+05 1.34246E+06-9.93741E+07-1.02668E+06-3.39907E+05
 -1      1019 2.83666E+09 2.25923E+05 1.91585E+06-7.98842E+07-1.06565E+06-2.50926E+05
 -1      1021 2.83666E+09 2.25923E+05 1.91585E+06-7.98842E+07-1.06565E+06-2.50926E+05
 -1      1022 3.11604E+09-2.54634E+04 1.79418E+06-5.94268E+07-1.07144E+06-1.59161E+05
 -1      1024 3.11604E+09-2.54634E+04 1.79418E+06-5.94268E+07-1.07144E+06-1.59161E+05
 -1      1025 3.31235E+09 1.54745E+05 2.14536E+06-3.84840E+07-1.06069E+06-6.82683E+04
 -1      1027 3.31235E+09 1.54745E+05 2.14536E+06-3.84840E+07-1.06069E+06-6.82683E+04
 -1      1028 3.42442E+09 2.47629E+04 2.01875E+06-1.75155E+07-1.01665E+06 2.18130E+04
 -1      1030 3.42442E+09 2.47629E+04 2.01875E+06-1.75155E+07-1.01665E+06 2.18130E+04
 -1      1031 3.45324E+09 1.14806E+05 2.18938E+06 2.97507E+06-9.50796E+05 1.06730E+05
 -1      1033 3.45324E+09 1.14806E+05 2.18938E+06 2.97507E+06-9.50796E+05 1.06730E+05
 -1      1034 3.40168E+09 3.83067E+04 2.02398E+06 2.24780E+07-8.53734E+05 1.86126E+05
 -1      1036 3.40168E+09 3.83067E+04 2.02398E+06 2.24780E+07-8.53734E+05 1.86126E+05
 -1      1037 3.27476E+09 8.33972E+04 2.04929E+06 4.04899E+07-7.33530E+05 2.56189E+05
 -1      1039 3.27476E+09 8.33972E+04 2.04929E+06 4.04899E+07-7.33530E+05 2.56189E+05
 -1      1040 3.07942E+09 2.96508E+04 1.83441E+06 5.65132E+07-5.86712E+05 3.16183E+05
 -1      1042 3.07942E+09 2.96508E+04 1.83441E+06 5.65132E+07-5.86712E+05 3.16183E+05
 -1      1043 2.82459E+09 5.08515E+04 1.74888E+06 7.00849E+07-4.19506E+05 3.63076E+05
 -1      1045 2.82459E+09 5.08515E+04 1.74888E+06 7.00849E+07-4.19506E+05 3.63076E+05
 -1      1046 2.52098E+09 5.66181E+03 1.49181E+06 8.07635E+07-2.33349E+05 3.96046E+05
 -1      1048 2.52098E+09 5.66181E+03 1.49181E+06 8.07635E+07-2.33349E+05 3.96046E+05
 -1      1049 2.18100E+09 1.43776E+04 1.33236E+06 8.81639E+07-3.37234E+04 4.13342E+05
 -1      1051 2.18100E+09 1.43776E+04 1.33236E+06 8.81639E+07-3.37234E+04 4.13342E+05
 -1      1052 1.81848E+09-3.20834E+04 1.05427E+06 9.19359E+07 1.73452E+05 4.13621E+05
 -1      1054 1.81848E+09-3.20834E+04 1.05427E+06 9.19359E+07 1.73452E+05 4.13621E+05
 -1      1055 1.44859E+09-2.02024E+04 8.60643E+05 9.17851E+07 3.82416E+05 3.98575E+05
 -1      1057 1.44859E+09-2.02024E+04 8.60643E+05 9.17851E+07 3.82416E+05 3.98575E+05
 -1      1058 1.08750E+09-9.59684E+04 5.93796E+05 8.75012E+07 5.82780E+05 3.62496E+05
 -1      1060 1.08750E+09-9.59684E+04 5.93796E+05 8.75012E+07 5.82780E+05 3.62496E+05
 -1      1061 7.52274E+08-2.48620E+04 4.06617E+05 7.88354E+07 7.66462E+05 3.20191E+05
 -1      1063 7.52274E+08-2.48620E+04 4.06617E+05 7.88354E+07 7.66462E+05 3.20191E+05
 -1      1064 4.60528E+08-2.15462E+05 1.92492E+05 6.57586E+07 9.19839E+05 2.41827E+05
 -1      1066 4.60528E+08-2.15462E+05 1.92492E+05 6.57586E+07 9.19839E+05 2.41827E+05
 -1      1067 2.30304E+08-3.31888E+04 5.28797E+04 4.82310E+07 1.02790E+06 1.99130E+05
 -1      1069 2.30304E+08-3.31888E+04 5.28797E+04 4.82310E+07 1.02790E+06 1.99130E+05
 -1      1070 8.01941E+07-1.81910E+04-7.15117E+04 2.52771E+07 1.08872E+06 4.45148E+04
 -1      1072 8.01941E+07-1.81910E+04-7.15117E+04 2.52771E+07 1.08872E+06 4.45148E+04
 -1      1073-2.92069E+09-2.67019E+08-7.22064E+05-3.03462E+08-1.16290E+06-4.39443E+06
 -1      1075-2.92069E+09-2.67019E+08-7.22064E+05-3.03462E+08-1.16290E+06-4.39443E+06
 -1      1076-7.63957E-04 6.64726E-06-4.20906E-04-8.13578E+06-1.23950E+05 1.60497E-04
 -1      1078-7.63957E-04 6.64726E-06-4.20906E-04-8.13578E+06-1.23950E+05 1.60497E-04
 -1      1079 4.58047E-05-4.10485E-07-2.87606E-04-1.86328E+07-2.20896E-05 4.83168E-06
 -1      1081 4.58047E-05-4.10485E-07-2.87606E-04-1.86328E+07-2.20896E-05 4.83168E-06
 -1      1082 9.14894E-04-2.71110E-05-5.56770E-05-8.13578E+06 1.23950E+05-2.55863E-04
 -1      1084 9.14894E-04-2.71110E-05-5.56770E-05-8.13578E+06 1.23950E+05-2.55863E-04
 -1      1085 1.17311E-03-1.24391E-05-9.01280E-05-1.70369E+06 1.81349E+06-2.68220E-04
 -1      1087 1.17311E-03-1.24391E-05-9.01280E-05-1.70369E+06 1.81349E+06-2.68220E-04
 -1      1088 1.40756E-03 6.53639E-05-2.30968E-06-3.95189E+08 1.15103E+06-1.39631E-05
 -1      1090 1.40756E-03 6.53639E-05-2.30968E-06-3.95189E+08 1.15103E+06-1.39631E-05
 -1      1099 9.32623E-04 1.44676E-05-1.26671E-04-6.49449E+05 1.83902E+06 4.36576E-05
 -1      1101 9.32623E-04 1.44676E-05-1.26671E-04-6.49449E+05 1.83902E+06 4.36576E-05
 -1      1102 1.20798E-03-9.90406E-05-2.51234E-05-4.39360E+08-4.97301E+04 8.72421E-06
 -1      1104 1.20798E-03-9.90406E-05-2.51234E-05-4.39360E+08-4.97301E+04 8.72421E-06
 -1      1113 8.45850E-04-1.05722E-04 8.40501E-05 5.95642E+05 2.75440E+06 1.73759E-04
 -1      1115 8.45850E-04-1.05722E-04 8.40501E-05 5.95642E+05 2.75440E+06 1.73759E-04
 -1      1116 1.23134E-03 2.73436E-05-1.81720E-05-4.06140E+08 2.59067E+05-8.10245E-06
 -1      1118 1.23134E-03 2.73436E-05-1.81720E-05-4.06140E+08 2.59067E+05-8.10245E-06
 -1      1127 8.45181E-04-3.43882E-04 3.40015E-04-8.77893E+05 3.95466E+06 1.47175E-04
 -1      1129 8.45181E-04-3.43882E-04 3.40015E-04-8.77893E+05 3.95466E+06 1.47175E-04
 -1      1130 1.26199E-03 6.65709E-05-5.52088E-06-4.11471E+08 3.52328E+05-2.40863E-07
 -1      1132 1.26199E-03 6.65709E-05-5.52088E-06-4.11471E+08 3.52328E+05-2.40863E-07
 -1      1141 9.20436E-04-2.25035E-04 7.77491E-04 2.30121E+05 4.91510E+06 8.28523E-05
 -1      1143 9.20436E-04-2.25035E-04 7.77491E-04 2.30121E+05 4.91510E+06 8.28523E-05
 -1      1144 1.11656E-03-1.99676E-05-2.82004E-06-3.92619E+08 3.93937E+05-3.14380E-06
 -1      1146 1.11656E-03-1.99676E-05-2.82004E-06-3.92619E+08 3.93937E+05-3.14380E-06
 -1      1155 8.37973E-04 1.92622E-05 9.35977E-04-4.49013E+05 6.13932E+06-1.88941E-04
 -1      1157 8.37973E-04 1.92622E-05 9.35977E-04-4.49013E+05 6.13932E+06-1.88941E-04
 -1      1158 7.48621E-04-7.86120E-05 1.42127E-05-3.77337E+08 6.15818E+05 2.50450E-06
 -1      1160 7.48621E-04-7.86120E-05 1.42127E-05-3.77337E+08 6.15818E+05 2.50450E-06
 -1      1169 3.45793E-04-2.30646E-04 3.61983E-04-7.69697E+04 7.16982E+06-4.84264E-04
 -1      1171 3.45793E-04-2.30646E-04 3.61983E-04-7.69697E+04 7.16982E+06-4.84264E-04
 -1      1172 2.43112E-04-1.56322E-05 2.53569E-05-3.54093E+08 6.86000E+05-1.25005E-06
 -1      1174 2.43112E-04-1.56322E-05 2.53569E-05-3.54093E+08 6.86000E+05-1.25005E-06
 -1      1183-8.35803E-06-2.39859E-04-1.69446E-04-2.65016E+05 8.23133E+06-3.55960E-04
 -1      1185-8.35803E-06-2.39859E-04-1.69446E-04-2.65016E+05 8.23133E+06-3.55960E-04
 -1      1186-1.74642E-05 1.23389E-04 1.34669E-06-3.26961E+08 8.72833E+05 2.29433E-06
 -1      1188-1.74642E-05 1.23389E-04 1.34669E-06-3.26961E+08 8.72833E+05 2.29433E-06
 -1      1197 6.30505E-07-8.24473E-05-1.20024E-04-1.93440E+05 9.15961E+06-4.06085E-05
 -1      1199 6.30505E-07-8.24473E-05-1.20024E-04-1.93440E+05 9.15961E+06-4.06085E-05
 -1      1200 2.59578E-05 6.77481E-05-2.35550E-05-2.94852E+08 9.65234E+05 1.29921E-05
 -1      1202 2.59578E-05 6.77481E-05-2.35550E-05-2.94852E+08 9.65234E+05 1.29921E-05
 -1      1211-1.83009E-04-2.46077E-04-1.55218E-05-2.33032E+05 9.97132E+06 7.37122E-06
 -1      1213-1.83009E-04-2.46077E-04-1.55218E-05-2.33032E+05 9.97132E+06 7.37122E-06
 -1      1214-6.04987E-05-3.28124E-05-1.00732E-05-2.58594E+08 1.10055E+06 1.27152E-05
 -1      1216-6.04987E-05-3.28124E-05-1.00732E-05-2.58594E+08 1.10055E+06 1.27152E-05
 -1      1225-5.76607E-04-4.47546E-04-2.93488E-04-2.44728E+05 1.06366E+07-1.52186E-04
 -1      1227-5.76607E-04-4.47546E-04-2.93488E-04-2.44728E+05 1.06366E+07-1.52186E-04
 -1      1228-2.68996E-04-1.16572E-04-2.24635E-05-2.18604E+08 1.17517E+06 1.60812E-05
 -1      1230-2.68996E-04-1.16572E-04-2.24635E-05-2.18604E+08 1.17517E+06 1.60812E-05
 -1      1239-6.84517E-04-5.78833E-04-7.78634E-04-2.57388E+05 1.11103E+07-2.74747E-04
 -1      1241-6.84517E-04-5.78833E-04-7.78634E-04-2.57388E+05 1.11103E+07-2.74747E-04
 -1      1242-2.48462E-04-1.86294E-04-3.35276E-06-1.75740E+08 1.25201E+06 8.26059E-06
 -1      1244-2.48462E-04-1.86294E-04-3.35276E-06-1.75740E+08 1.25201E+06 8.26059E-06
 -1      1253-5.44356E-04-5.64571E-04-1.18212E-03-2.86753E+05 1.14004E+07-1.47502E-04
 -1      1255-5.44356E-04-5.64571E-04-1.18212E-03-2.86753E+05 1.14004E+07-1.47502E-04
 -1      1256-6.74427E-05-2.56799E-04-3.08305E-05-1.30766E+08 1.28014E+06 6.18683E-06
 -1      1258-6.74427E-05-2.56799E-04-3.08305E-05-1.30766E+08 1.28014E+06 6.18683E-06
 -1      1267-1.30270E-04 1.30020E-04-9.90642E-04-3.00573E+05 1.14635E+07-1.42132E-04
 -1      1269-1.30270E-04 1.30020E-04-9.90642E-04-3.00573E+05 1.14635E+07-1.42132E-04
 -1      1270 5.49555E-05-1.59502E-04 3.51593E-05-8.47421E+07 1.28984E+06 1.53539E-06
 -1      1272 5.49555E-05-1.59502E-04 3.51593E-05-8.47421E+07 1.28984E+06 1.53539E-06
 -1      1281 1.60665E-04 1.07916E-03-4.49253E-04-3.30905E+05 1.13151E+07-4.92860E-04
 -1      1283 1.60665E-04 1.07916E-03-4.49253E-04-3.30905E+05 1.13151E+07-4.92860E-04
 -1      1284-7.03931E-05 2.75373E-05 1.23397E-04-3.86431E+07 1.25495E+06-9.85777E-06
 -1      1286-7.03931E-05 2.75373E-05 1.23397E-04-3.86431E+07 1.25495E+06-9.85777E-06
 -1      1295-3.53654E-04 4.59295E-04-7.57694E-04-3.47491E+05 1.09306E+07-6.26589E-04
 -1      1297-3.53654E-04 4.59295E-04-7.57694E-04-3.47491E+05 1.09306E+07-6.26589E-04
 -1      1298-3.84629E-04 1.52335E-04 1.34639E-04 6.37909E+06 1.19157E+06-1.20636E-05
 -1      1300-3.84629E-04 1.52335E-04 1.34639E-04 6.37909E+06 1.19157E+06-1.20636E-05
 -1      1309-9.76733E-04-2.59472E-04-1.13162E-03-3.73429E+05 1.03282E+07-4.80907E-04
 -1      1311-9.76733E-04-2.59472E-04-1.13162E-03-3.73429E+05 1.03282E+07-4.80907E-04
 -1      1312-8.36670E-04 2.03192E-04 1.44325E-04 4.92471E+07 1.08689E+06 3.22148E-06
 -1      1314-8.36670E-04 2.03192E-04 1.44325E-04 4.92471E+07 1.08689E+06 3.22148E-06
 -1      1323-1.37045E-03-3.10007E-04-9.06360E-04-3.88279E+05 9.50409E+06-2.58227E-04
 -1      1325-1.37045E-03-3.10007E-04-9.06360E-04-3.88279E+05 9.50409E+06-2.58227E-04
 -1      1326-1.30025E-03 1.51858E-04 1.35571E-04 8.88169E+07 9.50087E+05-8.36296E-06
 -1      1328-1.30025E-03 1.51858E-04 1.35571E-04 8.88169E+07 9.50087E+05-8.36296E-06
 -1      1337-1.69202E-03-7.10326E-04-5.98015E-04-4.06311E+05 8.47981E+06-1.35651E-04
 -1      1339-1.69202E-03-7.10326E-04-5.98015E-04-4.06311E+05 8.47981E+06-1.35651E-04
 -1      1340-1.48842E-03 2.34567E-04 1.62311E-04 1.24028E+08 7.77108E+05-4.49344E-06
 -1      1342-1.48842E-03 2.34567E-04 1.62311E-04 1.24028E+08 7.77108E+05-4.49344E-06
 -1      1351-1.49713E-03-4.46059E-04 1.02643E-05-4.13514E+05 7.27111E+06-1.49837E-04
 -1      1353-1.49713E-03-4.46059E-04 1.02643E-05-4.13514E+05 7.27111E+06-1.49837E-04
 -1      1354-1.53011E-03 1.43722E-04 7.11679E-05 1.53830E+08 5.72995E+05-6.37183E-06
 -1      1356-1.53011E-03 1.43722E-04 7.11679E-05 1.53830E+08 5.72995E+05-6.37183E-06
 -1      1365-1.18129E-03-1.06912E-04 3.58627E-04-4.20627E+05 5.90302E+06-1.22649E-04
 -1      1367-1.18129E-03-1.06912E-04 3.58627E-04-4.20627E+05 5.90302E+06-1.22649E-04
 -1      1368-1.45519E-03 6.33597E-05-4.49270E-06 1.77287E+08 3.40477E+05 6.57019E-09
 -1      1370-1.45519E-03 6.33597E-05-4.49270E-06 1.77287E+08 3.40477E+05 6.57019E-09
 -1      1379-9.50221E-04-5.86162E-05-2.23227E-05-4.12925E+05 4.40940E+06-1.65228E-04
 -1      1381-9.50221E-04-5.86162E-05-2.23227E-05-4.12925E+05 4.40940E+06-1.65228E-04
 -1      1382-1.17749E-03 2.15098E-04 4.87268E-05 1.93513E+08 8.11488E+04 5.62967E-06
 -1      1384-1.17749E-03 2.15098E-04 4.87268E-05 1.93513E+08 8.11488E+04 5.62967E-06
 -1      1393-6.50117E-04-9.97944E-06-7.43171E-04-4.07893E+05 2.81763E+06-1.38989E-04
 -1      1395-6.50117E-04-9.97944E-06-7.43171E-04-4.07893E+05 2.81763E+06-1.38989E-04
 -1      1396-8.93891E-04 1.38130E-04 1.36867E-05 2.01779E+08-1.96183E+05-6.31599E-06
 -1      1398-8.93891E-04 1.38130E-04 1.36867E-05 2.01779E+08-1.96183E+05-6.31599E-06
 -1      1407-5.45611E-04-2.48958E-04-1.02255E-03-3.74282E+05 1.17940E+06 3.36395E-04
 -1      1409-5.45611E-04-2.48958E-04-1.02255E-03-3.74282E+05 1.17940E+06 3.36395E-04
 -1      1410-7.24316E-04-9.05320E-05-1.02058E-04 2.01406E+08-4.93833E+05-1.77658E-06
 -1      1412-7.24316E-04-9.05320E-05-1.02058E-04 2.01406E+08-4.93833E+05-1.77658E-06
 -1      1421-5.09006E-04-2.96561E-04-4.79531E-04-3.60836E+05-4.75591E+05 7.02645E-04
 -1      1423-5.09006E-04-2.96561E-04-4.79531E-04-3.60836E+05-4.75591E+05 7.02645E-04
 -1      1424-5.99742E-04-1.08894E-04 1.81645E-05 1.91924E+08-7.96916E+05-3.95598E-06
 -1      1426-5.99742E-04-1.08894E-04 1.81645E-05 1.91924E+08-7.96916E+05-3.95598E-06
 -1      1435-5.33792E-04-2.51676E-04-2.27412E-04-2.82225E+05-2.07925E+06 3.66123E-04
 -1      1437-5.33792E-04-2.51676E-04-2.27412E-04-2.82225E+05-2.07925E+06 3.66123E-04
 -1      1438-5.57959E-04-5.86621E-05 1.26883E-05 1.72858E+08-1.11239E+06-1.38175E-05
 -1      1440-5.57959E-04-5.86621E-05 1.26883E-05 1.72858E+08-1.11239E+06-1.38175E-05
 -1      1449-5.64521E-04-9.92777E-05-6.98992E-04-2.72232E+05-3.58457E+06 1.12907E-04
 -1      1451-5.64521E-04-9.92777E-05-6.98992E-04-2.72232E+05-3.58457E+06 1.12907E-04
 -1      1452-6.18953E-04-1.78577E-04-5.44824E-06 1.44084E+08-1.41836E+06-1.18088E-05
 -1      1454-6.18953E-04-1.78577E-04-5.44824E-06 1.44084E+08-1.41836E+06-1.18088E-05
 -1      1463-2.53208E-04 5.13241E-04-6.78318E-04-1.17668E+05-4.91286E+06 3.83593E-04
 -1      1465-2.53208E-04 5.13241E-04-6.78318E-04-1.17668E+05-4.91286E+06 3.83593E-04
 -1      1466-5.41568E-04 1.76311E-04 4.12557E-05 1.04933E+08-1.71814E+06 5.99856E-06
 -1      1468-5.41568E-04 1.76311E-04 4.12557E-05 1.04933E+08-1.71814E+06 5.99856E-06
 -1      1477-1.98410E-04-7.07327E-05-1.92797E-04-1.39406E+05-5.89932E+06 5.50405E-04
 -1      1479-1.98410E-04-7.07327E-05-1.92797E-04-1.39406E+05-5.89932E+06 5.50405E-04
 -1      1480-2.38345E-04 2.24586E-04 7.38050E-05 5.70248E+07-1.97223E+06-8.26745E-06
 -1      1482-2.38345E-04 2.24586E-04 7.38050E-05 5.70248E+07-1.97223E+06-8.26745E-06
 -1      1491 1.03403E-04-8.38220E-05-3.82810E-04-4.66324E+05 1.90279E+06 5.26855E-05
 -1      1493 1.03403E-04-8.38220E-05-3.82810E-04-4.66324E+05 1.90279E+06 5.26855E-05
 -1      1494 3.63415E-05-7.43472E-05-2.84166E-04-5.26030E+05 4.16363E-04 1.78888E-04
 -1      1496 3.63415E-05-7.43472E-05-2.84166E-04-5.26030E+05 4.16363E-04 1.78888E-04
 -1      1497-1.73773E-04-4.43804E-04-6.21244E-05-4.66324E+05-1.90279E+06 3.69123E-04
 -1      1499-1.73773E-04-4.43804E-04-6.21244E-05-4.66324E+05-1.90279E+06 3.69123E-04
 -1      1500-4.03356E+09-9.45740E+07-6.25388E+05-2.15798E+08 9.16351E+03 2.80615E+06
 -1      1502-4.03356E+09-9.45740E+07-6.25388E+05-2.15798E+08 9.16351E+03 2.80615E+06
 -1      1503-3.26282E+09 4.87969E+07-2.37142E+06-1.73411E+08 1.23984E+05-1.19349E+05
 -1      1505-3.26282E+09 4.87969E+07-2.37142E+06-1.73411E+08 1.23984E+05-1.19349E+05
 -1      1506-2.50497E+09-2.33853E+07-1.64481E+06-1.98773E+08 3.36400E+05 1.26223E+06
 -1      1508-2.50497E+09-2.33853E+07-1.64481E+06-1.98773E+08 3.36400E+05 1.26223E+06
 -1      1509-1.75142E+09 1.08520E+07-5.51573E+05-1.80480E+08 3.89575E+05 5.71750E+05
 -1      1511-1.75142E+09 1.08520E+07-5.51573E+05-1.80480E+08 3.89575E+05 5.71750E+05
 -1      1512-1.02280E+09-5.01431E+06-1.09241E+06-1.81099E+08 5.31322E+05 8.43536E+05
 -1      1514-1.02280E+09-5.01431E+06-1.09241E+06-1.81099E+08 5.31322E+05 8.43536E+05
 -1      1515-3.18336E+08 2.48639E+06 3.50494E+05-1.70626E+08 6.20807E+05 6.53761E+05
 -1      1517-3.18336E+08 2.48639E+06 3.50494E+05-1.70626E+08 6.20807E+05 6.53761E+05
 -1      1518 3.47774E+08-1.26074E+06-1.79397E+05-1.61232E+08 7.25921E+05 6.61500E+05
 -1      1520 3.47774E+08-1.26074E+06-1.79397E+05-1.61232E+08 7.25921E+05 6.61500E+05
 -1      1521 9.69602E+08 8.07523E+05 9.95405E+05-1.48612E+08 8.23254E+05 5.68882E+05
 -1      1523 9.69602E+08 8.07523E+05 9.95405E+05-1.48612E+08 8.23254E+05 5.68882E+05
 -1      1524 1.53664E+09-4.20679E+05 6.72568E+05-1.34043E+08 9.02014E+05 5.07566E+05
 -1      1526 1.53664E+09-4.20679E+05 6.72568E+05-1.34043E+08 9.02014E+05 5.07566E+05
 -1      1527 2.04171E+09 3.82192E+05 1.52126E+06-1.17580E+08 9.79352E+05 4.23887E+05
 -1      1529 2.04171E+09 3.82192E+05 1.52126E+06-1.17580E+08 9.79352E+05 4.23887E+05
 -1      1530 2.47694E+09-1.44369E+05 1.34246E+06-9.93741E+07 1.02668E+06 3.39907E+05
 -1      1532 2.47694E+09-1.44369E+05 1.34246E+06-9.93741E+07 1.02668E+06 3.39907E+05
 -1      1533 2.83666E+09 2.25923E+05 1.91585E+06-7.98842E+07 1.06565E+06 2.50926E+05
 -1      1535 2.83666E+09 2.25923E+05 1.91585E+06-7.98842E+07 1.06565E+06 2.50926E+05
 -1      1536 3.11604E+09-2.54634E+04 1.79418E+06-5.94268E+07 1.07144E+06 1.59161E+05
 -1      1538 3.11604E+09-2.54634E+04 1.79418E+06-5.94268E+07 1.07144E+06 1.59161E+05
 -1      1539 3.31235E+09 1.54745E+05 2.14536E+06-3.84840E+07 1.06069E+06 6.82683E+04
 -1      1541 3.31235E+09 1.54745E+05 2.14536E+06-3.84840E+07 1.06069E+06 6.82683E+04
 -1      1542 3.42442E+09 2.47629E+04 2.01875E+06-1.75155E+07 1.01665E+06-2.18130E+04
 -1      1544 3.42442E+09 2.47629E+04 2.01875E+06-1.75155E+07 1.01665E+06-2.18130E+04
 -1      1545 3.45324E+09 1.14806E+05 2.18938E+06 2.97507E+06 9.50796E+05-1.06730E+05
 -1      1547 3.45324E+09 1.14806E+05 2.18938E+06 2.97507E+06 9.50796E+05-1.06730E+05
 -1      1548 3.40168E+09 3.83067E+04 2.02398E+06 2.24780E+07 8.53734E+05-1.86126E+05
 -1      1550 3.40168E+09 3.83067E+04 2.02398E+06 2.24780E+07 8.53734E+05-1.86126E+05
 -1      1551 3.27476E+09 8.33972E+04 2.04929E+06 4.04899E+07 7.33530E+05-2.56189E+05
 -1      1553 3.27476E+09 8.33972E+04 2.04929E+06 4.04899E+07 7.33530E+05-2.56189E+05
 -1      1554 3.07942E+09 2.96508E+04 1.83441E+06 5.65132E+07 5.86712E+05-3.16183E+05
 -1      1556 3.07942E+09 2.96508E+04 1.83441E+06 5.65132E+07 5.86712E+05-3.16183E+05
 -1      1557 2.82459E+09 5.08515E+04 1.74888E+06 7.00849E+07 4.19506E+05-3.63076E+05
 -1      1559 2.82459E+09 5.08515E+04 1.74888E+06 7.00849E+07 4.19506E+05-3.63076E+05
 -1      1560 2.52098E+09 5.66181E+03 1.49181E+06 8.07635E+07 2.33349E+05-3.96046E+05
 -1      1562 2.52098E+09 5.66181E+03 1.49181E+06 8.07635E+07 2.33349E+05-3.96046E+05
 -1      1563 2.18100E+09 1.43776E+04 1.33236E+06 8.81639E+07 3.37234E+04-4.13342E+05
 -1      1565 2.18100E+09 1.43776E+04 1.33236E+06 8.81639E+07 3.37234E+04-4.13342E+05
 -1      1566 1.81848E+09-3.20834E+04 1.05427E+06 9.19359E+07-1.73452E+05-4.13621E+05
 -1      1568 1.81848E+09-3.20834E+04 1.05427E+06 9.19359E+07-1.73452E+05-4.13621E+05
 -1      1569 1.44859E+09-2.02024E+04 8.60643E+05 9.17851E+07-3.82416E+05-3.98575E+05
 -1      1571 1.44859E+09-2.02024E+04 8.60643E+05 9.17851E+07-3.82416E+05-3.98575E+05
 -1      1572 1.08750E+09-9.59684E+04 5.93796E+05 8.75012E+07-5.82780E+05-3.62496E+05
 -1      1574 1.08750E+09-9.59684E+04 5.93796E+05 8.75012E+07-5.82780E+05-3.62496E+05
 -1      1575 7.52274E+08-2.48620E+04 4.06617E+05 7.88354E+07-7.66462E+05-3.20191E+05
 -1      1577 7.52274E+08-2.48620E+04 4.06617E+05 7.88354E+07-7.66462E+05-3.20191E+05
 -1      1578 4.60528E+08-2.15462E+05 1.92492E+05 6.57586E+07-9.19839E+05-2.41827E+05
 -1      1580 4.60528E+08-2.15462E+05 1.92492E+05 6.57586E+07-9.19839E+05-2.41827E+05
 -1      1581 2.30304E+08-3.31888E+04 5.28797E+04 4.82310E+07-1.02790E+06-1.99130E+05
 -1      1583 2.30304E+08-3.31888E+04 5.28797E+04 4.82310E+07-1.02790E+06-1.99130E+05
 -1      1584 8.01941E+07-1.81910E+04-7.15117E+04 2.52771E+07-1.08872E+06-4.45148E+04
 -1      1586 8.01941E+07-1.81910E+04-7.15117E+04 2.52771E+07-1.08872E+06-4.45148E+04
 -1      1587 2.09808E+07 3.68698E+06-1.88809E+02 2.18786E+07-1.57718E+06 9.33062E+04
 -1      1589 2.09808E+07 3.68698E+06-1.88809E+02 2.18786E+07-1.57718E+06 9.33062E+04
 -1      1590-2.92069E+09-2.67019E+08-7.22064E+05-3.03462E+08 1.16290E+06 4.39443E+06
 -1      1592-2.92069E+09-2.67019E+08-7.22064E+05-3.03462E+08 1.16290E+06 4.39443E+06
 -1      1593-2.09808E+07-3.68698E+06 1.88809E+02 2.18786E+07-1.57718E+06-9.33062E+04
 -1      1595-2.09808E+07-3.68698E+06 1.88809E+02 2.18786E+07-1.57718E+06-9.33062E+04
 -1      1596 4.03356E+09 9.45740E+07 6.25388E+05-2.15798E+08 9.16351E+03-2.80615E+06
 -1      1598 4.03356E+09 9.45740E+07 6.25388E+05-2.15798E+08 9.16351E+03-2.80615E+06
 -1      1599 3.26282E+09-4.87969E+07 2.37142E+06-1.73411E+08 1.23984E+05 1.19349E+05
 -1      1601 3.26282E+09-4.87969E+07 2.37142E+06-1.73411E+08 1.23984E+05 1.19349E+05
 -1      1602 2.50497E+09 2.33853E+07 1.64481E+06-1.98773E+08 3.36400E+05-1.26223E+06
 -1      1604 2.50497E+09 2.33853E+07 1.64481E+06-1.98773E+08 3.36400E+05-1.26223E+06
 -1      1605 1.75142E+09-1.08520E+07 5.51573E+05-1.80480E+08 3.89575E+05-5.71750E+05
 -1      1607 1.75142E+09-1.08520E+07 5.51573E+05-1.80480E+08 3.89575E+05-5.71750E+05
 -1      1608 1.02280E+09 5.01431E+06 1.09241E+06-1.81099E+08 5.31322E+05-8.43536E+05
 -1      1610 1.02280E+09 5.01431E+06 1.09241E+06-1.81099E+08 5.31322E+05-8.43536E+05
 -1      1611 3.18336E+08-2.48639E+06-3.50494E+05-1.70626E+08 6.20807E+05-6.53761E+05
 -1      1613 3.18336E+08-2.48639E+06-3.50494E+05-1.70626E+08 6.20807E+05-6.53761E+05
 -1      1614-3.47774E+08 1.26074E+06 1.79397E+05-1.61232E+08 7.25921E+05-6.61500E+05
 -1      1616-3.47774E+08 1.26074E+06 1.79397E+05-1.61232E+08 7.25921E+05-6.61500E+05
 -1      1617-9.69602E+08-8.07523E+05-9.95405E+05-1.48612E+08 8.23254E+05-5.68882E+05
 -1      1619-9.69602E+08-8.07523E+05-9.95405E+05-1.48612E+08 8.23254E+05-5.68882E+05
 -1      1620-1.53664E+09 4.20679E+05-6.72568E+05-1.34043E+08 9.02014E+05-5.07566E+05
 -1      1622-1.53664E+09 4.20679E+05-6.72568E+05-1.34043E+08 9.02014E+05-5.07566E+05
 -1      1623-2.04171E+09-3.82192E+05-1.52126E+06-1.17580E+08 9.79352E+05-4.23887E+05
 -1      1625-2.04171E+09-3.82192E+05-1.52126E+06-1.17580E+08 9.79352E+05-4.23887E+05
 -1      1626-2.47694E+09 1.44369E+05-1.34246E+06-9.93741E+07 1.02668E+06-3.39907E+05
 -1      1628-2.47694E+09 1.44369E+05-1.34246E+06-9.93741E+07 1.02668E+06-3.39907E+05
 -1      1629-2.83666E+09-2.25923E+05-1.91585E+06-7.98842E+07 1.06565E+06-2.50926E+05
 -1      1631-2.83666E+09-2.25923E+05-1.91585E+06-7.98842E+07 1.06565E+06-2.50926E+05
 -1      1632-3.11604E+09 2.54634E+04-1.79418E+06-5.94268E+07 1.07144E+06-1.59161E+05
 -1      1634-3.11604E+09 2.54634E+04-1.79418E+06-5.94268E+07 1.07144E+06-1.59161E+05
 -1      1635-3.31235E+09-1.54745E+05-2.14536E+06-3.84840E+07 1.06069E+06-6.82683E+04
 -1      1637-3.31235E+09-1.54745E+05-2.14536E+06-3.84840E+07 1.06069E+06-6.82683E+04
 -1      1638-3.42442E+09-2.47629E+04-2.01875E+06-1.75155E+07 1.01665E+06 2.18130E+04
 -1      1640-3.42442E+09-2.47629E+04-2.01875E+06-1.75155E+07 1.01665E+06 2.18130E+04
 -1      1641-3.45324E+09-1.14806E+05-2.18938E+06 2.97507E+06 9.50796E+05 1.06730E+05
 -1      1643-3.45324E+09-1.14806E+05-2.18938E+06 2.97507E+06 9.50796E+05 1.06730E+05
 -1      1644-3.40168E+09-3.83067E+04-2.02398E+06 2.24780E+07 8.53734E+05 1.86126E+05
 -1      1646-3.40168E+09-3.83067E+04-2.02398E+06 2.24780E+07 8.53734E+05 1.86126E+05
 -1      1647-3.27476E+09-8.33972E+04-2.04929E+06 4.04899E+07 7.33530E+05 2.56189E+05
 -1      1649-3.27476E+09-8.33972E+04-2.04929E+06 4.04899E+07 7.33530E+05 2.56189E+05
 -1      1650-3.07942E+09-2.96508E+04-1.83441E+06 5.65132E+07 5.86712E+05 3.16183E+05
 -1      1652-3.07942E+09-2.96508E+04-1.83441E+06 5.65132E+07 5.86712E+05 3.16183E+05
 -1      1653-2.82459E+09-5.08515E+04-1.74888E+06 7.00849E+07 4.19506E+05 3.63076E+05
 -1      1655-2.82459E+09-5.08515E+04-1.74888E+06 7.00849E+07 4.19506E+05 3.63076E+05
 -1      1656-2.52098E+09-5.66181E+03-1.49181E+06 8.07635E+07 2.33349E+05 3.96046E+05
 -1      1658-2.52098E+09-5.66181E+03-1.49181E+06 8.07635E+07 2.33349E+05 3.96046E+05
 -1      1659-2.18100E+09-1.43776E+04-1.33236E+06 8.81639E+07 3.37234E+04 4.13342E+05
 -1      1661-2.18100E+09-1.43776E+04-1.33236E+06 8.81639E+07 3.37234E+04 4.13342E+05
 -1      1662-1.81848E+09 3.20834E+04-1.05427E+06 9.19359E+07-1.73452E+05 4.13621E+05
 -1      1664-1.81848E+09 3.20834E+04-1.05427E+06 9.19359E+07-1.73452E+05 4.13621E+05
 -1      1665-1.44859E+09 2.02024E+04-8.60643E+05 9.17851E+07-3.82416E+05 3.98575E+05
 -1      1667-1.44859E+09 2.02024E+04-8.60643E+05 9.17851E+07-3.82416E+05 3.98575E+05
 -1      1668-1.08750E+09 9.59684E+04-5.93796E+05 8.75012E+07-5.82780E+05 3.62496E+05
 -1      1670-1.08750E+09 9.59684E+04-5.93796E+05 8.75012E+07-5.82780E+05 3.62496E+05
 -1      1671-7.52274E+08 2.48620E+04-4.06617E+05 7.88354E+07-7.66462E+05 3.20191E+05
 -1      1673-7.52274E+08 2.48620E+04-4.06617E+05 7.88354E+07-7.66462E+05 3.20191E+05
 -1      1674-4.60528E+08 2.15462E+05-1.92492E+05 6.57586E+07-9.19839E+05 2.41827E+05
 -1      1676-4.60528E+08 2.15462E+05-1.92492E+05 6.57586E+07-9.19839E+05 2.41827E+05
 -1      1677-2.30304E+08 3.31888E+04-5.28797E+04 4.82310E+07-1.02790E+06 1.99130E+05
 -1      1679-2.30304E+08 3.31888E+04-5.28797E+04 4.82310E+07-1.02790E+06 1.99130E+05
 -1      1680-8.01941E+07 1.81910E+04 7.15117E+04 2.52771E+07-1.08872E+06 4.45148E+04
 -1      1682-8.01941E+07 1.81910E+04 7.15117E+04 2.52771E+07-1.08872E+06 4.45148E+04
 -1      1683 2.92069E+09 2.67019E+08 7.22064E+05-3.03462E+08 1.16290E+06-4.39443E+06
 -1      1685 2.92069E+09 2.67019E+08 7.22064E+05-3.03462E+08 1.16290E+06-4.39443E+06
 -1      1686 2.68745E+09 7.31275E+07-4.92353E+04-3.05494E+08-5.80097E+05 1.21315E+06
 -1      1688 2.68745E+09 7.31275E+07-4.92353E+04-3.05494E+08-5.80097E+05 1.21315E+06
 -1      1689 2.18083E+09-3.60880E+07-6.54006E+04-3.06386E+08-3.71271E+04-4.75838E+05
 -1      1691 2.18083E+09-3.60880E+07-6.54006E+04-3.06386E+08-3.71271E+04-4.75838E+05
 -1      1692 1.66559E+09 1.62036E+07 6.93045E+04-3.02456E+08-2.97733E+05 3.39067E+05
 -1      1694 1.66559E+09 1.62036E+07 6.93045E+04-3.02456E+08-2.97733E+05 3.39067E+05
 -1      1695 1.17089E+09-5.22477E+06 1.33483E+04-2.95976E+08-3.70952E+05-4.08918E+04
 -1      1697 1.17089E+09-5.22477E+06 1.33483E+04-2.95976E+08-3.70952E+05-4.08918E+04
 -1      1698 6.81325E+08 2.98485E+06-1.91498E+04-2.86859E+08-4.62630E+05 1.34780E+05
 -1      1700 6.81325E+08 2.98485E+06-1.91498E+04-2.86859E+08-4.62630E+05 1.34780E+05
 -1      1701 2.14318E+08 9.53262E+05 3.75722E+04-2.73982E+08-6.18312E+05 5.64108E+04
 -1      1703 2.14318E+08 9.53262E+05 3.75722E+04-2.73982E+08-6.18312E+05 5.64108E+04
 -1      1704-2.30472E+08 1.77515E+06-1.99189E+04-2.57663E+08-7.05960E+05 8.50013E+04
 -1      1706-2.30472E+08 1.77515E+06-1.99189E+04-2.57663E+08-7.05960E+05 8.50013E+04
 -1      1707-6.44035E+08 2.14379E+06 7.33029E+03-2.37786E+08-8.48043E+05 6.68270E+04
 -1      1709-6.44035E+08 2.14379E+06 7.33029E+03-2.37786E+08-8.48043E+05 6.68270E+04
 -1      1710-1.02201E+09 2.36282E+06 2.01514E+03-2.14448E+08-9.33624E+05 6.22412E+04
 -1      1712-1.02201E+09 2.36282E+06 2.01514E+03-2.14448E+08-9.33624E+05 6.22412E+04
 -1      1713-1.35820E+09 2.69339E+06-2.19678E+04-1.88087E+08-1.03995E+06 5.09664E+04
 -1      1715-1.35820E+09 2.69339E+06-2.19678E+04-1.88087E+08-1.03995E+06 5.09664E+04
 -1      1716-1.64819E+09 2.91515E+06 1.52584E+04-1.58989E+08-1.10093E+06 3.76317E+04
 -1      1718-1.64819E+09 2.91515E+06 1.52584E+04-1.58989E+08-1.10093E+06 3.76317E+04
 -1      1719-1.88771E+09 3.07529E+06-3.73279E+04-1.27812E+08-1.15883E+06 2.37714E+04
 -1      1721-1.88771E+09 3.07529E+06-3.73279E+04-1.27812E+08-1.15883E+06 2.37714E+04
 -1      1722-2.07388E+09 3.21165E+06 1.80311E+04-9.50964E+07-1.17579E+06 7.01444E+03
 -1      1724-2.07388E+09 3.21165E+06 1.80311E+04-9.50964E+07-1.17579E+06 7.01444E+03
 -1      1725-2.20465E+09 3.22516E+06-4.18689E+04-6.16131E+07-1.17526E+06-9.51465E+03
 -1      1727-2.20465E+09 3.22516E+06-4.18689E+04-6.16131E+07-1.17526E+06-9.51465E+03
 -1      1728-2.27941E+09 3.21714E+06 1.52324E+04-2.80793E+07-1.13580E+06-2.76351E+04
 -1      1730-2.27941E+09 3.21714E+06 1.52324E+04-2.80793E+07-1.13580E+06-2.76351E+04
 -1      1731-2.29872E+09 3.08358E+06-4.03828E+04 4.67708E+06-1.07118E+06-4.50784E+04
 -1      1733-2.29872E+09 3.08358E+06-4.03828E+04 4.67708E+06-1.07118E+06-4.50784E+04
 -1      1734-2.26455E+09 2.91533E+06 1.08232E+04 3.58626E+07-9.70311E+05-6.27502E+04
 -1      1736-2.26455E+09 2.91533E+06 1.08232E+04 3.58626E+07-9.70311E+05-6.27502E+04
 -1      1737-2.18020E+09 2.63411E+06-3.61003E+04 6.46534E+07-8.41809E+05-7.90377E+04
 -1      1739-2.18020E+09 2.63411E+06-3.61003E+04 6.46534E+07-8.41809E+05-7.90377E+04
 -1      1740-2.05034E+09 2.31088E+06 6.88209E+03 9.02704E+07-6.81910E+05-9.43329E+04
 -1      1742-2.05034E+09 2.31088E+06 6.88209E+03 9.02704E+07-6.81910E+05-9.43329E+04
 -1      1743-1.88088E+09 1.89369E+06-3.08688E+04 1.11958E+08-4.96250E+05-1.07397E+05
 -1      1745-1.88088E+09 1.89369E+06-3.08688E+04 1.11958E+08-4.96250E+05-1.07397E+05
 -1      1746-1.67898E+09 1.43323E+06 4.19376E+03 1.29025E+08-2.86913E+05-1.18290E+05
 -1      1748-1.67898E+09 1.43323E+06 4.19376E+03 1.29025E+08-2.86913E+05-1.18290E+05
 -1      1749-1.45289E+09 9.04088E+05-2.58563E+04 1.40839E+08-5.74361E+04-1.26185E+05
 -1      1751-1.45289E+09 9.04088E+05-2.58563E+04 1.40839E+08-5.74361E+04-1.26185E+05
 -1      1752-1.21183E+09 3.35206E+05 2.93902E+03 1.46858E+08 1.84817E+05-1.30378E+05
 -1      1754-1.21183E+09 3.35206E+05 2.93902E+03 1.46858E+08 1.84817E+05-1.30378E+05
 -1      1755-9.65881E+08-2.81901E+05-2.21525E+04 1.46596E+08 4.38124E+05-1.31546E+05
 -1      1757-9.65881E+08-2.81901E+05-2.21525E+04 1.46596E+08 4.38124E+05-1.31546E+05
 -1      1758-7.25842E+08-9.01707E+05 3.15867E+03 1.39713E+08 6.89848E+05-1.25426E+05
 -1      1760-7.25842E+08-9.01707E+05 3.15867E+03 1.39713E+08 6.89848E+05-1.25426E+05
 -1      1761-5.03060E+08-1.63013E+06-2.07944E+04 1.25847E+08 9.39428E+05-1.20129E+05
 -1      1763-5.03060E+08-1.63013E+06-2.07944E+04 1.25847E+08 9.39428E+05-1.20129E+05
 -1      1764-3.09239E+08-2.16585E+06 3.74894E+03 1.04921E+08 1.16910E+06-9.42196E+04
 -1      1766-3.09239E+08-2.16585E+06 3.74894E+03 1.04921E+08 1.16910E+06-9.42196E+04
 -1      1767-1.56663E+08-3.06293E+06-1.92757E+04 7.65818E+07 1.37302E+06-9.20741E+04
 -1      1769-1.56663E+08-3.06293E+06-1.92757E+04 7.65818E+07 1.37302E+06-9.20741E+04
 -1      1770-5.66296E+07-3.74004E+06-5.90196E+03 4.11509E+07 1.53048E+06-1.17053E+04
 -1      1772-5.66296E+07-3.74004E+06-5.90196E+03 4.11509E+07 1.53048E+06-1.17053E+04
 -1      1773-2.68745E+09-7.31275E+07 4.92353E+04-3.05494E+08-5.80097E+05-1.21315E+06
 -1      1775-2.68745E+09-7.31275E+07 4.92353E+04-3.05494E+08-5.80097E+05-1.21315E+06
 -1      1776-2.18083E+09 3.60880E+07 6.54006E+04-3.06386E+08-3.71271E+04 4.75838E+05
 -1      1778-2.18083E+09 3.60880E+07 6.54006E+04-3.06386E+08-3.71271E+04 4.75838E+05
 -1      1779-1.66559E+09-1.62036E+07-6.93045E+04-3.02456E+08-2.97733E+05-3.39067E+05
 -1      1781-1.66559E+09-1.62036E+07-6.93045E+04-3.02456E+08-2.97733E+05-3.39067E+05
 -1      1782-1.17089E+09 5.22477E+06-1.33483E+04-2.95976E+08-3.70952E+05 4.08918E+04
 -1      1784-1.17089E+09 5.22477E+06-1.33483E+04-2.95976E+08-3.70952E+05 4.08918E+04
 -1      1785-6.81325E+08-2.98485E+06 1.91498E+04-2.86859E+08-4.62630E+05-1.34780E+05
 -1      1787-6.81325E+08-2.98485E+06 1.91498E+04-2.86859E+08-4.62630E+05-1.34780E+05
 -1      1788-2.14318E+08-9.53262E+05-3.75722E+04-2.73982E+08-6.18312E+05-5.64108E+04
 -1      1790-2.14318E+08-9.53262E+05-3.75722E+04-2.73982E+08-6.18312E+05-5.64108E+04
 -1      1791 2.30472E+08-1.77515E+06 1.99189E+04-2.57663E+08-7.05960E+05-8.50013E+04
 -1      1793 2.30472E+08-1.77515E+06 1.99189E+04-2.57663E+08-7.05960E+05-8.50013E+04
 -1      1794 6.44035E+08-2.14379E+06-7.33029E+03-2.37786E+08-8.48043E+05-6.68270E+04
 -1      1796 6.44035E+08-2.14379E+06-7.33029E+03-2.37786E+08-8.48043E+05-6.68270E+04
 -1      1797 1.02201E+09-2.36282E+06-2.01514E+03-2.14448E+08-9.33624E+05-6.22412E+04
 -1      1799 1.02201E+09-2.36282E+06-2.01514E+03-2.14448E+08-9.33624E+05-6.22412E+04
 -1      1800 1.35820E+09-2.69339E+06 2.19678E+04-1.88087E+08-1.03995E+06-5.09664E+04
 -1      1802 1.35820E+09-2.69339E+06 2.19678E+04-1.88087E+08-1.03995E+06-5.09664E+04
 -1      1803 1.64819E+09-2.91515E+06-1.52584E+04-1.58989E+08-1.10093E+06-3.76317E+04
 -1      1805 1.64819E+09-2.91515E+06-1.52584E+04-1.58989E+08-1.10093E+06-3.76317E+04
 -1      1806 1.88771E+09-3.07529E+06 3.73279E+04-1.27812E+08-1.15883E+06-2.37714E+04
 -1      1808 1.88771E+09-3.07529E+06 3.73279E+04-1.27812E+08-1.15883E+06-2.37714E+04
 -1      1809 2.07388E+09-3.21165E+06-1.80311E+04-9.50964E+07-1.17579E+06-7.01444E+03
 -1      1811 2.07388E+09-3.21165E+06-1.80311E+04-9.50964E+07-1.17579E+06-7.01444E+03
 -1      1812 2.20465E+09-3.22516E+06 4.18689E+04-6.16131E+07-1.17526E+06 9.51465E+03
 -1      1814 2.20465E+09-3.22516E+06 4.18689E+04-6.16131E+07-1.17526E+06 9.51465E+03
 -1      1815 2.27941E+09-3.21714E+06-1.52324E+04-2.80793E+07-1.13580E+06 2.76351E+04
 -1      1817 2.27941E+09-3.21714E+06-1.52324E+04-2.80793E+07-1.13580E+06 2.76351E+04
 -1      1818 2.29872E+09-3.08358E+06 4.03828E+04 4.67708E+06-1.07118E+06 4.50784E+04
 -1      1820 2.29872E+09-3.08358E+06 4.03828E+04 4.67708E+06-1.07118E+06 4.50784E+04
 -1      1821 2.26455E+09-2.91533E+06-1.08232E+04 3.58626E+07-9.70311E+05 6.27502E+04
 -1      1823 2.26455E+09-2.91533E+06-1.08232E+04 3.58626E+07-9.70311E+05 6.27502E+04
 -1      1824 2.18020E+09-2.63411E+06 3.61003E+04 6.46534E+07-8.41809E+05 7.90377E+04
 -1      1826 2.18020E+09-2.63411E+06 3.61003E+04 6.46534E+07-8.41809E+05 7.90377E+04
 -1      1827 2.05034E+09-2.31088E+06-6.88209E+03 9.02704E+07-6.81910E+05 9.43329E+04
 -1      1829 2.05034E+09-2.31088E+06-6.88209E+03 9.02704E+07-6.81910E+05 9.43329E+04
 -1      1830 1.88088E+09-1.89369E+06 3.08688E+04 1.11958E+08-4.96250E+05 1.07397E+05
 -1      1832 1.88088E+09-1.89369E+06 3.08688E+04 1.11958E+08-4.96250E+05 1.07397E+05
 -1      1833 1.67898E+09-1.43323E+06-4.19376E+03 1.29025E+08-2.86913E+05 1.18290E+05
 -1      1835 1.67898E+09-1.43323E+06-4.19376E+03 1.29025E+08-2.86913E+05 1.18290E+05
 -1      1836 1.45289E+09-9.04088E+05 2.58563E+04 1.40839E+08-5.74361E+04 1.26185E+05
 -1      1838 1.45289E+09-9.04088E+05 2.58563E+04 1.40839E+08-5.74361E+04 1.26185E+05
 -1      1839 1.21183E+09-3.35206E+05-2.93902E+03 1.46858E+08 1.84817E+05 1.30378E+05
 -1      1841 1.21183E+09-3.35206E+05-2.93902E+03 1.46858E+08 1.84817E+05 1.30378E+05
 -1      1842 9.65881E+08 2.81901E+05 2.21525E+04 1.46596E+08 4.38124E+05 1.31546E+05
 -1      1844 9.65881E+08 2.81901E+05 2.21525E+04 1.46596E+08 4.38124E+05 1.31546E+05
 -1      1845 7.25842E+08 9.01707E+05-3.15867E+03 1.39713E+08 6.89848E+05 1.25426E+05
 -1      1847 7.25842E+08 9.01707E+05-3.15867E+03 1.39713E+08 6.89848E+05 1.25426E+05
 -1      1848 5.03060E+08 1.63013E+06 2.07944E+04 1.25847E+08 9.39428E+05 1.20129E+05
 -1      1850 5.03060E+08 1.63013E+06 2.07944E+04 1.25847E+08 9.39428E+05 1.20129E+05
 -1      1851 3.09239E+08 2.16585E+06-3.74894E+03 1.04921E+08 1.16910E+06 9.42196E+04
 -1      1853 3.09239E+08 2.16585E+06-3.74894E+03 1.04921E+08 1.16910E+06 9.42196E+04
 -1      1854 1.56663E+08 3.06293E+06 1.92757E+04 7.65818E+07 1.37302E+06 9.20741E+04
 -1      1856 1.56663E+08 3.06293E+06 1.92757E+04 7.65818E+07 1.37302E+06 9.20741E+04
 -1      1857 5.66296E+07 3.74004E+06 5.90196E+03 4.11509E+07 1.53048E+06 1.17053E+04
 -1      1859 5.66296E+07 3.74004E+06 5.90196E+03 4.11509E+07 1.53048E+06 1.17053E+04
 -1      1860-7.11574E-04-7.63420E-06-5.92538E-04-4.63420E+06-5.33383E+05 1.40039E-04
 -1      1862-7.11574E-04-7.63420E-06-5.92538E-04-4.63420E+06-5.33383E+05 1.40039E-04
 -1      1863-5.76280E-04-5.71775E-05-6.48900E-04-9.99526E+05-1.22820E+06 5.25336E-05
 -1      1865-5.76280E-04-5.71775E-05-6.48900E-04-9.99526E+05-1.22820E+06 5.25336E-05
 -1      1866-4.20524E-04-1.97124E-04-1.29696E-04-1.41683E+06-1.85745E+06-4.31406E-05
 -1      1868-4.20524E-04-1.97124E-04-1.29696E-04-1.41683E+06-1.85745E+06-4.31406E-05
 -1      1869-3.00439E-04-9.66980E-05 6.19266E-04-1.72961E+06-2.49446E+06-2.01078E-05
 -1      1871-3.00439E-04-9.66980E-05 6.19266E-04-1.72961E+06-2.49446E+06-2.01078E-05
 -1      1872-2.91184E-04 2.33536E-04 8.55920E-04-1.36412E+06-3.10701E+06 1.63976E-04
 -1      1874-2.91184E-04 2.33536E-04 8.55920E-04-1.36412E+06-3.10701E+06 1.63976E-04
 -1      1875-3.79333E-04 3.24993E-04 2.96911E-04-1.45617E+06-3.73392E+06 2.69641E-04
 -1      1877-3.79333E-04 3.24993E-04 2.96911E-04-1.45617E+06-3.73392E+06 2.69641E-04
 -1      1878-3.93582E-04-6.61784E-06-4.44492E-04-1.34494E+06-4.30037E+06 6.47757E-05
 -1      1880-3.93582E-04-6.61784E-06-4.44492E-04-1.34494E+06-4.30037E+06 6.47757E-05
 -1      1881-1.20105E-04 1.90881E-05-3.21420E-04-1.20824E+06-4.84422E+06-1.69782E-04
 -1      1883-1.20105E-04 1.90881E-05-3.21420E-04-1.20824E+06-4.84422E+06-1.69782E-04
 -1      1884 1.51134E-04 2.93882E-04 2.84464E-04-1.14223E+06-5.31868E+06-9.91623E-06
 -1      1886 1.51134E-04 2.93882E-04 2.84464E-04-1.14223E+06-5.31868E+06-9.91623E-06
 -1      1887 3.89047E-05 1.42575E-04 2.03197E-04-9.52276E+05-5.72328E+06 3.50458E-04
 -1      1889 3.89047E-05 1.42575E-04 2.03197E-04-9.52276E+05-5.72328E+06 3.50458E-04
 -1      1890-1.27464E-04 1.33198E-04-3.61132E-04-8.42987E+05-6.04633E+06 3.79252E-04
 -1      1892-1.27464E-04 1.33198E-04-3.61132E-04-8.42987E+05-6.04633E+06 3.79252E-04
 -1      1893-1.83628E-04 4.47380E-05-8.32980E-04-6.47788E+05-6.26689E+06 9.68734E-05
 -1      1895-1.83628E-04 4.47380E-05-8.32980E-04-6.47788E+05-6.26689E+06 9.68734E-05
 -1      1896-3.71142E-04-2.62458E-04-9.70012E-04-4.98264E+05-6.39004E+06-2.03270E-04
 -1      1898-3.71142E-04-2.62458E-04-9.70012E-04-4.98264E+05-6.39004E+06-2.03270E-04
 -1      1899-3.14249E-04 1.19307E-05-7.34001E-04-3.06598E+05-6.39421E+06-4.72860E-04
 -1      1901-3.14249E-04 1.19307E-05-7.34001E-04-3.06598E+05-6.39421E+06-4.72860E-04
 -1      1902-1.08823E-04 1.84942E-04-8.29015E-04-1.40004E+05-6.28988E+06-7.01333E-04
 -1      1904-1.08823E-04 1.84942E-04-8.29015E-04-1.40004E+05-6.28988E+06-7.01333E-04
 -1      1905-6.72161E-05-1.37102E-04-1.24466E-03 4.00303E+04-6.06421E+06-7.66953E-04
 -1      1907-6.72161E-05-1.37102E-04-1.24466E-03 4.00303E+04-6.06421E+06-7.66953E-04
 -1      1908-2.84072E-05-2.31820E-04-1.28833E-03 2.00625E+05-5.72960E+06-7.63563E-04
 -1      1910-2.84072E-05-2.31820E-04-1.28833E-03 2.00625E+05-5.72960E+06-7.63563E-04
 -1      1911 6.34610E-05-2.19645E-04-8.73325E-04 3.56610E+05-5.28464E+06-6.63740E-04
 -1      1913 6.34610E-05-2.19645E-04-8.73325E-04 3.56610E+05-5.28464E+06-6.63740E-04
 -1      1914 4.02034E-04-1.26014E-04-3.16929E-04 4.90914E+05-4.74338E+06-3.73249E-04
 -1      1916 4.02034E-04-1.26014E-04-3.16929E-04 4.90914E+05-4.74338E+06-3.73249E-04
 -1      1917 8.66391E-04-7.88411E-05-8.00342E-05 6.08930E+05-4.11600E+06-1.75008E-04
 -1      1919 8.66391E-04-7.88411E-05-8.00342E-05 6.08930E+05-4.11600E+06-1.75008E-04
 -1      1920 1.20719E-03-6.67832E-05 7.94043E-06 6.99012E+05-3.41835E+06-5.79780E-05
 -1      1922 1.20719E-03-6.67832E-05 7.94043E-06 6.99012E+05-3.41835E+06-5.79780E-05
 -1      1923 1.39811E-03 1.30812E-04-2.94832E-05 7.67447E+05-2.67190E+06 1.71870E-04
 -1      1925 1.39811E-03 1.30812E-04-2.94832E-05 7.67447E+05-2.67190E+06 1.71870E-04
 -1      1926 1.43194E-03 1.83822E-04-3.91766E-04 7.96003E+05-1.89390E+06 1.76347E-04
 -1      1928 1.43194E-03 1.83822E-04-3.91766E-04 7.96003E+05-1.89390E+06 1.76347E-04
 -1      1929 1.20361E-03 5.96955E-05-6.74331E-04 8.10887E+05-1.11663E+06 2.18371E-04
 -1      1931 1.20361E-03 5.96955E-05-6.74331E-04 8.10887E+05-1.11663E+06 2.18371E-04
 -1      1932 8.67947E-04 2.28244E-05-8.50152E-04 7.55862E+05-3.58820E+05 4.91966E-04
 -1      1934 8.67947E-04 2.28244E-05-8.50152E-04 7.55862E+05-3.58820E+05 4.91966E-04
 -1      1935 6.34388E-04-2.81677E-05-1.19457E-03 7.30663E+05 3.38880E+05 5.91147E-04
 -1      1937 6.34388E-04-2.81677E-05-1.19457E-03 7.30663E+05 3.38880E+05 5.91147E-04
 -1      1938 4.49755E-04-1.56983E-04-1.51704E-03 5.52474E+05 9.52594E+05 5.59269E-04
 -1      1940 4.49755E-04-1.56983E-04-1.51704E-03 5.52474E+05 9.52594E+05 5.59269E-04
 -1      1941 3.39209E-04-2.78108E-04-1.49938E-03 5.38302E+05 1.44370E+06 3.96420E-04
 -1      1943 3.39209E-04-2.78108E-04-1.49938E-03 5.38302E+05 1.44370E+06 3.96420E-04
 -1      1944 2.15244E-04-1.97264E-04-8.72792E-04 1.40282E+05 1.76802E+06 1.62280E-04
 -1      1946 2.15244E-04-1.97264E-04-8.72792E-04 1.40282E+05 1.76802E+06 1.62280E-04
 -1      1947 1.42375E-04 9.35906E-08-4.22568E-04-7.56470E+06 1.25991E-05 2.19484E-05
 -1      1949 1.42375E-04 9.35906E-08-4.22568E-04-7.56470E+06 1.25991E-05 2.19484E-05
 -1      1950 1.94598E-04-3.77605E-05-4.22468E-04-1.34960E+06 8.24736E-05 7.46689E-05
 -1      1952 1.94598E-04-3.77605E-05-4.22468E-04-1.34960E+06 8.24736E-05 7.46689E-05
 -1      1953 5.95800E-05-2.81383E-04-2.60789E-05-3.42931E+06 1.10584E-04 6.81187E-05
 -1      1955 5.95800E-05-2.81383E-04-2.60789E-05-3.42931E+06 1.10584E-04 6.81187E-05
 -1      1956-1.96570E-05-3.13665E-04 5.08990E-04-2.58133E+06 1.46715E-04-7.88132E-06
 -1      1958-1.96570E-05-3.13665E-04 5.08990E-04-2.58133E+06 1.46715E-04-7.88132E-06
 -1      1959 1.19703E-05-2.72699E-05 7.52002E-04-2.95836E+06 1.86805E-04-1.18088E-05
 -1      1961 1.19703E-05-2.72699E-05 7.52002E-04-2.95836E+06 1.86805E-04-1.18088E-05
 -1      1962 8.02203E-05 1.47071E-04 4.48875E-04-2.46332E+06 2.28838E-04-8.09017E-05
 -1      1964 8.02203E-05 1.47071E-04 4.48875E-04-2.46332E+06 2.28838E-04-8.09017E-05
 -1      1965 6.42584E-05-1.16775E-04-1.81505E-04-2.61290E+06 2.54444E-04-2.50070E-04
 -1      1967 6.42584E-05-1.16775E-04-1.81505E-04-2.61290E+06 2.54444E-04-2.50070E-04
 -1      1968-2.78030E-05-2.91240E-04-3.98989E-04-2.15147E+06 3.13396E-04-2.52333E-04
 -1      1970-2.78030E-05-2.91240E-04-3.98989E-04-2.15147E+06 3.13396E-04-2.52333E-04
 -1      1971-1.00104E-05 1.04895E-04 4.87974E-05-2.09102E+06 3.35604E-04-2.94696E-05
 -1      1973-1.00104E-05 1.04895E-04 4.87974E-05-2.09102E+06 3.35604E-04-2.94696E-05
 -1      1974-9.92602E-05 2.32329E-04 2.51964E-04-1.67152E+06 2.41764E-04 2.10742E-04
 -1      1976-9.92602E-05 2.32329E-04 2.51964E-04-1.67152E+06 2.41764E-04 2.10742E-04
 -1      1977-3.00659E-04 8.67207E-05-1.09712E-04-1.44125E+06 2.43725E-04 1.93326E-04
 -1      1979-3.00659E-04 8.67207E-05-1.09712E-04-1.44125E+06 2.43725E-04 1.93326E-04
 -1      1980-3.97500E-04-1.78614E-04-6.64173E-04-1.03819E+06 2.52938E-04-7.87037E-06
 -1      1982-3.97500E-04-1.78614E-04-6.64173E-04-1.03819E+06 2.52938E-04-7.87037E-06
 -1      1983-5.80485E-04-5.66738E-04-1.07549E-03-7.09776E+05 2.14477E-04-1.19236E-04
 -1      1985-5.80485E-04-5.66738E-04-1.07549E-03-7.09776E+05 2.14477E-04-1.19236E-04
 -1      1986-5.30667E-04-2.58303E-04-9.52069E-04-3.12624E+05 1.49675E-04-3.05424E-04
 -1      1988-5.30667E-04-2.58303E-04-9.52069E-04-3.12624E+05 1.49675E-04-3.05424E-04
 -1      1989-3.55568E-04-8.32289E-05-9.32165E-04 5.08964E+04 1.79869E-04-5.70807E-04
 -1      1991-3.55568E-04-8.32289E-05-9.32165E-04 5.08964E+04 1.79869E-04-5.70807E-04
 -1      1992-2.85027E-04-3.21062E-04-1.25147E-03 4.27551E+05 2.50801E-04-5.96769E-04
 -1      1994-2.85027E-04-3.21062E-04-1.25147E-03 4.27551E+05 2.50801E-04-5.96769E-04
 -1      1995-1.55167E-04-1.92874E-04-1.26490E-03 7.74678E+05 2.13216E-04-5.46311E-04
 -1      1997-1.55167E-04-1.92874E-04-1.26490E-03 7.74678E+05 2.13216E-04-5.46311E-04
 -1      1998-3.22985E-04-2.79523E-04-9.97338E-04 1.10150E+06 2.32271E-04-4.05362E-04
 -1      2000-3.22985E-04-2.79523E-04-9.97338E-04 1.10150E+06 2.32271E-04-4.05362E-04
 -1      2001-4.85025E-04-4.74219E-04-5.12837E-04 1.38814E+06 2.72869E-04-2.25033E-04
 -1      2003-4.85025E-04-4.74219E-04-5.12837E-04 1.38814E+06 2.72869E-04-2.25033E-04
 -1      2004-2.56020E-04-4.46801E-04-2.87230E-05 1.63137E+06 2.43971E-04-1.51884E-04
 -1      2006-2.56020E-04-4.46801E-04-2.87230E-05 1.63137E+06 2.43971E-04-1.51884E-04
 -1      2007 1.34637E-04-1.26436E-04 2.01637E-04 1.81865E+06 2.53253E-04-8.06007E-05
 -1      2009 1.34637E-04-1.26436E-04 2.01637E-04 1.81865E+06 2.53253E-04-8.06007E-05
 -1      2010 4.44469E-04 1.33901E-04 4.07267E-05 1.94782E+06 2.61082E-04 5.11191E-07
 -1      2012 4.44469E-04 1.33901E-04 4.07267E-05 1.94782E+06 2.61082E-04 5.11191E-07
 -1      2013 6.37312E-04 2.26924E-05-4.15954E-04 1.99990E+06 2.65338E-04 1.19676E-05
 -1      2015 6.37312E-04 2.26924E-05-4.15954E-04 1.99990E+06 2.65338E-04 1.19676E-05
 -1      2016 5.92044E-04-2.94586E-05-7.38812E-04 1.99606E+06 2.72466E-04 2.57657E-04
 -1      2018 5.92044E-04-2.94586E-05-7.38812E-04 1.99606E+06 2.72466E-04 2.57657E-04
 -1      2019 3.47641E-04-6.42887E-05-8.14513E-04 1.87256E+06 2.73245E-04 5.43859E-04
 -1      2021 3.47641E-04-6.42887E-05-8.14513E-04 1.87256E+06 2.73245E-04 5.43859E-04
 -1      2022 2.51559E-04 1.18820E-04-8.26936E-04 1.74355E+06 2.88990E-04 4.88510E-04
 -1      2024 2.51559E-04 1.18820E-04-8.26936E-04 1.74355E+06 2.88990E-04 4.88510E-04
 -1      2025 2.42245E-04 1.32992E-04-1.12010E-03 1.37718E+06 3.35061E-04 3.63653E-04
 -1      2027 2.42245E-04 1.32992E-04-1.12010E-03 1.37718E+06 3.35061E-04 3.63653E-04
 -1      2028 2.07305E-04-1.86025E-04-1.29368E-03 1.19427E+06 3.43566E-04 3.09149E-04
 -1      2030 2.07305E-04-1.86025E-04-1.29368E-03 1.19427E+06 3.43566E-04 3.09149E-04
 -1      2031 1.19244E-04-1.61891E-04-7.36596E-04 4.19969E+05 3.54995E-04 2.55136E-04
 -1      2033 1.19244E-04-1.61891E-04-7.36596E-04 4.19969E+05 3.54995E-04 2.55136E-04
 -1      2034 8.65107E-04-8.02683E-06-1.88780E-04-4.63420E+06 5.33383E+05-1.46579E-04
 -1      2036 8.65107E-04-8.02683E-06-1.88780E-04-4.63420E+06 5.33383E+05-1.46579E-04
 -1      2037 7.14875E-04-5.96763E-06-1.95615E-04-9.99526E+05 1.22820E+06 8.04461E-05
 -1      2039 7.14875E-04-5.96763E-06-1.95615E-04-9.99526E+05 1.22820E+06 8.04461E-05
 -1      2040 5.63300E-04-1.95198E-04 6.83477E-05-1.41683E+06 1.85745E+06 1.60469E-04
 -1      2042 5.63300E-04-1.95198E-04 6.83477E-05-1.41683E+06 1.85745E+06 1.60469E-04
 -1      2043 5.08074E-04-3.76270E-04 3.94299E-04-1.72961E+06 2.49446E+06 8.99105E-05
 -1      2045 5.08074E-04-3.76270E-04 3.94299E-04-1.72961E+06 2.49446E+06 8.99105E-05
 -1      2046 5.51553E-04-2.48663E-04 7.37320E-04-1.36412E+06 3.10701E+06 1.44283E-05
 -1      2048 5.51553E-04-2.48663E-04 7.37320E-04-1.36412E+06 3.10701E+06 1.44283E-05
 -1      2049 5.58601E-04-1.20234E-05 7.61344E-04-1.45617E+06 3.73392E+06-2.04844E-04
 -1      2051 5.58601E-04-1.20234E-05 7.61344E-04-1.45617E+06 3.73392E+06-2.04844E-04
 -1      2052 2.89664E-04-2.07394E-04 1.84759E-04-1.34494E+06 4.30037E+06-4.49454E-04
 -1      2054 2.89664E-04-2.07394E-04 1.84759E-04-1.34494E+06 4.30037E+06-4.49454E-04
 -1      2055 5.53471E-06-3.07870E-04-2.93470E-04-1.20824E+06 4.84422E+06-3.41254E-04
 -1      2057 5.53471E-06-3.07870E-04-2.93470E-04-1.20824E+06 4.84422E+06-3.41254E-04
 -1      2058-2.41770E-05-6.66836E-05-1.20386E-04-1.14223E+06 5.31868E+06-4.40730E-05
 -1      2060-2.41770E-05-6.66836E-05-1.20386E-04-1.14223E+06 5.31868E+06-4.40730E-05
 -1      2061-1.84463E-04-1.03281E-04 7.33389E-05-9.52276E+05 5.72328E+06 7.49349E-05
 -1      2063-1.84463E-04-1.03281E-04 7.33389E-05-9.52276E+05 5.72328E+06 7.49349E-05
 -1      2064-5.02021E-04-2.47612E-04-1.67921E-04-8.42987E+05 6.04633E+06-3.53488E-05
 -1      2066-5.02021E-04-2.47612E-04-1.67921E-04-8.42987E+05 6.04633E+06-3.53488E-05
 -1      2067-6.05492E-04-4.37110E-04-6.96110E-04-6.47788E+05 6.26689E+06-1.81448E-04
 -1      2069-6.05492E-04-4.37110E-04-6.96110E-04-6.47788E+05 6.26689E+06-1.81448E-04
 -1      2070-5.50140E-04-5.24512E-04-1.12052E-03-4.98264E+05 6.39004E+06-1.18260E-04
 -1      2072-5.50140E-04-5.24512E-04-1.12052E-03-4.98264E+05 6.39004E+06-1.18260E-04
 -1      2073-3.32010E-04-1.25575E-04-1.01916E-03-3.06598E+05 6.39421E+06-1.63186E-04
 -1      2075-3.32010E-04-1.25575E-04-1.01916E-03-3.06598E+05 6.39421E+06-1.63186E-04
 -1      2076-9.48445E-05 5.16095E-04-6.71737E-04-1.40004E+05 6.28988E+06-4.72592E-04
 -1      2078-9.48445E-05 5.16095E-04-6.71737E-04-1.40004E+05 6.28988E+06-4.72592E-04
 -1      2079-3.01987E-04 2.23044E-04-8.97423E-04 4.00303E+04 6.06421E+06-5.53804E-04
 -1      2081-3.01987E-04 2.23044E-04-8.97423E-04 4.00303E+04 6.06421E+06-5.53804E-04
 -1      2082-6.29128E-04-2.06501E-04-1.14723E-03 2.00625E+05 5.72960E+06-4.42224E-04
 -1      2084-6.29128E-04-2.06501E-04-1.14723E-03 2.00625E+05 5.72960E+06-4.42224E-04
 -1      2085-9.91297E-04-3.73936E-04-9.54596E-04 3.56610E+05 5.28464E+06-2.62991E-04
 -1      2087-9.91297E-04-3.73936E-04-9.54596E-04 3.56610E+05 5.28464E+06-2.62991E-04
 -1      2088-1.35598E-03-8.27400E-04-6.24861E-04 4.90914E+05 4.74338E+06-1.47497E-04
 -1      2090-1.35598E-03-8.27400E-04-6.24861E-04 4.90914E+05 4.74338E+06-1.47497E-04
 -1      2091-1.17843E-03-5.96004E-04-3.10912E-05 6.08930E+05 4.11600E+06-1.59726E-04
 -1      2093-1.17843E-03-5.96004E-04-3.10912E-05 6.08930E+05 4.11600E+06-1.59726E-04
 -1      2094-7.91350E-04-1.19065E-04 3.36181E-04 6.99012E+05 3.41835E+06-1.42578E-04
 -1      2096-7.91350E-04-1.19065E-04 3.36181E-04 6.99012E+05 3.41835E+06-1.42578E-04
 -1      2097-4.89961E-04 4.40155E-05 2.46691E-05 7.67447E+05 2.67190E+06-1.51759E-04
 -1      2099-4.89961E-04 4.40155E-05 2.46691E-05 7.67447E+05 2.67190E+06-1.51759E-04
 -1      2100-2.02016E-04 7.61861E-07-6.40602E-04 7.96003E+05 1.89390E+06-1.22428E-04
 -1      2102-2.02016E-04 7.61861E-07-6.40602E-04 7.96003E+05 1.89390E+06-1.22428E-04
 -1      2103-1.24224E-04-1.61984E-04-9.40304E-04 8.10887E+05 1.11663E+06 2.87336E-04
 -1      2105-1.24224E-04-1.61984E-04-9.40304E-04 8.10887E+05 1.11663E+06 2.87336E-04
 -1      2106-1.85461E-04-1.29293E-04-5.95237E-04 7.55862E+05 3.58820E+05 6.32427E-04
 -1      2108-1.85461E-04-1.29293E-04-5.95237E-04 7.55862E+05 3.58820E+05 6.32427E-04
 -1      2109-2.50135E-04-1.64100E-05-3.87432E-04 7.30663E+05-3.38880E+05 3.89394E-04
 -1      2111-2.50135E-04-1.64100E-05-3.87432E-04 7.30663E+05-3.38880E+05 3.89394E-04
 -1      2112-2.73547E-04-3.63721E-05-7.80280E-04 5.52474E+05-9.52594E+05 1.63508E-04
 -1      2114-2.73547E-04-3.63721E-05-7.80280E-04 5.52474E+05-9.52594E+05 1.63508E-04
 -1      2115-1.10771E-04 7.00261E-05-8.99258E-04 5.38302E+05-1.44370E+06 3.08466E-04
 -1      2117-1.10771E-04 7.00261E-05-8.99258E-04 5.38302E+05-1.44370E+06 3.08466E-04
 -1      2118-7.20845E-05-1.14941E-04-3.88769E-04 1.40282E+05-1.76802E+06 4.18310E-04
 -1      2120-7.20845E-05-1.14941E-04-3.88769E-04 1.40282E+05-1.76802E+06 4.18310E-04
 -1      2121-2.68745E+09-7.31275E+07 4.92353E+04-3.05494E+08 5.80097E+05 1.21315E+06
 -1      2123-2.68745E+09-7.31275E+07 4.92353E+04-3.05494E+08 5.80097E+05 1.21315E+06
 -1      2124-2.18083E+09 3.60880E+07 6.54006E+04-3.06386E+08 3.71271E+04-4.75838E+05
 -1      2126-2.18083E+09 3.60880E+07 6.54006E+04-3.06386E+08 3.71271E+04-4.75838E+05
 -1      2127-1.66559E+09-1.62036E+07-6.93045E+04-3.02456E+08 2.97733E+05 3.39067E+05
 -1      2129-1.66559E+09-1.62036E+07-6.93045E+04-3.02456E+08 2.97733E+05 3.39067E+05
 -1      2130-1.17089E+09 5.22477E+06-1.33483E+04-2.95976E+08 3.70952E+05-4.08918E+04
 -1      2132-1.17089E+09 5.22477E+06-1.33483E+04-2.95976E+08 3.70952E+05-4.08918E+04
 -1      2133-6.81325E+08-2.98485E+06 1.91498E+04-2.86859E+08 4.62630E+05 1.34780E+05
 -1      2135-6.81325E+08-2.98485E+06 1.91498E+04-2.86859E+08 4.62630E+05 1.34780E+05
 -1      2136-2.14318E+08-9.53262E+05-3.75722E+04-2.73982E+08 6.18312E+05 5.64108E+04
 -1      2138-2.14318E+08-9.53262E+05-3.75722E+04-2.73982E+08 6.18312E+05 5.64108E+04
 -1      2139 2.30472E+08-1.77515E+06 1.99189E+04-2.57663E+08 7.05960E+05 8.50013E+04
 -1      2141 2.30472E+08-1.77515E+06 1.99189E+04-2.57663E+08 7.05960E+05 8.50013E+04
 -1      2142 6.44035E+08-2.14379E+06-7.33029E+03-2.37786E+08 8.48043E+05 6.68270E+04
 -1      2144 6.44035E+08-2.14379E+06-7.33029E+03-2.37786E+08 8.48043E+05 6.68270E+04
 -1      2145 1.02201E+09-2.36282E+06-2.01514E+03-2.14448E+08 9.33624E+05 6.22412E+04
 -1      2147 1.02201E+09-2.36282E+06-2.01514E+03-2.14448E+08 9.33624E+05 6.22412E+04
 -1      2148 1.35820E+09-2.69339E+06 2.19678E+04-1.88087E+08 1.03995E+06 5.09664E+04
 -1      2150 1.35820E+09-2.69339E+06 2.19678E+04-1.88087E+08 1.03995E+06 5.09664E+04
 -1      2151 1.64819E+09-2.91515E+06-1.52584E+04-1.58989E+08 1.10093E+06 3.76317E+04
 -1      2153 1.64819E+09-2.91515E+06-1.52584E+04-1.58989E+08 1.10093E+06 3.76317E+04
 -1      2154 1.88771E+09-3.07529E+06 3.73279E+04-1.27812E+08 1.15883E+06 2.37714E+04
 -1      2156 1.88771E+09-3.07529E+06 3.73279E+04-1.27812E+08 1.15883E+06 2.37714E+04
 -1      2157 2.07388E+09-3.21165E+06-1.80311E+04-9.50964E+07 1.17579E+06 7.01444E+03
 -1      2159 2.07388E+09-3.21165E+06-1.80311E+04-9.50964E+07 1.17579E+06 7.01444E+03
 -1      2160 2.20465E+09-3.22516E+06 4.18689E+04-6.16131E+07 1.17526E+06-9.51465E+03
 -1      2162 2.20465E+09-3.22516E+06 4.18689E+04-6.16131E+07 1.17526E+06-9.51465E+03
 -1      2163 2.27941E+09-3.21714E+06-1.52324E+04-2.80793E+07 1.13580E+06-2.76351E+04
 -1      2165 2.27941E+09-3.21714E+06-1.52324E+04-2.80793E+07 1.13580E+06-2.76351E+04
 -1      2166 2.29872E+09-3.08358E+06 4.03828E+04 4.67708E+06 1.07118E+06-4.50784E+04
 -1      2168 2.29872E+09-3.08358E+06 4.03828E+04 4.67708E+06 1.07118E+06-4.50784E+04
 -1      2169 2.26455E+09-2.91533E+06-1.08232E+04 3.58626E+07 9.70311E+05-6.27502E+04
 -1      2171 2.26455E+09-2.91533E+06-1.08232E+04 3.58626E+07 9.70311E+05-6.27502E+04
 -1      2172 2.18020E+09-2.63411E+06 3.61003E+04 6.46534E+07 8.41809E+05-7.90377E+04
 -1      2174 2.18020E+09-2.63411E+06 3.61003E+04 6.46534E+07 8.41809E+05-7.90377E+04
 -1      2175 2.05034E+09-2.31088E+06-6.88209E+03 9.02704E+07 6.81910E+05-9.43329E+04
 -1      2177 2.05034E+09-2.31088E+06-6.88209E+03 9.02704E+07 6.81910E+05-9.43329E+04
 -1      2178 1.88088E+09-1.89369E+06 3.08688E+04 1.11958E+08 4.96250E+05-1.07397E+05
 -1      2180 1.88088E+09-1.89369E+06 3.08688E+04 1.11958E+08 4.96250E+05-1.07397E+05
 -1      2181 1.67898E+09-1.43323E+06-4.19376E+03 1.29025E+08 2.86913E+05-1.18290E+05
 -1      2183 1.67898E+09-1.43323E+06-4.19376E+03 1.29025E+08 2.86913E+05-1.18290E+05
 -1      2184 1.45289E+09-9.04088E+05 2.58563E+04 1.40839E+08 5.74361E+04-1.26185E+05
 -1      2186 1.45289E+09-9.04088E+05 2.58563E+04 1.40839E+08 5.74361E+04-1.26185E+05
 -1      2187 1.21183E+09-3.35206E+05-2.93902E+03 1.46858E+08-1.84817E+05-1.30378E+05
 -1      2189 1.21183E+09-3.35206E+05-2.93902E+03 1.46858E+08-1.84817E+05-1.30378E+05
 -1      2190 9.65881E+08 2.81901E+05 2.21525E+04 1.46596E+08-4.38124E+05-1.31546E+05
 -1      2192 9.65881E+08 2.81901E+05 2.21525E+04 1.46596E+08-4.38124E+05-1.31546E+05
 -1      2193 7.25842E+08 9.01707E+05-3.15867E+03 1.39713E+08-6.89848E+05-1.25426E+05
 -1      2195 7.25842E+08 9.01707E+05-3.15867E+03 1.39713E+08-6.89848E+05-1.25426E+05
 -1      2196 5.03060E+08 1.63013E+06 2.07944E+04 1.25847E+08-9.39428E+05-1.20129E+05
 -1      2198 5.03060E+08 1.63013E+06 2.07944E+04 1.25847E+08-9.39428E+05-1.20129E+05
 -1      2199 3.09239E+08 2.16585E+06-3.74894E+03 1.04921E+08-1.16910E+06-9.42196E+04
 -1      2201 3.09239E+08 2.16585E+06-3.74894E+03 1.04921E+08-1.16910E+06-9.42196E+04
 -1      2202 1.56663E+08 3.06293E+06 1.92757E+04 7.65818E+07-1.37302E+06-9.20741E+04
 -1      2204 1.56663E+08 3.06293E+06 1.92757E+04 7.65818E+07-1.37302E+06-9.20741E+04
 -1      2205 5.66296E+07 3.74004E+06 5.90196E+03 4.11509E+07-1.53048E+06-1.17053E+04
 -1      2207 5.66296E+07 3.74004E+06 5.90196E+03 4.11509E+07-1.53048E+06-1.17053E+04
 -1      2208 2.68745E+09 7.31275E+07-4.92353E+04-3.05494E+08 5.80097E+05-1.21315E+06
 -1      2210 2.68745E+09 7.31275E+07-4.92353E+04-3.05494E+08 5.80097E+05-1.21315E+06
 -1      2211 2.18083E+09-3.60880E+07-6.54006E+04-3.06386E+08 3.71271E+04 4.75838E+05
 -1      2213 2.18083E+09-3.60880E+07-6.54006E+04-3.06386E+08 3.71271E+04 4.75838E+05
 -1      2214 1.66559E+09 1.62036E+07 6.93045E+04-3.02456E+08 2.97733E+05-3.39067E+05
 -1      2216 1.66559E+09 1.62036E+07 6.93045E+04-3.02456E+08 2.97733E+05-3.39067E+05
 -1      2217 1.17089E+09-5.22477E+06 1.33483E+04-2.95976E+08 3.70952E+05 4.08918E+04
 -1      2219 1.17089E+09-5.22477E+06 1.33483E+04-2.95976E+08 3.70952E+05 4.08918E+04
 -1      2220 6.81325E+08 2.98485E+06-1.91498E+04-2.86859E+08 4.62630E+05-1.34780E+05
 -1      2222 6.81325E+08 2.98485E+06-1.91498E+04-2.86859E+08 4.62630E+05-1.34780E+05
 -1      2223 2.14318E+08 9.53262E+05 3.75722E+04-2.73982E+08 6.18312E+05-5.64108E+04
 -1      2225 2.14318E+08 9.53262E+05 3.75722E+04-2.73982E+08 6.18312E+05-5.64108E+04
 -1      2226-2.30472E+08 1.77515E+06-1.99189E+04-2.57663E+08 7.05960E+05-8.50013E+04
 -1      2228-2.30472E+08 1.77515E+06-1.99189E+04-2.57663E+08 7.05960E+05-8.50013E+04
 -1      2229-6.44035E+08 2.14379E+06 7.33029E+03-2.37786E+08 8.48043E+05-6.68270E+04
 -1      2231-6.44035E+08 2.14379E+06 7.33029E+03-2.37786E+08 8.48043E+05-6.68270E+04
 -1      2232-1.02201E+09 2.36282E+06 2.01514E+03-2.14448E+08 9.33624E+05-6.22412E+04
 -1      2234-1.02201E+09 2.36282E+06 2.01514E+03-2.14448E+08 9.33624E+05-6.22412E+04
 -1      2235-1.35820E+09 2.69339E+06-2.19678E+04-1.88087E+08 1.03995E+06-5.09664E+04
 -1      2237-1.35820E+09 2.69339E+06-2.19678E+04-1.88087E+08 1.03995E+06-5.09664E+04
 -1      2238-1.64819E+09 2.91515E+06 1.52584E+04-1.58989E+08 1.10093E+06-3.76317E+04
 -1      2240-1.64819E+09 2.91515E+06 1.52584E+04-1.58989E+08 1.10093E+06-3.76317E+04
 -1      2241-1.88771E+09 3.07529E+06-3.73279E+04-1.27812E+08 1.15883E+06-2.37714E+04
 -1      2243-1.88771E+09 3.07529E+06-3.73279E+04-1.27812E+08 1.15883E+06-2.37714E+04
 -1      2244-2.07388E+09 3.21165E+06 1.80311E+04-9.50964E+07 1.17579E+06-7.01444E+03
 -1      2246-2.07388E+09 3.21165E+06 1.80311E+04-9.50964E+07 1.17579E+06-7.01444E+03
 -1      2247-2.20465E+09 3.22516E+06-4.18689E+04-6.16131E+07 1.17526E+06 9.51465E+03
 -1      2249-2.20465E+09 3.22516E+06-4.18689E+04-6.16131E+07 1.17526E+06 9.51465E+03
 -1      2250-2.27941E+09 3.21714E+06 1.52324E+04-2.80793E+07 1.13580E+06 2.76351E+04
 -1      2252-2.27941E+09 3.21714E+06 1.52324E+04-2.80793E+07 1.13580E+06 2.76351E+04
 -1      2253-2.29872E+09 3.08358E+06-4.03828E+04 4.67708E+06 1.07118E+06 4.50784E+04
 -1      2255-2.29872E+09 3.08358E+06-4.03828E+04 4.67708E+06 1.07118E+06 4.50784E+04
 -1      2256-2.26455E+09 2.91533E+06 1.08232E+04 3.58626E+07 9.70311E+05 6.27502E+04
 -1      2258-2.26455E+09 2.91533E+06 1.08232E+04 3.58626E+07 9.70311E+05 6.27502E+04
 -1      2259-2.18020E+09 2.63411E+06-3.61003E+04 6.46534E+07 8.41809E+05 7.90377E+04
 -1      2261-2.18020E+09 2.63411E+06-3.61003E+04 6.46534E+07 8.41809E+05 7.90377E+04
 -1      2262-2.05034E+09 2.31088E+06 6.88209E+03 9.02704E+07 6.81910E+05 9.43329E+04
 -1      2264-2.05034E+09 2.31088E+06 6.88209E+03 9.02704E+07 6.81910E+05 9.43329E+04
 -1      2265-1.88088E+09 1.89369E+06-3.08688E+04 1.11958E+08 4.96250E+05 1.07397E+05
 -1      2267-1.88088E+09 1.89369E+06-3.08688E+04 1.11958E+08 4.96250E+05 1.07397E+05
 -1      2268-1.67898E+09 1.43323E+06 4.19376E+03 1.29025E+08 2.86913E+05 1.18290E+05
 -1      2270-1.67898E+09 1.43323E+06 4.19376E+03 1.29025E+08 2.86913E+05 1.18290E+05
 -1      2271-1.45289E+09 9.04088E+05-2.58563E+04 1.40839E+08 5.74361E+04 1.26185E+05
 -1      2273-1.45289E+09 9.04088E+05-2.58563E+04 1.40839E+08 5.74361E+04 1.26185E+05
 -1      2274-1.21183E+09 3.35206E+05 2.93902E+03 1.46858E+08-1.84817E+05 1.30378E+05
 -1      2276-1.21183E+09 3.35206E+05 2.93902E+03 1.46858E+08-1.84817E+05 1.30378E+05
 -1      2277-9.65881E+08-2.81901E+05-2.21525E+04 1.46596E+08-4.38124E+05 1.31546E+05
 -1      2279-9.65881E+08-2.81901E+05-2.21525E+04 1.46596E+08-4.38124E+05 1.31546E+05
 -1      2280-7.25842E+08-9.01707E+05 3.15867E+03 1.39713E+08-6.89848E+05 1.25426E+05
 -1      2282-7.25842E+08-9.01707E+05 3.15867E+03 1.39713E+08-6.89848E+05 1.25426E+05
 -1      2283-5.03060E+08-1.63013E+06-2.07944E+04 1.25847E+08-9.39428E+05 1.20129E+05
 -1      2285-5.03060E+08-1.63013E+06-2.07944E+04 1.25847E+08-9.39428E+05 1.20129E+05
 -1      2286-3.09239E+08-2.16585E+06 3.74894E+03 1.04921E+08-1.16910E+06 9.42196E+04
 -1      2288-3.09239E+08-2.16585E+06 3.74894E+03 1.04921E+08-1.16910E+06 9.42196E+04
 -1      2289-1.56663E+08-3.06293E+06-1.92757E+04 7.65818E+07-1.37302E+06 9.20741E+04
 -1      2291-1.56663E+08-3.06293E+06-1.92757E+04 7.65818E+07-1.37302E+06 9.20741E+04
 -1      2292-5.66296E+07-3.74004E+06-5.90196E+03 4.11509E+07-1.53048E+06 1.17053E+04
 -1      2294-5.66296E+07-3.74004E+06-5.90196E+03 4.11509E+07-1.53048E+06 1.17053E+04
 -3
    1PSTEP                        11           1           1          
    1PGM                1.000000E+00                                  
    1PGK                2.462806E+05                                  
    1PHID                         -1                                  
    1PSUBC                         0                                  
    1PMODE                         3                                  
  100CL  103 78.98328519         930                     2    3MODAL      1
 -4  FORC        4    1
 -5  F1          1    2    1    0
 -5  F2          1    2    2    0
 -5  F3          1    2    3    0
 -5  ALL         1    2    0    0    1ALL
 -1       404-8.68878E+05 1.94032E+05-7.36082E+03
 -1       406-8.45358E+05 1.97422E+05-7.36082E+03
 -1       407-2.21153E+02 1.91800E+03 1.19757E+01
 -1       409-2.21153E+02 1.91800E+03 1.19757E+01
 -1       410 1.12599E-07-4.03262E+02-5.75451E-07
 -1       412 1.79872E-07 3.05523E+04 5.94377E-07
 -1       413 6.90142E-08-8.52712E+03-2.42965E+04
 -1       415-2.37554E-09-8.52712E+03 2.42965E+04
 -1       424 3.87833E-07-2.59801E+04 2.04741E-08
 -1       426 4.40258E-07-2.82378E+04 4.74642E-08
 -1       427 4.86201E+04-4.83727E+04 8.46307E+03
 -1       429-4.86201E+04-4.83727E+04-8.46307E+03
 -1       438 2.21153E+02 1.91800E+03-1.19757E+01
 -1       440 2.21153E+02 1.91800E+03-1.19757E+01
 -1       441 8.68878E+05 1.94032E+05 7.36082E+03
 -1       443 8.45358E+05 1.97422E+05 7.36082E+03
 -1       444 4.86201E+04-4.83727E+04-8.46307E+03
 -1       446-4.86201E+04-4.83727E+04 8.46307E+03
 -1       447-5.52487E-07-2.59801E+04 2.29226E-08
 -1       449-2.25924E-07-2.82378E+04 2.27695E-08
 -1       458-5.00358E-08-8.52712E+03 2.42965E+04
 -1       460 5.80316E-08-8.52712E+03-2.42965E+04
 -1       461-1.82665E-07-4.03262E+02 2.96350E-07
 -1       463-2.00220E-07 3.05523E+04-6.82329E-07
 -1       472 8.68878E+05 1.94032E+05-7.36082E+03
 -1       474 8.45358E+05 1.97422E+05-7.36082E+03
 -1       475 2.21153E+02 1.91800E+03 1.19757E+01
 -1       477 2.21153E+02 1.91800E+03 1.19757E+01
 -1       478-2.21153E+02 1.91800E+03-1.19757E+01
 -1       480-2.21153E+02 1.91800E+03-1.19757E+01
 -1       481-8.68878E+05 1.94032E+05 7.36082E+03
 -1       483-8.45358E+05 1.97422E+05 7.36082E+03
 -1       484 5.81916E+01-8.01218E+01 5.75931E+00
 -1       486 5.81916E+01-8.01218E+01 5.75931E+00
 -1       487 1.09098E+02-2.16332E+02 1.22467E+01
 -1       489 1.09098E+02-2.16332E+02 1.22467E+01
 -1       490 1.49465E+02-4.19493E+02 1.87355E+01
 -1       492 1.49465E+02-4.19493E+02 1.87355E+01
 -1       493 1.79191E+02-6.74614E+02 2.49789E+01
 -1       495 1.79191E+02-6.74614E+02 2.49789E+01
 -1       496 1.98594E+02-9.65739E+02 3.10196E+01
 -1       498 1.98594E+02-9.65739E+02 3.10196E+01
 -1       499 2.07963E+02-1.27777E+03 3.67323E+01
 -1       501 2.07963E+02-1.27777E+03 3.67323E+01
 -1       502 2.07760E+02-1.59603E+03 4.20643E+01
 -1       504 2.07760E+02-1.59603E+03 4.20643E+01
 -1       505 1.98551E+02-1.90661E+03 4.69249E+01
 -1       507 1.98551E+02-1.90661E+03 4.69249E+01
 -1       508 1.81034E+02-2.19655E+03 5.12447E+01
 -1       510 1.81034E+02-2.19655E+03 5.12447E+01
 -1       511 1.56023E+02-2.45403E+03 5.49517E+01
 -1       513 1.56023E+02-2.45403E+03 5.49517E+01
 -1       514 1.24440E+02-2.66851E+03 5.79875E+01
 -1       516 1.24440E+02-2.66851E+03 5.79875E+01
 -1       517 8.72994E+01-2.83092E+03 6.03033E+01
 -1       519 8.72994E+01-2.83092E+03 6.03033E+01
 -1       520 4.56925E+01-2.93375E+03 6.18658E+01
 -1       522 4.56925E+01-2.93375E+03 6.18658E+01
 -1       523 7.60381E-01-2.97120E+03 6.26573E+01
 -1       525 7.60381E-01-2.97120E+03 6.26573E+01
 -1       526-4.63270E+01-2.93919E+03 6.26784E+01
 -1       528-4.63270E+01-2.93919E+03 6.26784E+01
 -1       529-9.43994E+01-2.83540E+03 6.19480E+01
 -1       531-9.43994E+01-2.83540E+03 6.19480E+01
 -1       532-1.42313E+02-2.65928E+03 6.05051E+01
 -1       534-1.42313E+02-2.65928E+03 6.05051E+01
 -1       535-1.88979E+02-2.41193E+03 5.84076E+01
 -1       537-1.88979E+02-2.41193E+03 5.84076E+01
 -1       538-2.33392E+02-2.09606E+03 5.57328E+01
 -1       540-2.33392E+02-2.09606E+03 5.57328E+01
 -1       541-2.74659E+02-1.71581E+03 5.25760E+01
 -1       543-2.74659E+02-1.71581E+03 5.25760E+01
 -1       544-3.12023E+02-1.27656E+03 4.90491E+01
 -1       546-3.12023E+02-1.27656E+03 4.90491E+01
 -1       547-3.44888E+02-7.84727E+02 4.52784E+01
 -1       549-3.44888E+02-7.84727E+02 4.52784E+01
 -1       550-3.72844E+02-2.47498E+02 4.14027E+01
 -1       552-3.72844E+02-2.47498E+02 4.14027E+01
 -1       553-3.95680E+02 3.27465E+02 3.75700E+01
 -1       555-3.95680E+02 3.27465E+02 3.75700E+01
 -1       556-4.13406E+02 9.32336E+02 3.39339E+01
 -1       558-4.13407E+02 9.32336E+02 3.39339E+01
 -1       559-4.26266E+02 1.55946E+03 3.06514E+01
 -1       561-4.26266E+02 1.55946E+03 3.06514E+01
 -1       562-4.34744E+02 2.20172E+03 2.78752E+01
 -1       564-4.34744E+02 2.20172E+03 2.78752E+01
 -1       565-4.39574E+02 2.85287E+03 2.57548E+01
 -1       567-4.39574E+02 2.85287E+03 2.57548E+01
 -1       568-4.41745E+02 3.50798E+03 2.44145E+01
 -1       570-4.41745E+02 3.50798E+03 2.44145E+01
 -1       571-2.94846E+02 3.83599E+03 1.54634E+01
 -1       573-2.94846E+02 3.83599E+03 1.54634E+01
 -1       574 1.09106E-07 1.09430E+04-1.22296E-07
 -1       576 1.08314E-07-1.28606E+02-1.20658E-07
 -1       577-2.52826E-08-5.66980E+03 8.68990E+03
 -1       579-2.52251E-08-5.66980E+03-8.68990E+03
 -1       588-4.21167E-09 1.62989E+03-3.48976E-07
 -1       590-1.12861E-08-4.58721E+03-1.99519E-07
 -1       591-1.18794E-07 7.43177E+02 4.87970E+03
 -1       593-1.03351E-07 7.43177E+02-4.87970E+03
 -1       602-6.47031E-08 8.66450E+02-1.81402E-07
 -1       604-6.64825E-08-9.40649E+03 5.25790E-08
 -1       605-1.19565E-07 2.82883E+03 8.06306E+03
 -1       607-1.13589E-07 2.82883E+03-8.06306E+03
 -1       616 8.11772E-08 2.55815E+03 6.90364E-08
 -1       618 6.82855E-08-1.24041E+04 3.59771E-07
 -1       619-5.76118E-08 2.60067E+03 1.17436E+04
 -1       621-5.27280E-08 2.60067E+03-1.17436E+04
 -1       630 1.98206E-07 1.92036E+03 4.96922E-07
 -1       632 1.69350E-07-1.67131E+04 1.61309E-07
 -1       633-5.75017E-08 4.06948E+03 1.46251E+04
 -1       635-8.36652E-08 4.06948E+03-1.46251E+04
 -1       644 1.59326E-07 1.62121E+03 2.49412E-07
 -1       646 1.40369E-07-2.24949E+04 3.57018E-08
 -1       647-1.62202E-07 6.03458E+03 1.89283E+04
 -1       649-6.70241E-08 6.03458E+03-1.89283E+04
 -1       658-6.41924E-08 2.21999E+03-3.24063E-07
 -1       660-9.10947E-08-2.61719E+04-7.00842E-08
 -1       661-1.68771E-07 6.47758E+03 2.22843E+04
 -1       663-1.02246E-07 6.47758E+03-2.22843E+04
 -1       672-2.65708E-07 1.32173E+03-5.87206E-08
 -1       674-2.89699E-07-3.19306E+04-2.57833E-08
 -1       675-1.00493E-07 8.73684E+03 2.60992E+04
 -1       677-2.37583E-07 8.73684E+03-2.60992E+04
 -1       686-1.54505E-07 1.85281E+03-1.66431E-07
 -1       688-1.93675E-07-3.54197E+04 4.26652E-07
 -1       689-7.73529E-08 9.21796E+03 2.92546E+04
 -1       691-3.23893E-08 9.21796E+03-2.92546E+04
 -1       700 7.37285E-08 1.11697E+03 5.01241E-08
 -1       702 9.24398E-08-3.98370E+04 5.98538E-08
 -1       703-1.22202E-07 1.09086E+04 3.21441E+04
 -1       705-3.73380E-08 1.09086E+04-3.21441E+04
 -1       714 1.05770E-07 1.28716E+03-6.31680E-07
 -1       716 1.26137E-07-4.24890E+04 6.27784E-07
 -1       717-1.40079E-07 1.14114E+04 3.43592E+04
 -1       719-1.91324E-07 1.14114E+04-3.43592E+04
 -1       728 6.79570E-08 7.21841E+02-3.68372E-07
 -1       730 6.06529E-08-4.50205E+04-6.03508E-08
 -1       731-2.90575E-08 1.24010E+04 3.59025E+04
 -1       733-6.41546E-08 1.24010E+04-3.59025E+04
 -1       742 4.91938E-08 5.87684E+02-8.43962E-07
 -1       744 4.14629E-09-4.60813E+04 3.64854E-07
 -1       745 7.63266E-08 1.26443E+04 3.66298E+04
 -1       747 1.23637E-07 1.26443E+04-3.66298E+04
 -1       756-1.24489E-07 5.92160E+01-1.05885E-06
 -1       758-1.03772E-07-4.64026E+04 7.72397E-07
 -1       759 1.62328E-07 1.29398E+04 3.64672E+04
 -1       761 2.02150E-07 1.29398E+04-3.64672E+04
 -1       770-2.52937E-07-3.04560E+02-9.23705E-07
 -1       772-2.12113E-07-4.53675E+04 3.46046E-07
 -1       773 2.69611E-07 1.27133E+04 3.53692E+04
 -1       775 2.38321E-07 1.27133E+04-3.53692E+04
 -1       784-2.65693E-07-8.89431E+02-6.06793E-07
 -1       786-2.50406E-07-4.33045E+04 1.14063E-07
 -1       787 4.04644E-07 1.23300E+04 3.32909E+04
 -1       789 4.92964E-07 1.23300E+04-3.32909E+04
 -1       798-2.42629E-07-1.43298E+03-6.36439E-07
 -1       800-2.16876E-07-3.99638E+04 1.15253E-07
 -1       801 4.16487E-07 1.15356E+04 3.02422E+04
 -1       803 3.61933E-07 1.15356E+04-3.02422E+04
 -1       812-4.34996E-07-2.10689E+03-3.42653E-07
 -1       814-3.72897E-07-3.55317E+04 1.29599E-07
 -1       815 1.45679E-07 1.05051E+04 2.62346E+04
 -1       817 1.73602E-07 1.05051E+04-2.62346E+04
 -1       826-4.93839E-07-2.78107E+03-1.82314E-07
 -1       828-4.82551E-07-2.99510E+04 4.46595E-07
 -1       829-2.08587E-08 9.13571E+03 2.13252E+04
 -1       831 4.12270E-08 9.13571E+03-2.13252E+04
 -1       840-2.64318E-07-3.51835E+03-5.23890E-07
 -1       842-2.82441E-07-2.33768E+04 1.26976E-07
 -1       843-1.70001E-08 7.52196E+03 1.55866E+04
 -1       845-2.74115E-08 7.52196E+03-1.55866E+04
 -1       854-2.16081E-07-4.24921E+03 1.67169E-07
 -1       856-1.54163E-07-1.58693E+04-5.37447E-08
 -1       857 6.08566E-10 5.64059E+03 9.12041E+03
 -1       859 3.03824E-08 5.64059E+03-9.12041E+03
 -1       868 1.12936E-09-4.95511E+03 1.99466E-07
 -1       870-8.46865E-08-7.58013E+03 1.28076E-07
 -1       871-6.97720E-08 3.53609E+03 2.06033E+03
 -1       873-1.34041E-07 3.53609E+03-2.06033E+03
 -1       882-3.66189E-08-5.62712E+03-3.91879E-07
 -1       884-4.47990E-08 1.31686E+03-4.58780E-07
 -1       885-2.92072E-09 1.26610E+03-5.45022E+03
 -1       887-5.25625E-08 1.26610E+03 5.45022E+03
 -1       896 1.19783E-07-6.09761E+03 1.77753E-07
 -1       898 1.77196E-07 1.07383E+04-9.90499E-09
 -1       899 3.92755E-08-1.23793E+03-1.32142E+04
 -1       901-3.85989E-08-1.23793E+03 1.32142E+04
 -1       910 2.19974E-07-6.55131E+03 1.80623E-07
 -1       912 2.59468E-07 2.02571E+04 1.24582E-07
 -1       913-5.39204E-08-3.69716E+03-2.10415E+04
 -1       915-1.02438E-07-3.69716E+03 2.10415E+04
 -1       924 3.33318E-07-6.36941E+03 4.93522E-08
 -1       926 2.60085E-07 3.01585E+04-6.32571E-07
 -1       927-1.74272E-07-6.59007E+03-2.86702E+04
 -1       929-1.87447E-07-6.59007E+03 2.86702E+04
 -1       938 2.01268E-07-6.41865E+03-2.17693E-07
 -1       940 1.98933E-07 3.91994E+04-5.14762E-07
 -1       941-1.61030E-07-8.88636E+03-3.58049E+04
 -1       943-1.94361E-07-8.88636E+03 3.58049E+04
 -1       952 1.42323E-07-4.66840E+03-8.08319E-07
 -1       954 8.12889E-08 4.89659E+04 3.01986E-08
 -1       955-1.98586E-07-1.24160E+04-4.20967E+04
 -1       957-1.39254E-07-1.24160E+04 4.20967E+04
 -1       966 2.01370E-07-4.01356E+03 2.19107E-07
 -1       968 1.81521E-07 5.55815E+04-8.49920E-07
 -1       969 8.05875E-09-1.38106E+04-4.67752E+04
 -1       971-4.08832E-08-1.38106E+04 4.67752E+04
 -1       980-8.84734E+05 1.05003E+03-2.28778E+03
 -1       982-8.58528E+05 3.31123E+03-2.28778E+03
 -1       983 2.94846E+02 3.83599E+03-1.54634E+01
 -1       985 2.94846E+02 3.83599E+03-1.54634E+01
 -1       986-5.81916E+01-8.01218E+01-5.75931E+00
 -1       988-5.81916E+01-8.01218E+01-5.75931E+00
 -1       989-1.09098E+02-2.16332E+02-1.22467E+01
 -1       991-1.09098E+02-2.16332E+02-1.22467E+01
 -1       992-1.49465E+02-4.19493E+02-1.87355E+01
 -1       994-1.49465E+02-4.19493E+02-1.87355E+01
 -1       995-1.79191E+02-6.74614E+02-2.49789E+01
 -1       997-1.79191E+02-6.74614E+02-2.49789E+01
 -1       998-1.98594E+02-9.65739E+02-3.10196E+01
 -1      1000-1.98594E+02-9.65739E+02-3.10196E+01
 -1      1001-2.07963E+02-1.27777E+03-3.67323E+01
 -1      1003-2.07963E+02-1.27777E+03-3.67323E+01
 -1      1004-2.07760E+02-1.59603E+03-4.20643E+01
 -1      1006-2.07760E+02-1.59603E+03-4.20643E+01
 -1      1007-1.98551E+02-1.90661E+03-4.69249E+01
 -1      1009-1.98551E+02-1.90661E+03-4.69249E+01
 -1      1010-1.81034E+02-2.19655E+03-5.12447E+01
 -1      1012-1.81034E+02-2.19655E+03-5.12447E+01
 -1      1013-1.56023E+02-2.45403E+03-5.49517E+01
 -1      1015-1.56023E+02-2.45403E+03-5.49517E+01
 -1      1016-1.24440E+02-2.66851E+03-5.79875E+01
 -1      1018-1.24440E+02-2.66851E+03-5.79875E+01
 -1      1019-8.72994E+01-2.83092E+03-6.03033E+01
 -1      1021-8.72994E+01-2.83092E+03-6.03033E+01
 -1      1022-4.56925E+01-2.93375E+03-6.18658E+01
 -1      1024-4.56925E+01-2.93375E+03-6.18658E+01
 -1      1025-7.60381E-01-2.97120E+03-6.26573E+01
 -1      1027-7.60381E-01-2.97120E+03-6.26573E+01
 -1      1028 4.63270E+01-2.93919E+03-6.26784E+01
 -1      1030 4.63270E+01-2.93919E+03-6.26784E+01
 -1      1031 9.43994E+01-2.83540E+03-6.19480E+01
 -1      1033 9.43994E+01-2.83540E+03-6.19480E+01
 -1      1034 1.42313E+02-2.65928E+03-6.05051E+01
 -1      1036 1.42313E+02-2.65928E+03-6.05051E+01
 -1      1037 1.88979E+02-2.41193E+03-5.84076E+01
 -1      1039 1.88979E+02-2.41193E+03-5.84076E+01
 -1      1040 2.33392E+02-2.09606E+03-5.57328E+01
 -1      1042 2.33392E+02-2.09606E+03-5.57328E+01
 -1      1043 2.74659E+02-1.71581E+03-5.25760E+01
 -1      1045 2.74659E+02-1.71581E+03-5.25760E+01
 -1      1046 3.12023E+02-1.27656E+03-4.90491E+01
 -1      1048 3.12023E+02-1.27656E+03-4.90491E+01
 -1      1049 3.44888E+02-7.84727E+02-4.52784E+01
 -1      1051 3.44888E+02-7.84727E+02-4.52784E+01
 -1      1052 3.72844E+02-2.47498E+02-4.14027E+01
 -1      1054 3.72844E+02-2.47498E+02-4.14027E+01
 -1      1055 3.95680E+02 3.27465E+02-3.75700E+01
 -1      1057 3.95680E+02 3.27465E+02-3.75700E+01
 -1      1058 4.13407E+02 9.32336E+02-3.39339E+01
 -1      1060 4.13407E+02 9.32336E+02-3.39339E+01
 -1      1061 4.26266E+02 1.55946E+03-3.06514E+01
 -1      1063 4.26266E+02 1.55946E+03-3.06514E+01
 -1      1064 4.34744E+02 2.20172E+03-2.78752E+01
 -1      1066 4.34744E+02 2.20172E+03-2.78752E+01
 -1      1067 4.39574E+02 2.85287E+03-2.57548E+01
 -1      1069 4.39574E+02 2.85287E+03-2.57548E+01
 -1      1070 4.41745E+02 3.50798E+03-2.44145E+01
 -1      1072 4.41745E+02 3.50798E+03-2.44145E+01
 -1      1073 8.84734E+05 1.05003E+03 2.28778E+03
 -1      1075 8.58528E+05 3.31123E+03 2.28778E+03
 -1      1076 1.54968E+05 2.96494E+04 6.59933E+03
 -1      1078-1.54968E+05 2.96494E+04-6.59933E+03
 -1      1079 2.12696E+05 5.14401E+04-2.82352E-07
 -1      1081-2.12696E+05 5.14401E+04 1.67704E-07
 -1      1082 1.54968E+05 2.96494E+04-6.59933E+03
 -1      1084-1.54968E+05 2.96494E+04 6.59933E+03
 -1      1085-2.93878E-08-5.66980E+03-8.68990E+03
 -1      1087-2.86138E-08-5.66980E+03 8.68990E+03
 -1      1088 2.86715E-07 1.09430E+04-4.20703E-08
 -1      1090 2.79740E-07-1.28606E+02 1.28155E-08
 -1      1099 3.74209E-08 7.43177E+02-4.87970E+03
 -1      1101 2.77366E-08 7.43177E+02 4.87970E+03
 -1      1102 1.32303E-07 1.62989E+03-4.37031E-08
 -1      1104 1.26416E-07-4.58721E+03 1.50128E-07
 -1      1113 5.84554E-08 2.82883E+03-8.06306E+03
 -1      1115 6.64489E-08 2.82883E+03 8.06306E+03
 -1      1116-7.81161E-08 8.66450E+02-5.26231E-08
 -1      1118-8.27335E-08-9.40649E+03 1.19208E-07
 -1      1127 1.66916E-08 2.60067E+03-1.17436E+04
 -1      1129 8.39269E-08 2.60067E+03 1.17436E+04
 -1      1130-5.20794E-08 2.55815E+03 2.65028E-08
 -1      1132-8.11870E-08-1.24041E+04 3.16530E-08
 -1      1141 4.98983E-09 4.06948E+03-1.46251E+04
 -1      1143 1.94192E-08 4.06948E+03 1.46251E+04
 -1      1144 2.93850E-08 1.92036E+03-3.17191E-07
 -1      1146 2.85262E-08-1.67131E+04-1.25404E-07
 -1      1155 6.66767E-08 6.03458E+03-1.89283E+04
 -1      1157-1.70465E-08 6.03458E+03 1.89283E+04
 -1      1158 2.03274E-07 1.62121E+03-2.27136E-07
 -1      1160 2.04411E-07-2.24949E+04-3.86656E-07
 -1      1169-1.67479E-08 6.47758E+03-2.22843E+04
 -1      1171-1.26022E-09 6.47758E+03 2.22843E+04
 -1      1172 2.62829E-07 2.21999E+03-6.44089E-08
 -1      1174 2.56191E-07-2.61719E+04-2.89752E-07
 -1      1183-1.84324E-07 8.73684E+03-2.60992E+04
 -1      1185-1.11000E-07 8.73684E+03 2.60992E+04
 -1      1186 1.62711E-07 1.32173E+03-1.21979E-07
 -1      1188 1.73878E-07-3.19306E+04-2.06475E-07
 -1      1197-3.01637E-08 9.21796E+03-2.92546E+04
 -1      1199-1.09972E-07 9.21796E+03 2.92546E+04
 -1      1200 1.16277E-08 1.85281E+03-3.86258E-07
 -1      1202 3.39598E-08-3.54197E+04-1.20040E-07
 -1      1211 5.62506E-08 1.09086E+04-3.21441E+04
 -1      1213 1.21203E-07 1.09086E+04 3.21441E+04
 -1      1214 1.89287E-07 1.11697E+03-2.23216E-07
 -1      1216 1.78295E-07-3.98370E+04-2.33698E-07
 -1      1225 1.78194E-08 1.14114E+04-3.43592E+04
 -1      1227-2.49148E-09 1.14114E+04 3.43592E+04
 -1      1228 1.34877E-07 1.28716E+03-9.88921E-08
 -1      1230 1.40889E-07-4.24890E+04 9.42950E-08
 -1      1239-4.10841E-08 1.24010E+04-3.59025E+04
 -1      1241-2.03438E-07 1.24010E+04 3.59025E+04
 -1      1242-4.04950E-08 7.21841E+02 1.77760E-07
 -1      1244-5.50529E-08-4.50205E+04 1.43841E-07
 -1      1253-1.80918E-07 1.26443E+04-3.66298E+04
 -1      1255-3.93522E-08 1.26443E+04 3.66298E+04
 -1      1256-1.51682E-07 5.87684E+02 2.66120E-07
 -1      1258-1.53552E-07-4.60813E+04 5.04848E-07
 -1      1267-2.15596E-07 1.29398E+04-3.64672E+04
 -1      1269-1.92377E-07 1.29398E+04 3.64672E+04
 -1      1270-8.21898E-08 5.92160E+01 6.18900E-07
 -1      1272-4.02501E-08-4.64026E+04 4.45416E-08
 -1      1281-1.81403E-07 1.27133E+04-3.53692E+04
 -1      1283-1.80602E-07 1.27133E+04 3.53692E+04
 -1      1284 2.23859E-07-3.04560E+02 8.80979E-07
 -1      1286 2.81049E-07-4.53675E+04-5.33345E-07
 -1      1295-2.05778E-08 1.23300E+04-3.32909E+04
 -1      1297-1.62721E-08 1.23300E+04 3.32909E+04
 -1      1298 3.72101E-07-8.89431E+02 8.90914E-07
 -1      1300 3.98336E-07-4.33045E+04-4.18002E-07
 -1      1309-1.79616E-07 1.15356E+04-3.02422E+04
 -1      1311-5.44264E-08 1.15356E+04 3.02422E+04
 -1      1312 4.24628E-07-1.43298E+03 9.53860E-07
 -1      1314 4.55428E-07-3.99638E+04-5.77606E-07
 -1      1323-7.31432E-08 1.05051E+04-2.62346E+04
 -1      1325 2.69777E-08 1.05051E+04 2.62346E+04
 -1      1326 2.75520E-07-2.10689E+03 9.62008E-07
 -1      1328 2.78785E-07-3.55317E+04-4.06684E-07
 -1      1337-5.75727E-08 9.13571E+03-2.13252E+04
 -1      1339-3.99004E-09 9.13571E+03 2.13252E+04
 -1      1340 6.20212E-08-2.78107E+03 1.17226E-06
 -1      1342 6.40566E-08-2.99510E+04-5.29242E-07
 -1      1351-1.96976E-07 7.52196E+03-1.55866E+04
 -1      1353-2.09732E-07 7.52196E+03 1.55866E+04
 -1      1354-5.71959E-08-3.51835E+03 3.93283E-07
 -1      1356-6.23845E-08-2.33768E+04-3.56638E-07
 -1      1365-5.86066E-08 5.64059E+03-9.12041E+03
 -1      1367-6.40995E-08 5.64059E+03 9.12041E+03
 -1      1368-1.49858E-07-4.24921E+03-1.29011E-07
 -1      1370-1.94477E-07-1.58693E+04-2.23955E-08
 -1      1379-1.20647E-07 3.53609E+03-2.06033E+03
 -1      1381-1.34981E-07 3.53609E+03 2.06033E+03
 -1      1382-1.84551E-07-4.95511E+03 4.00093E-08
 -1      1384-2.71360E-07-7.58013E+03-4.34297E-07
 -1      1393-6.14323E-08 1.26610E+03 5.45022E+03
 -1      1395-8.74126E-08 1.26610E+03-5.45022E+03
 -1      1396-1.78797E-07-5.62712E+03 1.95386E-07
 -1      1398-2.67346E-07 1.31686E+03 5.82668E-08
 -1      1407 1.16610E-07-1.23793E+03 1.32142E+04
 -1      1409 1.08509E-07-1.23793E+03-1.32142E+04
 -1      1410-1.93031E-07-6.09761E+03-5.00043E-08
 -1      1412-1.78687E-07 1.07383E+04 8.36964E-07
 -1      1421 2.98419E-07-3.69716E+03 2.10415E+04
 -1      1423 1.98634E-07-3.69716E+03-2.10415E+04
 -1      1424-2.07330E-07-6.55131E+03 1.85506E-07
 -1      1426-2.07534E-07 2.02571E+04-9.57111E-09
 -1      1435 1.74961E-07-6.59007E+03 2.86702E+04
 -1      1437 1.77060E-07-6.59007E+03-2.86702E+04
 -1      1438-2.06824E-07-6.36941E+03-2.68913E-07
 -1      1440-1.09238E-07 3.01585E+04-2.38606E-07
 -1      1449 3.46841E-08-8.88636E+03 3.58049E+04
 -1      1451 1.15105E-07-8.88636E+03-3.58049E+04
 -1      1452-1.85996E-07-6.41865E+03 1.41409E-07
 -1      1454-1.62912E-07 3.91994E+04 1.10450E-07
 -1      1463 2.56146E-08-1.24160E+04 4.20967E+04
 -1      1465 1.08583E-07-1.24160E+04-4.20967E+04
 -1      1466-2.64335E-07-4.66840E+03 7.57758E-07
 -1      1468-2.87476E-07 4.89659E+04 2.40373E-07
 -1      1477 1.98833E-07-1.38106E+04 4.67752E+04
 -1      1479 3.24400E-07-1.38106E+04-4.67752E+04
 -1      1480-3.96908E-07-4.01356E+03 4.03837E-07
 -1      1482-3.61024E-07 5.55815E+04 6.59838E-08
 -1      1491 1.52101E-07 5.41875E+03 1.47232E-07
 -1      1493-5.33478E-08 5.41875E+03-4.14670E-08
 -1      1494 8.76452E-09 5.41467E+03 1.02225E-07
 -1      1496-4.10095E-08 5.41467E+03-6.39504E-08
 -1      1497-1.93622E-07 5.41875E+03-1.15381E-09
 -1      1499-6.85415E-08 5.41875E+03 2.37512E-07
 -1      1500-5.81916E+01-8.01218E+01 5.75931E+00
 -1      1502-5.81916E+01-8.01218E+01 5.75931E+00
 -1      1503-1.09098E+02-2.16332E+02 1.22467E+01
 -1      1505-1.09098E+02-2.16332E+02 1.22467E+01
 -1      1506-1.49465E+02-4.19493E+02 1.87355E+01
 -1      1508-1.49465E+02-4.19493E+02 1.87355E+01
 -1      1509-1.79191E+02-6.74614E+02 2.49789E+01
 -1      1511-1.79191E+02-6.74614E+02 2.49789E+01
 -1      1512-1.98594E+02-9.65739E+02 3.10196E+01
 -1      1514-1.98594E+02-9.65739E+02 3.10196E+01
 -1      1515-2.07963E+02-1.27777E+03 3.67323E+01
 -1      1517-2.07963E+02-1.27777E+03 3.67323E+01
 -1      1518-2.07760E+02-1.59603E+03 4.20643E+01
 -1      1520-2.07760E+02-1.59603E+03 4.20643E+01
 -1      1521-1.98551E+02-1.90661E+03 4.69249E+01
 -1      1523-1.98551E+02-1.90661E+03 4.69249E+01
 -1      1524-1.81034E+02-2.19655E+03 5.12447E+01
 -1      1526-1.81034E+02-2.19655E+03 5.12447E+01
 -1      1527-1.56023E+02-2.45403E+03 5.49517E+01
 -1      1529-1.56023E+02-2.45403E+03 5.49517E+01
 -1      1530-1.24440E+02-2.66851E+03 5.79875E+01
 -1      1532-1.24440E+02-2.66851E+03 5.79875E+01
 -1      1533-8.72994E+01-2.83092E+03 6.03033E+01
 -1      1535-8.72994E+01-2.83092E+03 6.03033E+01
 -1      1536-4.56925E+01-2.93375E+03 6.18658E+01
 -1      1538-4.56925E+01-2.93375E+03 6.18658E+01
 -1      1539-7.60381E-01-2.97120E+03 6.26573E+01
 -1      1541-7.60381E-01-2.97120E+03 6.26573E+01
 -1      1542 4.63270E+01-2.93919E+03 6.26784E+01
 -1      1544 4.63270E+01-2.93919E+03 6.26784E+01
 -1      1545 9.43994E+01-2.83540E+03 6.19480E+01
 -1      1547 9.43994E+01-2.83540E+03 6.19480E+01
 -1      1548 1.42313E+02-2.65928E+03 6.05051E+01
 -1      1550 1.42313E+02-2.65928E+03 6.05051E+01
 -1      1551 1.88979E+02-2.41193E+03 5.84076E+01
 -1      1553 1.88979E+02-2.41193E+03 5.84076E+01
 -1      1554 2.33392E+02-2.09606E+03 5.57328E+01
 -1      1556 2.33392E+02-2.09606E+03 5.57328E+01
 -1      1557 2.74659E+02-1.71581E+03 5.25760E+01
 -1      1559 2.74659E+02-1.71581E+03 5.25760E+01
 -1      1560 3.12023E+02-1.27656E+03 4.90491E+01
 -1      1562 3.12023E+02-1.27656E+03 4.90491E+01
 -1      1563 3.44888E+02-7.84727E+02 4.52784E+01
 -1      1565 3.44888E+02-7.84727E+02 4.52784E+01
 -1      1566 3.72844E+02-2.47498E+02 4.14027E+01
 -1      1568 3.72844E+02-2.47498E+02 4.14027E+01
 -1      1569 3.95680E+02 3.27465E+02 3.75700E+01
 -1      1571 3.95680E+02 3.27465E+02 3.75700E+01
 -1      1572 4.13407E+02 9.32336E+02 3.39339E+01
 -1      1574 4.13407E+02 9.32336E+02 3.39339E+01
 -1      1575 4.26266E+02 1.55946E+03 3.06514E+01
 -1      1577 4.26266E+02 1.55946E+03 3.06514E+01
 -1      1578 4.34744E+02 2.20172E+03 2.78752E+01
 -1      1580 4.34744E+02 2.20172E+03 2.78752E+01
 -1      1581 4.39574E+02 2.85287E+03 2.57548E+01
 -1      1583 4.39574E+02 2.85287E+03 2.57548E+01
 -1      1584 4.41745E+02 3.50798E+03 2.44145E+01
 -1      1586 4.41745E+02 3.50798E+03 2.44145E+01
 -1      1587 2.94846E+02 3.83599E+03 1.54634E+01
 -1      1589 2.94846E+02 3.83599E+03 1.54634E+01
 -1      1590 8.84734E+05 1.05003E+03-2.28778E+03
 -1      1592 8.58528E+05 3.31123E+03-2.28778E+03
 -1      1593-2.94846E+02 3.83599E+03-1.54634E+01
 -1      1595-2.94846E+02 3.83599E+03-1.54634E+01
 -1      1596 5.81916E+01-8.01218E+01-5.75931E+00
 -1      1598 5.81916E+01-8.01218E+01-5.75931E+00
 -1      1599 1.09098E+02-2.16332E+02-1.22467E+01
 -1      1601 1.09098E+02-2.16332E+02-1.22467E+01
 -1      1602 1.49465E+02-4.19493E+02-1.87355E+01
 -1      1604 1.49465E+02-4.19493E+02-1.87355E+01
 -1      1605 1.79191E+02-6.74614E+02-2.49789E+01
 -1      1607 1.79191E+02-6.74614E+02-2.49789E+01
 -1      1608 1.98594E+02-9.65739E+02-3.10196E+01
 -1      1610 1.98594E+02-9.65739E+02-3.10196E+01
 -1      1611 2.07963E+02-1.27777E+03-3.67323E+01
 -1      1613 2.07963E+02-1.27777E+03-3.67323E+01
 -1      1614 2.07760E+02-1.59603E+03-4.20643E+01
 -1      1616 2.07760E+02-1.59603E+03-4.20643E+01
 -1      1617 1.98551E+02-1.90661E+03-4.69249E+01
 -1      1619 1.98551E+02-1.90661E+03-4.69249E+01
 -1      1620 1.81034E+02-2.19655E+03-5.12447E+01
 -1      1622 1.81034E+02-2.19655E+03-5.12447E+01
 -1      1623 1.56023E+02-2.45403E+03-5.49517E+01
 -1      1625 1.56023E+02-2.45403E+03-5.49517E+01
 -1      1626 1.24440E+02-2.66851E+03-5.79875E+01
 -1      1628 1.24440E+02-2.66851E+03-5.79875E+01
 -1      1629 8.72994E+01-2.83092E+03-6.03033E+01
 -1      1631 8.72994E+01-2.83092E+03-6.03033E+01
 -1      1632 4.56925E+01-2.93375E+03-6.18658E+01
 -1      1634 4.56925E+01-2.93375E+03-6.18658E+01
 -1      1635 7.60381E-01-2.97120E+03-6.26573E+01
 -1      1637 7.60381E-01-2.97120E+03-6.26573E+01
 -1      1638-4.63270E+01-2.93919E+03-6.26784E+01
 -1      1640-4.63270E+01-2.93919E+03-6.26784E+01
 -1      1641-9.43994E+01-2.83540E+03-6.19480E+01
 -1      1643-9.43994E+01-2.83540E+03-6.19480E+01
 -1      1644-1.42313E+02-2.65928E+03-6.05051E+01
 -1      1646-1.42313E+02-2.65928E+03-6.05051E+01
 -1      1647-1.88979E+02-2.41193E+03-5.84076E+01
 -1      1649-1.88979E+02-2.41193E+03-5.84076E+01
 -1      1650-2.33392E+02-2.09606E+03-5.57328E+01
 -1      1652-2.33392E+02-2.09606E+03-5.57328E+01
 -1      1653-2.74659E+02-1.71581E+03-5.25760E+01
 -1      1655-2.74659E+02-1.71581E+03-5.25760E+01
 -1      1656-3.12023E+02-1.27656E+03-4.90491E+01
 -1      1658-3.12023E+02-1.27656E+03-4.90491E+01
 -1      1659-3.44888E+02-7.84727E+02-4.52784E+01
 -1      1661-3.44888E+02-7.84727E+02-4.52784E+01
 -1      1662-3.72844E+02-2.47498E+02-4.14027E+01
 -1      1664-3.72844E+02-2.47498E+02-4.14027E+01
 -1      1665-3.95680E+02 3.27465E+02-3.75700E+01
 -1      1667-3.95680E+02 3.27465E+02-3.75700E+01
 -1      1668-4.13407E+02 9.32336E+02-3.39339E+01
 -1      1670-4.13407E+02 9.32336E+02-3.39339E+01
 -1      1671-4.26266E+02 1.55946E+03-3.06514E+01
 -1      1673-4.26266E+02 1.55946E+03-3.06514E+01
 -1      1674-4.34744E+02 2.20172E+03-2.78752E+01
 -1      1676-4.34744E+02 2.20172E+03-2.78752E+01
 -1      1677-4.39574E+02 2.85287E+03-2.57548E+01
 -1      1679-4.39574E+02 2.85287E+03-2.57548E+01
 -1      1680-4.41745E+02 3.50798E+03-2.44145E+01
 -1      1682-4.41745E+02 3.50798E+03-2.44145E+01
 -1      1683-8.84734E+05 1.05003E+03 2.28778E+03
 -1      1685-8.58528E+05 3.31123E+03 2.28778E+03
 -1      1686 7.69830E+01-1.55631E+02 7.72884E+00
 -1      1688 7.69830E+01-1.55631E+02 7.72884E+00
 -1      1689 1.44896E+02-4.28320E+02 1.64636E+01
 -1      1691 1.44896E+02-4.28320E+02 1.64636E+01
 -1      1692 1.98760E+02-8.35944E+02 2.51999E+01
 -1      1694 1.98760E+02-8.35944E+02 2.51999E+01
 -1      1695 2.38373E+02-1.34699E+03 3.36061E+01
 -1      1697 2.38373E+02-1.34699E+03 3.36061E+01
 -1      1698 2.64280E+02-1.93021E+03 4.17466E+01
 -1      1700 2.64280E+02-1.93021E+03 4.17466E+01
 -1      1701 2.76786E+02-2.55515E+03 4.94493E+01
 -1      1703 2.76786E+02-2.55515E+03 4.94493E+01
 -1      1704 2.76549E+02-3.19250E+03 5.66435E+01
 -1      1706 2.76549E+02-3.19250E+03 5.66435E+01
 -1      1707 2.64305E+02-3.81444E+03 6.32043E+01
 -1      1709 2.64305E+02-3.81444E+03 6.32043E+01
 -1      1710 2.40992E+02-4.39505E+03 6.90364E+01
 -1      1712 2.40992E+02-4.39505E+03 6.90364E+01
 -1      1713 2.07691E+02-4.91064E+03 7.40407E+01
 -1      1715 2.07691E+02-4.91064E+03 7.40407E+01
 -1      1716 1.65632E+02-5.34015E+03 7.81361E+01
 -1      1718 1.65632E+02-5.34015E+03 7.81361E+01
 -1      1719 1.16168E+02-5.66542E+03 8.12552E+01
 -1      1721 1.16168E+02-5.66542E+03 8.12552E+01
 -1      1722 6.07513E+01-5.87144E+03 8.33511E+01
 -1      1724 6.07513E+01-5.87144E+03 8.33511E+01
 -1      1725 9.02314E-01-5.94659E+03 8.43987E+01
 -1      1727 9.02314E-01-5.94659E+03 8.43987E+01
 -1      1728-6.18204E+01-5.88271E+03 8.43971E+01
 -1      1730-6.18204E+01-5.88271E+03 8.43971E+01
 -1      1731-1.25858E+02-5.67517E+03 8.33714E+01
 -1      1733-1.25858E+02-5.67517E+03 8.33714E+01
 -1      1734-1.89686E+02-5.32285E+03 8.13731E+01
 -1      1736-1.89686E+02-5.32285E+03 8.13731E+01
 -1      1737-2.51855E+02-4.82799E+03 7.84805E+01
 -1      1739-2.51855E+02-4.82799E+03 7.84805E+01
 -1      1740-3.11027E+02-4.19600E+03 7.47976E+01
 -1      1742-3.11027E+02-4.19600E+03 7.47976E+01
 -1      1743-3.66010E+02-3.43518E+03 7.04537E+01
 -1      1745-3.66010E+02-3.43518E+03 7.04537E+01
 -1      1746-4.15798E+02-2.55629E+03 6.56003E+01
 -1      1748-4.15798E+02-2.55629E+03 6.56003E+01
 -1      1749-4.59597E+02-1.57220E+03 6.04096E+01
 -1      1751-4.59597E+02-1.57220E+03 6.04096E+01
 -1      1752-4.96860E+02-4.97285E+02 5.50705E+01
 -1      1754-4.96860E+02-4.97285E+02 5.50705E+01
 -1      1755-5.27309E+02 6.53109E+02 4.97853E+01
 -1      1757-5.27309E+02 6.53109E+02 4.97853E+01
 -1      1758-5.50957E+02 1.86331E+03 4.47649E+01
 -1      1760-5.50957E+02 1.86331E+03 4.47649E+01
 -1      1761-5.68129E+02 3.11798E+03 4.02255E+01
 -1      1763-5.68129E+02 3.11798E+03 4.02255E+01
 -1      1764-5.79471E+02 4.40286E+03 3.63792E+01
 -1      1766-5.79471E+02 4.40286E+03 3.63792E+01
 -1      1767-5.85963E+02 5.70547E+03 3.34356E+01
 -1      1769-5.85963E+02 5.70547E+03 3.34356E+01
 -1      1770-5.88917E+02 7.01588E+03 3.15715E+01
 -1      1772-5.88917E+02 7.01588E+03 3.15715E+01
 -1      1773-7.69830E+01-1.55631E+02-7.72884E+00
 -1      1775-7.69830E+01-1.55631E+02-7.72884E+00
 -1      1776-1.44896E+02-4.28320E+02-1.64636E+01
 -1      1778-1.44896E+02-4.28320E+02-1.64636E+01
 -1      1779-1.98760E+02-8.35944E+02-2.51999E+01
 -1      1781-1.98760E+02-8.35944E+02-2.51999E+01
 -1      1782-2.38373E+02-1.34699E+03-3.36061E+01
 -1      1784-2.38373E+02-1.34699E+03-3.36061E+01
 -1      1785-2.64280E+02-1.93021E+03-4.17466E+01
 -1      1787-2.64280E+02-1.93021E+03-4.17466E+01
 -1      1788-2.76786E+02-2.55515E+03-4.94493E+01
 -1      1790-2.76786E+02-2.55515E+03-4.94493E+01
 -1      1791-2.76549E+02-3.19250E+03-5.66435E+01
 -1      1793-2.76549E+02-3.19250E+03-5.66435E+01
 -1      1794-2.64305E+02-3.81444E+03-6.32043E+01
 -1      1796-2.64305E+02-3.81444E+03-6.32043E+01
 -1      1797-2.40992E+02-4.39505E+03-6.90364E+01
 -1      1799-2.40992E+02-4.39505E+03-6.90364E+01
 -1      1800-2.07691E+02-4.91064E+03-7.40407E+01
 -1      1802-2.07691E+02-4.91064E+03-7.40407E+01
 -1      1803-1.65632E+02-5.34015E+03-7.81361E+01
 -1      1805-1.65632E+02-5.34015E+03-7.81361E+01
 -1      1806-1.16168E+02-5.66542E+03-8.12552E+01
 -1      1808-1.16168E+02-5.66542E+03-8.12552E+01
 -1      1809-6.07513E+01-5.87144E+03-8.33511E+01
 -1      1811-6.07513E+01-5.87144E+03-8.33511E+01
 -1      1812-9.02314E-01-5.94659E+03-8.43987E+01
 -1      1814-9.02314E-01-5.94659E+03-8.43987E+01
 -1      1815 6.18204E+01-5.88271E+03-8.43971E+01
 -1      1817 6.18204E+01-5.88271E+03-8.43971E+01
 -1      1818 1.25858E+02-5.67517E+03-8.33714E+01
 -1      1820 1.25858E+02-5.67517E+03-8.33714E+01
 -1      1821 1.89686E+02-5.32285E+03-8.13731E+01
 -1      1823 1.89686E+02-5.32285E+03-8.13731E+01
 -1      1824 2.51855E+02-4.82799E+03-7.84805E+01
 -1      1826 2.51855E+02-4.82799E+03-7.84805E+01
 -1      1827 3.11027E+02-4.19600E+03-7.47976E+01
 -1      1829 3.11027E+02-4.19600E+03-7.47976E+01
 -1      1830 3.66010E+02-3.43518E+03-7.04537E+01
 -1      1832 3.66010E+02-3.43518E+03-7.04537E+01
 -1      1833 4.15798E+02-2.55629E+03-6.56003E+01
 -1      1835 4.15798E+02-2.55629E+03-6.56003E+01
 -1      1836 4.59597E+02-1.57220E+03-6.04096E+01
 -1      1838 4.59597E+02-1.57220E+03-6.04096E+01
 -1      1839 4.96860E+02-4.97285E+02-5.50705E+01
 -1      1841 4.96860E+02-4.97285E+02-5.50705E+01
 -1      1842 5.27309E+02 6.53109E+02-4.97853E+01
 -1      1844 5.27309E+02 6.53109E+02-4.97853E+01
 -1      1845 5.50957E+02 1.86331E+03-4.47649E+01
 -1      1847 5.50957E+02 1.86331E+03-4.47649E+01
 -1      1848 5.68129E+02 3.11798E+03-4.02255E+01
 -1      1850 5.68129E+02 3.11798E+03-4.02255E+01
 -1      1851 5.79471E+02 4.40286E+03-3.63792E+01
 -1      1853 5.79471E+02 4.40286E+03-3.63792E+01
 -1      1854 5.85963E+02 5.70547E+03-3.34356E+01
 -1      1856 5.85963E+02 5.70547E+03-3.34356E+01
 -1      1857 5.88917E+02 7.01588E+03-3.15715E+01
 -1      1859 5.88917E+02 7.01588E+03-3.15715E+01
 -1      1860-2.84276E-08-2.32266E+02 3.67413E-08
 -1      1862-2.93041E-08-2.32266E+02 3.67504E-08
 -1      1863-5.73227E-08-6.41792E+02 1.89598E-08
 -1      1865-6.07188E-08-6.41792E+02-5.73768E-08
 -1      1866-5.22792E-08-1.24523E+03 3.10602E-08
 -1      1868-4.68218E-08-1.24523E+03-2.56623E-08
 -1      1869 3.11794E-08-1.99346E+03 5.76638E-08
 -1      1871-1.00283E-08-1.99346E+03-9.63455E-08
 -1      1872 1.83820E-07-2.84370E+03-4.17970E-08
 -1      1874 1.04552E-07-2.84370E+03-7.00791E-08
 -1      1875 9.00783E-08-3.75190E+03-4.51714E-08
 -1      1877 2.67936E-07-3.75190E+03 1.15843E-07
 -1      1878 3.98373E-08-4.67631E+03-5.54453E-08
 -1      1880 1.58481E-07-4.67631E+03 1.70917E-07
 -1      1881-4.60617E-08-5.57714E+03-5.75271E-08
 -1      1883-3.01902E-07-5.57714E+03 2.41716E-07
 -1      1884-1.13831E-08-6.41724E+03-1.34003E-07
 -1      1886 6.00732E-08-6.41724E+03-4.43451E-08
 -1      1887-5.36602E-11-7.16274E+03 1.84701E-07
 -1      1889 3.03126E-07-7.16274E+03-6.84141E-07
 -1      1890 6.75107E-08-7.78346E+03 1.61431E-07
 -1      1892 5.93502E-10-7.78346E+03-3.14893E-07
 -1      1893 8.34333E-08-8.25340E+03-1.52114E-07
 -1      1895 5.61301E-08-8.25340E+03 1.94394E-07
 -1      1896 5.71025E-08-8.55109E+03-1.15455E-07
 -1      1898 1.70631E-07-8.55109E+03 5.25706E-07
 -1      1899-2.32243E-07-8.65994E+03 1.78626E-08
 -1      1901-1.86672E-07-8.65994E+03 5.68434E-07
 -1      1902 1.96571E-08-8.56832E+03 4.92687E-08
 -1      1904-8.11577E-08-8.56832E+03 2.49034E-07
 -1      1905-1.36623E-07-8.26973E+03 1.55521E-08
 -1      1907-1.30330E-07-8.26973E+03 3.02948E-07
 -1      1908-1.58914E-08-7.76271E+03 1.91161E-07
 -1      1910-5.78771E-08-7.76271E+03 4.70125E-08
 -1      1911-1.88638E-07-7.05064E+03-3.88357E-08
 -1      1913-1.06363E-07-7.05064E+03-2.80891E-08
 -1      1914-3.04991E-07-6.14152E+03-1.98222E-08
 -1      1916-2.55107E-07-6.14152E+03 1.02740E-07
 -1      1917-2.80975E-07-5.04748E+03 1.87310E-09
 -1      1919-2.48503E-07-5.04748E+03-5.41303E-07
 -1      1920-1.70431E-07-3.78431E+03 2.69389E-07
 -1      1922-9.83815E-08-3.78431E+03-5.29853E-07
 -1      1923 2.20092E-08-2.37077E+03-2.00759E-07
 -1      1925-9.08316E-08-2.37077E+03 7.53216E-08
 -1      1926 1.18659E-07-8.27900E+02-3.78048E-07
 -1      1928 1.21651E-08-8.27900E+02 2.34279E-07
 -1      1929 2.11761E-07 8.21841E+02-3.26032E-07
 -1      1931 1.08799E-07 8.21841E+02-6.66328E-08
 -1      1932 2.29615E-08 2.55547E+03-5.46318E-08
 -1      1934 2.08018E-08 2.55547E+03 2.26662E-07
 -1      1935 8.22562E-08 4.35043E+03-3.88203E-07
 -1      1937 1.37604E-07 4.35043E+03-6.12870E-08
 -1      1938 4.23746E-08 6.18562E+03-3.39001E-08
 -1      1940 2.20619E-07 6.18562E+03 2.94090E-08
 -1      1941-4.80150E-08 8.04241E+03 6.41428E-08
 -1      1943 7.21446E-08 8.04241E+03 8.42983E-08
 -1      1944-1.57695E-09 9.90578E+03 1.38684E-08
 -1      1946 7.30618E-08 9.90578E+03 2.16534E-07
 -1      1947-8.52358E-08-2.41332E+02-7.75394E-08
 -1      1949-8.83099E-08-2.41332E+02-1.21845E-07
 -1      1950 1.57628E-08-6.60571E+02-1.56423E-07
 -1      1952-6.37772E-09-6.60571E+02-2.50485E-07
 -1      1953 2.68388E-08-1.27387E+03-6.50020E-08
 -1      1955 6.38207E-08-1.27387E+03-4.21519E-08
 -1      1956-1.05391E-08-2.03179E+03 1.39283E-07
 -1      1958-6.52529E-08-2.03179E+03 1.19201E-07
 -1      1959-2.98558E-08-2.89149E+03 1.55535E-08
 -1      1961 2.38524E-08-2.89149E+03 8.08470E-08
 -1      1962 1.76430E-08-3.80878E+03-2.13332E-07
 -1      1964 9.52758E-08-3.80878E+03 8.47012E-08
 -1      1965 1.51851E-07-4.74174E+03-1.34659E-07
 -1      1967 2.37290E-07-4.74174E+03-1.83272E-07
 -1      1968 1.65548E-07-5.65042E+03 5.82731E-08
 -1      1970 8.60658E-08-5.65042E+03-9.46206E-08
 -1      1971 8.73286E-08-6.49752E+03 9.08681E-08
 -1      1973-1.02830E-07-6.49752E+03 2.91409E-08
 -1      1974 5.35325E-08-7.24901E+03 4.78507E-07
 -1      1976 2.62432E-07-7.24901E+03-4.43550E-07
 -1      1977 2.34438E-07-7.87456E+03 2.11607E-07
 -1      1979 7.47421E-08-7.87456E+03-2.41107E-07
 -1      1980 7.69725E-08-8.34805E+03-3.52899E-07
 -1      1982 1.15821E-07-8.34805E+03 3.68799E-07
 -1      1983 3.71202E-08-8.64795E+03-5.09819E-07
 -1      1985 1.98800E-07-8.64795E+03 5.76268E-07
 -1      1986-3.21541E-07-8.75756E+03 2.58795E-07
 -1      1988-1.88512E-07-8.75756E+03 2.48441E-07
 -1      1989-3.13427E-08-8.66528E+03 5.57165E-08
 -1      1991-2.64090E-07-8.66528E+03 3.49807E-08
 -1      1992-1.40660E-07-8.36459E+03-3.62607E-07
 -1      1994-1.80112E-07-8.36459E+03-1.56090E-07
 -1      1995-2.97057E-07-7.85408E+03 5.82427E-08
 -1      1997-1.36176E-07-7.85408E+03-2.20050E-07
 -1      1998 1.90825E-08-7.13723E+03-2.76893E-07
 -1      2000 1.50549E-07-7.13723E+03 5.91219E-08
 -1      2001-1.03470E-07-6.22215E+03-4.54206E-08
 -1      2003-2.64833E-10-6.22215E+03 2.14633E-07
 -1      2004-1.79781E-07-5.12116E+03 4.08160E-07
 -1      2006-1.06237E-07-5.12116E+03-3.63496E-07
 -1      2007-1.71107E-07-3.85024E+03 5.00488E-08
 -1      2009-6.64220E-08-3.85024E+03-3.82445E-07
 -1      2010 9.00345E-08-2.42838E+03-5.26102E-08
 -1      2012-1.10167E-08-2.42838E+03-1.46575E-07
 -1      2013 9.69775E-08-8.76898E+02 2.48512E-07
 -1      2015-5.34598E-09-8.76898E+02 1.50371E-07
 -1      2016 1.77439E-07 7.81458E+02-9.50581E-08
 -1      2018 1.36177E-08 7.81458E+02-1.76968E-07
 -1      2019 7.98540E-08 2.52338E+03 2.73724E-08
 -1      2021 6.30664E-08 2.52338E+03-1.40755E-07
 -1      2022 3.45333E-08 4.32597E+03-1.42740E-07
 -1      2024 1.00311E-07 4.32597E+03-3.54081E-07
 -1      2025 7.15058E-08 6.16775E+03 1.81770E-07
 -1      2027 1.56323E-07 6.16775E+03-5.22113E-07
 -1      2028 1.99331E-07 8.02971E+03-1.81120E-07
 -1      2030 2.96812E-08 8.02971E+03-1.51878E-07
 -1      2031 1.06529E-07 9.89644E+03 1.93874E-07
 -1      2033-1.69404E-08 9.89644E+03-3.49446E-07
 -1      2034 1.63313E-07-2.32266E+02-1.63624E-07
 -1      2036 1.67614E-07-2.32266E+02-1.78984E-07
 -1      2037 1.66921E-07-6.41792E+02-1.78539E-07
 -1      2039 1.59026E-07-6.41792E+02-1.95146E-07
 -1      2040 1.38858E-08-1.24523E+03-1.75278E-08
 -1      2042 2.81422E-08-1.24523E+03 3.96233E-08
 -1      2043-6.98934E-08-1.99346E+03 1.10111E-07
 -1      2045-1.41432E-08-1.99346E+03 1.54616E-07
 -1      2046-1.13820E-07-2.84370E+03-1.29525E-07
 -1      2048-8.47728E-08-2.84370E+03 1.18957E-07
 -1      2049 3.95191E-08-3.75190E+03-9.03125E-08
 -1      2051-1.88540E-08-3.75190E+03 9.93317E-08
 -1      2052 2.13109E-07-4.67631E+03 4.49299E-08
 -1      2054 1.50629E-07-4.67631E+03-3.22014E-07
 -1      2055 2.54974E-08-5.57714E+03-4.63371E-08
 -1      2057 7.87001E-08-5.57714E+03-4.82280E-07
 -1      2058 9.15328E-08-6.41724E+03-1.17961E-07
 -1      2060-8.01634E-08-6.41724E+03-4.08291E-08
 -1      2061 2.51202E-07-7.16274E+03 2.86473E-07
 -1      2063 2.54633E-07-7.16274E+03-1.34406E-07
 -1      2064 2.89943E-07-7.78346E+03 4.65178E-07
 -1      2066 1.70824E-07-7.78346E+03-4.48012E-08
 -1      2067 1.20661E-07-8.25340E+03-3.41572E-07
 -1      2069-8.80989E-08-8.25340E+03 5.47166E-07
 -1      2070-1.25770E-07-8.55109E+03-5.80546E-07
 -1      2072 1.09834E-07-8.55109E+03 4.18249E-07
 -1      2073-2.43823E-07-8.65994E+03 9.11615E-08
 -1      2075-1.57211E-07-8.65994E+03 2.72452E-07
 -1      2076-2.15594E-08-8.56832E+03-6.61298E-08
 -1      2078 8.35921E-08-8.56832E+03-8.22431E-08
 -1      2079 2.44241E-07-8.26973E+03-1.88139E-07
 -1      2081 2.01147E-07-8.26973E+03-2.33444E-07
 -1      2082 3.75388E-08-7.76271E+03-1.19226E-07
 -1      2084 1.98512E-07-7.76271E+03 9.72949E-08
 -1      2085 1.53710E-07-7.05064E+03-3.83615E-07
 -1      2087 3.54959E-07-7.05064E+03-8.50284E-08
 -1      2088-1.09595E-08-6.14152E+03-4.06740E-08
 -1      2090 1.49404E-07-6.14152E+03 1.80780E-07
 -1      2091-2.23046E-07-5.04748E+03-8.68265E-08
 -1      2093-1.51938E-07-5.04748E+03-8.52511E-08
 -1      2094-1.78364E-07-3.78431E+03 2.16156E-07
 -1      2096-8.58689E-08-3.78431E+03-1.91114E-07
 -1      2097-2.08033E-07-2.37077E+03 1.60244E-07
 -1      2099-1.73978E-07-2.37077E+03-1.93317E-07
 -1      2100-1.04827E-07-8.27900E+02 9.85991E-08
 -1      2102-1.89034E-07-8.27900E+02 1.14669E-07
 -1      2103 6.19053E-08 8.21841E+02-5.82027E-07
 -1      2105-5.66479E-09 8.21841E+02 1.63702E-07
 -1      2106 6.92316E-08 2.55547E+03-1.62173E-07
 -1      2108-2.49018E-08 2.55547E+03-5.24395E-08
 -1      2109 5.18864E-08 4.35043E+03 1.85360E-07
 -1      2111 5.73245E-08 4.35043E+03-2.22975E-07
 -1      2112-7.41939E-08 6.18562E+03 1.90702E-07
 -1      2114 5.04529E-08 6.18562E+03-2.13351E-07
 -1      2115-1.82943E-07 8.04241E+03-2.93630E-07
 -1      2117-3.07759E-07 8.04241E+03-3.28733E-07
 -1      2118-6.04148E-08 9.90578E+03-3.06399E-07
 -1      2120 1.43480E-07 9.90578E+03 8.47656E-08
 -1      2121-7.69830E+01-1.55631E+02 7.72884E+00
 -1      2123-7.69830E+01-1.55631E+02 7.72884E+00
 -1      2124-1.44896E+02-4.28320E+02 1.64636E+01
 -1      2126-1.44896E+02-4.28320E+02 1.64636E+01
 -1      2127-1.98760E+02-8.35944E+02 2.51999E+01
 -1      2129-1.98760E+02-8.35944E+02 2.51999E+01
 -1      2130-2.38373E+02-1.34699E+03 3.36061E+01
 -1      2132-2.38373E+02-1.34699E+03 3.36061E+01
 -1      2133-2.64280E+02-1.93021E+03 4.17466E+01
 -1      2135-2.64280E+02-1.93021E+03 4.17466E+01
 -1      2136-2.76786E+02-2.55515E+03 4.94493E+01
 -1      2138-2.76786E+02-2.55515E+03 4.94493E+01
 -1      2139-2.76549E+02-3.19250E+03 5.66435E+01
 -1      2141-2.76549E+02-3.19250E+03 5.66435E+01
 -1      2142-2.64305E+02-3.81444E+03 6.32043E+01
 -1      2144-2.64305E+02-3.81444E+03 6.32043E+01
 -1      2145-2.40992E+02-4.39505E+03 6.90364E+01
 -1      2147-2.40992E+02-4.39505E+03 6.90364E+01
 -1      2148-2.07691E+02-4.91064E+03 7.40407E+01
 -1      2150-2.07691E+02-4.91064E+03 7.40407E+01
 -1      2151-1.65632E+02-5.34015E+03 7.81361E+01
 -1      2153-1.65632E+02-5.34015E+03 7.81361E+01
 -1      2154-1.16168E+02-5.66542E+03 8.12552E+01
 -1      2156-1.16168E+02-5.66542E+03 8.12552E+01
 -1      2157-6.07513E+01-5.87144E+03 8.33511E+01
 -1      2159-6.07513E+01-5.87144E+03 8.33511E+01
 -1      2160-9.02314E-01-5.94659E+03 8.43987E+01
 -1      2162-9.02314E-01-5.94659E+03 8.43987E+01
 -1      2163 6.18204E+01-5.88271E+03 8.43971E+01
 -1      2165 6.18204E+01-5.88271E+03 8.43971E+01
 -1      2166 1.25858E+02-5.67517E+03 8.33714E+01
 -1      2168 1.25858E+02-5.67517E+03 8.33714E+01
 -1      2169 1.89686E+02-5.32285E+03 8.13731E+01
 -1      2171 1.89686E+02-5.32285E+03 8.13731E+01
 -1      2172 2.51855E+02-4.82799E+03 7.84805E+01
 -1      2174 2.51855E+02-4.82799E+03 7.84805E+01
 -1      2175 3.11027E+02-4.19600E+03 7.47976E+01
 -1      2177 3.11027E+02-4.19600E+03 7.47976E+01
 -1      2178 3.66010E+02-3.43518E+03 7.04537E+01
 -1      2180 3.66010E+02-3.43518E+03 7.04537E+01
 -1      2181 4.15798E+02-2.55629E+03 6.56003E+01
 -1      2183 4.15798E+02-2.55629E+03 6.56003E+01
 -1      2184 4.59597E+02-1.57220E+03 6.04096E+01
 -1      2186 4.59597E+02-1.57220E+03 6.04096E+01
 -1      2187 4.96860E+02-4.97285E+02 5.50705E+01
 -1      2189 4.96860E+02-4.97285E+02 5.50705E+01
 -1      2190 5.27309E+02 6.53109E+02 4.97853E+01
 -1      2192 5.27309E+02 6.53109E+02 4.97853E+01
 -1      2193 5.50957E+02 1.86331E+03 4.47649E+01
 -1      2195 5.50957E+02 1.86331E+03 4.47649E+01
 -1      2196 5.68129E+02 3.11798E+03 4.02255E+01
 -1      2198 5.68129E+02 3.11798E+03 4.02255E+01
 -1      2199 5.79471E+02 4.40286E+03 3.63792E+01
 -1      2201 5.79471E+02 4.40286E+03 3.63792E+01
 -1      2202 5.85963E+02 5.70547E+03 3.34356E+01
 -1      2204 5.85963E+02 5.70547E+03 3.34356E+01
 -1      2205 5.88917E+02 7.01588E+03 3.15715E+01
 -1      2207 5.88917E+02 7.01588E+03 3.15715E+01
 -1      2208 7.69830E+01-1.55631E+02-7.72884E+00
 -1      2210 7.69830E+01-1.55631E+02-7.72884E+00
 -1      2211 1.44896E+02-4.28320E+02-1.64636E+01
 -1      2213 1.44896E+02-4.28320E+02-1.64636E+01
 -1      2214 1.98760E+02-8.35944E+02-2.51999E+01
 -1      2216 1.98760E+02-8.35944E+02-2.51999E+01
 -1      2217 2.38373E+02-1.34699E+03-3.36061E+01
 -1      2219 2.38373E+02-1.34699E+03-3.36061E+01
 -1      2220 2.64280E+02-1.93021E+03-4.17466E+01
 -1      2222 2.64280E+02-1.93021E+03-4.17466E+01
 -1      2223 2.76786E+02-2.55515E+03-4.94493E+01
 -1      2225 2.76786E+02-2.55515E+03-4.94493E+01
 -1      2226 2.76549E+02-3.19250E+03-5.66435E+01
 -1      2228 2.76549E+02-3.19250E+03-5.66435E+01
 -1      2229 2.64305E+02-3.81444E+03-6.32043E+01
 -1      2231 2.64305E+02-3.81444E+03-6.32043E+01
 -1      2232 2.40992E+02-4.39505E+03-6.90364E+01
 -1      2234 2.40992E+02-4.39505E+03-6.90364E+01
 -1      2235 2.07691E+02-4.91064E+03-7.40407E+01
 -1      2237 2.07691E+02-4.91064E+03-7.40407E+01
 -1      2238 1.65632E+02-5.34015E+03-7.81361E+01
 -1      2240 1.65632E+02-5.34015E+03-7.81361E+01
 -1      2241 1.16168E+02-5.66542E+03-8.12552E+01
 -1      2243 1.16168E+02-5.66542E+03-8.12552E+01
 -1      2244 6.07513E+01-5.87144E+03-8.33511E+01
 -1      2246 6.07513E+01-5.87144E+03-8.33511E+01
 -1      2247 9.02314E-01-5.94659E+03-8.43987E+01
 -1      2249 9.02314E-01-5.94659E+03-8.43987E+01
 -1      2250-6.18204E+01-5.88271E+03-8.43971E+01
 -1      2252-6.18204E+01-5.88271E+03-8.43971E+01
 -1      2253-1.25858E+02-5.67517E+03-8.33714E+01
 -1      2255-1.25858E+02-5.67517E+03-8.33714E+01
 -1      2256-1.89686E+02-5.32285E+03-8.13731E+01
 -1      2258-1.89686E+02-5.32285E+03-8.13731E+01
 -1      2259-2.51855E+02-4.82799E+03-7.84805E+01
 -1      2261-2.51855E+02-4.82799E+03-7.84805E+01
 -1      2262-3.11027E+02-4.19600E+03-7.47976E+01
 -1      2264-3.11027E+02-4.19600E+03-7.47976E+01
 -1      2265-3.66010E+02-3.43518E+03-7.04537E+01
 -1      2267-3.66010E+02-3.43518E+03-7.04537E+01
 -1      2268-4.15798E+02-2.55629E+03-6.56003E+01
 -1      2270-4.15798E+02-2.55629E+03-6.56003E+01
 -1      2271-4.59597E+02-1.57220E+03-6.04096E+01
 -1      2273-4.59597E+02-1.57220E+03-6.04096E+01
 -1      2274-4.96860E+02-4.97285E+02-5.50705E+01
 -1      2276-4.96860E+02-4.97285E+02-5.50705E+01
 -1      2277-5.27309E+02 6.53109E+02-4.97853E+01
 -1      2279-5.27309E+02 6.53109E+02-4.97853E+01
 -1      2280-5.50957E+02 1.86331E+03-4.47649E+01
 -1      2282-5.50957E+02 1.86331E+03-4.47649E+01
 -1      2283-5.68129E+02 3.11798E+03-4.02255E+01
 -1      2285-5.68129E+02 3.11798E+03-4.02255E+01
 -1      2286-5.79471E+02 4.40286E+03-3.63792E+01
 -1      2288-5.79471E+02 4.40286E+03-3.63792E+01
 -1      2289-5.85963E+02 5.70547E+03-3.34356E+01
 -1      2291-5.85963E+02 5.70547E+03-3.34356E+01
 -1      2292-5.88917E+02 7.01588E+03-3.15715E+01
 -1      2294-5.88917E+02 7.01588E+03-3.15715E+01
 -3
    1PSTEP                        12           1           1          
    1PGM                1.000000E+00                                  
    1PGK                2.462806E+05                                  
    1PHID                         -1                                  
    1PSUBC                         0                                  
    1PMODE                         3                                  
  100CL  103 78.98328519         930                     2    3MODAL      1
 -4  ERROR       1    1
 -5  STR(%)      1    1    0    0
 -1       404 0.00000E+00
 -1       406 0.00000E+00
 -1       407 0.00000E+00
 -1       409 0.00000E+00
 -1       410 0.00000E+00
 -1       412 0.00000E+00
 -1       413 0.00000E+00
 -1       415 0.00000E+00
 -1       424 0.00000E+00
 -1       426 0.00000E+00
 -1       427 0.00000E+00
 -1       429 0.00000E+00
 -1       438 0.00000E+00
 -1       440 0.00000E+00
 -1       441 0.00000E+00
 -1       443 0.00000E+00
 -1       444 0.00000E+00
 -1       446 0.00000E+00
 -1       447 0.00000E+00
 -1       449 0.00000E+00
 -1       458 0.00000E+00
 -1       460 0.00000E+00
 -1       461 0.00000E+00
 -1       463 0.00000E+00
 -1       472 0.00000E+00
 -1       474 0.00000E+00
 -1       475 0.00000E+00
 -1       477 0.00000E+00
 -1       478 0.00000E+00
 -1       480 0.00000E+00
 -1       481 0.00000E+00
 -1       483 0.00000E+00
 -1       484 0.00000E+00
 -1       486 0.00000E+00
 -1       487 0.00000E+00
 -1       489 0.00000E+00
 -1       490 0.00000E+00
 -1       492 0.00000E+00
 -1       493 0.00000E+00
 -1       495 0.00000E+00
 -1       496 0.00000E+00
 -1       498 0.00000E+00
 -1       499 0.00000E+00
 -1       501 0.00000E+00
 -1       502 0.00000E+00
 -1       504 0.00000E+00
 -1       505 0.00000E+00
 -1       507 0.00000E+00
 -1       508 0.00000E+00
 -1       510 0.00000E+00
 -1       511 0.00000E+00
 -1       513 0.00000E+00
 -1       514 0.00000E+00
 -1       516 0.00000E+00
 -1       517 0.00000E+00
 -1       519 0.00000E+00
 -1       520 0.00000E+00
 -1       522 0.00000E+00
 -1       523 0.00000E+00
 -1       525 0.00000E+00
 -1       526 0.00000E+00
 -1       528 0.00000E+00
 -1       529 0.00000E+00
 -1       531 0.00000E+00
 -1       532 0.00000E+00
 -1       534 0.00000E+00
 -1       535 0.00000E+00
 -1       537 0.00000E+00
 -1       538 0.00000E+00
 -1       540 0.00000E+00
 -1       541 0.00000E+00
 -1       543 0.00000E+00
 -1       544 0.00000E+00
 -1       546 0.00000E+00
 -1       547 0.00000E+00
 -1       549 0.00000E+00
 -1       550 0.00000E+00
 -1       552 0.00000E+00
 -1       553 0.00000E+00
 -1       555 0.00000E+00
 -1       556 0.00000E+00
 -1       558 0.00000E+00
 -1       559 0.00000E+00
 -1       561 0.00000E+00
 -1       562 0.00000E+00
 -1       564 0.00000E+00
 -1       565 0.00000E+00
 -1       567 0.00000E+00
 -1       568 0.00000E+00
 -1       570 0.00000E+00
 -1       571 0.00000E+00
 -1       573 0.00000E+00
 -1       574 0.00000E+00
 -1       576 0.00000E+00
 -1       577 0.00000E+00
 -1       579 0.00000E+00
 -1       588 0.00000E+00
 -1       590 0.00000E+00
 -1       591 0.00000E+00
 -1       593 0.00000E+00
 -1       602 0.00000E+00
 -1       604 0.00000E+00
 -1       605 0.00000E+00
 -1       607 0.00000E+00
 -1       616 0.00000E+00
 -1       618 0.00000E+00
 -1       619 0.00000E+00
 -1       621 0.00000E+00
 -1       630 0.00000E+00
 -1       632 0.00000E+00
 -1       633 0.00000E+00
 -1       635 0.00000E+00
 -1       644 0.00000E+00
 -1       646 0.00000E+00
 -1       647 0.00000E+00
 -1       649 0.00000E+00
 -1       658 0.00000E+00
 -1       660 0.00000E+00
 -1       661 0.00000E+00
 -1       663 0.00000E+00
 -1       672 0.00000E+00
 -1       674 0.00000E+00
 -1       675 0.00000E+00
 -1       677 0.00000E+00
 -1       686 0.00000E+00
 -1       688 0.00000E+00
 -1       689 0.00000E+00
 -1       691 0.00000E+00
 -1       700 0.00000E+00
 -1       702 0.00000E+00
 -1       703 0.00000E+00
 -1       705 0.00000E+00
 -1       714 0.00000E+00
 -1       716 0.00000E+00
 -1       717 0.00000E+00
 -1       719 0.00000E+00
 -1       728 0.00000E+00
 -1       730 0.00000E+00
 -1       731 0.00000E+00
 -1       733 0.00000E+00
 -1       742 0.00000E+00
 -1       744 0.00000E+00
 -1       745 0.00000E+00
 -1       747 0.00000E+00
 -1       756 0.00000E+00
 -1       758 0.00000E+00
 -1       759 0.00000E+00
 -1       761 0.00000E+00
 -1       770 0.00000E+00
 -1       772 0.00000E+00
 -1       773 0.00000E+00
 -1       775 0.00000E+00
 -1       784 0.00000E+00
 -1       786 0.00000E+00
 -1       787 0.00000E+00
 -1       789 0.00000E+00
 -1       798 0.00000E+00
 -1       800 0.00000E+00
 -1       801 0.00000E+00
 -1       803 0.00000E+00
 -1       812 0.00000E+00
 -1       814 0.00000E+00
 -1       815 0.00000E+00
 -1       817 0.00000E+00
 -1       826 0.00000E+00
 -1       828 0.00000E+00
 -1       829 0.00000E+00
 -1       831 0.00000E+00
 -1       840 0.00000E+00
 -1       842 0.00000E+00
 -1       843 0.00000E+00
 -1       845 0.00000E+00
 -1       854 0.00000E+00
 -1       856 0.00000E+00
 -1       857 0.00000E+00
 -1       859 0.00000E+00
 -1       868 0.00000E+00
 -1       870 0.00000E+00
 -1       871 0.00000E+00
 -1       873 0.00000E+00
 -1       882 0.00000E+00
 -1       884 0.00000E+00
 -1       885 0.00000E+00
 -1       887 0.00000E+00
 -1       896 0.00000E+00
 -1       898 0.00000E+00
 -1       899 0.00000E+00
 -1       901 0.00000E+00
 -1       910 0.00000E+00
 -1       912 0.00000E+00
 -1       913 0.00000E+00
 -1       915 0.00000E+00
 -1       924 0.00000E+00
 -1       926 0.00000E+00
 -1       927 0.00000E+00
 -1       929 0.00000E+00
 -1       938 0.00000E+00
 -1       940 0.00000E+00
 -1       941 0.00000E+00
 -1       943 0.00000E+00
 -1       952 0.00000E+00
 -1       954 0.00000E+00
 -1       955 0.00000E+00
 -1       957 0.00000E+00
 -1       966 0.00000E+00
 -1       968 0.00000E+00
 -1       969 0.00000E+00
 -1       971 0.00000E+00
 -1       980 0.00000E+00
 -1       982 0.00000E+00
 -1       983 0.00000E+00
 -1       985 0.00000E+00
 -1       986 0.00000E+00
 -1       988 0.00000E+00
 -1       989 0.00000E+00
 -1       991 0.00000E+00
 -1       992 0.00000E+00
 -1       994 0.00000E+00
 -1       995 0.00000E+00
 -1       997 0.00000E+00
 -1       998 0.00000E+00
 -1      1000 0.00000E+00
 -1      1001 0.00000E+00
 -1      1003 0.00000E+00
 -1      1004 0.00000E+00
 -1      1006 0.00000E+00
 -1      1007 0.00000E+00
 -1      1009 0.00000E+00
 -1      1010 0.00000E+00
 -1      1012 0.00000E+00
 -1      1013 0.00000E+00
 -1      1015 0.00000E+00
 -1      1016 0.00000E+00
 -1      1018 0.00000E+00
 -1      1019 0.00000E+00
 -1      1021 0.00000E+00
 -1      1022 0.00000E+00
 -1      1024 0.00000E+00
 -1      1025 0.00000E+00
 -1      1027 0.00000E+00
 -1      1028 0.00000E+00
 -1      1030 0.00000E+00
 -1      1031 0.00000E+00
 -1      1033 0.00000E+00
 -1      1034 0.00000E+00
 -1      1036 0.00000E+00
 -1      1037 0.00000E+00
 -1      1039 0.00000E+00
 -1      1040 0.00000E+00
 -1      1042 0.00000E+00
 -1      1043 0.00000E+00
 -1      1045 0.00000E+00
 -1      1046 0.00000E+00
 -1      1048 0.00000E+00
 -1      1049 0.00000E+00
 -1      1051 0.00000E+00
 -1      1052 0.00000E+00
 -1      1054 0.00000E+00
 -1      1055 0.00000E+00
 -1      1057 0.00000E+00
 -1      1058 0.00000E+00
 -1      1060 0.00000E+00
 -1      1061 0.00000E+00
 -1      1063 0.00000E+00
 -1      1064 0.00000E+00
 -1      1066 0.00000E+00
 -1      1067 0.00000E+00
 -1      1069 0.00000E+00
 -1      1070 0.00000E+00
 -1      1072 0.00000E+00
 -1      1073 0.00000E+00
 -1      1075 0.00000E+00
 -1      1076 0.00000E+00
 -1      1078 0.00000E+00
 -1      1079 0.00000E+00
 -1      1081 0.00000E+00
 -1      1082 0.00000E+00
 -1      1084 0.00000E+00
 -1      1085 0.00000E+00
 -1      1087 0.00000E+00
 -1      1088 0.00000E+00
 -1      1090 0.00000E+00
 -1      1099 0.00000E+00
 -1      1101 0.00000E+00
 -1      1102 0.00000E+00
 -1      1104 0.00000E+00
 -1      1113 0.00000E+00
 -1      1115 0.00000E+00
 -1      1116 0.00000E+00
 -1      1118 0.00000E+00
 -1      1127 0.00000E+00
 -1      1129 0.00000E+00
 -1      1130 0.00000E+00
 -1      1132 0.00000E+00
 -1      1141 0.00000E+00
 -1      1143 0.00000E+00
 -1      1144 0.00000E+00
 -1      1146 0.00000E+00
 -1      1155 0.00000E+00
 -1      1157 0.00000E+00
 -1      1158 0.00000E+00
 -1      1160 0.00000E+00
 -1      1169 0.00000E+00
 -1      1171 0.00000E+00
 -1      1172 0.00000E+00
 -1      1174 0.00000E+00
 -1      1183 0.00000E+00
 -1      1185 0.00000E+00
 -1      1186 0.00000E+00
 -1      1188 0.00000E+00
 -1      1197 0.00000E+00
 -1      1199 0.00000E+00
 -1      1200 0.00000E+00
 -1      1202 0.00000E+00
 -1      1211 0.00000E+00
 -1      1213 0.00000E+00
 -1      1214 0.00000E+00
 -1      1216 0.00000E+00
 -1      1225 0.00000E+00
 -1      1227 0.00000E+00
 -1      1228 0.00000E+00
 -1      1230 0.00000E+00
 -1      1239 0.00000E+00
 -1      1241 0.00000E+00
 -1      1242 0.00000E+00
 -1      1244 0.00000E+00
 -1      1253 0.00000E+00
 -1      1255 0.00000E+00
 -1      1256 0.00000E+00
 -1      1258 0.00000E+00
 -1      1267 0.00000E+00
 -1      1269 0.00000E+00
 -1      1270 0.00000E+00
 -1      1272 0.00000E+00
 -1      1281 0.00000E+00
 -1      1283 0.00000E+00
 -1      1284 0.00000E+00
 -1      1286 0.00000E+00
 -1      1295 0.00000E+00
 -1      1297 0.00000E+00
 -1      1298 0.00000E+00
 -1      1300 0.00000E+00
 -1      1309 0.00000E+00
 -1      1311 0.00000E+00
 -1      1312 0.00000E+00
 -1      1314 0.00000E+00
 -1      1323 0.00000E+00
 -1      1325 0.00000E+00
 -1      1326 0.00000E+00
 -1      1328 0.00000E+00
 -1      1337 0.00000E+00
 -1      1339 0.00000E+00
 -1      1340 0.00000E+00
 -1      1342 0.00000E+00
 -1      1351 0.00000E+00
 -1      1353 0.00000E+00
 -1      1354 0.00000E+00
 -1      1356 0.00000E+00
 -1      1365 0.00000E+00
 -1      1367 0.00000E+00
 -1      1368 0.00000E+00
 -1      1370 0.00000E+00
 -1      1379 0.00000E+00
 -1      1381 0.00000E+00
 -1      1382 0.00000E+00
 -1      1384 0.00000E+00
 -1      1393 0.00000E+00
 -1      1395 0.00000E+00
 -1      1396 0.00000E+00
 -1      1398 0.00000E+00
 -1      1407 0.00000E+00
 -1      1409 0.00000E+00
 -1      1410 0.00000E+00
 -1      1412 0.00000E+00
 -1      1421 0.00000E+00
 -1      1423 0.00000E+00
 -1      1424 0.00000E+00
 -1      1426 0.00000E+00
 -1      1435 0.00000E+00
 -1      1437 0.00000E+00
 -1      1438 0.00000E+00
 -1      1440 0.00000E+00
 -1      1449 0.00000E+00
 -1      1451 0.00000E+00
 -1      1452 0.00000E+00
 -1      1454 0.00000E+00
 -1      1463 0.00000E+00
 -1      1465 0.00000E+00
 -1      1466 0.00000E+00
 -1      1468 0.00000E+00
 -1      1477 0.00000E+00
 -1      1479 0.00000E+00
 -1      1480 0.00000E+00
 -1      1482 0.00000E+00
 -1      1491 0.00000E+00
 -1      1493 0.00000E+00
 -1      1494 0.00000E+00
 -1      1496 0.00000E+00
 -1      1497 0.00000E+00
 -1      1499 0.00000E+00
 -1      1500 0.00000E+00
 -1      1502 0.00000E+00
 -1      1503 0.00000E+00
 -1      1505 0.00000E+00
 -1      1506 0.00000E+00
 -1      1508 0.00000E+00
 -1      1509 0.00000E+00
 -1      1511 0.00000E+00
 -1      1512 0.00000E+00
 -1      1514 0.00000E+00
 -1      1515 0.00000E+00
 -1      1517 0.00000E+00
 -1      1518 0.00000E+00
 -1      1520 0.00000E+00
 -1      1521 0.00000E+00
 -1      1523 0.00000E+00
 -1      1524 0.00000E+00
 -1      1526 0.00000E+00
 -1      1527 0.00000E+00
 -1      1529 0.00000E+00
 -1      1530 0.00000E+00
 -1      1532 0.00000E+00
 -1      1533 0.00000E+00
 -1      1535 0.00000E+00
 -1      1536 0.00000E+00
 -1      1538 0.00000E+00
 -1      1539 0.00000E+00
 -1      1541 0.00000E+00
 -1      1542 0.00000E+00
 -1      1544 0.00000E+00
 -1      1545 0.00000E+00
 -1      1547 0.00000E+00
 -1      1548 0.00000E+00
 -1      1550 0.00000E+00
 -1      1551 0.00000E+00
 -1      1553 0.00000E+00
 -1      1554 0.00000E+00
 -1      1556 0.00000E+00
 -1      1557 0.00000E+00
 -1      1559 0.00000E+00
 -1      1560 0.00000E+00
 -1      1562 0.00000E+00
 -1      1563 0.00000E+00
 -1      1565 0.00000E+00
 -1      1566 0.00000E+00
 -1      1568 0.00000E+00
 -1      1569 0.00000E+00
 -1      1571 0.00000E+00
 -1      1572 0.00000E+00
 -1      1574 0.00000E+00
 -1      1575 0.00000E+00
 -1      1577 0.00000E+00
 -1      1578 0.00000E+00
 -1      1580 0.00000E+00
 -1      1581 0.00000E+00
 -1      1583 0.00000E+00
 -1      1584 0.00000E+00
 -1      1586 0.00000E+00
 -1      1587 0.00000E+00
 -1      1589 0.00000E+00
 -1      1590 0.00000E+00
 -1      1592 0.00000E+00
 -1      1593 0.00000E+00
 -1      1595 0.00000E+00
 -1      1596 0.00000E+00
 -1      1598 0.00000E+00
 -1      1599 0.00000E+00
 -1      1601 0.00000E+00
 -1      1602 0.00000E+00
 -1      1604 0.00000E+00
 -1      1605 0.00000E+00
 -1      1607 0.00000E+00
 -1      1608 0.00000E+00
 -1      1610 0.00000E+00
 -1      1611 0.00000E+00
 -1      1613 0.00000E+00
 -1      1614 0.00000E+00
 -1      1616 0.00000E+00
 -1      1617 0.00000E+00
 -1      1619 0.00000E+00
 -1      1620 0.00000E+00
 -1      1622 0.00000E+00
 -1      1623 0.00000E+00
 -1      1625 0.00000E+00
 -1      1626 0.00000E+00
 -1      1628 0.00000E+00
 -1      1629 0.00000E+00
 -1      1631 0.00000E+00
 -1      1632 0.00000E+00
 -1      1634 0.00000E+00
 -1      1635 0.00000E+00
 -1      1637 0.00000E+00
 -1      1638 0.00000E+00
 -1      1640 0.00000E+00
 -1      1641 0.00000E+00
 -1      1643 0.00000E+00
 -1      1644 0.00000E+00
 -1      1646 0.00000E+00
 -1      1647 0.00000E+00
 -1      1649 0.00000E+00
 -1      1650 0.00000E+00
 -1      1652 0.00000E+00
 -1      1653 0.00000E+00
 -1      1655 0.00000E+00
 -1      1656 0.00000E+00
 -1      1658 0.00000E+00
 -1      1659 0.00000E+00
 -1      1661 0.00000E+00
 -1      1662 0.00000E+00
 -1      1664 0.00000E+00
 -1      1665 0.00000E+00
 -1      1667 0.00000E+00
 -1      1668 0.00000E+00
 -1      1670 0.00000E+00
 -1      1671 0.00000E+00
 -1      1673 0.00000E+00
 -1      1674 0.00000E+00
 -1      1676 0.00000E+00
 -1      1677 0.00000E+00
 -1      1679 0.00000E+00
 -1      1680 0.00000E+00
 -1      1682 0.00000E+00
 -1      1683 0.00000E+00
 -1      1685 0.00000E+00
 -1      1686 0.00000E+00
 -1      1688 0.00000E+00
 -1      1689 0.00000E+00
 -1      1691 0.00000E+00
 -1      1692 0.00000E+00
 -1      1694 0.00000E+00
 -1      1695 0.00000E+00
 -1      1697 0.00000E+00
 -1      1698 0.00000E+00
 -1      1700 0.00000E+00
 -1      1701 0.00000E+00
 -1      1703 0.00000E+00
 -1      1704 0.00000E+00
 -1      1706 0.00000E+00
 -1      1707 0.00000E+00
 -1      1709 0.00000E+00
 -1      1710 0.00000E+00
 -1      1712 0.00000E+00
 -1      1713 0.00000E+00
 -1      1715 0.00000E+00
 -1      1716 0.00000E+00
 -1      1718 0.00000E+00
 -1      1719 0.00000E+00
 -1      1721 0.00000E+00
 -1      1722 0.00000E+00
 -1      1724 0.00000E+00
 -1      1725 0.00000E+00
 -1      1727 0.00000E+00
 -1      1728 0.00000E+00
 -1      1730 0.00000E+00
 -1      1731 0.00000E+00
 -1      1733 0.00000E+00
 -1      1734 0.00000E+00
 -1      1736 0.00000E+00
 -1      1737 0.00000E+00
 -1      1739 0.00000E+00
 -1      1740 0.00000E+00
 -1      1742 0.00000E+00
 -1      1743 0.00000E+00
 -1      1745 0.00000E+00
 -1      1746 0.00000E+00
 -1      1748 0.00000E+00
 -1      1749 0.00000E+00
 -1      1751 0.00000E+00
 -1      1752 0.00000E+00
 -1      1754 0.00000E+00
 -1      1755 0.00000E+00
 -1      1757 0.00000E+00
 -1      1758 0.00000E+00
 -1      1760 0.00000E+00
 -1      1761 0.00000E+00
 -1      1763 0.00000E+00
 -1      1764 0.00000E+00
 -1      1766 0.00000E+00
 -1      1767 0.00000E+00
 -1      1769 0.00000E+00
 -1      1770 0.00000E+00
 -1      1772 0.00000E+00
 -1      1773 0.00000E+00
 -1      1775 0.00000E+00
 -1      1776 0.00000E+00
 -1      1778 0.00000E+00
 -1      1779 0.00000E+00
 -1      1781 0.00000E+00
 -1      1782 0.00000E+00
 -1      1784 0.00000E+00
 -1      1785 0.00000E+00
 -1      1787 0.00000E+00
 -1      1788 0.00000E+00
 -1      1790 0.00000E+00
 -1      1791 0.00000E+00
 -1      1793 0.00000E+00
 -1      1794 0.00000E+00
 -1      1796 0.00000E+00
 -1      1797 0.00000E+00
 -1      1799 0.00000E+00
 -1      1800 0.00000E+00
 -1      1802 0.00000E+00
 -1      1803 0.00000E+00
 -1      1805 0.00000E+00
 -1      1806 0.00000E+00
 -1      1808 0.00000E+00
 -1      1809 0.00000E+00
 -1      1811 0.00000E+00
 -1      1812 0.00000E+00
 -1      1814 0.00000E+00
 -1      1815 0.00000E+00
 -1      1817 0.00000E+00
 -1      1818 0.00000E+00
 -1      1820 0.00000E+00
 -1      1821 0.00000E+00
 -1      1823 0.00000E+00
 -1      1824 0.00000E+00
 -1      1826 0.00000E+00
 -1      1827 0.00000E+00
 -1      1829 0.00000E+00
 -1      1830 0.00000E+00
 -1      1832 0.00000E+00
 -1      1833 0.00000E+00
 -1      1835 0.00000E+00
 -1      1836 0.00000E+00
 -1      1838 0.00000E+00
 -1      1839 0.00000E+00
 -1      1841 0.00000E+00
 -1      1842 0.00000E+00
 -1      1844 0.00000E+00
 -1      1845 0.00000E+00
 -1      1847 0.00000E+00
 -1      1848 0.00000E+00
 -1      1850 0.00000E+00
 -1      1851 0.00000E+00
 -1      1853 0.00000E+00
 -1      1854 0.00000E+00
 -1      1856 0.00000E+00
 -1      1857 0.00000E+00
 -1      1859 0.00000E+00
 -1      1860 0.00000E+00
 -1      1862 0.00000E+00
 -1      1863 0.00000E+00
 -1      1865 0.00000E+00
 -1      1866 0.00000E+00
 -1      1868 0.00000E+00
 -1      1869 0.00000E+00
 -1      1871 0.00000E+00
 -1      1872 0.00000E+00
 -1      1874 0.00000E+00
 -1      1875 0.00000E+00
 -1      1877 0.00000E+00
 -1      1878 0.00000E+00
 -1      1880 0.00000E+00
 -1      1881 0.00000E+00
 -1      1883 0.00000E+00
 -1      1884 0.00000E+00
 -1      1886 0.00000E+00
 -1      1887 0.00000E+00
 -1      1889 0.00000E+00
 -1      1890 0.00000E+00
 -1      1892 0.00000E+00
 -1      1893 0.00000E+00
 -1      1895 0.00000E+00
 -1      1896 0.00000E+00
 -1      1898 0.00000E+00
 -1      1899 0.00000E+00
 -1      1901 0.00000E+00
 -1      1902 0.00000E+00
 -1      1904 0.00000E+00
 -1      1905 0.00000E+00
 -1      1907 0.00000E+00
 -1      1908 0.00000E+00
 -1      1910 0.00000E+00
 -1      1911 0.00000E+00
 -1      1913 0.00000E+00
 -1      1914 0.00000E+00
 -1      1916 0.00000E+00
 -1      1917 0.00000E+00
 -1      1919 0.00000E+00
 -1      1920 0.00000E+00
 -1      1922 0.00000E+00
 -1      1923 0.00000E+00
 -1      1925 0.00000E+00
 -1      1926 0.00000E+00
 -1      1928 0.00000E+00
 -1      1929 0.00000E+00
 -1      1931 0.00000E+00
 -1      1932 0.00000E+00
 -1      1934 0.00000E+00
 -1      1935 0.00000E+00
 -1      1937 0.00000E+00
 -1      1938 0.00000E+00
 -1      1940 0.00000E+00
 -1      1941 0.00000E+00
 -1      1943 0.00000E+00
 -1      1944 0.00000E+00
 -1      1946 0.00000E+00
 -1      1947 0.00000E+00
 -1      1949 0.00000E+00
 -1      1950 0.00000E+00
 -1      1952 0.00000E+00
 -1      1953 0.00000E+00
 -1      1955 0.00000E+00
 -1      1956 0.00000E+00
 -1      1958 0.00000E+00
 -1      1959 0.00000E+00
 -1      1961 0.00000E+00
 -1      1962 0.00000E+00
 -1      1964 0.00000E+00
 -1      1965 0.00000E+00
 -1      1967 0.00000E+00
 -1      1968 0.00000E+00
 -1      1970 0.00000E+00
 -1      1971 0.00000E+00
 -1      1973 0.00000E+00
 -1      1974 0.00000E+00
 -1      1976 0.00000E+00
 -1      1977 0.00000E+00
 -1      1979 0.00000E+00
 -1      1980 0.00000E+00
 -1      1982 0.00000E+00
 -1      1983 0.00000E+00
 -1      1985 0.00000E+00
 -1      1986 0.00000E+00
 -1      1988 0.00000E+00
 -1      1989 0.00000E+00
 -1      1991 0.00000E+00
 -1      1992 0.00000E+00
 -1      1994 0.00000E+00
 -1      1995 0.00000E+00
 -1      1997 0.00000E+00
 -1      1998 0.00000E+00
 -1      2000 0.00000E+00
 -1      2001 0.00000E+00
 -1      2003 0.00000E+00
 -1      2004 0.00000E+00
 -1      2006 0.00000E+00
 -1      2007 0.00000E+00
 -1      2009 0.00000E+00
 -1      2010 0.00000E+00
 -1      2012 0.00000E+00
 -1      2013 0.00000E+00
 -1      2015 0.00000E+00
 -1      2016 0.00000E+00
 -1      2018 0.00000E+00
 -1      2019 0.00000E+00
 -1      2021 0.00000E+00
 -1      2022 0.00000E+00
 -1      2024 0.00000E+00
 -1      2025 0.00000E+00
 -1      2027 0.00000E+00
 -1      2028 0.00000E+00
 -1      2030 0.00000E+00
 -1      2031 0.00000E+00
 -1      2033 0.00000E+00
 -1      2034 0.00000E+00
 -1      2036 0.00000E+00
 -1      2037 0.00000E+00
 -1      2039 0.00000E+00
 -1      2040 0.00000E+00
 -1      2042 0.00000E+00
 -1      2043 0.00000E+00
 -1      2045 0.00000E+00
 -1      2046 0.00000E+00
 -1      2048 0.00000E+00
 -1      2049 0.00000E+00
 -1      2051 0.00000E+00
 -1      2052 0.00000E+00
 -1      2054 0.00000E+00
 -1      2055 0.00000E+00
 -1      2057 0.00000E+00
 -1      2058 0.00000E+00
 -1      2060 0.00000E+00
 -1      2061 0.00000E+00
 -1      2063 0.00000E+00
 -1      2064 0.00000E+00
 -1      2066 0.00000E+00
 -1      2067 0.00000E+00
 -1      2069 0.00000E+00
 -1      2070 0.00000E+00
 -1      2072 0.00000E+00
 -1      2073 0.00000E+00
 -1      2075 0.00000E+00
 -1      2076 0.00000E+00
 -1      2078 0.00000E+00
 -1      2079 0.00000E+00
 -1      2081 0.00000E+00
 -1      2082 0.00000E+00
 -1      2084 0.00000E+00
 -1      2085 0.00000E+00
 -1      2087 0.00000E+00
 -1      2088 0.00000E+00
 -1      2090 0.00000E+00
 -1      2091 0.00000E+00
 -1      2093 0.00000E+00
 -1      2094 0.00000E+00
 -1      2096 0.00000E+00
 -1      2097 0.00000E+00
 -1      2099 0.00000E+00
 -1      2100 0.00000E+00
 -1      2102 0.00000E+00
 -1      2103 0.00000E+00
 -1      2105 0.00000E+00
 -1      2106 0.00000E+00
 -1      2108 0.00000E+00
 -1      2109 0.00000E+00
 -1      2111 0.00000E+00
 -1      2112 0.00000E+00
 -1      2114 0.00000E+00
 -1      2115 0.00000E+00
 -1      2117 0.00000E+00
 -1      2118 0.00000E+00
 -1      2120 0.00000E+00
 -1      2121 0.00000E+00
 -1      2123 0.00000E+00
 -1      2124 0.00000E+00
 -1      2126 0.00000E+00
 -1      2127 0.00000E+00
 -1      2129 0.00000E+00
 -1      2130 0.00000E+00
 -1      2132 0.00000E+00
 -1      2133 0.00000E+00
 -1      2135 0.00000E+00
 -1      2136 0.00000E+00
 -1      2138 0.00000E+00
 -1      2139 0.00000E+00
 -1      2141 0.00000E+00
 -1      2142 0.00000E+00
 -1      2144 0.00000E+00
 -1      2145 0.00000E+00
 -1      2147 0.00000E+00
 -1      2148 0.00000E+00
 -1      2150 0.00000E+00
 -1      2151 0.00000E+00
 -1      2153 0.00000E+00
 -1      2154 0.00000E+00
 -1      2156 0.00000E+00
 -1      2157 0.00000E+00
 -1      2159 0.00000E+00
 -1      2160 0.00000E+00
 -1      2162 0.00000E+00
 -1      2163 0.00000E+00
 -1      2165 0.00000E+00
 -1      2166 0.00000E+00
 -1      2168 0.00000E+00
 -1      2169 0.00000E+00
 -1      2171 0.00000E+00
 -1      2172 0.00000E+00
 -1      2174 0.00000E+00
 -1      2175 0.00000E+00
 -1      2177 0.00000E+00
 -1      2178 0.00000E+00
 -1      2180 0.00000E+00
 -1      2181 0.00000E+00
 -1      2183 0.00000E+00
 -1      2184 0.00000E+00
 -1      2186 0.00000E+00
 -1      2187 0.00000E+00
 -1      2189 0.00000E+00
 -1      2190 0.00000E+00
 -1      2192 0.00000E+00
 -1      2193 0.00000E+00
 -1      2195 0.00000E+00
 -1      2196 0.00000E+00
 -1      2198 0.00000E+00
 -1      2199 0.00000E+00
 -1      2201 0.00000E+00
 -1      2202 0.00000E+00
 -1      2204 0.00000E+00
 -1      2205 0.00000E+00
 -1      2207 0.00000E+00
 -1      2208 0.00000E+00
 -1      2210 0.00000E+00
 -1      2211 0.00000E+00
 -1      2213 0.00000E+00
 -1      2214 0.00000E+00
 -1      2216 0.00000E+00
 -1      2217 0.00000E+00
 -1      2219 0.00000E+00
 -1      2220 0.00000E+00
 -1      2222 0.00000E+00
 -1      2223 0.00000E+00
 -1      2225 0.00000E+00
 -1      2226 0.00000E+00
 -1      2228 0.00000E+00
 -1      2229 0.00000E+00
 -1      2231 0.00000E+00
 -1      2232 0.00000E+00
 -1      2234 0.00000E+00
 -1      2235 0.00000E+00
 -1      2237 0.00000E+00
 -1      2238 0.00000E+00
 -1      2240 0.00000E+00
 -1      2241 0.00000E+00
 -1      2243 0.00000E+00
 -1      2244 0.00000E+00
 -1      2246 0.00000E+00
 -1      2247 0.00000E+00
 -1      2249 0.00000E+00
 -1      2250 0.00000E+00
 -1      2252 0.00000E+00
 -1      2253 0.00000E+00
 -1      2255 0.00000E+00
 -1      2256 0.00000E+00
 -1      2258 0.00000E+00
 -1      2259 0.00000E+00
 -1      2261 0.00000E+00
 -1      2262 0.00000E+00
 -1      2264 0.00000E+00
 -1      2265 0.00000E+00
 -1      2267 0.00000E+00
 -1      2268 0.00000E+00
 -1      2270 0.00000E+00
 -1      2271 0.00000E+00
 -1      2273 0.00000E+00
 -1      2274 0.00000E+00
 -1      2276 0.00000E+00
 -1      2277 0.00000E+00
 -1      2279 0.00000E+00
 -1      2280 0.00000E+00
 -1      2282 0.00000E+00
 -1      2283 0.00000E+00
 -1      2285 0.00000E+00
 -1      2286 0.00000E+00
 -1      2288 0.00000E+00
 -1      2289 0.00000E+00
 -1      2291 0.00000E+00
 -1      2292 0.00000E+00
 -1      2294 0.00000E+00
 -3
    1PSTEP                        13           1           1          
    1PGM                1.000000E+00                                  
    1PGK                2.589949E+05                                  
    1PHID                         -1                                  
    1PSUBC                         0                                  
    1PMODE                         4                                  
  100CL  104 80.99639828         930                     2    4MODAL      1
 -4  DISP        4    1
 -5  D1          1    2    1    0
 -5  D2          1    2    2    0
 -5  D3          1    2    3    0
 -5  ALL         1    2    0    0    1ALL
 -1       404 0.00000E+00 0.00000E+00 5.91077E-05
 -1       406 0.00000E+00-0.00000E+00-5.91077E-05
 -1       407 1.07895E-03-1.28253E-01-5.07197E-02
 -1       409 1.08476E-03-1.20813E-01-5.07264E-02
 -1       410-1.77515E-14-1.28425E-01-1.78508E-13
 -1       412-1.59520E-14-1.20512E-01-1.79143E-13
 -1       413-4.05982E-05-1.24468E-01 2.52033E-03
 -1       415 4.05982E-05-1.24468E-01-2.52033E-03
 -1       424 0.00000E+00 0.00000E+00 6.97294E-18
 -1       426 0.00000E+00 0.00000E+00-6.97294E-18
 -1       427 0.00000E+00 4.44202E-18 0.00000E+00
 -1       429 0.00000E+00-4.44202E-18 0.00000E+00
 -1       438-1.07895E-03-1.28253E-01 5.07197E-02
 -1       440-1.08476E-03-1.20813E-01 5.07264E-02
 -1       441 0.00000E+00 0.00000E+00-5.91077E-05
 -1       443 0.00000E+00-0.00000E+00 5.91077E-05
 -1       444 0.00000E+00 1.16141E-17 0.00000E+00
 -1       446 0.00000E+00-1.16141E-17 0.00000E+00
 -1       447 0.00000E+00 0.00000E+00-1.82315E-17
 -1       449 0.00000E+00 0.00000E+00 1.82315E-17
 -1       458 4.05982E-05 1.24468E-01 2.52033E-03
 -1       460-4.05982E-05 1.24468E-01-2.52033E-03
 -1       461 1.95860E-14 1.28425E-01-1.77706E-13
 -1       463 1.85536E-14 1.20512E-01-1.76760E-13
 -1       472 0.00000E+00 0.00000E+00-5.91077E-05
 -1       474 0.00000E+00 0.00000E+00 5.91077E-05
 -1       475 1.07895E-03 1.28253E-01 5.07197E-02
 -1       477 1.08476E-03 1.20813E-01 5.07264E-02
 -1       478-1.07895E-03 1.28253E-01-5.07197E-02
 -1       480-1.08476E-03 1.20813E-01-5.07264E-02
 -1       481 0.00000E+00 0.00000E+00 5.91077E-05
 -1       483 0.00000E+00 0.00000E+00-5.91077E-05
 -1       484 1.71864E-03-1.92343E-03-1.57363E-03
 -1       486 2.10765E-03-1.62627E-03-1.62013E-03
 -1       487 3.07696E-03-5.13484E-03-3.78525E-03
 -1       489 3.29181E-03-4.50843E-03-3.82856E-03
 -1       490 3.94883E-03-9.63315E-03-5.81596E-03
 -1       492 4.26446E-03-8.67940E-03-5.84802E-03
 -1       493 4.58154E-03-1.48559E-02-8.06721E-03
 -1       495 4.86651E-03-1.35661E-02-8.08144E-03
 -1       496 4.97647E-03-2.06362E-02-1.03218E-02
 -1       498 5.29034E-03-1.90124E-02-1.03394E-02
 -1       499 5.23587E-03-2.67386E-02-1.26738E-02
 -1       501 5.54728E-03-2.47759E-02-1.26765E-02
 -1       502 5.37116E-03-3.30503E-02-1.50427E-02
 -1       504 5.69086E-03-3.07469E-02-1.50501E-02
 -1       505 5.42761E-03-3.94482E-02-1.74469E-02
 -1       507 5.74714E-03-3.68024E-02-1.74443E-02
 -1       508 5.41505E-03-4.58632E-02-1.98452E-02
 -1       510 5.73468E-03-4.28743E-02-1.98461E-02
 -1       511 5.35412E-03-5.22242E-02-2.22366E-02
 -1       513 5.67062E-03-4.88943E-02-2.22312E-02
 -1       514 5.25119E-03-5.84862E-02-2.45946E-02
 -1       516 5.56295E-03-5.48180E-02-2.45914E-02
 -1       517 5.11631E-03-6.46043E-02-2.69130E-02
 -1       519 5.42143E-03-6.06038E-02-2.69057E-02
 -1       520 4.95320E-03-7.05468E-02-2.91725E-02
 -1       522 5.24998E-03-6.62205E-02-2.91666E-02
 -1       523 4.76724E-03-7.62825E-02-3.13662E-02
 -1       525 5.05422E-03-7.16399E-02-3.13575E-02
 -1       526 4.56067E-03-8.17875E-02-3.34791E-02
 -1       528 4.83641E-03-7.68389E-02-3.34712E-02
 -1       529 4.33677E-03-8.70385E-02-3.55045E-02
 -1       531 4.60006E-03-8.17965E-02-3.54947E-02
 -1       532 4.09719E-03-9.20169E-02-3.74308E-02
 -1       534 4.34684E-03-8.64948E-02-3.74214E-02
 -1       535 3.84435E-03-9.67047E-02-3.92519E-02
 -1       537 4.07937E-03-9.09177E-02-3.92411E-02
 -1       538 3.57993E-03-1.01087E-01-4.09586E-02
 -1       540 3.79936E-03-9.50516E-02-4.09482E-02
 -1       541 3.30620E-03-1.05152E-01-4.25460E-02
 -1       543 3.50923E-03-9.88845E-02-4.25344E-02
 -1       544 3.02548E-03-1.08888E-01-4.40064E-02
 -1       546 3.21134E-03-1.02408E-01-4.39955E-02
 -1       547 2.74040E-03-1.12289E-01-4.53365E-02
 -1       549 2.90850E-03-1.05614E-01-4.53245E-02
 -1       550 2.45490E-03-1.15350E-01-4.65295E-02
 -1       552 2.60459E-03-1.08501E-01-4.65187E-02
 -1       553 2.17226E-03-1.18069E-01-4.75841E-02
 -1       555 2.30321E-03-1.11068E-01-4.75721E-02
 -1       556 1.90078E-03-1.20457E-01-4.84930E-02
 -1       558 2.01216E-03-1.13325E-01-4.84832E-02
 -1       559 1.64281E-03-1.22519E-01-4.92576E-02
 -1       561 1.73493E-03-1.15279E-01-4.92466E-02
 -1       562 1.41931E-03-1.24285E-01-4.98673E-02
 -1       564 1.49010E-03-1.16961E-01-4.98598E-02
 -1       565 1.22571E-03-1.25785E-01-5.03256E-02
 -1       567 1.27726E-03-1.18403E-01-5.03181E-02
 -1       568 1.10760E-03-1.27060E-01-5.06118E-02
 -1       570 1.13276E-03-1.19638E-01-5.06069E-02
 -1       571 5.40091E-04-1.28295E-01-2.57579E-02
 -1       573 5.44206E-04-1.20752E-01-2.57492E-02
 -1       574-3.24650E-16-1.54790E-03 5.14669E-16
 -1       576-4.16077E-16-1.40097E-03 5.64329E-16
 -1       577-1.20149E-04-1.47444E-03 4.67990E-05
 -1       579 1.20149E-04-1.47444E-03-4.67990E-05
 -1       588-9.07543E-16-4.93342E-03 1.11507E-15
 -1       590-9.10447E-16-4.51304E-03 1.10190E-15
 -1       591-1.57649E-04-4.72323E-03 1.33896E-04
 -1       593 1.57649E-04-4.72323E-03-1.33896E-04
 -1       602-1.57972E-15-9.40428E-03 1.15695E-15
 -1       604-1.54365E-15-8.69258E-03 1.23697E-15
 -1       605-2.07427E-04-9.04843E-03 2.26689E-04
 -1       607 2.07427E-04-9.04843E-03-2.26689E-04
 -1       616-2.34520E-15-1.46777E-02 9.49894E-16
 -1       618-2.26483E-15-1.36294E-02 9.68711E-16
 -1       619-2.26906E-04-1.41536E-02 3.33908E-04
 -1       621 2.26906E-04-1.41536E-02-3.33908E-04
 -1       630-3.22955E-15-2.04848E-02 7.66214E-17
 -1       632-3.05362E-15-1.90754E-02 1.80118E-16
 -1       633-2.49718E-04-1.97801E-02 4.48923E-04
 -1       635 2.49718E-04-1.97801E-02-4.48923E-04
 -1       644-4.13387E-15-2.66277E-02-1.26490E-15
 -1       646-3.89790E-15-2.48429E-02-1.29555E-15
 -1       647-2.56421E-04-2.57353E-02 5.68495E-04
 -1       649 2.56421E-04-2.57353E-02-5.68495E-04
 -1       658-5.15304E-15-3.29713E-02-3.57491E-15
 -1       660-4.74443E-15-3.07986E-02-3.39868E-15
 -1       661-2.65204E-04-3.18850E-02 6.92047E-04
 -1       663 2.65204E-04-3.18850E-02-6.92047E-04
 -1       672-6.07286E-15-3.94049E-02-6.31731E-15
 -1       674-5.65214E-15-3.68432E-02-6.32535E-15
 -1       675-2.64852E-04-3.81240E-02 8.15964E-04
 -1       677 2.64852E-04-3.81240E-02-8.15964E-04
 -1       686-7.12059E-15-4.58491E-02-9.56960E-15
 -1       688-6.67002E-15-4.28960E-02-9.48460E-15
 -1       689-2.65484E-04-4.43726E-02 9.40605E-04
 -1       691 2.65484E-04-4.43726E-02-9.40605E-04
 -1       700-8.17532E-15-5.22397E-02-1.33719E-14
 -1       702-7.57987E-15-4.89010E-02-1.34609E-14
 -1       703-2.60965E-04-5.05704E-02 1.06345E-03
 -1       705 2.60965E-04-5.05704E-02-1.06345E-03
 -1       714-9.24494E-15-5.85265E-02-1.83468E-14
 -1       716-8.55104E-15-5.48069E-02-1.78326E-14
 -1       717-2.56613E-04-5.66667E-02 1.18478E-03
 -1       719 2.56613E-04-5.66667E-02-1.18478E-03
 -1       728-1.02640E-14-6.46686E-02-2.35698E-14
 -1       730-9.43078E-15-6.05779E-02-2.37534E-14
 -1       731-2.49298E-04-6.26232E-02 1.30295E-03
 -1       733 2.49298E-04-6.26232E-02-1.30295E-03
 -1       742-1.11608E-14-7.06315E-02-2.97309E-14
 -1       744-1.03121E-14-6.61795E-02-2.94578E-14
 -1       745-2.41686E-04-6.84055E-02 1.41807E-03
 -1       747 2.41686E-04-6.84055E-02-1.41807E-03
 -1       756-1.20702E-14-7.63864E-02-3.56385E-14
 -1       758-1.12332E-14-7.15861E-02-3.54574E-14
 -1       759-2.32288E-04-7.39863E-02 1.52900E-03
 -1       761 2.32288E-04-7.39863E-02-1.52900E-03
 -1       770-1.29548E-14-8.19081E-02-4.17127E-14
 -1       772-1.20920E-14-7.67726E-02-4.16581E-14
 -1       773-2.22368E-04-7.93404E-02 1.63574E-03
 -1       775 2.22368E-04-7.93404E-02-1.63574E-03
 -1       784-1.40277E-14-8.71744E-02-4.89683E-14
 -1       786-1.28015E-14-8.17196E-02-4.89118E-14
 -1       787-2.11334E-04-8.44470E-02 1.73746E-03
 -1       789 2.11334E-04-8.44470E-02-1.73746E-03
 -1       798-1.47002E-14-9.21661E-02-5.66349E-14
 -1       800-1.37840E-14-8.64078E-02-5.65870E-14
 -1       801-1.99669E-04-8.92870E-02 1.83413E-03
 -1       803 1.99669E-04-8.92870E-02-1.83413E-03
 -1       812-1.57043E-14-9.68660E-02-6.51745E-14
 -1       814-1.43377E-14-9.08222E-02-6.51102E-14
 -1       815-1.87361E-04-9.38441E-02 1.92506E-03
 -1       817 1.87361E-04-9.38441E-02-1.92506E-03
 -1       826-1.63528E-14-1.01259E-01-7.54397E-14
 -1       828-1.48306E-14-9.49478E-02-7.57276E-14
 -1       829-1.74340E-04-9.81035E-02 2.01029E-03
 -1       831 1.74340E-04-9.81035E-02-2.01029E-03
 -1       840-1.65171E-14-1.05333E-01-8.54429E-14
 -1       842-1.54781E-14-9.87740E-02-8.54690E-14
 -1       843-1.61148E-04-1.02054E-01 2.08917E-03
 -1       845 1.61148E-04-1.02054E-01-2.08917E-03
 -1       854-1.70363E-14-1.09077E-01-9.51414E-14
 -1       856-1.55245E-14-1.02290E-01-9.51248E-14
 -1       857-1.47101E-04-1.05684E-01 2.16191E-03
 -1       859 1.47101E-04-1.05684E-01-2.16191E-03
 -1       868-1.71366E-14-1.12485E-01-1.04895E-13
 -1       870-1.59793E-14-1.05491E-01-1.04919E-13
 -1       871-1.33565E-04-1.08988E-01 2.22782E-03
 -1       873 1.33565E-04-1.08988E-01-2.22782E-03
 -1       882-1.73190E-14-1.15552E-01-1.14322E-13
 -1       884-1.61239E-14-1.08370E-01-1.14049E-13
 -1       885-1.18854E-04-1.11961E-01 2.28740E-03
 -1       887 1.18854E-04-1.11961E-01-2.28740E-03
 -1       896-1.77077E-14-1.18278E-01-1.24413E-13
 -1       898-1.60535E-14-1.10932E-01-1.24546E-13
 -1       899-1.05819E-04-1.14605E-01 2.33985E-03
 -1       901 1.05819E-04-1.14605E-01-2.33985E-03
 -1       910-1.74505E-14-1.20670E-01-1.34531E-13
 -1       912-1.62353E-14-1.13178E-01-1.34542E-13
 -1       913-9.09912E-05-1.16924E-01 2.38615E-03
 -1       915 9.09912E-05-1.16924E-01-2.38615E-03
 -1       924-1.72646E-14-1.22738E-01-1.42529E-13
 -1       926-1.62698E-14-1.15124E-01-1.42615E-13
 -1       927-7.97109E-05-1.18931E-01 2.42523E-03
 -1       929 7.97109E-05-1.18931E-01-2.42523E-03
 -1       938-1.74396E-14-1.24512E-01-1.51193E-13
 -1       940-1.60256E-14-1.16793E-01-1.51176E-13
 -1       941-6.62386E-05-1.20653E-01 2.45890E-03
 -1       943 6.62386E-05-1.20653E-01-2.45890E-03
 -1       952-1.72507E-14-1.26006E-01-1.59958E-13
 -1       954-1.62405E-14-1.18203E-01-1.59322E-13
 -1       955-5.75014E-05-1.22104E-01 2.48531E-03
 -1       957 5.75014E-05-1.22104E-01-2.48531E-03
 -1       966-1.75136E-14-1.27325E-01-1.67965E-13
 -1       968-1.61915E-14-1.19453E-01-1.68502E-13
 -1       969-5.12824E-05-1.23389E-01 2.50741E-03
 -1       971 5.12824E-05-1.23389E-01-2.50741E-03
 -1       980 0.00000E+00 0.00000E+00 2.43106E-05
 -1       982 0.00000E+00-0.00000E+00-2.43106E-05
 -1       983-5.40091E-04-1.28295E-01 2.57579E-02
 -1       985-5.44206E-04-1.20752E-01 2.57492E-02
 -1       986-1.71864E-03-1.92343E-03 1.57363E-03
 -1       988-2.10765E-03-1.62627E-03 1.62013E-03
 -1       989-3.07696E-03-5.13484E-03 3.78525E-03
 -1       991-3.29181E-03-4.50843E-03 3.82856E-03
 -1       992-3.94883E-03-9.63315E-03 5.81596E-03
 -1       994-4.26446E-03-8.67940E-03 5.84802E-03
 -1       995-4.58154E-03-1.48559E-02 8.06721E-03
 -1       997-4.86651E-03-1.35661E-02 8.08144E-03
 -1       998-4.97647E-03-2.06362E-02 1.03218E-02
 -1      1000-5.29034E-03-1.90124E-02 1.03394E-02
 -1      1001-5.23587E-03-2.67386E-02 1.26738E-02
 -1      1003-5.54728E-03-2.47759E-02 1.26765E-02
 -1      1004-5.37116E-03-3.30503E-02 1.50427E-02
 -1      1006-5.69086E-03-3.07469E-02 1.50501E-02
 -1      1007-5.42761E-03-3.94482E-02 1.74469E-02
 -1      1009-5.74714E-03-3.68024E-02 1.74443E-02
 -1      1010-5.41505E-03-4.58632E-02 1.98452E-02
 -1      1012-5.73468E-03-4.28743E-02 1.98461E-02
 -1      1013-5.35412E-03-5.22242E-02 2.22366E-02
 -1      1015-5.67062E-03-4.88943E-02 2.22312E-02
 -1      1016-5.25119E-03-5.84862E-02 2.45946E-02
 -1      1018-5.56295E-03-5.48180E-02 2.45914E-02
 -1      1019-5.11631E-03-6.46043E-02 2.69130E-02
 -1      1021-5.42143E-03-6.06038E-02 2.69057E-02
 -1      1022-4.95320E-03-7.05468E-02 2.91725E-02
 -1      1024-5.24998E-03-6.62205E-02 2.91666E-02
 -1      1025-4.76724E-03-7.62825E-02 3.13662E-02
 -1      1027-5.05422E-03-7.16399E-02 3.13575E-02
 -1      1028-4.56067E-03-8.17875E-02 3.34791E-02
 -1      1030-4.83641E-03-7.68389E-02 3.34712E-02
 -1      1031-4.33677E-03-8.70385E-02 3.55045E-02
 -1      1033-4.60006E-03-8.17965E-02 3.54947E-02
 -1      1034-4.09719E-03-9.20169E-02 3.74308E-02
 -1      1036-4.34684E-03-8.64948E-02 3.74214E-02
 -1      1037-3.84435E-03-9.67047E-02 3.92519E-02
 -1      1039-4.07937E-03-9.09177E-02 3.92411E-02
 -1      1040-3.57993E-03-1.01087E-01 4.09586E-02
 -1      1042-3.79936E-03-9.50516E-02 4.09482E-02
 -1      1043-3.30620E-03-1.05152E-01 4.25460E-02
 -1      1045-3.50923E-03-9.88845E-02 4.25344E-02
 -1      1046-3.02548E-03-1.08888E-01 4.40064E-02
 -1      1048-3.21134E-03-1.02408E-01 4.39955E-02
 -1      1049-2.74040E-03-1.12289E-01 4.53365E-02
 -1      1051-2.90850E-03-1.05614E-01 4.53245E-02
 -1      1052-2.45490E-03-1.15350E-01 4.65295E-02
 -1      1054-2.60459E-03-1.08501E-01 4.65187E-02
 -1      1055-2.17226E-03-1.18069E-01 4.75841E-02
 -1      1057-2.30321E-03-1.11068E-01 4.75721E-02
 -1      1058-1.90078E-03-1.20457E-01 4.84930E-02
 -1      1060-2.01216E-03-1.13325E-01 4.84832E-02
 -1      1061-1.64281E-03-1.22519E-01 4.92576E-02
 -1      1063-1.73493E-03-1.15279E-01 4.92466E-02
 -1      1064-1.41931E-03-1.24285E-01 4.98673E-02
 -1      1066-1.49010E-03-1.16961E-01 4.98598E-02
 -1      1067-1.22571E-03-1.25785E-01 5.03256E-02
 -1      1069-1.27726E-03-1.18403E-01 5.03181E-02
 -1      1070-1.10760E-03-1.27060E-01 5.06118E-02
 -1      1072-1.13276E-03-1.19638E-01 5.06069E-02
 -1      1073 0.00000E+00 0.00000E+00-2.43106E-05
 -1      1075 0.00000E+00-0.00000E+00 2.43106E-05
 -1      1076 0.00000E+00-2.46487E-19 0.00000E+00
 -1      1078 0.00000E+00 2.46487E-19 0.00000E+00
 -1      1079 0.00000E+00 6.55180E-19 0.00000E+00
 -1      1081 0.00000E+00-6.55180E-19 0.00000E+00
 -1      1082 0.00000E+00 1.65409E-17 0.00000E+00
 -1      1084 0.00000E+00-1.65409E-17 0.00000E+00
 -1      1085 1.20149E-04 1.47444E-03 4.67990E-05
 -1      1087-1.20149E-04 1.47444E-03-4.67990E-05
 -1      1088 3.88691E-16 1.54790E-03 6.03737E-16
 -1      1090 5.43723E-16 1.40097E-03 6.05365E-16
 -1      1099 1.57649E-04 4.72323E-03 1.33896E-04
 -1      1101-1.57649E-04 4.72323E-03-1.33896E-04
 -1      1102 1.14294E-15 4.93342E-03 1.03520E-15
 -1      1104 1.12261E-15 4.51304E-03 1.08637E-15
 -1      1113 2.07427E-04 9.04843E-03 2.26689E-04
 -1      1115-2.07427E-04 9.04843E-03-2.26689E-04
 -1      1116 1.88438E-15 9.40428E-03 1.03928E-15
 -1      1118 1.88691E-15 8.69258E-03 1.03198E-15
 -1      1127 2.26906E-04 1.41536E-02 3.33908E-04
 -1      1129-2.26906E-04 1.41536E-02-3.33908E-04
 -1      1130 2.77156E-15 1.46777E-02 5.87241E-16
 -1      1132 2.65812E-15 1.36294E-02 6.61760E-16
 -1      1141 2.49718E-04 1.97801E-02 4.48923E-04
 -1      1143-2.49718E-04 1.97801E-02-4.48923E-04
 -1      1144 3.67491E-15 2.04848E-02-2.79844E-16
 -1      1146 3.52766E-15 1.90754E-02-3.37718E-16
 -1      1155 2.56421E-04 2.57353E-02 5.68495E-04
 -1      1157-2.56421E-04 2.57353E-02-5.68495E-04
 -1      1158 4.69076E-15 2.66277E-02-1.72493E-15
 -1      1160 4.43259E-15 2.48429E-02-1.74451E-15
 -1      1169 2.65204E-04 3.18850E-02 6.92047E-04
 -1      1171-2.65204E-04 3.18850E-02-6.92047E-04
 -1      1172 5.73103E-15 3.29713E-02-3.64216E-15
 -1      1174 5.45305E-15 3.07986E-02-3.64368E-15
 -1      1183 2.64852E-04 3.81240E-02 8.15964E-04
 -1      1185-2.64852E-04 3.81240E-02-8.15964E-04
 -1      1186 6.90062E-15 3.94049E-02-6.12453E-15
 -1      1188 6.50901E-15 3.68432E-02-6.13649E-15
 -1      1197 2.65484E-04 4.43726E-02 9.40605E-04
 -1      1199-2.65484E-04 4.43726E-02-9.40605E-04
 -1      1200 8.12108E-15 4.58491E-02-9.62487E-15
 -1      1202 7.52699E-15 4.28960E-02-9.71383E-15
 -1      1211 2.60965E-04 5.05704E-02 1.06345E-03
 -1      1213-2.60965E-04 5.05704E-02-1.06345E-03
 -1      1214 9.22191E-15 5.22397E-02-1.37660E-14
 -1      1216 8.65962E-15 4.89010E-02-1.36079E-14
 -1      1225 2.56613E-04 5.66667E-02 1.18478E-03
 -1      1227-2.56613E-04 5.66667E-02-1.18478E-03
 -1      1228 1.03769E-14 5.85265E-02-1.79738E-14
 -1      1230 9.74151E-15 5.48069E-02-1.81779E-14
 -1      1239 2.49298E-04 6.26232E-02 1.30295E-03
 -1      1241-2.49298E-04 6.26232E-02-1.30295E-03
 -1      1242 1.15712E-14 6.46686E-02-2.35789E-14
 -1      1244 1.07391E-14 6.05779E-02-2.34946E-14
 -1      1253 2.41686E-04 6.84055E-02 1.41807E-03
 -1      1255-2.41686E-04 6.84055E-02-1.41807E-03
 -1      1256 1.25402E-14 7.06315E-02-2.92728E-14
 -1      1258 1.18188E-14 6.61795E-02-2.93469E-14
 -1      1267 2.32288E-04 7.39863E-02 1.52900E-03
 -1      1269-2.32288E-04 7.39863E-02-1.52900E-03
 -1      1270 1.36043E-14 7.63864E-02-3.49994E-14
 -1      1272 1.28433E-14 7.15861E-02-3.50487E-14
 -1      1281 2.22368E-04 7.93404E-02 1.63574E-03
 -1      1283-2.22368E-04 7.93404E-02-1.63574E-03
 -1      1284 1.47781E-14 8.19081E-02-4.17869E-14
 -1      1286 1.37477E-14 7.67726E-02-4.17712E-14
 -1      1295 2.11334E-04 8.44470E-02 1.73746E-03
 -1      1297-2.11334E-04 8.44470E-02-1.73746E-03
 -1      1298 1.57975E-14 8.71744E-02-4.93558E-14
 -1      1300 1.47701E-14 8.17196E-02-4.91626E-14
 -1      1309 1.99669E-04 8.92870E-02 1.83413E-03
 -1      1311-1.99669E-04 8.92870E-02-1.83413E-03
 -1      1312 1.68647E-14 9.21661E-02-5.75186E-14
 -1      1314 1.56301E-14 8.64078E-02-5.76115E-14
 -1      1323 1.87361E-04 9.38441E-02 1.92506E-03
 -1      1325-1.87361E-04 9.38441E-02-1.92506E-03
 -1      1326 1.77810E-14 9.68660E-02-6.73247E-14
 -1      1328 1.64278E-14 9.08222E-02-6.70227E-14
 -1      1337 1.74340E-04 9.81035E-02 2.01029E-03
 -1      1339-1.74340E-04 9.81035E-02-2.01029E-03
 -1      1340 1.83123E-14 1.01259E-01-7.64641E-14
 -1      1342 1.72079E-14 9.49478E-02-7.63997E-14
 -1      1351 1.61148E-04 1.02054E-01 2.08917E-03
 -1      1353-1.61148E-04 1.02054E-01-2.08917E-03
 -1      1354 1.90489E-14 1.05333E-01-8.58121E-14
 -1      1356 1.76786E-14 9.87740E-02-8.54832E-14
 -1      1365 1.47101E-04 1.05684E-01 2.16191E-03
 -1      1367-1.47101E-04 1.05684E-01-2.16191E-03
 -1      1368 1.93704E-14 1.09077E-01-9.52316E-14
 -1      1370 1.80719E-14 1.02290E-01-9.54041E-14
 -1      1379 1.33565E-04 1.08988E-01 2.22782E-03
 -1      1381-1.33565E-04 1.08988E-01-2.22782E-03
 -1      1382 1.96025E-14 1.12485E-01-1.04148E-13
 -1      1384 1.84851E-14 1.05491E-01-1.03862E-13
 -1      1393 1.18854E-04 1.11961E-01 2.28740E-03
 -1      1395-1.18854E-04 1.11961E-01-2.28740E-03
 -1      1396 2.01414E-14 1.15552E-01-1.13058E-13
 -1      1398 1.85047E-14 1.08370E-01-1.13414E-13
 -1      1407 1.05819E-04 1.14605E-01 2.33985E-03
 -1      1409-1.05819E-04 1.14605E-01-2.33985E-03
 -1      1410 2.00577E-14 1.18278E-01-1.24000E-13
 -1      1412 1.86648E-14 1.10932E-01-1.23653E-13
 -1      1421 9.09912E-05 1.16924E-01 2.38615E-03
 -1      1423-9.09912E-05 1.16924E-01-2.38615E-03
 -1      1424 1.99900E-14 1.20670E-01-1.33297E-13
 -1      1426 1.88401E-14 1.13178E-01-1.33503E-13
 -1      1435 7.97109E-05 1.18931E-01 2.42523E-03
 -1      1437-7.97109E-05 1.18931E-01-2.42523E-03
 -1      1438 1.98683E-14 1.22738E-01-1.42466E-13
 -1      1440 1.87467E-14 1.15124E-01-1.41925E-13
 -1      1449 6.62386E-05 1.20653E-01 2.45890E-03
 -1      1451-6.62386E-05 1.20653E-01-2.45890E-03
 -1      1452 2.00314E-14 1.24512E-01-1.51733E-13
 -1      1454 1.85801E-14 1.16793E-01-1.52246E-13
 -1      1463 5.75014E-05 1.22104E-01 2.48531E-03
 -1      1465-5.75014E-05 1.22104E-01-2.48531E-03
 -1      1466 1.98315E-14 1.26006E-01-1.61314E-13
 -1      1468 1.86829E-14 1.18203E-01-1.61657E-13
 -1      1477 5.12824E-05 1.23389E-01 2.50741E-03
 -1      1479-5.12824E-05 1.23389E-01-2.50741E-03
 -1      1480 1.95537E-14 1.27325E-01-1.69816E-13
 -1      1482 1.86102E-14 1.19453E-01-1.69572E-13
 -1      1491-2.08943E-05-6.36346E-02 2.70702E-03
 -1      1493 2.08943E-05-6.36346E-02-2.70702E-03
 -1      1494-1.22289E-14-2.97845E-12 2.76252E-03
 -1      1496 1.57387E-14-2.97909E-12-2.76252E-03
 -1      1497 2.08943E-05 6.36346E-02 2.70702E-03
 -1      1499-2.08943E-05 6.36346E-02-2.70702E-03
 -1      1500 1.71864E-03 1.92343E-03 1.57363E-03
 -1      1502 2.10765E-03 1.62627E-03 1.62013E-03
 -1      1503 3.07696E-03 5.13484E-03 3.78525E-03
 -1      1505 3.29181E-03 4.50843E-03 3.82856E-03
 -1      1506 3.94883E-03 9.63315E-03 5.81596E-03
 -1      1508 4.26446E-03 8.67940E-03 5.84802E-03
 -1      1509 4.58154E-03 1.48559E-02 8.06721E-03
 -1      1511 4.86651E-03 1.35661E-02 8.08144E-03
 -1      1512 4.97647E-03 2.06362E-02 1.03218E-02
 -1      1514 5.29034E-03 1.90124E-02 1.03394E-02
 -1      1515 5.23587E-03 2.67386E-02 1.26738E-02
 -1      1517 5.54728E-03 2.47759E-02 1.26765E-02
 -1      1518 5.37116E-03 3.30503E-02 1.50427E-02
 -1      1520 5.69086E-03 3.07469E-02 1.50501E-02
 -1      1521 5.42761E-03 3.94482E-02 1.74469E-02
 -1      1523 5.74714E-03 3.68024E-02 1.74443E-02
 -1      1524 5.41505E-03 4.58632E-02 1.98452E-02
 -1      1526 5.73468E-03 4.28743E-02 1.98461E-02
 -1      1527 5.35412E-03 5.22242E-02 2.22366E-02
 -1      1529 5.67062E-03 4.88943E-02 2.22312E-02
 -1      1530 5.25119E-03 5.84862E-02 2.45946E-02
 -1      1532 5.56295E-03 5.48180E-02 2.45914E-02
 -1      1533 5.11631E-03 6.46043E-02 2.69130E-02
 -1      1535 5.42143E-03 6.06038E-02 2.69057E-02
 -1      1536 4.95320E-03 7.05468E-02 2.91725E-02
 -1      1538 5.24998E-03 6.62205E-02 2.91666E-02
 -1      1539 4.76724E-03 7.62825E-02 3.13662E-02
 -1      1541 5.05422E-03 7.16399E-02 3.13575E-02
 -1      1542 4.56067E-03 8.17875E-02 3.34791E-02
 -1      1544 4.83641E-03 7.68389E-02 3.34712E-02
 -1      1545 4.33677E-03 8.70385E-02 3.55045E-02
 -1      1547 4.60006E-03 8.17965E-02 3.54947E-02
 -1      1548 4.09719E-03 9.20169E-02 3.74308E-02
 -1      1550 4.34684E-03 8.64948E-02 3.74214E-02
 -1      1551 3.84435E-03 9.67047E-02 3.92519E-02
 -1      1553 4.07937E-03 9.09177E-02 3.92411E-02
 -1      1554 3.57993E-03 1.01087E-01 4.09586E-02
 -1      1556 3.79936E-03 9.50516E-02 4.09482E-02
 -1      1557 3.30620E-03 1.05152E-01 4.25460E-02
 -1      1559 3.50923E-03 9.88845E-02 4.25344E-02
 -1      1560 3.02548E-03 1.08888E-01 4.40064E-02
 -1      1562 3.21134E-03 1.02408E-01 4.39955E-02
 -1      1563 2.74040E-03 1.12289E-01 4.53365E-02
 -1      1565 2.90850E-03 1.05614E-01 4.53245E-02
 -1      1566 2.45490E-03 1.15350E-01 4.65295E-02
 -1      1568 2.60459E-03 1.08501E-01 4.65187E-02
 -1      1569 2.17226E-03 1.18069E-01 4.75841E-02
 -1      1571 2.30321E-03 1.11068E-01 4.75721E-02
 -1      1572 1.90078E-03 1.20457E-01 4.84930E-02
 -1      1574 2.01216E-03 1.13325E-01 4.84832E-02
 -1      1575 1.64281E-03 1.22519E-01 4.92576E-02
 -1      1577 1.73493E-03 1.15279E-01 4.92466E-02
 -1      1578 1.41931E-03 1.24285E-01 4.98673E-02
 -1      1580 1.49010E-03 1.16961E-01 4.98598E-02
 -1      1581 1.22571E-03 1.25785E-01 5.03256E-02
 -1      1583 1.27726E-03 1.18403E-01 5.03181E-02
 -1      1584 1.10760E-03 1.27060E-01 5.06118E-02
 -1      1586 1.13276E-03 1.19638E-01 5.06069E-02
 -1      1587 5.40091E-04 1.28295E-01 2.57579E-02
 -1      1589 5.44206E-04 1.20752E-01 2.57492E-02
 -1      1590 0.00000E+00 0.00000E+00-2.43106E-05
 -1      1592 0.00000E+00 0.00000E+00 2.43106E-05
 -1      1593-5.40091E-04 1.28295E-01-2.57579E-02
 -1      1595-5.44206E-04 1.20752E-01-2.57492E-02
 -1      1596-1.71864E-03 1.92343E-03-1.57363E-03
 -1      1598-2.10765E-03 1.62627E-03-1.62013E-03
 -1      1599-3.07696E-03 5.13484E-03-3.78525E-03
 -1      1601-3.29181E-03 4.50843E-03-3.82856E-03
 -1      1602-3.94883E-03 9.63315E-03-5.81596E-03
 -1      1604-4.26446E-03 8.67940E-03-5.84802E-03
 -1      1605-4.58154E-03 1.48559E-02-8.06721E-03
 -1      1607-4.86651E-03 1.35661E-02-8.08144E-03
 -1      1608-4.97647E-03 2.06362E-02-1.03218E-02
 -1      1610-5.29034E-03 1.90124E-02-1.03394E-02
 -1      1611-5.23587E-03 2.67386E-02-1.26738E-02
 -1      1613-5.54728E-03 2.47759E-02-1.26765E-02
 -1      1614-5.37116E-03 3.30503E-02-1.50427E-02
 -1      1616-5.69086E-03 3.07469E-02-1.50501E-02
 -1      1617-5.42761E-03 3.94482E-02-1.74469E-02
 -1      1619-5.74714E-03 3.68024E-02-1.74443E-02
 -1      1620-5.41505E-03 4.58632E-02-1.98452E-02
 -1      1622-5.73468E-03 4.28743E-02-1.98461E-02
 -1      1623-5.35412E-03 5.22242E-02-2.22366E-02
 -1      1625-5.67062E-03 4.88943E-02-2.22312E-02
 -1      1626-5.25119E-03 5.84862E-02-2.45946E-02
 -1      1628-5.56295E-03 5.48180E-02-2.45914E-02
 -1      1629-5.11631E-03 6.46043E-02-2.69130E-02
 -1      1631-5.42143E-03 6.06038E-02-2.69057E-02
 -1      1632-4.95320E-03 7.05468E-02-2.91725E-02
 -1      1634-5.24998E-03 6.62205E-02-2.91666E-02
 -1      1635-4.76724E-03 7.62825E-02-3.13662E-02
 -1      1637-5.05422E-03 7.16399E-02-3.13575E-02
 -1      1638-4.56067E-03 8.17875E-02-3.34791E-02
 -1      1640-4.83641E-03 7.68389E-02-3.34712E-02
 -1      1641-4.33677E-03 8.70385E-02-3.55045E-02
 -1      1643-4.60006E-03 8.17965E-02-3.54947E-02
 -1      1644-4.09719E-03 9.20169E-02-3.74308E-02
 -1      1646-4.34684E-03 8.64948E-02-3.74214E-02
 -1      1647-3.84435E-03 9.67047E-02-3.92519E-02
 -1      1649-4.07937E-03 9.09177E-02-3.92411E-02
 -1      1650-3.57993E-03 1.01087E-01-4.09586E-02
 -1      1652-3.79936E-03 9.50516E-02-4.09482E-02
 -1      1653-3.30620E-03 1.05152E-01-4.25460E-02
 -1      1655-3.50923E-03 9.88845E-02-4.25344E-02
 -1      1656-3.02548E-03 1.08888E-01-4.40064E-02
 -1      1658-3.21134E-03 1.02408E-01-4.39955E-02
 -1      1659-2.74040E-03 1.12289E-01-4.53365E-02
 -1      1661-2.90850E-03 1.05614E-01-4.53245E-02
 -1      1662-2.45490E-03 1.15350E-01-4.65295E-02
 -1      1664-2.60459E-03 1.08501E-01-4.65187E-02
 -1      1665-2.17226E-03 1.18069E-01-4.75841E-02
 -1      1667-2.30321E-03 1.11068E-01-4.75721E-02
 -1      1668-1.90078E-03 1.20457E-01-4.84930E-02
 -1      1670-2.01216E-03 1.13325E-01-4.84832E-02
 -1      1671-1.64281E-03 1.22519E-01-4.92576E-02
 -1      1673-1.73493E-03 1.15279E-01-4.92466E-02
 -1      1674-1.41931E-03 1.24285E-01-4.98673E-02
 -1      1676-1.49010E-03 1.16961E-01-4.98598E-02
 -1      1677-1.22571E-03 1.25785E-01-5.03256E-02
 -1      1679-1.27726E-03 1.18403E-01-5.03181E-02
 -1      1680-1.10760E-03 1.27060E-01-5.06118E-02
 -1      1682-1.13276E-03 1.19638E-01-5.06069E-02
 -1      1683 0.00000E+00 0.00000E+00 2.43106E-05
 -1      1685 0.00000E+00 0.00000E+00-2.43106E-05
 -1      1686 7.47424E-04-1.64801E-03-6.49805E-04
 -1      1688 9.33448E-04-1.38766E-03-6.88032E-04
 -1      1689 1.51524E-03-5.06955E-03-1.72765E-03
 -1      1691 1.62236E-03-4.45724E-03-1.75106E-03
 -1      1692 1.93125E-03-9.51630E-03-2.70242E-03
 -1      1694 2.09109E-03-8.59608E-03-2.71937E-03
 -1      1695 2.26515E-03-1.47990E-02-3.83408E-03
 -1      1697 2.41403E-03-1.35507E-02-3.84642E-03
 -1      1698 2.46634E-03-2.05760E-02-4.98173E-03
 -1      1700 2.63082E-03-1.89914E-02-4.98825E-03
 -1      1701 2.59940E-03-2.67058E-02-6.18857E-03
 -1      1703 2.76441E-03-2.47801E-02-6.19378E-03
 -1      1704 2.67124E-03-3.30246E-02-7.41276E-03
 -1      1706 2.84044E-03-3.07476E-02-7.41444E-03
 -1      1707 2.70086E-03-3.94393E-02-8.65315E-03
 -1      1709 2.87040E-03-3.68111E-02-8.65390E-03
 -1      1710 2.69700E-03-4.58631E-02-9.89325E-03
 -1      1712 2.86619E-03-4.28796E-02-9.89232E-03
 -1      1713 2.66751E-03-5.22359E-02-1.11257E-02
 -1      1715 2.83497E-03-4.89008E-02-1.11238E-02
 -1      1716 2.61738E-03-5.85060E-02-1.23408E-02
 -1      1718 2.78196E-03-5.48213E-02-1.23382E-02
 -1      1719 2.55067E-03-6.46329E-02-1.35319E-02
 -1      1721 2.71154E-03-6.06059E-02-1.35283E-02
 -1      1722 2.46993E-03-7.05823E-02-1.46917E-02
 -1      1724 2.62611E-03-6.62199E-02-1.46879E-02
 -1      1725 2.37752E-03-7.63248E-02-1.58151E-02
 -1      1727 2.52835E-03-7.16376E-02-1.58104E-02
 -1      1728 2.27481E-03-8.18355E-02-1.68960E-02
 -1      1730 2.41952E-03-7.68342E-02-1.68912E-02
 -1      1731 2.16336E-03-8.70920E-02-1.79303E-02
 -1      1733 2.30137E-03-8.17902E-02-1.79247E-02
 -1      1734 2.04403E-03-9.20750E-02-1.89130E-02
 -1      1736 2.17475E-03-8.64865E-02-1.89074E-02
 -1      1737 1.91810E-03-9.67670E-02-1.98408E-02
 -1      1739 2.04104E-03-9.09079E-02-1.98347E-02
 -1      1740 1.78634E-03-1.01153E-01-2.07097E-02
 -1      1742 1.90103E-03-9.50400E-02-2.07035E-02
 -1      1743 1.65001E-03-1.05221E-01-2.15169E-02
 -1      1745 1.75607E-03-9.88717E-02-2.15105E-02
 -1      1746 1.51012E-03-1.08960E-01-2.22597E-02
 -1      1748 1.60719E-03-1.02393E-01-2.22530E-02
 -1      1749 1.36828E-03-1.12363E-01-2.29355E-02
 -1      1751 1.45610E-03-1.05598E-01-2.29291E-02
 -1      1752 1.22600E-03-1.15425E-01-2.35431E-02
 -1      1754 1.30428E-03-1.08482E-01-2.35361E-02
 -1      1755 1.08594E-03-1.18148E-01-2.40801E-02
 -1      1757 1.15468E-03-1.11048E-01-2.40742E-02
 -1      1758 9.50025E-04-1.20534E-01-2.45470E-02
 -1      1760 1.00878E-03-1.13299E-01-2.45400E-02
 -1      1761 8.24785E-04-1.22601E-01-2.49415E-02
 -1      1763 8.74165E-04-1.15252E-01-2.49367E-02
 -1      1764 7.09258E-04-1.24361E-01-2.52647E-02
 -1      1766 7.47886E-04-1.16923E-01-2.52588E-02
 -1      1767 6.23748E-04-1.25865E-01-2.55139E-02
 -1      1769 6.53461E-04-1.18361E-01-2.55104E-02
 -1      1770 5.57605E-04-1.27128E-01-2.56805E-02
 -1      1772 5.73388E-04-1.19591E-01-2.56804E-02
 -1      1773-7.47424E-04-1.64801E-03 6.49805E-04
 -1      1775-9.33448E-04-1.38766E-03 6.88032E-04
 -1      1776-1.51524E-03-5.06955E-03 1.72765E-03
 -1      1778-1.62236E-03-4.45724E-03 1.75106E-03
 -1      1779-1.93125E-03-9.51630E-03 2.70242E-03
 -1      1781-2.09109E-03-8.59608E-03 2.71937E-03
 -1      1782-2.26515E-03-1.47990E-02 3.83408E-03
 -1      1784-2.41403E-03-1.35507E-02 3.84642E-03
 -1      1785-2.46634E-03-2.05760E-02 4.98173E-03
 -1      1787-2.63082E-03-1.89914E-02 4.98825E-03
 -1      1788-2.59940E-03-2.67058E-02 6.18857E-03
 -1      1790-2.76441E-03-2.47801E-02 6.19378E-03
 -1      1791-2.67124E-03-3.30246E-02 7.41276E-03
 -1      1793-2.84044E-03-3.07476E-02 7.41444E-03
 -1      1794-2.70086E-03-3.94393E-02 8.65315E-03
 -1      1796-2.87040E-03-3.68111E-02 8.65390E-03
 -1      1797-2.69700E-03-4.58631E-02 9.89325E-03
 -1      1799-2.86619E-03-4.28796E-02 9.89232E-03
 -1      1800-2.66751E-03-5.22359E-02 1.11257E-02
 -1      1802-2.83497E-03-4.89008E-02 1.11238E-02
 -1      1803-2.61738E-03-5.85060E-02 1.23408E-02
 -1      1805-2.78196E-03-5.48213E-02 1.23382E-02
 -1      1806-2.55067E-03-6.46329E-02 1.35319E-02
 -1      1808-2.71154E-03-6.06059E-02 1.35283E-02
 -1      1809-2.46993E-03-7.05823E-02 1.46917E-02
 -1      1811-2.62611E-03-6.62199E-02 1.46879E-02
 -1      1812-2.37752E-03-7.63248E-02 1.58151E-02
 -1      1814-2.52835E-03-7.16376E-02 1.58104E-02
 -1      1815-2.27481E-03-8.18355E-02 1.68960E-02
 -1      1817-2.41952E-03-7.68342E-02 1.68912E-02
 -1      1818-2.16336E-03-8.70920E-02 1.79303E-02
 -1      1820-2.30137E-03-8.17902E-02 1.79247E-02
 -1      1821-2.04403E-03-9.20750E-02 1.89130E-02
 -1      1823-2.17475E-03-8.64865E-02 1.89074E-02
 -1      1824-1.91810E-03-9.67670E-02 1.98408E-02
 -1      1826-2.04104E-03-9.09079E-02 1.98347E-02
 -1      1827-1.78634E-03-1.01153E-01 2.07097E-02
 -1      1829-1.90103E-03-9.50400E-02 2.07035E-02
 -1      1830-1.65001E-03-1.05221E-01 2.15169E-02
 -1      1832-1.75607E-03-9.88717E-02 2.15105E-02
 -1      1833-1.51012E-03-1.08960E-01 2.22597E-02
 -1      1835-1.60719E-03-1.02393E-01 2.22530E-02
 -1      1836-1.36828E-03-1.12363E-01 2.29355E-02
 -1      1838-1.45610E-03-1.05598E-01 2.29291E-02
 -1      1839-1.22600E-03-1.15425E-01 2.35431E-02
 -1      1841-1.30428E-03-1.08482E-01 2.35361E-02
 -1      1842-1.08594E-03-1.18148E-01 2.40801E-02
 -1      1844-1.15468E-03-1.11048E-01 2.40742E-02
 -1      1845-9.50025E-04-1.20534E-01 2.45470E-02
 -1      1847-1.00878E-03-1.13299E-01 2.45400E-02
 -1      1848-8.24785E-04-1.22601E-01 2.49415E-02
 -1      1850-8.74165E-04-1.15252E-01 2.49367E-02
 -1      1851-7.09258E-04-1.24361E-01 2.52647E-02
 -1      1853-7.47886E-04-1.16923E-01 2.52588E-02
 -1      1854-6.23748E-04-1.25865E-01 2.55139E-02
 -1      1856-6.53461E-04-1.18361E-01 2.55104E-02
 -1      1857-5.57605E-04-1.27128E-01 2.56805E-02
 -1      1859-5.73388E-04-1.19591E-01 2.56804E-02
 -1      1860-5.89751E-05-6.73974E-04 2.25966E-05
 -1      1862 5.89751E-05-6.73974E-04-2.25966E-05
 -1      1863-8.01185E-05-2.26750E-03 8.01579E-05
 -1      1865 8.01185E-05-2.26750E-03-8.01579E-05
 -1      1866-1.06435E-04-4.41019E-03 1.73387E-04
 -1      1868 1.06435E-04-4.41019E-03-1.73387E-04
 -1      1869-1.17339E-04-6.97816E-03 2.85153E-04
 -1      1871 1.17339E-04-6.97816E-03-2.85153E-04
 -1      1872-1.29950E-04-9.82012E-03 4.08849E-04
 -1      1874 1.29950E-04-9.82012E-03-4.08849E-04
 -1      1875-1.33869E-04-1.28503E-02 5.40706E-04
 -1      1877 1.33869E-04-1.28503E-02-5.40706E-04
 -1      1878-1.38965E-04-1.59866E-02 6.76138E-04
 -1      1880 1.38965E-04-1.59866E-02-6.76138E-04
 -1      1881-1.39000E-04-1.91808E-02 8.13703E-04
 -1      1883 1.39000E-04-1.91808E-02-8.13703E-04
 -1      1884-1.39618E-04-2.23839E-02 9.51011E-04
 -1      1886 1.39618E-04-2.23839E-02-9.51011E-04
 -1      1887-1.37344E-04-2.55674E-02 1.08703E-03
 -1      1889 1.37344E-04-2.55674E-02-1.08703E-03
 -1      1890-1.35198E-04-2.87008E-02 1.22061E-03
 -1      1892 1.35198E-04-2.87008E-02-1.22061E-03
 -1      1893-1.31381E-04-3.17654E-02 1.35086E-03
 -1      1895 1.31381E-04-3.17654E-02-1.35086E-03
 -1      1896-1.27430E-04-3.47410E-02 1.47723E-03
 -1      1898 1.27430E-04-3.47410E-02-1.47723E-03
 -1      1899-1.22481E-04-3.76141E-02 1.59893E-03
 -1      1901 1.22481E-04-3.76141E-02-1.59893E-03
 -1      1902-1.17269E-04-4.03706E-02 1.71570E-03
 -1      1904 1.17269E-04-4.03706E-02-1.71570E-03
 -1      1905-1.11447E-04-4.30001E-02 1.82682E-03
 -1      1907 1.11447E-04-4.30001E-02-1.82682E-03
 -1      1908-1.05298E-04-4.54921E-02 1.93223E-03
 -1      1910 1.05298E-04-4.54921E-02-1.93223E-03
 -1      1911-9.88097E-05-4.78387E-02 2.03119E-03
 -1      1913 9.88097E-05-4.78387E-02-2.03119E-03
 -1      1914-9.19425E-05-5.00318E-02 2.12389E-03
 -1      1916 9.19425E-05-5.00318E-02-2.12389E-03
 -1      1917-8.50088E-05-5.20662E-02 2.20947E-03
 -1      1919 8.50088E-05-5.20662E-02-2.20947E-03
 -1      1920-7.76053E-05-5.39359E-02 2.28848E-03
 -1      1922 7.76053E-05-5.39359E-02-2.28848E-03
 -1      1923-7.05206E-05-5.56388E-02 2.35984E-03
 -1      1925 7.05206E-05-5.56388E-02-2.35984E-03
 -1      1926-6.27696E-05-5.71715E-02 2.42470E-03
 -1      1928 6.27696E-05-5.71715E-02-2.42470E-03
 -1      1929-5.59830E-05-5.85367E-02 2.48152E-03
 -1      1931 5.59830E-05-5.85367E-02-2.48152E-03
 -1      1932-4.81626E-05-5.97347E-02 2.53258E-03
 -1      1934 4.81626E-05-5.97347E-02-2.53258E-03
 -1      1935-4.23089E-05-6.07746E-02 2.57540E-03
 -1      1937 4.23089E-05-6.07746E-02-2.57540E-03
 -1      1938-3.51687E-05-6.16663E-02 2.61478E-03
 -1      1940 3.51687E-05-6.16663E-02-2.61478E-03
 -1      1941-3.05396E-05-6.24213E-02 2.64581E-03
 -1      1943 3.05396E-05-6.24213E-02-2.64581E-03
 -1      1944-2.70435E-05-6.30843E-02 2.68046E-03
 -1      1946 2.70435E-05-6.30843E-02-2.68046E-03
 -1      1947 3.35973E-15 3.86037E-14 3.60463E-05
 -1      1949-3.29831E-15 3.86045E-14-3.60463E-05
 -1      1950 4.56558E-15 1.28335E-13 1.13810E-04
 -1      1952-4.45932E-15 1.28337E-13-1.13810E-04
 -1      1953 6.09473E-15 2.49765E-13 2.06084E-04
 -1      1955-5.91514E-15 2.49772E-13-2.06084E-04
 -1      1956 6.81226E-15 3.95871E-13 3.14249E-04
 -1      1958-6.50847E-15 3.95871E-13-3.14249E-04
 -1      1959 7.40575E-15 5.55542E-13 4.35630E-04
 -1      1961-6.93006E-15 5.55556E-13-4.35630E-04
 -1      1962 7.36542E-15 7.19876E-13 5.63933E-04
 -1      1964-6.73739E-15 7.19910E-13-5.63933E-04
 -1      1965 6.96535E-15 8.77742E-13 6.98552E-04
 -1      1967-6.23476E-15 8.77756E-13-6.98552E-04
 -1      1968 6.15892E-15 1.02125E-12 8.35430E-04
 -1      1970-5.43630E-15 1.02131E-12-8.35430E-04
 -1      1971 5.15018E-15 1.14354E-12 9.73768E-04
 -1      1973-4.31643E-15 1.14349E-12-9.73768E-04
 -1      1974 4.11151E-15 1.24015E-12 1.11133E-03
 -1      1976-3.10450E-15 1.24017E-12-1.11133E-03
 -1      1977 2.78228E-15 1.30759E-12 1.24734E-03
 -1      1979-1.59378E-15 1.30772E-12-1.24734E-03
 -1      1980 1.14318E-15 1.33842E-12 1.38045E-03
 -1      1982 1.84531E-16 1.33839E-12-1.38045E-03
 -1      1983-2.88398E-16 1.33235E-12 1.51008E-03
 -1      1985 1.66338E-15 1.33239E-12-1.51008E-03
 -1      1986-1.94370E-15 1.29036E-12 1.63526E-03
 -1      1988 3.33761E-15 1.29048E-12-1.63526E-03
 -1      1989-4.40945E-15 1.20099E-12 1.75565E-03
 -1      1991 5.83301E-15 1.20095E-12-1.75565E-03
 -1      1992-5.96273E-15 1.06459E-12 1.87043E-03
 -1      1994 7.49097E-15 1.06461E-12-1.87043E-03
 -1      1995-7.16734E-15 8.93901E-13 1.97949E-03
 -1      1997 8.83495E-15 8.93844E-13-1.97949E-03
 -1      1998-8.55132E-15 6.90083E-13 2.08201E-03
 -1      2000 1.05940E-14 6.90094E-13-2.08201E-03
 -1      2001-9.40155E-15 4.55594E-13 2.17821E-03
 -1      2003 1.18915E-14 4.55438E-13-2.17821E-03
 -1      2004-9.93780E-15 2.00194E-13 2.26712E-03
 -1      2006 1.27203E-14 2.00152E-13-2.26712E-03
 -1      2007-1.06204E-14-7.20257E-14 2.34939E-03
 -1      2009 1.35176E-14-7.20118E-14-2.34939E-03
 -1      2010-1.18495E-14-3.66956E-13 2.42376E-03
 -1      2012 1.47972E-14-3.67012E-13-2.42376E-03
 -1      2013-1.21275E-14-6.78492E-13 2.49153E-03
 -1      2015 1.47634E-14-6.78339E-13-2.49153E-03
 -1      2016-1.23660E-14-9.93160E-13 2.55099E-03
 -1      2018 1.48692E-14-9.93410E-13-2.55099E-03
 -1      2019-1.32299E-14-1.31825E-12 2.60430E-03
 -1      2021 1.54143E-14-1.31807E-12-2.60430E-03
 -1      2022-1.30521E-14-1.64849E-12 2.64915E-03
 -1      2024 1.52313E-14-1.64893E-12-2.64915E-03
 -1      2025-1.30868E-14-1.97837E-12 2.68863E-03
 -1      2027 1.52296E-14-1.97801E-12-2.68863E-03
 -1      2028-1.31666E-14-2.31101E-12 2.71984E-03
 -1      2030 1.58354E-14-2.31090E-12-2.71984E-03
 -1      2031-1.27693E-14-2.64772E-12 2.74563E-03
 -1      2033 1.61282E-14-2.64783E-12-2.74563E-03
 -1      2034 5.89751E-05 6.73974E-04 2.25966E-05
 -1      2036-5.89751E-05 6.73974E-04-2.25966E-05
 -1      2037 8.01185E-05 2.26750E-03 8.01579E-05
 -1      2039-8.01185E-05 2.26750E-03-8.01579E-05
 -1      2040 1.06435E-04 4.41019E-03 1.73387E-04
 -1      2042-1.06435E-04 4.41019E-03-1.73387E-04
 -1      2043 1.17339E-04 6.97816E-03 2.85153E-04
 -1      2045-1.17339E-04 6.97816E-03-2.85153E-04
 -1      2046 1.29950E-04 9.82012E-03 4.08849E-04
 -1      2048-1.29950E-04 9.82012E-03-4.08849E-04
 -1      2049 1.33869E-04 1.28503E-02 5.40706E-04
 -1      2051-1.33869E-04 1.28503E-02-5.40706E-04
 -1      2052 1.38965E-04 1.59866E-02 6.76138E-04
 -1      2054-1.38965E-04 1.59866E-02-6.76138E-04
 -1      2055 1.39000E-04 1.91808E-02 8.13703E-04
 -1      2057-1.39000E-04 1.91808E-02-8.13703E-04
 -1      2058 1.39618E-04 2.23839E-02 9.51011E-04
 -1      2060-1.39618E-04 2.23839E-02-9.51011E-04
 -1      2061 1.37344E-04 2.55674E-02 1.08703E-03
 -1      2063-1.37344E-04 2.55674E-02-1.08703E-03
 -1      2064 1.35198E-04 2.87008E-02 1.22061E-03
 -1      2066-1.35198E-04 2.87008E-02-1.22061E-03
 -1      2067 1.31381E-04 3.17654E-02 1.35086E-03
 -1      2069-1.31381E-04 3.17654E-02-1.35086E-03
 -1      2070 1.27430E-04 3.47410E-02 1.47723E-03
 -1      2072-1.27430E-04 3.47410E-02-1.47723E-03
 -1      2073 1.22481E-04 3.76141E-02 1.59893E-03
 -1      2075-1.22481E-04 3.76141E-02-1.59893E-03
 -1      2076 1.17269E-04 4.03706E-02 1.71570E-03
 -1      2078-1.17269E-04 4.03706E-02-1.71570E-03
 -1      2079 1.11447E-04 4.30001E-02 1.82682E-03
 -1      2081-1.11447E-04 4.30001E-02-1.82682E-03
 -1      2082 1.05298E-04 4.54921E-02 1.93223E-03
 -1      2084-1.05298E-04 4.54921E-02-1.93223E-03
 -1      2085 9.88097E-05 4.78387E-02 2.03119E-03
 -1      2087-9.88097E-05 4.78387E-02-2.03119E-03
 -1      2088 9.19425E-05 5.00318E-02 2.12389E-03
 -1      2090-9.19425E-05 5.00318E-02-2.12389E-03
 -1      2091 8.50088E-05 5.20662E-02 2.20947E-03
 -1      2093-8.50088E-05 5.20662E-02-2.20947E-03
 -1      2094 7.76053E-05 5.39359E-02 2.28848E-03
 -1      2096-7.76053E-05 5.39359E-02-2.28848E-03
 -1      2097 7.05206E-05 5.56388E-02 2.35984E-03
 -1      2099-7.05206E-05 5.56388E-02-2.35984E-03
 -1      2100 6.27696E-05 5.71715E-02 2.42470E-03
 -1      2102-6.27696E-05 5.71715E-02-2.42470E-03
 -1      2103 5.59830E-05 5.85367E-02 2.48152E-03
 -1      2105-5.59830E-05 5.85367E-02-2.48152E-03
 -1      2106 4.81626E-05 5.97347E-02 2.53258E-03
 -1      2108-4.81626E-05 5.97347E-02-2.53258E-03
 -1      2109 4.23089E-05 6.07746E-02 2.57540E-03
 -1      2111-4.23089E-05 6.07746E-02-2.57540E-03
 -1      2112 3.51687E-05 6.16663E-02 2.61478E-03
 -1      2114-3.51687E-05 6.16663E-02-2.61478E-03
 -1      2115 3.05396E-05 6.24213E-02 2.64581E-03
 -1      2117-3.05396E-05 6.24213E-02-2.64581E-03
 -1      2118 2.70435E-05 6.30843E-02 2.68046E-03
 -1      2120-2.70435E-05 6.30843E-02-2.68046E-03
 -1      2121 7.47424E-04 1.64801E-03 6.49805E-04
 -1      2123 9.33448E-04 1.38766E-03 6.88032E-04
 -1      2124 1.51524E-03 5.06955E-03 1.72765E-03
 -1      2126 1.62236E-03 4.45724E-03 1.75106E-03
 -1      2127 1.93125E-03 9.51630E-03 2.70242E-03
 -1      2129 2.09109E-03 8.59608E-03 2.71937E-03
 -1      2130 2.26515E-03 1.47990E-02 3.83408E-03
 -1      2132 2.41403E-03 1.35507E-02 3.84642E-03
 -1      2133 2.46634E-03 2.05760E-02 4.98173E-03
 -1      2135 2.63082E-03 1.89914E-02 4.98825E-03
 -1      2136 2.59940E-03 2.67058E-02 6.18857E-03
 -1      2138 2.76441E-03 2.47801E-02 6.19378E-03
 -1      2139 2.67124E-03 3.30246E-02 7.41276E-03
 -1      2141 2.84044E-03 3.07476E-02 7.41444E-03
 -1      2142 2.70086E-03 3.94393E-02 8.65315E-03
 -1      2144 2.87040E-03 3.68111E-02 8.65390E-03
 -1      2145 2.69700E-03 4.58631E-02 9.89325E-03
 -1      2147 2.86619E-03 4.28796E-02 9.89232E-03
 -1      2148 2.66751E-03 5.22359E-02 1.11257E-02
 -1      2150 2.83497E-03 4.89008E-02 1.11238E-02
 -1      2151 2.61738E-03 5.85060E-02 1.23408E-02
 -1      2153 2.78196E-03 5.48213E-02 1.23382E-02
 -1      2154 2.55067E-03 6.46329E-02 1.35319E-02
 -1      2156 2.71154E-03 6.06059E-02 1.35283E-02
 -1      2157 2.46993E-03 7.05823E-02 1.46917E-02
 -1      2159 2.62611E-03 6.62199E-02 1.46879E-02
 -1      2160 2.37752E-03 7.63248E-02 1.58151E-02
 -1      2162 2.52835E-03 7.16376E-02 1.58104E-02
 -1      2163 2.27481E-03 8.18355E-02 1.68960E-02
 -1      2165 2.41952E-03 7.68342E-02 1.68912E-02
 -1      2166 2.16336E-03 8.70920E-02 1.79303E-02
 -1      2168 2.30137E-03 8.17902E-02 1.79247E-02
 -1      2169 2.04403E-03 9.20750E-02 1.89130E-02
 -1      2171 2.17475E-03 8.64865E-02 1.89074E-02
 -1      2172 1.91810E-03 9.67670E-02 1.98408E-02
 -1      2174 2.04104E-03 9.09079E-02 1.98347E-02
 -1      2175 1.78634E-03 1.01153E-01 2.07097E-02
 -1      2177 1.90103E-03 9.50400E-02 2.07035E-02
 -1      2178 1.65001E-03 1.05221E-01 2.15169E-02
 -1      2180 1.75607E-03 9.88717E-02 2.15105E-02
 -1      2181 1.51012E-03 1.08960E-01 2.22597E-02
 -1      2183 1.60719E-03 1.02393E-01 2.22530E-02
 -1      2184 1.36828E-03 1.12363E-01 2.29355E-02
 -1      2186 1.45610E-03 1.05598E-01 2.29291E-02
 -1      2187 1.22600E-03 1.15425E-01 2.35431E-02
 -1      2189 1.30428E-03 1.08482E-01 2.35361E-02
 -1      2190 1.08594E-03 1.18148E-01 2.40801E-02
 -1      2192 1.15468E-03 1.11048E-01 2.40742E-02
 -1      2193 9.50025E-04 1.20534E-01 2.45470E-02
 -1      2195 1.00878E-03 1.13299E-01 2.45400E-02
 -1      2196 8.24785E-04 1.22601E-01 2.49415E-02
 -1      2198 8.74165E-04 1.15252E-01 2.49367E-02
 -1      2199 7.09258E-04 1.24361E-01 2.52647E-02
 -1      2201 7.47886E-04 1.16923E-01 2.52588E-02
 -1      2202 6.23748E-04 1.25865E-01 2.55139E-02
 -1      2204 6.53461E-04 1.18361E-01 2.55104E-02
 -1      2205 5.57605E-04 1.27128E-01 2.56805E-02
 -1      2207 5.73388E-04 1.19591E-01 2.56804E-02
 -1      2208-7.47424E-04 1.64801E-03-6.49805E-04
 -1      2210-9.33448E-04 1.38766E-03-6.88032E-04
 -1      2211-1.51524E-03 5.06955E-03-1.72765E-03
 -1      2213-1.62236E-03 4.45724E-03-1.75106E-03
 -1      2214-1.93125E-03 9.51630E-03-2.70242E-03
 -1      2216-2.09109E-03 8.59608E-03-2.71937E-03
 -1      2217-2.26515E-03 1.47990E-02-3.83408E-03
 -1      2219-2.41403E-03 1.35507E-02-3.84642E-03
 -1      2220-2.46634E-03 2.05760E-02-4.98173E-03
 -1      2222-2.63082E-03 1.89914E-02-4.98825E-03
 -1      2223-2.59940E-03 2.67058E-02-6.18857E-03
 -1      2225-2.76441E-03 2.47801E-02-6.19378E-03
 -1      2226-2.67124E-03 3.30246E-02-7.41276E-03
 -1      2228-2.84044E-03 3.07476E-02-7.41444E-03
 -1      2229-2.70086E-03 3.94393E-02-8.65315E-03
 -1      2231-2.87040E-03 3.68111E-02-8.65390E-03
 -1      2232-2.69700E-03 4.58631E-02-9.89325E-03
 -1      2234-2.86619E-03 4.28796E-02-9.89232E-03
 -1      2235-2.66751E-03 5.22359E-02-1.11257E-02
 -1      2237-2.83497E-03 4.89008E-02-1.11238E-02
 -1      2238-2.61738E-03 5.85060E-02-1.23408E-02
 -1      2240-2.78196E-03 5.48213E-02-1.23382E-02
 -1      2241-2.55067E-03 6.46329E-02-1.35319E-02
 -1      2243-2.71154E-03 6.06059E-02-1.35283E-02
 -1      2244-2.46993E-03 7.05823E-02-1.46917E-02
 -1      2246-2.62611E-03 6.62199E-02-1.46879E-02
 -1      2247-2.37752E-03 7.63248E-02-1.58151E-02
 -1      2249-2.52835E-03 7.16376E-02-1.58104E-02
 -1      2250-2.27481E-03 8.18355E-02-1.68960E-02
 -1      2252-2.41952E-03 7.68342E-02-1.68912E-02
 -1      2253-2.16336E-03 8.70920E-02-1.79303E-02
 -1      2255-2.30137E-03 8.17902E-02-1.79247E-02
 -1      2256-2.04403E-03 9.20750E-02-1.89130E-02
 -1      2258-2.17475E-03 8.64865E-02-1.89074E-02
 -1      2259-1.91810E-03 9.67670E-02-1.98408E-02
 -1      2261-2.04104E-03 9.09079E-02-1.98347E-02
 -1      2262-1.78634E-03 1.01153E-01-2.07097E-02
 -1      2264-1.90103E-03 9.50400E-02-2.07035E-02
 -1      2265-1.65001E-03 1.05221E-01-2.15169E-02
 -1      2267-1.75607E-03 9.88717E-02-2.15105E-02
 -1      2268-1.51012E-03 1.08960E-01-2.22597E-02
 -1      2270-1.60719E-03 1.02393E-01-2.22530E-02
 -1      2271-1.36828E-03 1.12363E-01-2.29355E-02
 -1      2273-1.45610E-03 1.05598E-01-2.29291E-02
 -1      2274-1.22600E-03 1.15425E-01-2.35431E-02
 -1      2276-1.30428E-03 1.08482E-01-2.35361E-02
 -1      2277-1.08594E-03 1.18148E-01-2.40801E-02
 -1      2279-1.15468E-03 1.11048E-01-2.40742E-02
 -1      2280-9.50025E-04 1.20534E-01-2.45470E-02
 -1      2282-1.00878E-03 1.13299E-01-2.45400E-02
 -1      2283-8.24785E-04 1.22601E-01-2.49415E-02
 -1      2285-8.74165E-04 1.15252E-01-2.49367E-02
 -1      2286-7.09258E-04 1.24361E-01-2.52647E-02
 -1      2288-7.47886E-04 1.16923E-01-2.52588E-02
 -1      2289-6.23748E-04 1.25865E-01-2.55139E-02
 -1      2291-6.53461E-04 1.18361E-01-2.55104E-02
 -1      2292-5.57605E-04 1.27128E-01-2.56805E-02
 -1      2294-5.73388E-04 1.19591E-01-2.56804E-02
 -3
    1PSTEP                        14           1           1          
    1PGM                1.000000E+00                                  
    1PGK                2.589949E+05                                  
    1PHID                         -1                                  
    1PSUBC                         0                                  
    1PMODE                         4                                  
  100CL  104 80.99639828         930                     2    4MODAL      1
 -4  STRESS      6    1
 -5  SXX         1    4    1    1
 -5  SYY         1    4    2    2
 -5  SZZ         1    4    3    3
 -5  SXY         1    4    1    2
 -5  SYZ         1    4    2    3
 -5  SZX         1    4    3    1
 -1       404 2.98171E+09 2.96344E+08 5.13568E+06-3.67049E+08 1.08290E+06-5.49305E+07
 -1       406 2.98171E+09 2.96344E+08 5.13568E+06-3.67049E+08 1.08290E+06-5.49305E+07
 -1       407-6.99055E+07-1.79319E+07 7.82626E+05 3.38130E+07 4.24317E+06 6.41526E+05
 -1       409-6.99055E+07-1.79319E+07 7.82626E+05 3.38130E+07 4.24317E+06 6.41526E+05
 -1       410-3.83742E-05-4.81009E-04 1.05876E-04 8.78830E+07 6.54481E+06-1.97821E-05
 -1       412-3.83742E-05-4.81009E-04 1.05876E-04 8.78830E+07 6.54481E+06-1.97821E-05
 -1       413 3.76904E-04 5.14833E-04 9.57574E-05-1.50604E+06 1.27340E+07-2.88810E-04
 -1       415 3.76904E-04 5.14833E-04 9.57574E-05-1.50604E+06 1.27340E+07-2.88810E-04
 -1       424-8.92937E-04-1.28046E-04 8.89599E-06-4.54179E+08 8.86177E+06 4.51878E-06
 -1       426-8.92937E-04-1.28046E-04 8.89599E-06-4.54179E+08 8.86177E+06 4.51878E-06
 -1       427-6.21449E-04 5.72873E-06-6.09160E-07-2.64825E+07-2.61069E+06 5.66963E-04
 -1       429-6.21449E-04 5.72873E-06-6.09160E-07-2.64825E+07-2.61069E+06 5.66963E-04
 -1       438 6.99055E+07 1.79319E+07-7.82626E+05 3.38130E+07 4.24317E+06-6.41526E+05
 -1       440 6.99055E+07 1.79319E+07-7.82626E+05 3.38130E+07 4.24317E+06-6.41526E+05
 -1       441-2.98171E+09-2.96344E+08-5.13568E+06-3.67049E+08 1.08290E+06 5.49305E+07
 -1       443-2.98171E+09-2.96344E+08-5.13568E+06-3.67049E+08 1.08290E+06 5.49305E+07
 -1       444 8.13165E-04-1.95172E-06 8.86309E-05 2.64825E+07-2.61069E+06 6.22471E-04
 -1       446 8.13165E-04-1.95172E-06 8.86309E-05 2.64825E+07-2.61069E+06 6.22471E-04
 -1       447 1.10638E-03 1.55836E-04 4.61936E-07 4.54179E+08 8.86177E+06 2.95113E-05
 -1       449 1.10638E-03 1.55836E-04 4.61936E-07 4.54179E+08 8.86177E+06 2.95113E-05
 -1       458-3.58106E-04-1.03080E-03-1.24691E-04 1.50604E+06 1.27340E+07 5.35575E-04
 -1       460-3.58106E-04-1.03080E-03-1.24691E-04 1.50604E+06 1.27340E+07 5.35575E-04
 -1       461 8.48770E-05-3.41982E-05 3.42503E-05-8.78830E+07 6.54481E+06-1.17629E-05
 -1       463 8.48770E-05-3.41982E-05 3.42503E-05-8.78830E+07 6.54481E+06-1.17629E-05
 -1       472 2.98171E+09 2.96344E+08 5.13568E+06 3.67049E+08 1.08290E+06 5.49305E+07
 -1       474 2.98171E+09 2.96344E+08 5.13568E+06 3.67049E+08 1.08290E+06 5.49305E+07
 -1       475-6.99055E+07-1.79319E+07 7.82626E+05-3.38130E+07 4.24317E+06-6.41526E+05
 -1       477-6.99055E+07-1.79319E+07 7.82626E+05-3.38130E+07 4.24317E+06-6.41526E+05
 -1       478 6.99055E+07 1.79319E+07-7.82626E+05-3.38130E+07 4.24317E+06 6.41526E+05
 -1       480 6.99055E+07 1.79319E+07-7.82626E+05-3.38130E+07 4.24317E+06 6.41526E+05
 -1       481-2.98171E+09-2.96344E+08-5.13568E+06 3.67049E+08 1.08290E+06-5.49305E+07
 -1       483-2.98171E+09-2.96344E+08-5.13568E+06 3.67049E+08 1.08290E+06-5.49305E+07
 -1       484 2.52196E+09 8.88221E+07-3.60156E+05-2.47812E+08-2.72710E+05-1.90303E+07
 -1       486 2.52196E+09 8.88221E+07-3.60156E+05-2.47812E+08-2.72710E+05-1.90303E+07
 -1       487 1.75915E+09-2.45040E+07 9.20090E+05-1.41148E+08-1.18799E+06-2.82168E+05
 -1       489 1.75915E+09-2.45040E+07 9.20090E+05-1.41148E+08-1.18799E+06-2.82168E+05
 -1       490 1.21996E+09 2.25340E+07 7.56556E+05-1.20883E+08-1.22225E+06-9.49499E+06
 -1       492 1.21996E+09 2.25340E+07 7.56556E+05-1.20883E+08-1.22225E+06-9.49499E+06
 -1       493 8.20420E+08-2.42845E+06-1.44222E+05-8.02349E+07-1.85198E+06-5.31700E+06
 -1       495 8.20420E+08-2.42845E+06-1.44222E+05-8.02349E+07-1.85198E+06-5.31700E+06
 -1       496 5.32253E+08 6.24491E+06 6.72428E+05-6.18008E+07-1.70917E+06-7.47260E+06
 -1       498 5.32253E+08 6.24491E+06 6.72428E+05-6.18008E+07-1.70917E+06-7.47260E+06
 -1       499 3.17376E+08-2.76770E+05-3.16890E+05-4.49705E+07-1.57608E+06-6.62786E+06
 -1       501 3.17376E+08-2.76770E+05-3.16890E+05-4.49705E+07-1.57608E+06-6.62786E+06
 -1       502 1.57818E+08 1.47627E+06 4.06998E+05-3.40596E+07-1.21138E+06-7.12819E+06
 -1       504 1.57818E+08 1.47627E+06 4.06998E+05-3.40596E+07-1.21138E+06-7.12819E+06
 -1       505 3.61511E+07-1.00391E+06-3.00269E+05-2.60327E+07-7.55805E+05-6.96691E+06
 -1       507 3.61511E+07-1.00391E+06-3.00269E+05-2.60327E+07-7.55805E+05-6.96691E+06
 -1       508-5.75707E+07-6.46940E+05 1.95378E+05-2.03026E+07-3.21880E+05-7.03516E+06
 -1       510-5.75707E+07-6.46940E+05 1.95378E+05-2.03026E+07-3.21880E+05-7.03516E+06
 -1       511-1.31740E+08-1.86405E+06-2.65692E+05-1.61955E+07 1.90704E+05-6.95005E+06
 -1       513-1.31740E+08-1.86405E+06-2.65692E+05-1.61955E+07 1.90704E+05-6.95005E+06
 -1       514-1.91463E+08-1.89933E+06 5.29161E+04-1.32065E+07 6.08184E+05-6.86254E+06
 -1       516-1.91463E+08-1.89933E+06 5.29161E+04-1.32065E+07 6.08184E+05-6.86254E+06
 -1       517-2.40845E+08-2.59380E+06-2.44251E+05-1.10062E+07 1.07387E+06-6.72631E+06
 -1       519-2.40845E+08-2.59380E+06-2.44251E+05-1.10062E+07 1.07387E+06-6.72631E+06
 -1       520-2.82398E+08-2.75292E+06-4.07742E+04-9.35932E+06 1.44173E+06-6.54995E+06
 -1       522-2.82398E+08-2.75292E+06-4.07742E+04-9.35932E+06 1.44173E+06-6.54995E+06
 -1       523-3.18087E+08-3.20648E+06-2.36577E+05-8.07709E+06 1.83292E+06-6.34534E+06
 -1       525-3.18087E+08-3.20648E+06-2.36577E+05-8.07709E+06 1.83292E+06-6.34534E+06
 -1       526-3.49067E+08-3.39040E+06-1.03272E+05-7.04669E+06 2.14344E+06-6.10206E+06
 -1       528-3.49067E+08-3.39040E+06-1.03272E+05-7.04669E+06 2.14344E+06-6.10206E+06
 -1       529-3.76192E+08-3.72398E+06-2.38597E+05-6.16136E+06 2.46121E+06-5.83529E+06
 -1       531-3.76192E+08-3.72398E+06-2.38597E+05-6.16136E+06 2.46121E+06-5.83529E+06
 -1       532-3.99866E+08-3.88698E+06-1.44942E+05-5.35543E+06 2.71721E+06-5.53724E+06
 -1       534-3.99866E+08-3.88698E+06-1.44942E+05-5.35543E+06 2.71721E+06-5.53724E+06
 -1       535-4.20313E+08-4.15870E+06-2.46966E+05-4.56287E+06 2.97150E+06-5.21834E+06
 -1       537-4.20313E+08-4.15870E+06-2.46966E+05-4.56287E+06 2.97150E+06-5.21834E+06
 -1       538-4.37431E+08-4.26123E+06-1.70279E+05-3.72489E+06 3.18076E+06-4.87481E+06
 -1       540-4.37431E+08-4.26123E+06-1.70279E+05-3.72489E+06 3.18076E+06-4.87481E+06
 -1       541-4.50970E+08-4.51767E+06-2.59789E+05-2.78908E+06 3.38515E+06-4.51353E+06
 -1       543-4.50970E+08-4.51767E+06-2.59789E+05-2.78908E+06 3.38515E+06-4.51353E+06
 -1       544-4.60316E+08-4.48901E+06-1.79325E+05-1.67384E+06 3.56091E+06-4.13138E+06
 -1       546-4.60316E+08-4.48901E+06-1.79325E+05-1.67384E+06 3.56091E+06-4.13138E+06
 -1       547-4.64669E+08-4.80356E+06-2.75979E+05-2.92254E+05 3.73558E+06-3.73703E+06
 -1       549-4.64669E+08-4.80356E+06-2.75979E+05-2.92254E+05 3.73558E+06-3.73703E+06
 -1       550-4.62664E+08-4.51866E+06-1.68538E+05 1.40260E+06 3.90149E+06-3.31772E+06
 -1       552-4.62664E+08-4.51866E+06-1.68538E+05 1.40260E+06 3.90149E+06-3.31772E+06
 -1       553-4.52552E+08-4.93942E+06-2.93410E+05 3.87597E+06 4.08284E+06-2.90215E+06
 -1       555-4.52552E+08-4.93942E+06-2.93410E+05 3.87597E+06 4.08284E+06-2.90215E+06
 -1       556-4.31722E+08-4.45989E+06-1.31834E+05 6.37762E+06 4.27514E+06-2.43195E+06
 -1       558-4.31722E+08-4.45989E+06-1.31834E+05 6.37762E+06 4.27514E+06-2.43195E+06
 -1       559-3.96488E+08-4.28318E+06-3.02357E+05 1.16988E+07 4.52424E+06-2.02382E+06
 -1       561-3.96488E+08-4.28318E+06-3.02357E+05 1.16988E+07 4.52424E+06-2.02382E+06
 -1       562-3.41970E+08-5.37736E+06-7.41139E+04 1.48323E+07 4.73689E+06-1.44780E+06
 -1       564-3.41970E+08-5.37736E+06-7.41139E+04 1.48323E+07 4.73689E+06-1.44780E+06
 -1       565-2.61560E+08-8.43845E+05-2.27163E+05 2.57054E+07 5.05808E+06-1.15407E+06
 -1       567-2.61560E+08-8.43845E+05-2.27163E+05 2.57054E+07 5.05808E+06-1.15407E+06
 -1       568-1.41952E+08-7.33637E+06-1.83960E+05 3.58033E+07 4.77890E+06-3.27627E+05
 -1       570-1.41952E+08-7.33637E+06-1.83960E+05 3.58033E+07 4.77890E+06-3.27627E+05
 -1       571-5.85833E+07-4.58585E+07-6.25341E+05 6.08480E+07 5.39399E+06 4.39080E+05
 -1       573-5.85833E+07-4.58585E+07-6.25341E+05 6.08480E+07 5.39399E+06 4.39080E+05
 -1       574-1.01671E-03-7.43493E-05 1.05798E-06-4.57381E+08 6.83142E+05-2.08453E-06
 -1       576-1.01671E-03-7.43493E-05 1.05798E-06-4.57381E+08 6.83142E+05-2.08453E-06
 -1       577-7.31709E-04 2.78993E-06 2.21397E-05-1.21813E+07-9.32907E+06 6.13435E-04
 -1       579-7.31709E-04 2.78993E-06 2.21397E-05-1.21813E+07-9.32907E+06 6.13435E-04
 -1       588-1.23751E-03 1.23978E-05 1.71587E-05-3.64065E+08-7.90239E+06-8.89716E-06
 -1       590-1.23751E-03 1.23978E-05 1.71587E-05-3.64065E+08-7.90239E+06-8.89716E-06
 -1       591-9.16520E-04 4.11514E-05 1.42455E-05-9.76270E+06-1.75304E+07 6.07122E-04
 -1       593-9.16520E-04 4.11514E-05 1.42455E-05-9.76270E+06-1.75304E+07 6.07122E-04
 -1       602-1.43546E-03 2.71276E-05 4.32506E-05-2.45925E+08-5.80710E+06-7.96909E-06
 -1       604-1.43546E-03 2.71276E-05 4.32506E-05-2.45925E+08-5.80710E+06-7.96909E-06
 -1       605-1.08350E-03 3.63394E-05-7.76769E-05-1.50001E+07-1.69371E+07 5.56574E-04
 -1       607-1.08350E-03 3.63394E-05-7.76769E-05-1.50001E+07-1.69371E+07 5.56574E-04
 -1       616-1.61539E-03 3.43565E-05 6.62990E-05-1.87418E+08-5.04474E+06-5.53438E-06
 -1       618-1.61539E-03 3.43565E-05 6.62990E-05-1.87418E+08-5.04474E+06-5.53438E-06
 -1       619-1.23718E-03 4.47724E-05-1.87324E-04-1.44514E+07-1.49278E+07 5.05232E-04
 -1       621-1.23718E-03 4.47724E-05-1.87324E-04-1.44514E+07-1.49278E+07 5.05232E-04
 -1       630-1.75091E-03 8.90605E-05 2.71685E-05-1.34053E+08-4.27592E+06-7.26827E-06
 -1       632-1.75091E-03 8.90605E-05 2.71685E-05-1.34053E+08-4.27592E+06-7.26827E-06
 -1       633-1.29781E-03 1.69573E-04-2.35264E-04-1.68080E+07-1.29183E+07 4.20556E-04
 -1       635-1.29781E-03 1.69573E-04-2.35264E-04-1.68080E+07-1.29183E+07 4.20556E-04
 -1       644-1.88258E-03 2.79443E-06-2.18488E-05-1.00985E+08-2.83363E+06 8.23522E-07
 -1       646-1.88258E-03 2.79443E-06-2.18488E-05-1.00985E+08-2.83363E+06 8.23522E-07
 -1       647-1.35914E-03 2.38412E-04-2.16480E-04-1.62433E+07-1.01586E+07 2.91394E-04
 -1       649-1.35914E-03 2.38412E-04-2.16480E-04-1.62433E+07-1.01586E+07 2.91394E-04
 -1       658-1.99166E-03-1.57589E-04-4.42315E-05-7.52765E+07-2.38530E+06-7.46129E-06
 -1       660-1.99166E-03-1.57589E-04-4.42315E-05-7.52765E+07-2.38530E+06-7.46129E-06
 -1       661-1.44493E-03 9.53990E-05-1.41111E-04-1.73176E+07-8.18737E+06 1.42017E-04
 -1       663-1.44493E-03 9.53990E-05-1.41111E-04-1.73176E+07-8.18737E+06 1.42017E-04
 -1       672-2.05081E-03-2.86720E-05-3.13629E-05-5.79241E+07-1.37247E+06-5.27175E-06
 -1       674-2.05081E-03-2.86720E-05-3.13629E-05-5.79241E+07-1.37247E+06-5.27175E-06
 -1       675-1.47225E-03 1.50334E-04 3.04679E-05-1.67401E+07-6.11564E+06 1.13504E-04
 -1       677-1.47225E-03 1.50334E-04 3.04679E-05-1.67401E+07-6.11564E+06 1.13504E-04
 -1       686-2.09387E-03 5.00091E-05-3.20460E-05-4.49546E+07-1.02821E+06-3.66033E-06
 -1       688-2.09387E-03 5.00091E-05-3.20460E-05-4.49546E+07-1.02821E+06-3.66033E-06
 -1       689-1.44498E-03 2.88712E-04 7.58817E-05-1.70626E+07-4.58134E+06 5.78445E-05
 -1       691-1.44498E-03 2.88712E-04 7.58817E-05-1.70626E+07-4.58134E+06 5.78445E-05
 -1       700-2.09432E-03-3.41360E-05 8.49902E-06-3.59671E+07-3.84589E+05-4.44870E-06
 -1       702-2.09432E-03-3.41360E-05 8.49902E-06-3.59671E+07-3.84589E+05-4.44870E-06
 -1       703-1.43534E-03 2.41214E-04-9.20778E-05-1.64850E+07-3.20672E+06-9.27324E-05
 -1       705-1.43534E-03 2.41214E-04-9.20778E-05-1.64850E+07-3.20672E+06-9.27324E-05
 -1       714-2.02599E-03-1.18474E-05 6.30463E-05-2.92078E+07-1.07682E+05-1.22469E-07
 -1       716-2.02599E-03-1.18474E-05 6.30463E-05-2.92078E+07-1.07682E+05-1.22469E-07
 -1       717-1.40283E-03 3.23902E-04-8.21080E-05-1.63550E+07-2.13781E+06-2.41265E-04
 -1       719-1.40283E-03 3.23902E-04-8.21080E-05-1.63550E+07-2.13781E+06-2.41265E-04
 -1       728-1.93764E-03 1.33412E-06-1.05156E-05-2.44042E+07 3.11582E+05-4.01051E-06
 -1       730-1.93764E-03 1.33412E-06-1.05156E-05-2.44042E+07 3.11582E+05-4.01051E-06
 -1       731-1.42440E-03 1.36084E-05 7.08793E-05-1.57480E+07-1.27309E+06-2.94656E-04
 -1       733-1.42440E-03 1.36084E-05 7.08793E-05-1.57480E+07-1.27309E+06-2.94656E-04
 -1       742-1.87859E-03-2.62992E-05 9.08896E-05-2.06780E+07 5.32045E+05-1.02457E-05
 -1       744-1.87859E-03-2.62992E-05 9.08896E-05-2.06780E+07 5.32045E+05-1.02457E-05
 -1       745-1.43767E-03-1.48326E-04 2.43813E-04-1.53379E+07-5.78570E+05-1.52241E-04
 -1       747-1.43767E-03-1.48326E-04 2.43813E-04-1.53379E+07-5.78570E+05-1.52241E-04
 -1       756-1.84815E-03-6.03506E-05 1.21822E-04-1.78765E+07 8.19998E+05-1.13663E-05
 -1       758-1.84815E-03-6.03506E-05 1.21822E-04-1.78765E+07 8.19998E+05-1.13663E-05
 -1       759-1.41603E-03-1.81621E-05 1.12037E-04-1.46777E+07-6.09674E+04-6.01607E-06
 -1       761-1.41603E-03-1.81621E-05 1.12037E-04-1.46777E+07-6.09674E+04-6.01607E-06
 -1       770-1.86863E-03-5.44311E-05-3.22647E-05-1.55573E+07 9.92131E+05-3.38000E-06
 -1       772-1.86863E-03-5.44311E-05-3.22647E-05-1.55573E+07 9.92131E+05-3.38000E-06
 -1       773-1.45376E-03-2.07760E-05-3.25240E-04-1.40807E+07 3.64095E+05-1.65893E-04
 -1       775-1.45376E-03-2.07760E-05-3.25240E-04-1.40807E+07 3.64095E+05-1.65893E-04
 -1       784-1.80151E-03 1.12066E-05-7.48765E-05-1.36106E+07 1.19898E+06-2.34512E-05
 -1       786-1.80151E-03 1.12066E-05-7.48765E-05-1.36106E+07 1.19898E+06-2.34512E-05
 -1       787-1.45012E-03-6.84689E-05-6.43280E-04-1.33599E+07 6.45974E+05-3.34593E-04
 -1       789-1.45012E-03-6.84689E-05-6.43280E-04-1.33599E+07 6.45974E+05-3.34593E-04
 -1       798-1.61594E-03 4.22494E-05 3.73265E-05-1.18170E+07 1.32781E+06 1.16120E-05
 -1       800-1.61594E-03 4.22494E-05 3.73265E-05-1.18170E+07 1.32781E+06 1.16120E-05
 -1       801-1.51067E-03-3.18587E-04-1.10560E-03-1.26248E+07 8.84962E+05-4.64306E-04
 -1       803-1.51067E-03-3.18587E-04-1.10560E-03-1.26248E+07 8.84962E+05-4.64306E-04
 -1       812-1.39287E-03-8.75629E-05 3.24100E-05-1.00531E+07 1.47884E+06 2.53972E-06
 -1       814-1.39287E-03-8.75629E-05 3.24100E-05-1.00531E+07 1.47884E+06 2.53972E-06
 -1       815-1.39454E-03-4.78196E-04-1.13203E-03-1.18518E+07 9.98653E+05-9.55557E-04
 -1       817-1.39454E-03-4.78196E-04-1.13203E-03-1.18518E+07 9.98653E+05-9.55557E-04
 -1       826-1.04903E-03-1.11570E-04 3.59751E-05-8.21613E+06 1.56476E+06 8.75909E-07
 -1       828-1.04903E-03-1.11570E-04 3.59751E-05-8.21613E+06 1.56476E+06 8.75909E-07
 -1       829-9.14513E-04-1.95947E-04-3.60369E-04-1.10022E+07 1.10971E+06-1.18293E-03
 -1       831-9.14513E-04-1.95947E-04-3.60369E-04-1.10022E+07 1.10971E+06-1.18293E-03
 -1       840-7.24405E-04-3.10037E-06 1.31197E-04-6.10320E+06 1.67060E+06 3.30490E-05
 -1       842-7.24405E-04-3.10037E-06 1.31197E-04-6.10320E+06 1.67060E+06 3.30490E-05
 -1       843-6.06892E-04-1.21105E-04-1.07654E-04-1.02033E+07 1.09105E+06-8.65075E-04
 -1       845-6.06892E-04-1.21105E-04-1.07654E-04-1.02033E+07 1.09105E+06-8.65075E-04
 -1       854-5.93513E-04 2.06884E-05 2.13161E-05-3.67997E+06 1.70935E+06 5.63974E-06
 -1       856-5.93513E-04 2.06884E-05 2.13161E-05-3.67997E+06 1.70935E+06 5.63974E-06
 -1       857-4.79522E-04-8.97868E-05-1.30630E-04-9.24520E+06 1.11872E+06-5.99131E-04
 -1       859-4.79522E-04-8.97868E-05-1.30630E-04-9.24520E+06 1.11872E+06-5.99131E-04
 -1       868-4.91388E-04-1.12627E-04 3.82513E-05-5.78200E+05 1.76966E+06 7.42602E-06
 -1       870-4.91388E-04-1.12627E-04 3.82513E-05-5.78200E+05 1.76966E+06 7.42602E-06
 -1       871-3.35619E-04 1.35307E-04 9.48604E-06-8.47336E+06 9.85156E+05-3.88428E-04
 -1       873-3.35619E-04 1.35307E-04 9.48604E-06-8.47336E+06 9.85156E+05-3.88428E-04
 -1       882-3.07105E-04-3.95169E-05 5.88186E-05 3.25964E+06 1.75782E+06 1.96421E-05
 -1       884-3.07105E-04-3.95169E-05 5.88186E-05 3.25964E+06 1.75782E+06 1.96421E-05
 -1       885-2.76108E-04 9.28474E-05-3.61260E-05-7.39535E+06 9.90709E+05-5.29502E-04
 -1       887-2.76108E-04 9.28474E-05-3.61260E-05-7.39535E+06 9.90709E+05-5.29502E-04
 -1       896-9.07630E-05 2.18907E-04-5.38304E-05 8.30072E+06 1.76081E+06-9.88669E-06
 -1       898-9.07630E-05 2.18907E-04-5.38304E-05 8.30072E+06 1.76081E+06-9.88669E-06
 -1       899-6.71061E-06 2.39368E-04 4.93742E-04-6.74382E+06 7.60161E+05-7.09045E-04
 -1       901-6.71061E-06 2.39368E-04 4.93742E-04-6.74382E+06 7.60161E+05-7.09045E-04
 -1       910 1.03071E-04 8.66512E-05 4.97680E-05 1.52811E+07 1.73268E+06-6.26140E-06
 -1       912 1.03071E-04 8.66512E-05 4.97680E-05 1.52811E+07 1.73268E+06-6.26140E-06
 -1       913 1.88215E-04 2.57836E-04 6.71237E-04-5.53067E+06 9.14993E+05-1.83427E-04
 -1       915 1.88215E-04 2.57836E-04 6.71237E-04-5.53067E+06 9.14993E+05-1.83427E-04
 -1       924 1.47827E-04 8.63262E-05 6.22105E-05 2.36196E+07 1.66705E+06-6.10360E-06
 -1       926 1.47827E-04 8.63262E-05 6.22105E-05 2.36196E+07 1.66705E+06-6.10360E-06
 -1       927 9.01874E-05 1.46228E-04-6.90546E-05-5.10656E+06 6.52468E+05 2.63910E-04
 -1       929 9.01874E-05 1.46228E-04-6.90546E-05-5.10656E+06 6.52468E+05 2.63910E-04
 -1       938 8.24779E-05 2.91767E-04-4.25139E-05 3.73641E+07 1.90881E+06-2.87799E-05
 -1       940 8.24779E-05 2.91767E-04-4.25139E-05 3.73641E+07 1.90881E+06-2.87799E-05
 -1       941 5.91296E-05 1.22749E-04-4.27121E-04-3.90393E+06 1.61183E+06 2.89909E-04
 -1       943 5.91296E-05 1.22749E-04-4.27121E-04-3.90393E+06 1.61183E+06 2.89909E-04
 -1       952 3.37008E-05 3.02193E-04 1.18733E-04 5.25265E+07 1.95366E+06 4.10270E-06
 -1       954 3.37008E-05 3.02193E-04 1.18733E-04 5.25265E+07 1.95366E+06 4.10270E-06
 -1       955 1.24103E-05 1.03788E-04-7.54470E-04-3.47571E+06 1.68168E+06 3.22989E-04
 -1       957 1.24103E-05 1.03788E-04-7.54470E-04-3.47571E+06 1.68168E+06 3.22989E-04
 -1       966-9.63360E-06-9.34117E-05 1.83971E-04 7.31547E+07 4.19232E+06 8.01258E-07
 -1       968-9.63360E-06-9.34117E-05 1.83971E-04 7.31547E+07 4.19232E+06 8.01258E-07
 -1       969 1.56242E-04 3.11807E-04-5.15766E-04-3.47163E+06 6.27828E+06 3.54807E-05
 -1       971 1.56242E-04 3.11807E-04-5.15766E-04-3.47163E+06 6.27828E+06 3.54807E-05
 -1       980 1.95818E+09 2.37145E+08 5.86712E+05-4.10614E+08 4.97233E+06-2.34147E+07
 -1       982 1.95818E+09 2.37145E+08 5.86712E+05-4.10614E+08 4.97233E+06-2.34147E+07
 -1       983 5.85833E+07 4.58585E+07 6.25341E+05 6.08480E+07 5.39399E+06-4.39080E+05
 -1       985 5.85833E+07 4.58585E+07 6.25341E+05 6.08480E+07 5.39399E+06-4.39080E+05
 -1       986-2.52196E+09-8.88221E+07 3.60156E+05-2.47812E+08-2.72710E+05 1.90303E+07
 -1       988-2.52196E+09-8.88221E+07 3.60156E+05-2.47812E+08-2.72710E+05 1.90303E+07
 -1       989-1.75915E+09 2.45040E+07-9.20090E+05-1.41148E+08-1.18799E+06 2.82168E+05
 -1       991-1.75915E+09 2.45040E+07-9.20090E+05-1.41148E+08-1.18799E+06 2.82168E+05
 -1       992-1.21996E+09-2.25340E+07-7.56556E+05-1.20883E+08-1.22225E+06 9.49499E+06
 -1       994-1.21996E+09-2.25340E+07-7.56556E+05-1.20883E+08-1.22225E+06 9.49499E+06
 -1       995-8.20420E+08 2.42845E+06 1.44222E+05-8.02349E+07-1.85198E+06 5.31700E+06
 -1       997-8.20420E+08 2.42845E+06 1.44222E+05-8.02349E+07-1.85198E+06 5.31700E+06
 -1       998-5.32253E+08-6.24491E+06-6.72428E+05-6.18008E+07-1.70917E+06 7.47260E+06
 -1      1000-5.32253E+08-6.24491E+06-6.72428E+05-6.18008E+07-1.70917E+06 7.47260E+06
 -1      1001-3.17376E+08 2.76770E+05 3.16890E+05-4.49705E+07-1.57608E+06 6.62786E+06
 -1      1003-3.17376E+08 2.76770E+05 3.16890E+05-4.49705E+07-1.57608E+06 6.62786E+06
 -1      1004-1.57818E+08-1.47627E+06-4.06998E+05-3.40596E+07-1.21138E+06 7.12819E+06
 -1      1006-1.57818E+08-1.47627E+06-4.06998E+05-3.40596E+07-1.21138E+06 7.12819E+06
 -1      1007-3.61511E+07 1.00391E+06 3.00269E+05-2.60327E+07-7.55805E+05 6.96691E+06
 -1      1009-3.61511E+07 1.00391E+06 3.00269E+05-2.60327E+07-7.55805E+05 6.96691E+06
 -1      1010 5.75707E+07 6.46940E+05-1.95378E+05-2.03026E+07-3.21880E+05 7.03516E+06
 -1      1012 5.75707E+07 6.46940E+05-1.95378E+05-2.03026E+07-3.21880E+05 7.03516E+06
 -1      1013 1.31740E+08 1.86405E+06 2.65692E+05-1.61955E+07 1.90704E+05 6.95005E+06
 -1      1015 1.31740E+08 1.86405E+06 2.65692E+05-1.61955E+07 1.90704E+05 6.95005E+06
 -1      1016 1.91463E+08 1.89933E+06-5.29161E+04-1.32065E+07 6.08184E+05 6.86254E+06
 -1      1018 1.91463E+08 1.89933E+06-5.29161E+04-1.32065E+07 6.08184E+05 6.86254E+06
 -1      1019 2.40845E+08 2.59380E+06 2.44251E+05-1.10062E+07 1.07387E+06 6.72631E+06
 -1      1021 2.40845E+08 2.59380E+06 2.44251E+05-1.10062E+07 1.07387E+06 6.72631E+06
 -1      1022 2.82398E+08 2.75292E+06 4.07742E+04-9.35932E+06 1.44173E+06 6.54995E+06
 -1      1024 2.82398E+08 2.75292E+06 4.07742E+04-9.35932E+06 1.44173E+06 6.54995E+06
 -1      1025 3.18087E+08 3.20648E+06 2.36577E+05-8.07709E+06 1.83292E+06 6.34534E+06
 -1      1027 3.18087E+08 3.20648E+06 2.36577E+05-8.07709E+06 1.83292E+06 6.34534E+06
 -1      1028 3.49067E+08 3.39040E+06 1.03272E+05-7.04669E+06 2.14344E+06 6.10206E+06
 -1      1030 3.49067E+08 3.39040E+06 1.03272E+05-7.04669E+06 2.14344E+06 6.10206E+06
 -1      1031 3.76192E+08 3.72398E+06 2.38597E+05-6.16136E+06 2.46121E+06 5.83529E+06
 -1      1033 3.76192E+08 3.72398E+06 2.38597E+05-6.16136E+06 2.46121E+06 5.83529E+06
 -1      1034 3.99866E+08 3.88698E+06 1.44942E+05-5.35543E+06 2.71721E+06 5.53724E+06
 -1      1036 3.99866E+08 3.88698E+06 1.44942E+05-5.35543E+06 2.71721E+06 5.53724E+06
 -1      1037 4.20313E+08 4.15870E+06 2.46966E+05-4.56287E+06 2.97150E+06 5.21834E+06
 -1      1039 4.20313E+08 4.15870E+06 2.46966E+05-4.56287E+06 2.97150E+06 5.21834E+06
 -1      1040 4.37431E+08 4.26123E+06 1.70279E+05-3.72489E+06 3.18076E+06 4.87481E+06
 -1      1042 4.37431E+08 4.26123E+06 1.70279E+05-3.72489E+06 3.18076E+06 4.87481E+06
 -1      1043 4.50970E+08 4.51767E+06 2.59789E+05-2.78908E+06 3.38515E+06 4.51353E+06
 -1      1045 4.50970E+08 4.51767E+06 2.59789E+05-2.78908E+06 3.38515E+06 4.51353E+06
 -1      1046 4.60316E+08 4.48901E+06 1.79325E+05-1.67384E+06 3.56091E+06 4.13138E+06
 -1      1048 4.60316E+08 4.48901E+06 1.79325E+05-1.67384E+06 3.56091E+06 4.13138E+06
 -1      1049 4.64669E+08 4.80356E+06 2.75979E+05-2.92254E+05 3.73558E+06 3.73703E+06
 -1      1051 4.64669E+08 4.80356E+06 2.75979E+05-2.92254E+05 3.73558E+06 3.73703E+06
 -1      1052 4.62664E+08 4.51866E+06 1.68538E+05 1.40260E+06 3.90149E+06 3.31772E+06
 -1      1054 4.62664E+08 4.51866E+06 1.68538E+05 1.40260E+06 3.90149E+06 3.31772E+06
 -1      1055 4.52552E+08 4.93942E+06 2.93410E+05 3.87597E+06 4.08284E+06 2.90215E+06
 -1      1057 4.52552E+08 4.93942E+06 2.93410E+05 3.87597E+06 4.08284E+06 2.90215E+06
 -1      1058 4.31722E+08 4.45989E+06 1.31834E+05 6.37762E+06 4.27514E+06 2.43195E+06
 -1      1060 4.31722E+08 4.45989E+06 1.31834E+05 6.37762E+06 4.27514E+06 2.43195E+06
 -1      1061 3.96488E+08 4.28318E+06 3.02357E+05 1.16988E+07 4.52424E+06 2.02382E+06
 -1      1063 3.96488E+08 4.28318E+06 3.02357E+05 1.16988E+07 4.52424E+06 2.02382E+06
 -1      1064 3.41970E+08 5.37736E+06 7.41139E+04 1.48323E+07 4.73689E+06 1.44780E+06
 -1      1066 3.41970E+08 5.37736E+06 7.41139E+04 1.48323E+07 4.73689E+06 1.44780E+06
 -1      1067 2.61560E+08 8.43845E+05 2.27163E+05 2.57054E+07 5.05808E+06 1.15407E+06
 -1      1069 2.61560E+08 8.43845E+05 2.27163E+05 2.57054E+07 5.05808E+06 1.15407E+06
 -1      1070 1.41952E+08 7.33637E+06 1.83960E+05 3.58033E+07 4.77890E+06 3.27627E+05
 -1      1072 1.41952E+08 7.33637E+06 1.83960E+05 3.58033E+07 4.77890E+06 3.27627E+05
 -1      1073-1.95818E+09-2.37145E+08-5.86712E+05-4.10614E+08 4.97233E+06 2.34147E+07
 -1      1075-1.95818E+09-2.37145E+08-5.86712E+05-4.10614E+08 4.97233E+06 2.34147E+07
 -1      1076-4.11019E-04-1.61321E-06 4.92062E-06-1.08619E+07-2.90483E+06 6.37450E-04
 -1      1078-4.11019E-04-1.61321E-06 4.92062E-06-1.08619E+07-2.90483E+06 6.37450E-04
 -1      1079 7.31014E-05-8.56935E-06 3.88265E-05 4.73772E-04-3.19897E+06 7.15244E-04
 -1      1081 7.31014E-05-8.56935E-06 3.88265E-05 4.73772E-04-3.19897E+06 7.15244E-04
 -1      1082 5.79978E-04-5.06764E-06 7.79167E-05 1.08619E+07-2.90483E+06 6.72511E-04
 -1      1084 5.79978E-04-5.06764E-06 7.79167E-05 1.08619E+07-2.90483E+06 6.72511E-04
 -1      1085 9.50090E-04 2.14388E-05 6.12460E-05 1.21813E+07-9.32907E+06 6.34310E-04
 -1      1087 9.50090E-04 2.14388E-05 6.12460E-05 1.21813E+07-9.32907E+06 6.34310E-04
 -1      1088 1.24791E-03 7.14585E-05 4.09782E-07 4.57381E+08 6.83142E+05 1.04648E-05
 -1      1090 1.24791E-03 7.14585E-05 4.09782E-07 4.57381E+08 6.83142E+05 1.04648E-05
 -1      1099 1.16466E-03 5.96955E-05 3.49153E-05 9.76270E+06-1.75304E+07 5.99707E-04
 -1      1101 1.16466E-03 5.96955E-05 3.49153E-05 9.76270E+06-1.75304E+07 5.99707E-04
 -1      1102 1.47370E-03-2.74181E-06 4.69387E-06 3.64065E+08-7.90239E+06-2.99513E-06
 -1      1104 1.47370E-03-2.74181E-06 4.69387E-06 3.64065E+08-7.90239E+06-2.99513E-06
 -1      1113 1.28159E-03 2.86541E-05-9.14014E-07 1.50001E+07-1.69371E+07 5.37784E-04
 -1      1115 1.28159E-03 2.86541E-05-9.14014E-07 1.50001E+07-1.69371E+07 5.37784E-04
 -1      1116 1.64112E-03-1.91908E-05 1.07214E-05 2.45925E+08-5.80710E+06 4.16813E-06
 -1      1118 1.64112E-03-1.91908E-05 1.07214E-05 2.45925E+08-5.80710E+06 4.16813E-06
 -1      1127 1.31044E-03-1.55068E-04-1.07877E-04 1.44514E+07-1.49278E+07 4.76253E-04
 -1      1129 1.31044E-03-1.55068E-04-1.07877E-04 1.44514E+07-1.49278E+07 4.76253E-04
 -1      1130 1.79964E-03-5.92135E-06 2.63564E-05 1.87418E+08-5.04474E+06-1.75158E-06
 -1      1132 1.79964E-03-5.92135E-06 2.63564E-05 1.87418E+08-5.04474E+06-1.75158E-06
 -1      1141 1.39056E-03-2.12018E-04-1.54397E-04 1.68080E+07-1.29183E+07 3.94602E-04
 -1      1143 1.39056E-03-2.12018E-04-1.54397E-04 1.68080E+07-1.29183E+07 3.94602E-04
 -1      1144 1.95070E-03 2.42842E-05 3.18624E-05 1.34053E+08-4.27592E+06 6.09481E-06
 -1      1146 1.95070E-03 2.42842E-05 3.18624E-05 1.34053E+08-4.27592E+06 6.09481E-06
 -1      1155 1.51154E-03-1.78610E-04-1.25157E-04 1.62433E+07-1.01586E+07 3.42364E-04
 -1      1157 1.51154E-03-1.78610E-04-1.25157E-04 1.62433E+07-1.01586E+07 3.42364E-04
 -1      1158 2.11671E-03 6.34398E-05 3.76580E-05 1.00985E+08-2.83363E+06 1.48895E-06
 -1      1160 2.11671E-03 6.34398E-05 3.76580E-05 1.00985E+08-2.83363E+06 1.48895E-06
 -1      1169 1.59537E-03-2.45331E-04-4.28163E-05 1.73176E+07-8.18737E+06 2.98544E-04
 -1      1171 1.59537E-03-2.45331E-04-4.28163E-05 1.73176E+07-8.18737E+06 2.98544E-04
 -1      1172 2.25918E-03 3.83509E-05 2.52686E-05 7.52765E+07-2.38530E+06 1.43610E-06
 -1      1174 2.25918E-03 3.83509E-05 2.52686E-05 7.52765E+07-2.38530E+06 1.43610E-06
 -1      1183 1.59946E-03-4.00244E-04-5.81247E-05 1.67401E+07-6.11564E+06 1.31620E-04
 -1      1185 1.59946E-03-4.00244E-04-5.81247E-05 1.67401E+07-6.11564E+06 1.31620E-04
 -1      1186 2.31633E-03-6.81375E-05 4.54475E-05 5.79241E+07-1.37247E+06-1.34856E-06
 -1      1188 2.31633E-03-6.81375E-05 4.54475E-05 5.79241E+07-1.37247E+06-1.34856E-06
 -1      1197 1.72880E-03-1.53976E-04-6.60202E-05 1.70626E+07-4.58134E+06-2.15642E-05
 -1      1199 1.72880E-03-1.53976E-04-6.60202E-05 1.70626E+07-4.58134E+06-2.15642E-05
 -1      1200 2.31455E-03-1.15376E-04 4.51981E-05 4.49546E+07-1.02821E+06-1.09635E-05
 -1      1202 2.31455E-03-1.15376E-04 4.51981E-05 4.49546E+07-1.02821E+06-1.09635E-05
 -1      1211 1.82476E-03 4.59306E-05 3.80843E-05 1.64850E+07-3.20672E+06-1.20650E-05
 -1      1213 1.82476E-03 4.59306E-05 3.80843E-05 1.64850E+07-3.20672E+06-1.20650E-05
 -1      1214 2.31868E-03-6.78743E-05-1.91715E-05 3.59671E+07-3.84589E+05-2.92459E-06
 -1      1216 2.31868E-03-6.78743E-05-1.91715E-05 3.59671E+07-3.84589E+05-2.92459E-06
 -1      1225 1.71238E-03-1.98318E-04 3.57396E-05 1.63550E+07-2.13781E+06-1.32016E-04
 -1      1227 1.71238E-03-1.98318E-04 3.57396E-05 1.63550E+07-2.13781E+06-1.32016E-04
 -1      1228 2.32401E-03 3.73973E-05 5.83054E-06 2.92078E+07-1.07682E+05-2.53925E-06
 -1      1230 2.32401E-03 3.73973E-05 5.83054E-06 2.92078E+07-1.07682E+05-2.53925E-06
 -1      1239 1.63946E-03-1.72117E-04-7.60000E-05 1.57480E+07-1.27309E+06-2.35459E-04
 -1      1241 1.63946E-03-1.72117E-04-7.60000E-05 1.57480E+07-1.27309E+06-2.35459E-04
 -1      1242 2.28395E-03 7.43596E-05 7.19447E-05 2.44042E+07 3.11582E+05-6.11250E-06
 -1      1244 2.28395E-03 7.43596E-05 7.19447E-05 2.44042E+07 3.11582E+05-6.11250E-06
 -1      1253 1.66725E-03-1.71594E-05-1.47074E-05 1.53379E+07-5.78570E+05-3.18339E-05
 -1      1255 1.66725E-03-1.71594E-05-1.47074E-05 1.53379E+07-5.78570E+05-3.18339E-05
 -1      1256 2.24521E-03 1.08163E-04 1.06790E-04 2.06780E+07 5.32045E+05 9.28226E-06
 -1      1258 2.24521E-03 1.08163E-04 1.06790E-04 2.06780E+07 5.32045E+05 9.28226E-06
 -1      1267 1.70491E-03 6.12991E-08 2.38182E-04 1.46777E+07-6.09674E+04-3.18777E-05
 -1      1269 1.70491E-03 6.12991E-08 2.38182E-04 1.46777E+07-6.09674E+04-3.18777E-05
 -1      1270 2.18592E-03-2.54260E-05 8.02325E-05 1.78765E+07 8.19998E+05 9.59751E-06
 -1      1272 2.18592E-03-2.54260E-05 8.02325E-05 1.78765E+07 8.19998E+05 9.59751E-06
 -1      1281 1.68119E-03-1.04854E-05 3.82179E-04 1.40807E+07 3.64095E+05-2.65272E-04
 -1      1283 1.68119E-03-1.04854E-05 3.82179E-04 1.40807E+07 3.64095E+05-2.65272E-04
 -1      1284 2.10035E-03-1.74454E-04-6.62170E-07 1.55573E+07 9.92131E+05 4.93927E-06
 -1      1286 2.10035E-03-1.74454E-04-6.62170E-07 1.55573E+07 9.92131E+05 4.93927E-06
 -1      1295 1.57488E-03-8.35190E-05 2.45044E-04 1.33599E+07 6.45974E+05-3.96251E-04
 -1      1297 1.57488E-03-8.35190E-05 2.45044E-04 1.33599E+07 6.45974E+05-3.96251E-04
 -1      1298 2.03629E-03-1.26327E-04 6.83730E-05 1.36106E+07 1.19898E+06 2.17876E-05
 -1      1300 2.03629E-03-1.26327E-04 6.83730E-05 1.36106E+07 1.19898E+06 2.17876E-05
 -1      1309 1.32340E-03-2.68738E-04-2.76304E-04 1.26248E+07 8.84962E+05-8.13251E-04
 -1      1311 1.32340E-03-2.68738E-04-2.76304E-04 1.26248E+07 8.84962E+05-8.13251E-04
 -1      1312 1.91663E-03 1.75321E-05 8.46973E-05 1.18170E+07 1.32781E+06 1.50974E-05
 -1      1314 1.91663E-03 1.75321E-05 8.46973E-05 1.18170E+07 1.32781E+06 1.50974E-05
 -1      1323 1.04343E-03-3.19590E-04-7.87565E-04 1.18518E+07 9.98653E+05-1.00969E-03
 -1      1325 1.04343E-03-3.19590E-04-7.87565E-04 1.18518E+07 9.98653E+05-1.00969E-03
 -1      1326 1.69648E-03 2.27500E-04 1.30441E-04 1.00531E+07 1.47884E+06 2.34717E-06
 -1      1328 1.69648E-03 2.27500E-04 1.30441E-04 1.00531E+07 1.47884E+06 2.34717E-06
 -1      1337 8.85354E-04-2.84875E-04-6.69203E-04 1.10022E+07 1.10971E+06-8.72930E-04
 -1      1339 8.85354E-04-2.84875E-04-6.69203E-04 1.10022E+07 1.10971E+06-8.72930E-04
 -1      1340 1.37962E-03 7.03502E-05 1.17758E-04 8.21613E+06 1.56476E+06 5.42891E-06
 -1      1342 1.37962E-03 7.03502E-05 1.17758E-04 8.21613E+06 1.56476E+06 5.42891E-06
 -1      1351 8.46741E-04 6.41397E-05-8.89330E-05 1.02033E+07 1.09105E+06-8.87855E-04
 -1      1353 8.46741E-04 6.41397E-05-8.89330E-05 1.02033E+07 1.09105E+06-8.87855E-04
 -1      1354 1.08887E-03 1.55363E-04 7.01752E-05 6.10320E+06 1.67060E+06-2.01061E-05
 -1      1356 1.08887E-03 1.55363E-04 7.01752E-05 6.10320E+06 1.67060E+06-2.01061E-05
 -1      1365 6.41483E-04 1.17180E-06 2.17295E-04 9.24520E+06 1.11872E+06-5.56600E-04
 -1      1367 6.41483E-04 1.17180E-06 2.17295E-04 9.24520E+06 1.11872E+06-5.56600E-04
 -1      1368 8.35210E-04 2.01762E-04 3.16259E-05 3.67997E+06 1.70935E+06-1.61480E-05
 -1      1370 8.35210E-04 2.01762E-04 3.16259E-05 3.67997E+06 1.70935E+06-1.61480E-05
 -1      1379 5.43934E-04 1.21777E-05 5.84677E-04 8.47336E+06 9.85156E+05-2.31599E-04
 -1      1381 5.43934E-04 1.21777E-05 5.84677E-04 8.47336E+06 9.85156E+05-2.31599E-04
 -1      1382 5.35831E-04-2.51806E-04 4.26546E-06 5.78200E+05 1.76966E+06-7.35512E-07
 -1      1384 5.35831E-04-2.51806E-04 4.26546E-06 5.78200E+05 1.76966E+06-7.35512E-07
 -1      1393 3.93628E-04 2.36912E-04 6.29227E-04 7.39535E+06 9.90709E+05-6.70877E-04
 -1      1395 3.93628E-04 2.36912E-04 6.29227E-04 7.39535E+06 9.90709E+05-6.70877E-04
 -1      1396 2.81230E-04-6.59702E-05-7.37011E-05-3.25964E+06 1.75782E+06-2.29609E-05
 -1      1398 2.81230E-04-6.59702E-05-7.37011E-05-3.25964E+06 1.75782E+06-2.29609E-05
 -1      1407 2.25593E-04 2.68050E-04 2.79329E-04 6.74382E+06 7.60161E+05-7.41381E-04
 -1      1409 2.25593E-04 2.68050E-04 2.79329E-04 6.74382E+06 7.60161E+05-7.41381E-04
 -1      1410 5.57080E-05-5.90952E-05-2.33252E-04-8.30072E+06 1.76081E+06-6.41029E-06
 -1      1412 5.57080E-05-5.90952E-05-2.33252E-04-8.30072E+06 1.76081E+06-6.41029E-06
 -1      1421 1.78411E-04 4.45007E-04 3.72359E-04 5.53067E+06 9.14993E+05-1.16425E-04
 -1      1423 1.78411E-04 4.45007E-04 3.72359E-04 5.53067E+06 9.14993E+05-1.16425E-04
 -1      1424-2.97576E-05-7.52974E-06 4.35188E-05-1.52811E+07 1.73268E+06 1.24527E-05
 -1      1426-2.97576E-05-7.52974E-06 4.35188E-05-1.52811E+07 1.73268E+06 1.24527E-05
 -1      1435-9.34453E-05 3.45418E-05 1.30869E-04 5.10656E+06 6.52468E+05-3.83650E-05
 -1      1437-9.34453E-05 3.45418E-05 1.30869E-04 5.10656E+06 6.52468E+05-3.83650E-05
 -1      1438-4.36455E-05 1.58726E-04 9.29274E-06-2.36196E+07 1.66705E+06 4.61488E-06
 -1      1440-4.36455E-05 1.58726E-04 9.29274E-06-2.36196E+07 1.66705E+06 4.61488E-06
 -1      1449-1.02732E-04 7.00835E-05-5.18528E-04 3.90393E+06 1.61183E+06-2.56754E-04
 -1      1451-1.02732E-04 7.00835E-05-5.18528E-04 3.90393E+06 1.61183E+06-2.56754E-04
 -1      1452-1.20156E-04-1.66243E-04 1.28774E-05-3.73641E+07 1.90881E+06-6.12554E-06
 -1      1454-1.20156E-04-1.66243E-04 1.28774E-05-3.73641E+07 1.90881E+06-6.12554E-06
 -1      1463-5.96041E-05 2.11726E-04-7.88956E-04 3.47571E+06 1.68168E+06 2.62929E-06
 -1      1465-5.96041E-05 2.11726E-04-7.88956E-04 3.47571E+06 1.68168E+06 2.62929E-06
 -1      1466-1.21336E-04 2.46055E-04 8.66477E-05-5.25265E+07 1.95366E+06 2.73879E-06
 -1      1468-1.21336E-04 2.46055E-04 8.66477E-05-5.25265E+07 1.95366E+06 2.73879E-06
 -1      1477-2.62508E-04-5.41567E-04-4.54698E-04 3.47163E+06 6.27828E+06 4.19336E-04
 -1      1479-2.62508E-04-5.41567E-04-4.54698E-04 3.47163E+06 6.27828E+06 4.19336E-04
 -1      1480-7.06688E-06 3.58399E-04-4.17342E-05-7.31547E+07 4.19232E+06-1.56204E-06
 -1      1482-7.06688E-06 3.58399E-04-4.17342E-05-7.31547E+07 4.19232E+06-1.56204E-06
 -1      1491 3.06326E-04 2.52710E-04-7.96916E-06 6.87229E+05 1.15187E+07-1.43486E-04
 -1      1493 3.06326E-04 2.52710E-04-7.96916E-06 6.87229E+05 1.15187E+07-1.43486E-04
 -1      1494 7.99562E-05-2.73926E-04-4.73534E-05 7.81300E-05 1.03035E+07 1.49438E-04
 -1      1496 7.99562E-05-2.73926E-04-4.73534E-05 7.81300E-05 1.03035E+07 1.49438E-04
 -1      1497-2.16971E-04-7.84618E-04-5.38509E-05-6.87229E+05 1.15187E+07 4.16306E-04
 -1      1499-2.16971E-04-7.84618E-04-5.38509E-05-6.87229E+05 1.15187E+07 4.16306E-04
 -1      1500 2.52196E+09 8.88221E+07-3.60156E+05 2.47812E+08-2.72710E+05 1.90303E+07
 -1      1502 2.52196E+09 8.88221E+07-3.60156E+05 2.47812E+08-2.72710E+05 1.90303E+07
 -1      1503 1.75915E+09-2.45040E+07 9.20090E+05 1.41148E+08-1.18799E+06 2.82168E+05
 -1      1505 1.75915E+09-2.45040E+07 9.20090E+05 1.41148E+08-1.18799E+06 2.82168E+05
 -1      1506 1.21996E+09 2.25340E+07 7.56556E+05 1.20883E+08-1.22225E+06 9.49499E+06
 -1      1508 1.21996E+09 2.25340E+07 7.56556E+05 1.20883E+08-1.22225E+06 9.49499E+06
 -1      1509 8.20420E+08-2.42845E+06-1.44222E+05 8.02349E+07-1.85198E+06 5.31700E+06
 -1      1511 8.20420E+08-2.42845E+06-1.44222E+05 8.02349E+07-1.85198E+06 5.31700E+06
 -1      1512 5.32253E+08 6.24491E+06 6.72428E+05 6.18008E+07-1.70917E+06 7.47260E+06
 -1      1514 5.32253E+08 6.24491E+06 6.72428E+05 6.18008E+07-1.70917E+06 7.47260E+06
 -1      1515 3.17376E+08-2.76770E+05-3.16890E+05 4.49705E+07-1.57608E+06 6.62786E+06
 -1      1517 3.17376E+08-2.76770E+05-3.16890E+05 4.49705E+07-1.57608E+06 6.62786E+06
 -1      1518 1.57818E+08 1.47627E+06 4.06998E+05 3.40596E+07-1.21138E+06 7.12819E+06
 -1      1520 1.57818E+08 1.47627E+06 4.06998E+05 3.40596E+07-1.21138E+06 7.12819E+06
 -1      1521 3.61511E+07-1.00391E+06-3.00269E+05 2.60327E+07-7.55805E+05 6.96691E+06
 -1      1523 3.61511E+07-1.00391E+06-3.00269E+05 2.60327E+07-7.55805E+05 6.96691E+06
 -1      1524-5.75707E+07-6.46940E+05 1.95378E+05 2.03026E+07-3.21880E+05 7.03516E+06
 -1      1526-5.75707E+07-6.46940E+05 1.95378E+05 2.03026E+07-3.21880E+05 7.03516E+06
 -1      1527-1.31740E+08-1.86405E+06-2.65692E+05 1.61955E+07 1.90704E+05 6.95005E+06
 -1      1529-1.31740E+08-1.86405E+06-2.65692E+05 1.61955E+07 1.90704E+05 6.95005E+06
 -1      1530-1.91463E+08-1.89933E+06 5.29161E+04 1.32065E+07 6.08184E+05 6.86254E+06
 -1      1532-1.91463E+08-1.89933E+06 5.29161E+04 1.32065E+07 6.08184E+05 6.86254E+06
 -1      1533-2.40845E+08-2.59380E+06-2.44251E+05 1.10062E+07 1.07387E+06 6.72631E+06
 -1      1535-2.40845E+08-2.59380E+06-2.44251E+05 1.10062E+07 1.07387E+06 6.72631E+06
 -1      1536-2.82398E+08-2.75292E+06-4.07742E+04 9.35932E+06 1.44173E+06 6.54995E+06
 -1      1538-2.82398E+08-2.75292E+06-4.07742E+04 9.35932E+06 1.44173E+06 6.54995E+06
 -1      1539-3.18087E+08-3.20648E+06-2.36577E+05 8.07709E+06 1.83292E+06 6.34534E+06
 -1      1541-3.18087E+08-3.20648E+06-2.36577E+05 8.07709E+06 1.83292E+06 6.34534E+06
 -1      1542-3.49067E+08-3.39040E+06-1.03272E+05 7.04669E+06 2.14344E+06 6.10206E+06
 -1      1544-3.49067E+08-3.39040E+06-1.03272E+05 7.04669E+06 2.14344E+06 6.10206E+06
 -1      1545-3.76192E+08-3.72398E+06-2.38597E+05 6.16136E+06 2.46121E+06 5.83529E+06
 -1      1547-3.76192E+08-3.72398E+06-2.38597E+05 6.16136E+06 2.46121E+06 5.83529E+06
 -1      1548-3.99866E+08-3.88698E+06-1.44942E+05 5.35543E+06 2.71721E+06 5.53724E+06
 -1      1550-3.99866E+08-3.88698E+06-1.44942E+05 5.35543E+06 2.71721E+06 5.53724E+06
 -1      1551-4.20313E+08-4.15870E+06-2.46966E+05 4.56287E+06 2.97150E+06 5.21834E+06
 -1      1553-4.20313E+08-4.15870E+06-2.46966E+05 4.56287E+06 2.97150E+06 5.21834E+06
 -1      1554-4.37431E+08-4.26123E+06-1.70279E+05 3.72489E+06 3.18076E+06 4.87481E+06
 -1      1556-4.37431E+08-4.26123E+06-1.70279E+05 3.72489E+06 3.18076E+06 4.87481E+06
 -1      1557-4.50970E+08-4.51767E+06-2.59789E+05 2.78908E+06 3.38515E+06 4.51353E+06
 -1      1559-4.50970E+08-4.51767E+06-2.59789E+05 2.78908E+06 3.38515E+06 4.51353E+06
 -1      1560-4.60316E+08-4.48901E+06-1.79325E+05 1.67384E+06 3.56091E+06 4.13138E+06
 -1      1562-4.60316E+08-4.48901E+06-1.79325E+05 1.67384E+06 3.56091E+06 4.13138E+06
 -1      1563-4.64669E+08-4.80356E+06-2.75979E+05 2.92254E+05 3.73558E+06 3.73703E+06
 -1      1565-4.64669E+08-4.80356E+06-2.75979E+05 2.92254E+05 3.73558E+06 3.73703E+06
 -1      1566-4.62664E+08-4.51866E+06-1.68538E+05-1.40260E+06 3.90149E+06 3.31772E+06
 -1      1568-4.62664E+08-4.51866E+06-1.68538E+05-1.40260E+06 3.90149E+06 3.31772E+06
 -1      1569-4.52552E+08-4.93942E+06-2.93410E+05-3.87597E+06 4.08284E+06 2.90215E+06
 -1      1571-4.52552E+08-4.93942E+06-2.93410E+05-3.87597E+06 4.08284E+06 2.90215E+06
 -1      1572-4.31722E+08-4.45989E+06-1.31834E+05-6.37762E+06 4.27514E+06 2.43195E+06
 -1      1574-4.31722E+08-4.45989E+06-1.31834E+05-6.37762E+06 4.27514E+06 2.43195E+06
 -1      1575-3.96488E+08-4.28318E+06-3.02357E+05-1.16988E+07 4.52424E+06 2.02382E+06
 -1      1577-3.96488E+08-4.28318E+06-3.02357E+05-1.16988E+07 4.52424E+06 2.02382E+06
 -1      1578-3.41970E+08-5.37736E+06-7.41139E+04-1.48323E+07 4.73689E+06 1.44780E+06
 -1      1580-3.41970E+08-5.37736E+06-7.41139E+04-1.48323E+07 4.73689E+06 1.44780E+06
 -1      1581-2.61560E+08-8.43845E+05-2.27163E+05-2.57054E+07 5.05808E+06 1.15407E+06
 -1      1583-2.61560E+08-8.43845E+05-2.27163E+05-2.57054E+07 5.05808E+06 1.15407E+06
 -1      1584-1.41952E+08-7.33637E+06-1.83960E+05-3.58033E+07 4.77890E+06 3.27627E+05
 -1      1586-1.41952E+08-7.33637E+06-1.83960E+05-3.58033E+07 4.77890E+06 3.27627E+05
 -1      1587-5.85833E+07-4.58585E+07-6.25341E+05-6.08480E+07 5.39399E+06-4.39080E+05
 -1      1589-5.85833E+07-4.58585E+07-6.25341E+05-6.08480E+07 5.39399E+06-4.39080E+05
 -1      1590 1.95818E+09 2.37145E+08 5.86712E+05 4.10614E+08 4.97233E+06 2.34147E+07
 -1      1592 1.95818E+09 2.37145E+08 5.86712E+05 4.10614E+08 4.97233E+06 2.34147E+07
 -1      1593 5.85833E+07 4.58585E+07 6.25341E+05-6.08480E+07 5.39399E+06 4.39080E+05
 -1      1595 5.85833E+07 4.58585E+07 6.25341E+05-6.08480E+07 5.39399E+06 4.39080E+05
 -1      1596-2.52196E+09-8.88221E+07 3.60156E+05 2.47812E+08-2.72710E+05-1.90303E+07
 -1      1598-2.52196E+09-8.88221E+07 3.60156E+05 2.47812E+08-2.72710E+05-1.90303E+07
 -1      1599-1.75915E+09 2.45040E+07-9.20090E+05 1.41148E+08-1.18799E+06-2.82168E+05
 -1      1601-1.75915E+09 2.45040E+07-9.20090E+05 1.41148E+08-1.18799E+06-2.82168E+05
 -1      1602-1.21996E+09-2.25340E+07-7.56556E+05 1.20883E+08-1.22225E+06-9.49499E+06
 -1      1604-1.21996E+09-2.25340E+07-7.56556E+05 1.20883E+08-1.22225E+06-9.49499E+06
 -1      1605-8.20420E+08 2.42845E+06 1.44222E+05 8.02349E+07-1.85198E+06-5.31700E+06
 -1      1607-8.20420E+08 2.42845E+06 1.44222E+05 8.02349E+07-1.85198E+06-5.31700E+06
 -1      1608-5.32253E+08-6.24491E+06-6.72428E+05 6.18008E+07-1.70917E+06-7.47260E+06
 -1      1610-5.32253E+08-6.24491E+06-6.72428E+05 6.18008E+07-1.70917E+06-7.47260E+06
 -1      1611-3.17376E+08 2.76770E+05 3.16890E+05 4.49705E+07-1.57608E+06-6.62786E+06
 -1      1613-3.17376E+08 2.76770E+05 3.16890E+05 4.49705E+07-1.57608E+06-6.62786E+06
 -1      1614-1.57818E+08-1.47627E+06-4.06998E+05 3.40596E+07-1.21138E+06-7.12819E+06
 -1      1616-1.57818E+08-1.47627E+06-4.06998E+05 3.40596E+07-1.21138E+06-7.12819E+06
 -1      1617-3.61511E+07 1.00391E+06 3.00269E+05 2.60327E+07-7.55805E+05-6.96691E+06
 -1      1619-3.61511E+07 1.00391E+06 3.00269E+05 2.60327E+07-7.55805E+05-6.96691E+06
 -1      1620 5.75707E+07 6.46940E+05-1.95378E+05 2.03026E+07-3.21880E+05-7.03516E+06
 -1      1622 5.75707E+07 6.46940E+05-1.95378E+05 2.03026E+07-3.21880E+05-7.03516E+06
 -1      1623 1.31740E+08 1.86405E+06 2.65692E+05 1.61955E+07 1.90704E+05-6.95005E+06
 -1      1625 1.31740E+08 1.86405E+06 2.65692E+05 1.61955E+07 1.90704E+05-6.95005E+06
 -1      1626 1.91463E+08 1.89933E+06-5.29161E+04 1.32065E+07 6.08184E+05-6.86254E+06
 -1      1628 1.91463E+08 1.89933E+06-5.29161E+04 1.32065E+07 6.08184E+05-6.86254E+06
 -1      1629 2.40845E+08 2.59380E+06 2.44251E+05 1.10062E+07 1.07387E+06-6.72631E+06
 -1      1631 2.40845E+08 2.59380E+06 2.44251E+05 1.10062E+07 1.07387E+06-6.72631E+06
 -1      1632 2.82398E+08 2.75292E+06 4.07742E+04 9.35932E+06 1.44173E+06-6.54995E+06
 -1      1634 2.82398E+08 2.75292E+06 4.07742E+04 9.35932E+06 1.44173E+06-6.54995E+06
 -1      1635 3.18087E+08 3.20648E+06 2.36577E+05 8.07709E+06 1.83292E+06-6.34534E+06
 -1      1637 3.18087E+08 3.20648E+06 2.36577E+05 8.07709E+06 1.83292E+06-6.34534E+06
 -1      1638 3.49067E+08 3.39040E+06 1.03272E+05 7.04669E+06 2.14344E+06-6.10206E+06
 -1      1640 3.49067E+08 3.39040E+06 1.03272E+05 7.04669E+06 2.14344E+06-6.10206E+06
 -1      1641 3.76192E+08 3.72398E+06 2.38597E+05 6.16136E+06 2.46121E+06-5.83529E+06
 -1      1643 3.76192E+08 3.72398E+06 2.38597E+05 6.16136E+06 2.46121E+06-5.83529E+06
 -1      1644 3.99866E+08 3.88698E+06 1.44942E+05 5.35543E+06 2.71721E+06-5.53724E+06
 -1      1646 3.99866E+08 3.88698E+06 1.44942E+05 5.35543E+06 2.71721E+06-5.53724E+06
 -1      1647 4.20313E+08 4.15870E+06 2.46966E+05 4.56287E+06 2.97150E+06-5.21834E+06
 -1      1649 4.20313E+08 4.15870E+06 2.46966E+05 4.56287E+06 2.97150E+06-5.21834E+06
 -1      1650 4.37431E+08 4.26123E+06 1.70279E+05 3.72489E+06 3.18076E+06-4.87481E+06
 -1      1652 4.37431E+08 4.26123E+06 1.70279E+05 3.72489E+06 3.18076E+06-4.87481E+06
 -1      1653 4.50970E+08 4.51767E+06 2.59789E+05 2.78908E+06 3.38515E+06-4.51353E+06
 -1      1655 4.50970E+08 4.51767E+06 2.59789E+05 2.78908E+06 3.38515E+06-4.51353E+06
 -1      1656 4.60316E+08 4.48901E+06 1.79325E+05 1.67384E+06 3.56091E+06-4.13138E+06
 -1      1658 4.60316E+08 4.48901E+06 1.79325E+05 1.67384E+06 3.56091E+06-4.13138E+06
 -1      1659 4.64669E+08 4.80356E+06 2.75979E+05 2.92254E+05 3.73558E+06-3.73703E+06
 -1      1661 4.64669E+08 4.80356E+06 2.75979E+05 2.92254E+05 3.73558E+06-3.73703E+06
 -1      1662 4.62664E+08 4.51866E+06 1.68538E+05-1.40260E+06 3.90149E+06-3.31772E+06
 -1      1664 4.62664E+08 4.51866E+06 1.68538E+05-1.40260E+06 3.90149E+06-3.31772E+06
 -1      1665 4.52552E+08 4.93942E+06 2.93410E+05-3.87597E+06 4.08284E+06-2.90215E+06
 -1      1667 4.52552E+08 4.93942E+06 2.93410E+05-3.87597E+06 4.08284E+06-2.90215E+06
 -1      1668 4.31722E+08 4.45989E+06 1.31834E+05-6.37762E+06 4.27514E+06-2.43195E+06
 -1      1670 4.31722E+08 4.45989E+06 1.31834E+05-6.37762E+06 4.27514E+06-2.43195E+06
 -1      1671 3.96488E+08 4.28318E+06 3.02357E+05-1.16988E+07 4.52424E+06-2.02382E+06
 -1      1673 3.96488E+08 4.28318E+06 3.02357E+05-1.16988E+07 4.52424E+06-2.02382E+06
 -1      1674 3.41970E+08 5.37736E+06 7.41139E+04-1.48323E+07 4.73689E+06-1.44780E+06
 -1      1676 3.41970E+08 5.37736E+06 7.41139E+04-1.48323E+07 4.73689E+06-1.44780E+06
 -1      1677 2.61560E+08 8.43845E+05 2.27163E+05-2.57054E+07 5.05808E+06-1.15407E+06
 -1      1679 2.61560E+08 8.43845E+05 2.27163E+05-2.57054E+07 5.05808E+06-1.15407E+06
 -1      1680 1.41952E+08 7.33637E+06 1.83960E+05-3.58033E+07 4.77890E+06-3.27627E+05
 -1      1682 1.41952E+08 7.33637E+06 1.83960E+05-3.58033E+07 4.77890E+06-3.27627E+05
 -1      1683-1.95818E+09-2.37145E+08-5.86712E+05 4.10614E+08 4.97233E+06-2.34147E+07
 -1      1685-1.95818E+09-2.37145E+08-5.86712E+05 4.10614E+08 4.97233E+06-2.34147E+07
 -1      1686 1.68933E+09 9.90142E+07 3.48989E+05-3.52596E+08 2.05216E+05-5.94765E+06
 -1      1688 1.68933E+09 9.90142E+07 3.48989E+05-3.52596E+08 2.05216E+05-5.94765E+06
 -1      1689 1.19181E+09 4.58734E+06 3.11405E+04-2.52607E+08-4.54519E+06 3.13656E+06
 -1      1691 1.19181E+09 4.58734E+06 3.11405E+04-2.52607E+08-4.54519E+06 3.13656E+06
 -1      1692 8.17386E+08 2.84969E+07 5.89980E+04-1.83404E+08-3.51467E+06-1.59536E+06
 -1      1694 8.17386E+08 2.84969E+07 5.89980E+04-1.83404E+08-3.51467E+06-1.59536E+06
 -1      1695 5.54955E+08 1.08227E+07 1.34055E+05-1.33826E+08-3.44836E+06 3.57161E+05
 -1      1697 5.54955E+08 1.08227E+07 1.34055E+05-1.33826E+08-3.44836E+06 3.57161E+05
 -1      1698 3.57752E+08 9.40698E+06-5.17263E+04-9.79268E+07-2.99255E+06-7.06848E+05
 -1      1700 3.57752E+08 9.40698E+06-5.17263E+04-9.79268E+07-2.99255E+06-7.06848E+05
 -1      1701 2.14717E+08 5.02559E+06 9.08142E+04-7.29779E+07-2.20486E+06-3.27233E+05
 -1      1703 2.14717E+08 5.02559E+06 9.08142E+04-7.29779E+07-2.20486E+06-3.27233E+05
 -1      1704 1.06583E+08 2.46481E+06-3.96568E+04-5.46680E+07-1.79834E+06-5.27640E+05
 -1      1706 1.06583E+08 2.46481E+06-3.96568E+04-5.46680E+07-1.79834E+06-5.27640E+05
 -1      1707 2.51341E+07 3.21707E+05 2.46616E+04-4.19784E+07-1.06414E+06-4.59900E+05
 -1      1709 2.51341E+07 3.21707E+05 2.46616E+04-4.19784E+07-1.06414E+06-4.59900E+05
 -1      1710-3.81346E+07-1.27806E+06-1.64274E+04-3.26286E+07-6.75043E+05-4.69762E+05
 -1      1712-3.81346E+07-1.27806E+06-1.64274E+04-3.26286E+07-6.75043E+05-4.69762E+05
 -1      1713-8.78614E+07-2.67035E+06-1.85934E+04-2.60813E+07-9.69425E+04-4.50265E+05
 -1      1715-8.78614E+07-2.67035E+06-1.85934E+04-2.60813E+07-9.69425E+04-4.50265E+05
 -1      1716-1.28101E+08-3.69994E+06-6.70545E+03-2.12071E+07 2.50251E+05-4.24342E+05
 -1      1718-1.28101E+08-3.69994E+06-6.70545E+03-2.12071E+07 2.50251E+05-4.24342E+05
 -1      1719-1.61218E+08-4.67205E+06-4.02681E+04-1.77052E+07 6.92725E+05-4.06855E+05
 -1      1721-1.61218E+08-4.67205E+06-4.02681E+04-1.77052E+07 6.92725E+05-4.06855E+05
 -1      1722-1.89174E+08-5.41105E+06-8.09007E+03-1.50187E+07 9.86886E+05-3.77832E+05
 -1      1724-1.89174E+08-5.41105E+06-8.09007E+03-1.50187E+07 9.86886E+05-3.77832E+05
 -1      1725-2.13107E+08-6.13024E+06-4.89452E+04-1.29768E+07 1.32646E+06-3.57756E+05
 -1      1727-2.13107E+08-6.13024E+06-4.89452E+04-1.29768E+07 1.32646E+06-3.57756E+05
 -1      1728-2.33925E+08-6.69906E+06-1.55051E+04-1.13020E+07 1.56779E+06-3.31030E+05
 -1      1730-2.33925E+08-6.69906E+06-1.55051E+04-1.13020E+07 1.56779E+06-3.31030E+05
 -1      1731-2.52107E+08-7.25428E+06-5.04383E+04-9.88600E+06 1.83010E+06-3.09455E+05
 -1      1733-2.52107E+08-7.25428E+06-5.04383E+04-9.88600E+06 1.83010E+06-3.09455E+05
 -1      1734-2.68004E+08-7.69894E+06-2.60408E+04-8.58622E+06 2.02251E+06-2.85033E+05
 -1      1736-2.68004E+08-7.69894E+06-2.60408E+04-8.58622E+06 2.02251E+06-2.85033E+05
 -1      1737-2.81697E+08-8.12863E+06-4.71381E+04-7.30796E+06 2.22517E+06-2.63079E+05
 -1      1739-2.81697E+08-8.12863E+06-4.71381E+04-7.30796E+06 2.22517E+06-2.63079E+05
 -1      1740-2.93188E+08-8.45351E+06-3.90934E+04-5.97051E+06 2.37276E+06-2.40392E+05
 -1      1742-2.93188E+08-8.45351E+06-3.90934E+04-5.97051E+06 2.37276E+06-2.40392E+05
 -1      1743-3.02229E+08-8.76546E+06-3.86909E+04-4.44614E+06 2.52787E+06-2.19526E+05
 -1      1745-3.02229E+08-8.76546E+06-3.86909E+04-4.44614E+06 2.52787E+06-2.19526E+05
 -1      1746-3.08505E+08-8.93892E+06-5.60605E+04-2.67691E+06 2.63513E+06-1.98187E+05
 -1      1748-3.08505E+08-8.93892E+06-5.60605E+04-2.67691E+06 2.63513E+06-1.98187E+05
 -1      1749-3.11360E+08-9.10709E+06-2.22706E+04-4.35227E+05 2.75262E+06-1.82333E+05
 -1      1751-3.11360E+08-9.10709E+06-2.22706E+04-4.35227E+05 2.75262E+06-1.82333E+05
 -1      1752-3.10000E+08-9.09759E+06-8.01778E+04 2.33112E+06 2.82965E+06-1.61071E+05
 -1      1754-3.10000E+08-9.09759E+06-8.01778E+04 2.33112E+06 2.82965E+06-1.61071E+05
 -1      1755-3.03163E+08-8.89206E+06 6.85645E+03 6.08835E+06 2.92182E+06-1.61760E+05
 -1      1757-3.03163E+08-8.89206E+06 6.85645E+03 6.08835E+06 2.92182E+06-1.61760E+05
 -1      1758-2.89031E+08-9.09914E+06-1.13273E+05 1.08294E+07 3.00391E+06-1.33357E+05
 -1      1760-2.89031E+08-9.09914E+06-1.13273E+05 1.08294E+07 3.00391E+06-1.33357E+05
 -1      1761-2.65470E+08-6.94599E+06 4.43298E+04 1.76592E+07 3.09565E+06-1.81926E+05
 -1      1763-2.65470E+08-6.94599E+06 4.43298E+04 1.76592E+07 3.09565E+06-1.81926E+05
 -1      1764-2.28686E+08-1.04299E+07-1.20962E+05 2.60982E+07 3.32285E+06-1.16556E+05
 -1      1766-2.28686E+08-1.04299E+07-1.20962E+05 2.60982E+07 3.32285E+06-1.16556E+05
 -1      1767-1.73364E+08 2.25551E+05-1.63901E+04 3.91160E+07 3.50587E+06-2.82438E+05
 -1      1769-1.73364E+08 2.25551E+05-1.63901E+04 3.91160E+07 3.50587E+06-2.82438E+05
 -1      1770-9.94640E+07-1.45168E+07 1.95540E+05 5.44790E+07 4.48561E+06-8.15786E+04
 -1      1772-9.94640E+07-1.45168E+07 1.95540E+05 5.44790E+07 4.48561E+06-8.15786E+04
 -1      1773-1.68933E+09-9.90142E+07-3.48989E+05-3.52596E+08 2.05216E+05 5.94765E+06
 -1      1775-1.68933E+09-9.90142E+07-3.48989E+05-3.52596E+08 2.05216E+05 5.94765E+06
 -1      1776-1.19181E+09-4.58734E+06-3.11405E+04-2.52607E+08-4.54519E+06-3.13656E+06
 -1      1778-1.19181E+09-4.58734E+06-3.11405E+04-2.52607E+08-4.54519E+06-3.13656E+06
 -1      1779-8.17386E+08-2.84969E+07-5.89980E+04-1.83404E+08-3.51467E+06 1.59536E+06
 -1      1781-8.17386E+08-2.84969E+07-5.89980E+04-1.83404E+08-3.51467E+06 1.59536E+06
 -1      1782-5.54955E+08-1.08227E+07-1.34055E+05-1.33826E+08-3.44836E+06-3.57161E+05
 -1      1784-5.54955E+08-1.08227E+07-1.34055E+05-1.33826E+08-3.44836E+06-3.57161E+05
 -1      1785-3.57752E+08-9.40698E+06 5.17263E+04-9.79268E+07-2.99255E+06 7.06848E+05
 -1      1787-3.57752E+08-9.40698E+06 5.17263E+04-9.79268E+07-2.99255E+06 7.06848E+05
 -1      1788-2.14717E+08-5.02559E+06-9.08142E+04-7.29779E+07-2.20486E+06 3.27233E+05
 -1      1790-2.14717E+08-5.02559E+06-9.08142E+04-7.29779E+07-2.20486E+06 3.27233E+05
 -1      1791-1.06583E+08-2.46481E+06 3.96568E+04-5.46680E+07-1.79834E+06 5.27640E+05
 -1      1793-1.06583E+08-2.46481E+06 3.96568E+04-5.46680E+07-1.79834E+06 5.27640E+05
 -1      1794-2.51341E+07-3.21707E+05-2.46616E+04-4.19784E+07-1.06414E+06 4.59900E+05
 -1      1796-2.51341E+07-3.21707E+05-2.46616E+04-4.19784E+07-1.06414E+06 4.59900E+05
 -1      1797 3.81346E+07 1.27806E+06 1.64274E+04-3.26286E+07-6.75043E+05 4.69762E+05
 -1      1799 3.81346E+07 1.27806E+06 1.64274E+04-3.26286E+07-6.75043E+05 4.69762E+05
 -1      1800 8.78614E+07 2.67035E+06 1.85934E+04-2.60813E+07-9.69425E+04 4.50265E+05
 -1      1802 8.78614E+07 2.67035E+06 1.85934E+04-2.60813E+07-9.69425E+04 4.50265E+05
 -1      1803 1.28101E+08 3.69994E+06 6.70545E+03-2.12071E+07 2.50251E+05 4.24342E+05
 -1      1805 1.28101E+08 3.69994E+06 6.70545E+03-2.12071E+07 2.50251E+05 4.24342E+05
 -1      1806 1.61218E+08 4.67205E+06 4.02681E+04-1.77052E+07 6.92725E+05 4.06855E+05
 -1      1808 1.61218E+08 4.67205E+06 4.02681E+04-1.77052E+07 6.92725E+05 4.06855E+05
 -1      1809 1.89174E+08 5.41105E+06 8.09007E+03-1.50187E+07 9.86886E+05 3.77832E+05
 -1      1811 1.89174E+08 5.41105E+06 8.09007E+03-1.50187E+07 9.86886E+05 3.77832E+05
 -1      1812 2.13107E+08 6.13024E+06 4.89452E+04-1.29768E+07 1.32646E+06 3.57756E+05
 -1      1814 2.13107E+08 6.13024E+06 4.89452E+04-1.29768E+07 1.32646E+06 3.57756E+05
 -1      1815 2.33925E+08 6.69906E+06 1.55051E+04-1.13020E+07 1.56779E+06 3.31030E+05
 -1      1817 2.33925E+08 6.69906E+06 1.55051E+04-1.13020E+07 1.56779E+06 3.31030E+05
 -1      1818 2.52107E+08 7.25428E+06 5.04383E+04-9.88600E+06 1.83010E+06 3.09455E+05
 -1      1820 2.52107E+08 7.25428E+06 5.04383E+04-9.88600E+06 1.83010E+06 3.09455E+05
 -1      1821 2.68004E+08 7.69894E+06 2.60408E+04-8.58622E+06 2.02251E+06 2.85033E+05
 -1      1823 2.68004E+08 7.69894E+06 2.60408E+04-8.58622E+06 2.02251E+06 2.85033E+05
 -1      1824 2.81697E+08 8.12863E+06 4.71381E+04-7.30796E+06 2.22517E+06 2.63079E+05
 -1      1826 2.81697E+08 8.12863E+06 4.71381E+04-7.30796E+06 2.22517E+06 2.63079E+05
 -1      1827 2.93188E+08 8.45351E+06 3.90934E+04-5.97051E+06 2.37276E+06 2.40392E+05
 -1      1829 2.93188E+08 8.45351E+06 3.90934E+04-5.97051E+06 2.37276E+06 2.40392E+05
 -1      1830 3.02229E+08 8.76546E+06 3.86909E+04-4.44614E+06 2.52787E+06 2.19526E+05
 -1      1832 3.02229E+08 8.76546E+06 3.86909E+04-4.44614E+06 2.52787E+06 2.19526E+05
 -1      1833 3.08505E+08 8.93892E+06 5.60605E+04-2.67691E+06 2.63513E+06 1.98187E+05
 -1      1835 3.08505E+08 8.93892E+06 5.60605E+04-2.67691E+06 2.63513E+06 1.98187E+05
 -1      1836 3.11360E+08 9.10709E+06 2.22706E+04-4.35227E+05 2.75262E+06 1.82333E+05
 -1      1838 3.11360E+08 9.10709E+06 2.22706E+04-4.35227E+05 2.75262E+06 1.82333E+05
 -1      1839 3.10000E+08 9.09759E+06 8.01778E+04 2.33112E+06 2.82965E+06 1.61071E+05
 -1      1841 3.10000E+08 9.09759E+06 8.01778E+04 2.33112E+06 2.82965E+06 1.61071E+05
 -1      1842 3.03163E+08 8.89206E+06-6.85645E+03 6.08835E+06 2.92182E+06 1.61760E+05
 -1      1844 3.03163E+08 8.89206E+06-6.85645E+03 6.08835E+06 2.92182E+06 1.61760E+05
 -1      1845 2.89031E+08 9.09914E+06 1.13273E+05 1.08294E+07 3.00391E+06 1.33357E+05
 -1      1847 2.89031E+08 9.09914E+06 1.13273E+05 1.08294E+07 3.00391E+06 1.33357E+05
 -1      1848 2.65470E+08 6.94599E+06-4.43298E+04 1.76592E+07 3.09565E+06 1.81926E+05
 -1      1850 2.65470E+08 6.94599E+06-4.43298E+04 1.76592E+07 3.09565E+06 1.81926E+05
 -1      1851 2.28686E+08 1.04299E+07 1.20962E+05 2.60982E+07 3.32285E+06 1.16556E+05
 -1      1853 2.28686E+08 1.04299E+07 1.20962E+05 2.60982E+07 3.32285E+06 1.16556E+05
 -1      1854 1.73364E+08-2.25551E+05 1.63901E+04 3.91160E+07 3.50587E+06 2.82438E+05
 -1      1856 1.73364E+08-2.25551E+05 1.63901E+04 3.91160E+07 3.50587E+06 2.82438E+05
 -1      1857 9.94640E+07 1.45168E+07-1.95540E+05 5.44790E+07 4.48561E+06 8.15786E+04
 -1      1859 9.94640E+07 1.45168E+07-1.95540E+05 5.44790E+07 4.48561E+06 8.15786E+04
 -1      1860-4.70570E-04 1.98517E-05 3.28050E-05-2.49378E+06-5.04619E+06 6.63591E-04
 -1      1862-4.70570E-04 1.98517E-05 3.28050E-05-2.49378E+06-5.04619E+06 6.63591E-04
 -1      1863-5.80456E-04 5.90502E-05 2.19916E-05 2.04676E+05-7.35702E+06 6.48884E-04
 -1      1865-5.80456E-04 5.90502E-05 2.19916E-05 2.04676E+05-7.35702E+06 6.48884E-04
 -1      1866-6.92692E-04 3.55458E-05-8.25513E-05-1.38264E+06-6.86142E+06 5.99170E-04
 -1      1868-6.92692E-04 3.55458E-05-8.25513E-05-1.38264E+06-6.86142E+06 5.99170E-04
 -1      1869-7.96652E-04 1.19008E-05-1.98268E-04-4.05966E+05-5.94217E+06 5.38894E-04
 -1      1871-7.96652E-04 1.19008E-05-1.98268E-04-4.05966E+05-5.94217E+06 5.38894E-04
 -1      1872-8.03662E-04 1.55476E-04-2.12966E-04-1.23780E+06-4.92397E+06 4.51355E-04
 -1      1874-8.03662E-04 1.55476E-04-2.12966E-04-1.23780E+06-4.92397E+06 4.51355E-04
 -1      1875-8.13767E-04 2.87774E-04-1.40733E-04-6.81151E+05-3.69461E+06 3.26490E-04
 -1      1877-8.13767E-04 2.87774E-04-1.40733E-04-6.81151E+05-3.69461E+06 3.26490E-04
 -1      1878-9.12826E-04 1.41952E-04-7.11672E-05-1.17022E+06-2.67162E+06 1.81316E-04
 -1      1880-9.12826E-04 1.41952E-04-7.11672E-05-1.17022E+06-2.67162E+06 1.81316E-04
 -1      1881-9.94030E-04 3.22970E-05-5.76102E-06-8.41229E+05-1.62833E+06 1.26081E-04
 -1      1883-9.94030E-04 3.22970E-05-5.76102E-06-8.41229E+05-1.62833E+06 1.26081E-04
 -1      1884-9.32656E-04 1.54710E-04 3.00448E-05-1.09992E+06-7.37955E+05 4.58036E-05
 -1      1886-9.32656E-04 1.54710E-04 3.00448E-05-1.09992E+06-7.37955E+05 4.58036E-05
 -1      1887-8.65310E-04 1.55850E-04-1.40714E-05-9.08446E+05 8.43405E+04-1.10400E-04
 -1      1889-8.65310E-04 1.55850E-04-1.40714E-05-9.08446E+05 8.43405E+04-1.10400E-04
 -1      1890-8.40524E-04 1.91583E-04 6.08230E-05-1.02459E+06 8.18543E+05-2.56413E-04
 -1      1892-8.40524E-04 1.91583E-04 6.08230E-05-1.02459E+06 8.18543E+05-2.56413E-04
 -1      1893-8.83187E-04 1.23644E-05 1.86104E-04-9.07633E+05 1.46026E+06-2.95541E-04
 -1      1895-8.83187E-04 1.23644E-05 1.86104E-04-9.07633E+05 1.46026E+06-2.95541E-04
 -1      1896-1.02763E-03-3.42415E-04 1.97105E-04-9.42051E+05 2.05463E+06-1.51132E-04
 -1      1898-1.02763E-03-3.42415E-04 1.97105E-04-9.42051E+05 2.05463E+06-1.51132E-04
 -1      1899-1.00115E-03-2.20084E-04 1.12105E-04-8.63096E+05 2.55537E+06-4.98668E-05
 -1      1901-1.00115E-03-2.20084E-04 1.12105E-04-8.63096E+05 2.55537E+06-4.98668E-05
 -1      1902-9.08361E-04 3.85353E-05-1.67780E-04-8.50885E+05 3.03571E+06-2.16764E-04
 -1      1904-9.08361E-04 3.85353E-05-1.67780E-04-8.50885E+05 3.03571E+06-2.16764E-04
 -1      1905-9.15570E-04-2.21356E-05-5.18238E-04-7.92707E+05 3.42232E+06-3.88977E-04
 -1      1907-9.15570E-04-2.21356E-05-5.18238E-04-7.92707E+05 3.42232E+06-3.88977E-04
 -1      1908-9.65237E-04-3.19788E-04-9.16736E-04-7.50911E+05 3.81248E+06-6.18395E-04
 -1      1910-9.65237E-04-3.19788E-04-9.16736E-04-7.50911E+05 3.81248E+06-6.18395E-04
 -1      1911-8.68570E-04-4.33278E-04-9.64269E-04-7.08950E+05 4.09950E+06-1.05012E-03
 -1      1913-8.68570E-04-4.33278E-04-9.64269E-04-7.08950E+05 4.09950E+06-1.05012E-03
 -1      1914-5.77897E-04-1.85005E-04-4.27364E-04-6.41878E+05 4.41968E+06-1.22423E-03
 -1      1916-5.77897E-04-1.85005E-04-4.27364E-04-6.41878E+05 4.41968E+06-1.22423E-03
 -1      1917-3.64653E-04-7.69413E-05-1.24965E-04-6.21676E+05 4.61155E+06-9.63855E-04
 -1      1919-3.64653E-04-7.69413E-05-1.24965E-04-6.21676E+05 4.61155E+06-9.63855E-04
 -1      1920-2.74381E-04-5.92700E-05-3.97593E-05-5.21870E+05 4.88195E+06-6.34668E-04
 -1      1922-2.74381E-04-5.92700E-05-3.97593E-05-5.21870E+05 4.88195E+06-6.34668E-04
 -1      1923-2.18332E-04 5.54486E-05 2.08872E-04-5.40589E+05 4.97542E+06-4.17998E-04
 -1      1925-2.18332E-04 5.54486E-05 2.08872E-04-5.40589E+05 4.97542E+06-4.17998E-04
 -1      1926-1.76546E-04-3.40692E-05 3.34987E-04-3.85877E+05 5.22682E+06-5.98150E-04
 -1      1928-1.76546E-04-3.40692E-05 3.34987E-04-3.85877E+05 5.22682E+06-5.98150E-04
 -1      1929-3.68625E-05 9.58112E-05 6.28238E-04-4.74476E+05 5.21371E+06-6.99500E-04
 -1      1931-3.68625E-05 9.58112E-05 6.28238E-04-4.74476E+05 5.21371E+06-6.99500E-04
 -1      1932 7.41555E-05 1.18716E-04 6.71283E-04-2.31103E+05 5.52076E+06-2.31700E-04
 -1      1934 7.41555E-05 1.18716E-04 6.71283E-04-2.31103E+05 5.52076E+06-2.31700E-04
 -1      1935 5.20948E-05-1.78108E-05 8.28248E-05-4.06840E+05 5.39331E+06 2.03332E-04
 -1      1937 5.20948E-05-1.78108E-05 8.28248E-05-4.06840E+05 5.39331E+06 2.03332E-04
 -1      1938 9.98108E-05 7.35507E-05-4.37509E-04-1.10708E+05 6.01049E+06 2.70764E-04
 -1      1940 9.98108E-05 7.35507E-05-4.37509E-04-1.10708E+05 6.01049E+06 2.70764E-04
 -1      1941 1.86820E-04 9.53631E-05-8.01531E-04-1.58905E+05 5.80940E+06 2.24140E-04
 -1      1943 1.86820E-04 9.53631E-05-8.01531E-04-1.58905E+05 5.80940E+06 2.24140E-04
 -1      1944 2.57040E-04 1.71784E-04-5.00439E-04-3.50092E+05 7.77012E+06 5.79968E-05
 -1      1946 2.57040E-04 1.71784E-04-5.00439E-04-3.50092E+05 7.77012E+06 5.79968E-05
 -1      1947 8.73754E-05 3.18981E-05 5.20201E-05 1.75202E-04-7.63313E+05 7.14795E-04
 -1      1949 8.73754E-05 3.18981E-05 5.20201E-05 1.75202E-04-7.63313E+05 7.14795E-04
 -1      1950 1.05402E-04 7.69264E-05 3.20598E-05 1.38707E-05 2.81632E+06 6.85764E-04
 -1      1952 1.05402E-04 7.69264E-05 3.20598E-05 1.38707E-05 2.81632E+06 6.85764E-04
 -1      1953 9.59887E-05 4.01821E-05-6.72695E-05 9.03024E-05 3.21430E+06 6.36000E-04
 -1      1955 9.59887E-05 4.01821E-05-6.72695E-05 9.03024E-05 3.21430E+06 6.36000E-04
 -1      1956 4.08537E-05-1.14372E-04-2.14647E-04 4.24893E-05 3.04343E+06 5.65996E-04
 -1      1958 4.08537E-05-1.14372E-04-2.14647E-04 4.24893E-05 3.04343E+06 5.65996E-04
 -1      1959 7.73011E-05-5.12130E-05-2.26436E-04 7.26483E-05 3.07036E+06 4.76785E-04
 -1      1961 7.73011E-05-5.12130E-05-2.26436E-04 7.26483E-05 3.07036E+06 4.76785E-04
 -1      1962 1.46315E-04 1.37138E-04-1.06684E-04 4.97396E-05 2.76934E+06 3.75606E-04
 -1      1964 1.46315E-04 1.37138E-04-1.06684E-04 4.97396E-05 2.76934E+06 3.75606E-04
 -1      1965 5.35042E-05-1.49182E-05-4.76558E-05 4.40660E-05 2.84413E+06 2.57403E-04
 -1      1967 5.35042E-05-1.49182E-05-4.76558E-05 4.40660E-05 2.84413E+06 2.57403E-04
 -1      1968-4.68353E-05-2.69739E-04-7.76228E-05 2.94242E-05 2.85897E+06 1.51059E-04
 -1      1970-4.68353E-05-2.69739E-04-7.76228E-05 2.94242E-05 2.85897E+06 1.51059E-04
 -1      1971 8.69610E-05-1.19038E-04-4.73957E-05 9.52743E-06 3.10543E+06 2.63510E-05
 -1      1973 8.69610E-05-1.19038E-04-4.73957E-05 9.52743E-06 3.10543E+06 2.63510E-05
 -1      1974 2.64476E-04 1.61741E-04 8.04843E-05 2.74619E-05 3.37540E+06-1.04294E-04
 -1      1976 2.64476E-04 1.61741E-04 8.04843E-05 2.74619E-05 3.37540E+06-1.04294E-04
 -1      1977 2.41608E-04 1.02158E-04 1.60369E-04 2.43089E-05 3.77489E+06-2.37626E-04
 -1      1979 2.41608E-04 1.02158E-04 1.60369E-04 2.43089E-05 3.77489E+06-2.37626E-04
 -1      1980 1.27695E-04-9.54435E-05 1.64363E-04-1.57631E-05 4.19360E+06-2.74085E-04
 -1      1982 1.27695E-04-9.54435E-05 1.64363E-04-1.57631E-05 4.19360E+06-2.74085E-04
 -1      1983-3.96121E-05-3.94464E-04 8.49828E-05 2.19969E-05 4.68783E+06-1.18458E-04
 -1      1985-3.96121E-05-3.94464E-04 8.49828E-05 2.19969E-05 4.68783E+06-1.18458E-04
 -1      1986-2.75050E-05-2.86985E-04 9.67242E-05 4.85489E-05 5.17170E+06-8.44373E-05
 -1      1988-2.75050E-05-2.86985E-04 9.67242E-05 4.85489E-05 5.17170E+06-8.44373E-05
 -1      1989 1.12606E-04 8.63602E-05 6.51544E-05-7.93729E-05 5.70732E+06-2.89104E-04
 -1      1991 1.12606E-04 8.63602E-05 6.51544E-05-7.93729E-05 5.70732E+06-2.89104E-04
 -1      1992 1.05471E-04 7.99003E-05-1.92289E-04-4.45903E-05 6.19867E+06-4.57011E-04
 -1      1994 1.05471E-04 7.99003E-05-1.92289E-04-4.45903E-05 6.19867E+06-4.57011E-04
 -1      1995 1.04002E-04-5.86271E-05-5.29820E-04-1.75135E-06 6.74000E+06-7.98995E-04
 -1      1997 1.04002E-04-5.86271E-05-5.29820E-04-1.75135E-06 6.74000E+06-7.98995E-04
 -1      1998 1.68084E-04-6.83606E-05-7.21754E-04-5.39781E-05 7.20035E+06-1.12284E-03
 -1      2000 1.68084E-04-6.83606E-05-7.21754E-04-5.39781E-05 7.20035E+06-1.12284E-03
 -1      2001 1.46311E-04-5.57549E-05-5.63077E-04-4.63771E-05 7.72965E+06-1.18792E-03
 -1      2003 1.46311E-04-5.57549E-05-5.63077E-04-4.63771E-05 7.72965E+06-1.18792E-03
 -1      2004 1.24474E-04-1.54659E-05-2.14151E-04-1.65338E-05 8.13205E+06-1.03209E-03
 -1      2006 1.24474E-04-1.54659E-05-2.14151E-04-1.65338E-05 8.13205E+06-1.03209E-03
 -1      2007 1.22361E-04 2.39603E-06 9.47121E-05 2.00358E-05 8.64518E+06-6.43060E-04
 -1      2009 1.22361E-04 2.39603E-06 9.47121E-05 2.00358E-05 8.64518E+06-6.43060E-04
 -1      2010 6.37988E-05 1.19327E-04 4.86396E-04-9.20892E-05 8.96569E+06-3.85616E-04
 -1      2012 6.37988E-05 1.19327E-04 4.86396E-04-9.20892E-05 8.96569E+06-3.85616E-04
 -1      2013-2.76965E-05-8.48378E-05 6.42502E-04-1.24350E-05 9.46292E+06-6.56852E-04
 -1      2015-2.76965E-05-8.48378E-05 6.42502E-04-1.24350E-05 9.46292E+06-6.56852E-04
 -1      2016-4.88693E-05-8.93807E-05 5.71173E-04 1.54474E-05 9.66727E+06-6.93362E-04
 -1      2018-4.88693E-05-8.93807E-05 5.71173E-04 1.54474E-05 9.66727E+06-6.93362E-04
 -1      2019-4.06763E-05-2.38868E-05 4.86132E-04-7.28760E-05 1.01265E+07-2.41817E-04
 -1      2021-4.06763E-05-2.38868E-05 4.86132E-04-7.28760E-05 1.01265E+07-2.41817E-04
 -1      2022-4.04568E-05-1.83854E-04 2.12984E-04-4.95673E-06 1.01341E+07 9.31292E-05
 -1      2024-4.04568E-05-1.83854E-04 2.12984E-04-4.95673E-06 1.01341E+07 9.31292E-05
 -1      2025 2.06864E-04 1.40521E-04-2.08256E-04 2.21290E-05 1.04091E+07 1.12145E-04
 -1      2027 2.06864E-04 1.40521E-04-2.08256E-04 2.21290E-05 1.04091E+07 1.12145E-04
 -1      2028 4.22651E-04 1.03617E-04-5.94838E-04-2.64024E-05 9.93713E+06 7.49751E-05
 -1      2030 4.22651E-04 1.03617E-04-5.94838E-04-2.64024E-05 9.93713E+06 7.49751E-05
 -1      2031 2.55184E-04-1.86975E-04-3.78027E-04-1.87838E-05 9.26195E+06 1.75495E-04
 -1      2033 2.55184E-04-1.86975E-04-3.78027E-04-1.87838E-05 9.26195E+06 1.75495E-04
 -1      2034 6.67135E-04 2.41607E-05 6.09079E-05 2.49378E+06-5.04619E+06 6.75076E-04
 -1      2036 6.67135E-04 2.41607E-05 6.09079E-05 2.49378E+06-5.04619E+06 6.75076E-04
 -1      2037 8.09927E-04 6.82997E-05 3.46486E-05-2.04676E+05-7.35702E+06 6.40295E-04
 -1      2039 8.09927E-04 6.82997E-05 3.46486E-05-2.04676E+05-7.35702E+06 6.40295E-04
 -1      2040 8.87727E-04 3.71330E-05-2.40136E-05 1.38264E+06-6.86142E+06 5.84008E-04
 -1      2042 8.87727E-04 3.71330E-05-2.40136E-05 1.38264E+06-6.86142E+06 5.84008E-04
 -1      2043 8.74138E-04-1.81421E-04-1.63979E-04 4.05966E+05-5.94217E+06 5.17845E-04
 -1      2045 8.74138E-04-1.81421E-04-1.63979E-04 4.05966E+05-5.94217E+06 5.17845E-04
 -1      2046 9.27336E-04-2.27912E-04-2.08300E-04 1.23780E+06-4.92397E+06 4.33008E-04
 -1      2048 9.27336E-04-2.27912E-04-2.08300E-04 1.23780E+06-4.92397E+06 4.33008E-04
 -1      2049 1.03628E-03-1.20736E-04-1.36770E-04 6.81151E+05-3.69461E+06 3.65995E-04
 -1      2051 1.03628E-03-1.20736E-04-1.36770E-04 6.81151E+05-3.69461E+06 3.65995E-04
 -1      2052 1.04155E-03-2.31837E-04-6.84521E-05 1.17022E+06-2.67162E+06 2.96368E-04
 -1      2054 1.04155E-03-2.31837E-04-6.84521E-05 1.17022E+06-2.67162E+06 2.96368E-04
 -1      2055 1.01080E-03-4.26991E-04-8.56902E-05 8.41229E+05-1.62833E+06 1.47539E-04
 -1      2057 1.01080E-03-4.26991E-04-8.56902E-05 8.41229E+05-1.62833E+06 1.47539E-04
 -1      2058 1.16153E-03-2.06380E-04-7.25097E-05 1.09992E+06-7.37955E+05-1.31246E-06
 -1      2060 1.16153E-03-2.06380E-04-7.25097E-05 1.09992E+06-7.37955E+05-1.31246E-06
 -1      2061 1.32450E-03 1.49463E-04 6.75589E-05 9.08446E+05 8.43405E+04-4.62929E-05
 -1      2063 1.32450E-03 1.49463E-04 6.75589E-05 9.08446E+05 8.43405E+04-4.62929E-05
 -1      2064 1.23691E-03-2.66322E-05 7.63622E-05 1.02459E+06 8.18543E+05-1.67853E-04
 -1      2066 1.23691E-03-2.66322E-05 7.63622E-05 1.02459E+06 8.18543E+05-1.67853E-04
 -1      2067 1.11841E-03-1.87062E-04-2.43010E-05 9.07633E+05 1.46026E+06-2.43602E-04
 -1      2069 1.11841E-03-1.87062E-04-2.43010E-05 9.07633E+05 1.46026E+06-2.43602E-04
 -1      2070 1.10280E-03-1.34792E-04 2.43038E-06 9.42051E+05 2.05463E+06-5.93638E-05
 -1      2072 1.10280E-03-1.34792E-04 2.43038E-06 9.42051E+05 2.05463E+06-5.93638E-05
 -1      2073 1.11809E-03-7.59515E-05 1.59729E-04 8.63096E+05 2.55537E+06-5.35174E-05
 -1      2075 1.11809E-03-7.59515E-05 1.59729E-04 8.63096E+05 2.55537E+06-5.35174E-05
 -1      2076 1.13468E-03 3.21942E-05 2.61404E-04 8.50885E+05 3.03571E+06-2.87923E-04
 -1      2078 1.13468E-03 3.21942E-05 2.61404E-04 8.50885E+05 3.03571E+06-2.87923E-04
 -1      2079 1.08342E-03 2.60419E-05 1.26831E-04 7.92707E+05 3.42232E+06-4.33456E-04
 -1      2081 1.08342E-03 2.60419E-05 1.26831E-04 7.92707E+05 3.42232E+06-4.33456E-04
 -1      2082 9.75604E-04-3.25017E-05-3.04035E-04 7.50911E+05 3.81248E+06-8.19378E-04
 -1      2084 9.75604E-04-3.25017E-05-3.04035E-04 7.50911E+05 3.81248E+06-8.19378E-04
 -1      2085 8.61098E-04-3.39751E-05-7.17282E-04 7.08950E+05 4.09950E+06-1.05534E-03
 -1      2087 8.61098E-04-3.39751E-05-7.17282E-04 7.08950E+05 4.09950E+06-1.05534E-03
 -1      2088 7.09629E-04-1.11161E-04-6.50499E-04 6.41878E+05 4.41968E+06-9.91612E-04
 -1      2090 7.09629E-04-1.11161E-04-6.50499E-04 6.41878E+05 4.41968E+06-9.91612E-04
 -1      2091 6.09052E-04 3.29927E-05-1.87480E-04 6.21676E+05 4.61155E+06-9.44697E-04
 -1      2093 6.09052E-04 3.29927E-05-1.87480E-04 6.21676E+05 4.61155E+06-9.44697E-04
 -1      2094 4.77722E-04 1.73585E-05 1.77804E-04 5.21870E+05 4.88195E+06-5.86258E-04
 -1      2096 4.77722E-04 1.73585E-05 1.77804E-04 5.21870E+05 4.88195E+06-5.86258E-04
 -1      2097 3.86288E-04 1.37621E-04 5.74606E-04 5.40589E+05 4.97542E+06-2.77631E-04
 -1      2099 3.86288E-04 1.37621E-04 5.74606E-04 5.40589E+05 4.97542E+06-2.77631E-04
 -1      2100 2.07609E-04 1.14111E-04 6.04066E-04 3.85877E+05 5.22682E+06-6.58892E-04
 -1      2102 2.07609E-04 1.14111E-04 6.04066E-04 3.85877E+05 5.22682E+06-6.58892E-04
 -1      2103 9.74342E-05 6.85171E-05 3.29470E-04 4.74476E+05 5.21371E+06-7.19075E-04
 -1      2105 9.74342E-05 6.85171E-05 3.29470E-04 4.74476E+05 5.21371E+06-7.19075E-04
 -1      2106 6.84810E-05 2.08819E-04 3.36646E-04 2.31103E+05 5.52076E+06-1.60043E-04
 -1      2108 6.84810E-05 2.08819E-04 3.36646E-04 2.31103E+05 5.52076E+06-1.60043E-04
 -1      2109-9.41806E-05-7.56584E-05 1.61066E-04 4.06840E+05 5.39331E+06 2.56991E-06
 -1      2111-9.41806E-05-7.56584E-05 1.61066E-04 4.06840E+05 5.39331E+06 2.56991E-06
 -1      2112 8.52519E-05 1.63387E-04-2.43572E-04 1.10708E+05 6.01049E+06-1.42042E-04
 -1      2114 8.52519E-05 1.63387E-04-2.43572E-04 1.10708E+05 6.01049E+06-1.42042E-04
 -1      2115 2.12234E-04 1.66011E-04-5.65020E-04 1.58905E+05 5.80940E+06 1.36445E-05
 -1      2117 2.12234E-04 1.66011E-04-5.65020E-04 1.58905E+05 5.80940E+06 1.36445E-05
 -1      2118-5.49889E-05-4.73640E-04-3.62820E-04 3.50092E+05 7.77012E+06 3.44907E-04
 -1      2120-5.49889E-05-4.73640E-04-3.62820E-04 3.50092E+05 7.77012E+06 3.44907E-04
 -1      2121 1.68933E+09 9.90142E+07 3.48989E+05 3.52596E+08 2.05216E+05 5.94765E+06
 -1      2123 1.68933E+09 9.90142E+07 3.48989E+05 3.52596E+08 2.05216E+05 5.94765E+06
 -1      2124 1.19181E+09 4.58734E+06 3.11405E+04 2.52607E+08-4.54519E+06-3.13656E+06
 -1      2126 1.19181E+09 4.58734E+06 3.11405E+04 2.52607E+08-4.54519E+06-3.13656E+06
 -1      2127 8.17386E+08 2.84969E+07 5.89980E+04 1.83404E+08-3.51467E+06 1.59536E+06
 -1      2129 8.17386E+08 2.84969E+07 5.89980E+04 1.83404E+08-3.51467E+06 1.59536E+06
 -1      2130 5.54955E+08 1.08227E+07 1.34055E+05 1.33826E+08-3.44836E+06-3.57161E+05
 -1      2132 5.54955E+08 1.08227E+07 1.34055E+05 1.33826E+08-3.44836E+06-3.57161E+05
 -1      2133 3.57752E+08 9.40698E+06-5.17263E+04 9.79268E+07-2.99255E+06 7.06848E+05
 -1      2135 3.57752E+08 9.40698E+06-5.17263E+04 9.79268E+07-2.99255E+06 7.06848E+05
 -1      2136 2.14717E+08 5.02559E+06 9.08142E+04 7.29779E+07-2.20486E+06 3.27233E+05
 -1      2138 2.14717E+08 5.02559E+06 9.08142E+04 7.29779E+07-2.20486E+06 3.27233E+05
 -1      2139 1.06583E+08 2.46481E+06-3.96568E+04 5.46680E+07-1.79834E+06 5.27640E+05
 -1      2141 1.06583E+08 2.46481E+06-3.96568E+04 5.46680E+07-1.79834E+06 5.27640E+05
 -1      2142 2.51341E+07 3.21707E+05 2.46616E+04 4.19784E+07-1.06414E+06 4.59900E+05
 -1      2144 2.51341E+07 3.21707E+05 2.46616E+04 4.19784E+07-1.06414E+06 4.59900E+05
 -1      2145-3.81346E+07-1.27806E+06-1.64274E+04 3.26286E+07-6.75043E+05 4.69762E+05
 -1      2147-3.81346E+07-1.27806E+06-1.64274E+04 3.26286E+07-6.75043E+05 4.69762E+05
 -1      2148-8.78614E+07-2.67035E+06-1.85934E+04 2.60813E+07-9.69425E+04 4.50265E+05
 -1      2150-8.78614E+07-2.67035E+06-1.85934E+04 2.60813E+07-9.69425E+04 4.50265E+05
 -1      2151-1.28101E+08-3.69994E+06-6.70545E+03 2.12071E+07 2.50251E+05 4.24342E+05
 -1      2153-1.28101E+08-3.69994E+06-6.70545E+03 2.12071E+07 2.50251E+05 4.24342E+05
 -1      2154-1.61218E+08-4.67205E+06-4.02681E+04 1.77052E+07 6.92725E+05 4.06855E+05
 -1      2156-1.61218E+08-4.67205E+06-4.02681E+04 1.77052E+07 6.92725E+05 4.06855E+05
 -1      2157-1.89174E+08-5.41105E+06-8.09007E+03 1.50187E+07 9.86886E+05 3.77832E+05
 -1      2159-1.89174E+08-5.41105E+06-8.09007E+03 1.50187E+07 9.86886E+05 3.77832E+05
 -1      2160-2.13107E+08-6.13024E+06-4.89452E+04 1.29768E+07 1.32646E+06 3.57756E+05
 -1      2162-2.13107E+08-6.13024E+06-4.89452E+04 1.29768E+07 1.32646E+06 3.57756E+05
 -1      2163-2.33925E+08-6.69906E+06-1.55051E+04 1.13020E+07 1.56779E+06 3.31030E+05
 -1      2165-2.33925E+08-6.69906E+06-1.55051E+04 1.13020E+07 1.56779E+06 3.31030E+05
 -1      2166-2.52107E+08-7.25428E+06-5.04383E+04 9.88600E+06 1.83010E+06 3.09455E+05
 -1      2168-2.52107E+08-7.25428E+06-5.04383E+04 9.88600E+06 1.83010E+06 3.09455E+05
 -1      2169-2.68004E+08-7.69894E+06-2.60408E+04 8.58622E+06 2.02251E+06 2.85033E+05
 -1      2171-2.68004E+08-7.69894E+06-2.60408E+04 8.58622E+06 2.02251E+06 2.85033E+05
 -1      2172-2.81697E+08-8.12863E+06-4.71381E+04 7.30796E+06 2.22517E+06 2.63079E+05
 -1      2174-2.81697E+08-8.12863E+06-4.71381E+04 7.30796E+06 2.22517E+06 2.63079E+05
 -1      2175-2.93188E+08-8.45351E+06-3.90934E+04 5.97051E+06 2.37276E+06 2.40392E+05
 -1      2177-2.93188E+08-8.45351E+06-3.90934E+04 5.97051E+06 2.37276E+06 2.40392E+05
 -1      2178-3.02229E+08-8.76546E+06-3.86909E+04 4.44614E+06 2.52787E+06 2.19526E+05
 -1      2180-3.02229E+08-8.76546E+06-3.86909E+04 4.44614E+06 2.52787E+06 2.19526E+05
 -1      2181-3.08505E+08-8.93892E+06-5.60605E+04 2.67691E+06 2.63513E+06 1.98187E+05
 -1      2183-3.08505E+08-8.93892E+06-5.60605E+04 2.67691E+06 2.63513E+06 1.98187E+05
 -1      2184-3.11360E+08-9.10709E+06-2.22706E+04 4.35227E+05 2.75262E+06 1.82333E+05
 -1      2186-3.11360E+08-9.10709E+06-2.22706E+04 4.35227E+05 2.75262E+06 1.82333E+05
 -1      2187-3.10000E+08-9.09759E+06-8.01778E+04-2.33112E+06 2.82965E+06 1.61071E+05
 -1      2189-3.10000E+08-9.09759E+06-8.01778E+04-2.33112E+06 2.82965E+06 1.61071E+05
 -1      2190-3.03163E+08-8.89206E+06 6.85645E+03-6.08835E+06 2.92182E+06 1.61760E+05
 -1      2192-3.03163E+08-8.89206E+06 6.85645E+03-6.08835E+06 2.92182E+06 1.61760E+05
 -1      2193-2.89031E+08-9.09914E+06-1.13273E+05-1.08294E+07 3.00391E+06 1.33357E+05
 -1      2195-2.89031E+08-9.09914E+06-1.13273E+05-1.08294E+07 3.00391E+06 1.33357E+05
 -1      2196-2.65470E+08-6.94599E+06 4.43298E+04-1.76592E+07 3.09565E+06 1.81926E+05
 -1      2198-2.65470E+08-6.94599E+06 4.43298E+04-1.76592E+07 3.09565E+06 1.81926E+05
 -1      2199-2.28686E+08-1.04299E+07-1.20962E+05-2.60982E+07 3.32285E+06 1.16556E+05
 -1      2201-2.28686E+08-1.04299E+07-1.20962E+05-2.60982E+07 3.32285E+06 1.16556E+05
 -1      2202-1.73364E+08 2.25551E+05-1.63901E+04-3.91160E+07 3.50587E+06 2.82438E+05
 -1      2204-1.73364E+08 2.25551E+05-1.63901E+04-3.91160E+07 3.50587E+06 2.82438E+05
 -1      2205-9.94640E+07-1.45168E+07 1.95540E+05-5.44790E+07 4.48561E+06 8.15786E+04
 -1      2207-9.94640E+07-1.45168E+07 1.95540E+05-5.44790E+07 4.48561E+06 8.15786E+04
 -1      2208-1.68933E+09-9.90142E+07-3.48989E+05 3.52596E+08 2.05216E+05-5.94765E+06
 -1      2210-1.68933E+09-9.90142E+07-3.48989E+05 3.52596E+08 2.05216E+05-5.94765E+06
 -1      2211-1.19181E+09-4.58734E+06-3.11405E+04 2.52607E+08-4.54519E+06 3.13656E+06
 -1      2213-1.19181E+09-4.58734E+06-3.11405E+04 2.52607E+08-4.54519E+06 3.13656E+06
 -1      2214-8.17386E+08-2.84969E+07-5.89980E+04 1.83404E+08-3.51467E+06-1.59536E+06
 -1      2216-8.17386E+08-2.84969E+07-5.89980E+04 1.83404E+08-3.51467E+06-1.59536E+06
 -1      2217-5.54955E+08-1.08227E+07-1.34055E+05 1.33826E+08-3.44836E+06 3.57161E+05
 -1      2219-5.54955E+08-1.08227E+07-1.34055E+05 1.33826E+08-3.44836E+06 3.57161E+05
 -1      2220-3.57752E+08-9.40698E+06 5.17263E+04 9.79268E+07-2.99255E+06-7.06848E+05
 -1      2222-3.57752E+08-9.40698E+06 5.17263E+04 9.79268E+07-2.99255E+06-7.06848E+05
 -1      2223-2.14717E+08-5.02559E+06-9.08142E+04 7.29779E+07-2.20486E+06-3.27233E+05
 -1      2225-2.14717E+08-5.02559E+06-9.08142E+04 7.29779E+07-2.20486E+06-3.27233E+05
 -1      2226-1.06583E+08-2.46481E+06 3.96568E+04 5.46680E+07-1.79834E+06-5.27640E+05
 -1      2228-1.06583E+08-2.46481E+06 3.96568E+04 5.46680E+07-1.79834E+06-5.27640E+05
 -1      2229-2.51341E+07-3.21707E+05-2.46616E+04 4.19784E+07-1.06414E+06-4.59900E+05
 -1      2231-2.51341E+07-3.21707E+05-2.46616E+04 4.19784E+07-1.06414E+06-4.59900E+05
 -1      2232 3.81346E+07 1.27806E+06 1.64274E+04 3.26286E+07-6.75043E+05-4.69762E+05
 -1      2234 3.81346E+07 1.27806E+06 1.64274E+04 3.26286E+07-6.75043E+05-4.69762E+05
 -1      2235 8.78614E+07 2.67035E+06 1.85934E+04 2.60813E+07-9.69425E+04-4.50265E+05
 -1      2237 8.78614E+07 2.67035E+06 1.85934E+04 2.60813E+07-9.69425E+04-4.50265E+05
 -1      2238 1.28101E+08 3.69994E+06 6.70545E+03 2.12071E+07 2.50251E+05-4.24342E+05
 -1      2240 1.28101E+08 3.69994E+06 6.70545E+03 2.12071E+07 2.50251E+05-4.24342E+05
 -1      2241 1.61218E+08 4.67205E+06 4.02681E+04 1.77052E+07 6.92725E+05-4.06855E+05
 -1      2243 1.61218E+08 4.67205E+06 4.02681E+04 1.77052E+07 6.92725E+05-4.06855E+05
 -1      2244 1.89174E+08 5.41105E+06 8.09007E+03 1.50187E+07 9.86886E+05-3.77832E+05
 -1      2246 1.89174E+08 5.41105E+06 8.09007E+03 1.50187E+07 9.86886E+05-3.77832E+05
 -1      2247 2.13107E+08 6.13024E+06 4.89452E+04 1.29768E+07 1.32646E+06-3.57756E+05
 -1      2249 2.13107E+08 6.13024E+06 4.89452E+04 1.29768E+07 1.32646E+06-3.57756E+05
 -1      2250 2.33925E+08 6.69906E+06 1.55051E+04 1.13020E+07 1.56779E+06-3.31030E+05
 -1      2252 2.33925E+08 6.69906E+06 1.55051E+04 1.13020E+07 1.56779E+06-3.31030E+05
 -1      2253 2.52107E+08 7.25428E+06 5.04383E+04 9.88600E+06 1.83010E+06-3.09455E+05
 -1      2255 2.52107E+08 7.25428E+06 5.04383E+04 9.88600E+06 1.83010E+06-3.09455E+05
 -1      2256 2.68004E+08 7.69894E+06 2.60408E+04 8.58622E+06 2.02251E+06-2.85033E+05
 -1      2258 2.68004E+08 7.69894E+06 2.60408E+04 8.58622E+06 2.02251E+06-2.85033E+05
 -1      2259 2.81697E+08 8.12863E+06 4.71381E+04 7.30796E+06 2.22517E+06-2.63079E+05
 -1      2261 2.81697E+08 8.12863E+06 4.71381E+04 7.30796E+06 2.22517E+06-2.63079E+05
 -1      2262 2.93188E+08 8.45351E+06 3.90934E+04 5.97051E+06 2.37276E+06-2.40392E+05
 -1      2264 2.93188E+08 8.45351E+06 3.90934E+04 5.97051E+06 2.37276E+06-2.40392E+05
 -1      2265 3.02229E+08 8.76546E+06 3.86909E+04 4.44614E+06 2.52787E+06-2.19526E+05
 -1      2267 3.02229E+08 8.76546E+06 3.86909E+04 4.44614E+06 2.52787E+06-2.19526E+05
 -1      2268 3.08505E+08 8.93892E+06 5.60605E+04 2.67691E+06 2.63513E+06-1.98187E+05
 -1      2270 3.08505E+08 8.93892E+06 5.60605E+04 2.67691E+06 2.63513E+06-1.98187E+05
 -1      2271 3.11360E+08 9.10709E+06 2.22706E+04 4.35227E+05 2.75262E+06-1.82333E+05
 -1      2273 3.11360E+08 9.10709E+06 2.22706E+04 4.35227E+05 2.75262E+06-1.82333E+05
 -1      2274 3.10000E+08 9.09759E+06 8.01778E+04-2.33112E+06 2.82965E+06-1.61071E+05
 -1      2276 3.10000E+08 9.09759E+06 8.01778E+04-2.33112E+06 2.82965E+06-1.61071E+05
 -1      2277 3.03163E+08 8.89206E+06-6.85645E+03-6.08835E+06 2.92182E+06-1.61760E+05
 -1      2279 3.03163E+08 8.89206E+06-6.85645E+03-6.08835E+06 2.92182E+06-1.61760E+05
 -1      2280 2.89031E+08 9.09914E+06 1.13273E+05-1.08294E+07 3.00391E+06-1.33357E+05
 -1      2282 2.89031E+08 9.09914E+06 1.13273E+05-1.08294E+07 3.00391E+06-1.33357E+05
 -1      2283 2.65470E+08 6.94599E+06-4.43298E+04-1.76592E+07 3.09565E+06-1.81926E+05
 -1      2285 2.65470E+08 6.94599E+06-4.43298E+04-1.76592E+07 3.09565E+06-1.81926E+05
 -1      2286 2.28686E+08 1.04299E+07 1.20962E+05-2.60982E+07 3.32285E+06-1.16556E+05
 -1      2288 2.28686E+08 1.04299E+07 1.20962E+05-2.60982E+07 3.32285E+06-1.16556E+05
 -1      2289 1.73364E+08-2.25551E+05 1.63901E+04-3.91160E+07 3.50587E+06-2.82438E+05
 -1      2291 1.73364E+08-2.25551E+05 1.63901E+04-3.91160E+07 3.50587E+06-2.82438E+05
 -1      2292 9.94640E+07 1.45168E+07-1.95540E+05-5.44790E+07 4.48561E+06-8.15786E+04
 -1      2294 9.94640E+07 1.45168E+07-1.95540E+05-5.44790E+07 4.48561E+06-8.15786E+04
 -3
    1PSTEP                        15           1           1          
    1PGM                1.000000E+00                                  
    1PGK                2.589949E+05                                  
    1PHID                         -1                                  
    1PSUBC                         0                                  
    1PMODE                         4                                  
  100CL  104 80.99639828         930                     2    4MODAL      1
 -4  FORC        4    1
 -5  F1          1    2    1    0
 -5  F2          1    2    2    0
 -5  F3          1    2    3    0
 -5  ALL         1    2    0    0    1ALL
 -1       404-5.55927E+05 1.82518E+05 5.71611E+04
 -1       406-7.09546E+05 1.55845E+05 5.71611E+04
 -1       407 1.27745E+01-1.91352E+03-5.89638E+02
 -1       409 1.27745E+01-1.91352E+03-5.89638E+02
 -1       410-8.68073E-09 2.96533E+04 7.32130E-08
 -1       412-1.40811E-08 1.41169E+05 2.81489E-07
 -1       413 1.28402E-07-9.12847E+04-8.75269E+04
 -1       415 9.68322E-08-9.12847E+04 8.75269E+04
 -1       424 2.58537E-07 1.46378E+04 4.61250E-08
 -1       426 3.22070E-07 1.19844E+04 7.19347E-08
 -1       427 9.60819E+04 1.39762E+05-5.04758E+03
 -1       429-9.60819E+04 1.39762E+05 5.04758E+03
 -1       438-1.27745E+01-1.91352E+03 5.89638E+02
 -1       440-1.27745E+01-1.91352E+03 5.89638E+02
 -1       441 5.55927E+05 1.82518E+05-5.71611E+04
 -1       443 7.09546E+05 1.55845E+05-5.71611E+04
 -1       444-9.60819E+04-1.39762E+05-5.04758E+03
 -1       446 9.60819E+04-1.39762E+05 5.04758E+03
 -1       447-2.82223E-07-1.46378E+04-3.96489E-09
 -1       449-4.39901E-07-1.19844E+04-9.68214E-10
 -1       458 6.37415E-08 9.12847E+04-8.75269E+04
 -1       460 7.98400E-09 9.12847E+04 8.75269E+04
 -1       461-7.67508E-08-2.96533E+04-4.79068E-07
 -1       463-1.07331E-07-1.41169E+05-2.37408E-07
 -1       472-5.55927E+05-1.82518E+05-5.71611E+04
 -1       474-7.09546E+05-1.55845E+05-5.71611E+04
 -1       475 1.27745E+01 1.91352E+03 5.89638E+02
 -1       477 1.27745E+01 1.91352E+03 5.89638E+02
 -1       478-1.27745E+01 1.91352E+03-5.89638E+02
 -1       480-1.27745E+01 1.91352E+03-5.89638E+02
 -1       481 5.55927E+05-1.82518E+05 5.71611E+04
 -1       483 7.09546E+05-1.55845E+05 5.71611E+04
 -1       484 3.96022E+01-6.24134E+01-3.88978E+01
 -1       486 3.96022E+01-6.24134E+01-3.88978E+01
 -1       487 7.09333E+01-1.56995E+02-8.45328E+01
 -1       489 7.09333E+01-1.56995E+02-8.45328E+01
 -1       490 9.28359E+01-2.87148E+02-1.33341E+02
 -1       492 9.28359E+01-2.87148E+02-1.33341E+02
 -1       493 1.07791E+02-4.42295E+02-1.84061E+02
 -1       495 1.07791E+02-4.42295E+02-1.84061E+02
 -1       496 1.17726E+02-6.14091E+02-2.37034E+02
 -1       498 1.17726E+02-6.14091E+02-2.37034E+02
 -1       499 1.23958E+02-7.96622E+02-2.91441E+02
 -1       501 1.23958E+02-7.96622E+02-2.91441E+02
 -1       502 1.27449E+02-9.85467E+02-3.46934E+02
 -1       504 1.27449E+02-9.85467E+02-3.46934E+02
 -1       505 1.28874E+02-1.17732E+03-4.02943E+02
 -1       507 1.28874E+02-1.17732E+03-4.02943E+02
 -1       508 1.28720E+02-1.36966E+03-4.59056E+02
 -1       510 1.28720E+02-1.36966E+03-4.59056E+02
 -1       511 1.27334E+02-1.56053E+03-5.14843E+02
 -1       513 1.27334E+02-1.56053E+03-5.14843E+02
 -1       514 1.24967E+02-1.74839E+03-5.69940E+02
 -1       516 1.24967E+02-1.74839E+03-5.69940E+02
 -1       517 1.21799E+02-1.93198E+03-6.24006E+02
 -1       519 1.21799E+02-1.93198E+03-6.24006E+02
 -1       520 1.17964E+02-2.11025E+03-6.76738E+02
 -1       522 1.17964E+02-2.11025E+03-6.76738E+02
 -1       523 1.13564E+02-2.28233E+03-7.27858E+02
 -1       525 1.13564E+02-2.28233E+03-7.27858E+02
 -1       526 1.08674E+02-2.44745E+03-7.77115E+02
 -1       528 1.08674E+02-2.44745E+03-7.77115E+02
 -1       529 1.03358E+02-2.60494E+03-8.24281E+02
 -1       531 1.03358E+02-2.60494E+03-8.24281E+02
 -1       532 9.76706E+01-2.75423E+03-8.69150E+02
 -1       534 9.76706E+01-2.75423E+03-8.69150E+02
 -1       535 9.16593E+01-2.89480E+03-9.11533E+02
 -1       537 9.16593E+01-2.89480E+03-9.11533E+02
 -1       538 8.53728E+01-3.02621E+03-9.51262E+02
 -1       540 8.53728E+01-3.02621E+03-9.51262E+02
 -1       541 7.88617E+01-3.14807E+03-9.88188E+02
 -1       543 7.88617E+01-3.14807E+03-9.88188E+02
 -1       544 7.21829E+01-3.26010E+03-1.02218E+03
 -1       546 7.21829E+01-3.26010E+03-1.02218E+03
 -1       547 6.54040E+01-3.36208E+03-1.05311E+03
 -1       549 6.54040E+01-3.36208E+03-1.05311E+03
 -1       550 5.86079E+01-3.45391E+03-1.08090E+03
 -1       552 5.86079E+01-3.45391E+03-1.08090E+03
 -1       553 5.19012E+01-3.53559E+03-1.10545E+03
 -1       555 5.19012E+01-3.53559E+03-1.10545E+03
 -1       556 4.54218E+01-3.60734E+03-1.12669E+03
 -1       558 4.54218E+01-3.60734E+03-1.12669E+03
 -1       559 3.93532E+01-3.66954E+03-1.14456E+03
 -1       561 3.93532E+01-3.66954E+03-1.14456E+03
 -1       562 3.39463E+01-3.72296E+03-1.15898E+03
 -1       564 3.39463E+01-3.72296E+03-1.15898E+03
 -1       565 2.95236E+01-3.76860E+03-1.16982E+03
 -1       567 2.95236E+01-3.76860E+03-1.16982E+03
 -1       568 2.65760E+01-3.80832E+03-1.17679E+03
 -1       570 2.65760E+01-3.80832E+03-1.17679E+03
 -1       571 1.70497E+01-3.82694E+03-7.88159E+02
 -1       573 1.70497E+01-3.82694E+03-7.88159E+02
 -1       574 1.88174E-07-1.08610E+05 4.03617E-08
 -1       576 1.93472E-07-1.72618E+05 7.42347E-08
 -1       577-1.96554E-07 1.40433E+05 5.02391E+04
 -1       579-1.98138E-07 1.40433E+05-5.02391E+04
 -1       588 2.19519E-07-2.67729E+04-1.14439E-07
 -1       590 2.18356E-07-1.75336E+05 8.92311E-09
 -1       591-2.15716E-07 1.00583E+05 1.16605E+05
 -1       593-2.15530E-07 1.00583E+05-1.16605E+05
 -1       602 2.12170E-07 8.64778E+03-2.40955E-07
 -1       604 2.07766E-07-1.37550E+05 1.90256E-07
 -1       605-1.99403E-07 6.35787E+04 1.14748E+05
 -1       607-1.77656E-07 6.35787E+04-1.14748E+05
 -1       616 1.72125E-07 1.45216E+04-4.00284E-07
 -1       618 1.74335E-07-1.17824E+05 1.83541E-07
 -1       619-1.87334E-07 5.03023E+04 1.03876E+05
 -1       621-1.72370E-07 5.03023E+04-1.03876E+05
 -1       630 1.49648E-07 2.75778E+04-3.05871E-07
 -1       632 1.35037E-07-8.60773E+04-1.22540E-09
 -1       633-1.70359E-07 2.73731E+04 8.92060E+04
 -1       635-1.79738E-07 2.73731E+04-8.92060E+04
 -1       644 1.29353E-07 2.04505E+04-3.84037E-08
 -1       646 1.42821E-07-6.62782E+04-2.88942E-07
 -1       647-1.33060E-07 2.04764E+04 6.80719E+04
 -1       649-6.79638E-08 2.04764E+04-6.80719E+04
 -1       658 8.08428E-08 2.16868E+04 4.85924E-08
 -1       660 6.93030E-08-4.34624E+04-2.34166E-07
 -1       661-5.67859E-08 7.87019E+03 5.11345E+04
 -1       663-5.64872E-08 7.87019E+03-5.11345E+04
 -1       672 6.42742E-08 1.34191E+04 2.28639E-07
 -1       674 3.16334E-08-2.73628E+04-8.97923E-08
 -1       675-6.72756E-09 3.36472E+03 3.20091E+04
 -1       677-6.97933E-08 3.36472E+03-3.20091E+04
 -1       686 3.58479E-08 1.00313E+04 1.49535E-07
 -1       688-3.89281E-09-1.09637E+04-9.86905E-08
 -1       689-2.93811E-08-3.73192E+03 1.64786E+04
 -1       691-3.69438E-08-3.73192E+03-1.64786E+04
 -1       700-7.22409E-10 2.75082E+03-7.09863E-08
 -1       702-1.58195E-08 1.52458E+03-1.03557E-07
 -1       703 4.55295E-08-6.92231E+03 9.62456E+02
 -1       705 8.13232E-08-6.92231E+03-9.62456E+02
 -1       714-7.94243E-08-1.85343E+03-5.79896E-07
 -1       716-8.62429E-08 1.35983E+04 3.79428E-07
 -1       717 5.04338E-08-1.12343E+04-1.21278E+04
 -1       719 6.29914E-08-1.12343E+04 1.21278E+04
 -1       728-1.01614E-07-7.86491E+03 2.32416E-07
 -1       730-1.00257E-07 2.32673E+04-4.73007E-08
 -1       731 1.35380E-07-1.36272E+04-2.44351E+04
 -1       733 1.59250E-07-1.36272E+04 2.44351E+04
 -1       742-3.80692E-08-1.23341E+04-2.69285E-07
 -1       744-5.45392E-08 3.23842E+04 7.46363E-07
 -1       745 6.92671E-09-1.64990E+04-3.50987E+04
 -1       747 6.12583E-08-1.64990E+04 3.50987E+04
 -1       756-5.85223E-08-1.71876E+04-5.65985E-07
 -1       758-3.90010E-08 3.99278E+04 6.48807E-07
 -1       759 9.24763E-09-1.83727E+04-4.48289E+04
 -1       761 4.25802E-08-1.83727E+04 4.48289E+04
 -1       770-6.51596E-08-2.10696E+04-1.76309E-07
 -1       772-2.33570E-08 4.69504E+04-4.47030E-07
 -1       773 1.44703E-07-2.04505E+04-5.33877E+04
 -1       775 2.74440E-08-2.04505E+04 5.33877E+04
 -1       784-1.65546E-07-2.49593E+04 1.45886E-07
 -1       786-1.10399E-07 5.28290E+04-5.07064E-07
 -1       787 8.91944E-08-2.19289E+04-6.10548E+04
 -1       789 2.08337E-07-2.19289E+04 6.10548E+04
 -1       798-1.98015E-07-2.81550E+04-5.83705E-07
 -1       800-1.91019E-07 5.82822E+04-2.34811E-07
 -1       801 2.83443E-07-2.35164E+04-6.78431E+04
 -1       803 1.80534E-07-2.35164E+04 6.78431E+04
 -1       812-3.17427E-07-3.12897E+04-8.32408E-07
 -1       814-3.00832E-07 6.27425E+04-5.08835E-07
 -1       815 2.92379E-07-2.46112E+04-7.38044E+04
 -1       817 3.03084E-07-2.46112E+04 7.38044E+04
 -1       826-4.05898E-07-3.38329E+04 7.62942E-08
 -1       828-3.96731E-07 6.69362E+04 1.45150E-07
 -1       829 2.69074E-07-2.58402E+04-7.90921E+04
 -1       831 4.17009E-07-2.58402E+04 7.90921E+04
 -1       840-3.00847E-07-3.64573E+04-5.85546E-07
 -1       842-3.04967E-07 7.00412E+04 5.55322E-07
 -1       843 4.43817E-07-2.64549E+04-8.35890E+04
 -1       845 3.07399E-07-2.64549E+04 8.35890E+04
 -1       854-2.19959E-07-3.84572E+04-1.97327E-07
 -1       856-7.19434E-08 7.31775E+04 1.86531E-09
 -1       857 1.86105E-07-2.73674E+04-8.76203E+04
 -1       859 2.06259E-07-2.73674E+04 8.76203E+04
 -1       868-9.04441E-08-4.09530E+04 1.17217E-07
 -1       870-1.62477E-07 7.48089E+04 4.29706E-07
 -1       871 1.20100E-07-2.72486E+04-9.08597E+04
 -1       873 1.55567E-07-2.72486E+04 9.08597E+04
 -1       882-2.40497E-07-4.26460E+04-5.92315E-07
 -1       884-2.18359E-07 7.71420E+04 1.50854E-07
 -1       885 1.94843E-07-2.78507E+04-9.40197E+04
 -1       887 2.43028E-07-2.78507E+04 9.40197E+04
 -1       896-2.56205E-07-4.58054E+04 5.85478E-07
 -1       898-1.71874E-07 7.69277E+04-7.23805E-10
 -1       899 1.86375E-07-2.64149E+04-9.63311E+04
 -1       901 1.17365E-07-2.64149E+04 9.63311E+04
 -1       910-4.67709E-08-4.77271E+04 3.70138E-07
 -1       912-8.48087E-09 7.92828E+04 8.14792E-07
 -1       913 1.11707E-07-2.68520E+04-9.96880E+04
 -1       915 1.14336E-07-2.68520E+04 9.96880E+04
 -1       924 3.95931E-08-5.36710E+04-3.92584E-07
 -1       926 3.57458E-08 7.62489E+04 1.00105E-07
 -1       927 1.59935E-09-2.25543E+04-1.01972E+05
 -1       929-1.10352E-07-2.25543E+04 1.01972E+05
 -1       938 7.10170E-08-5.71657E+04-5.00170E-08
 -1       940 1.17145E-07 8.22876E+04-4.11879E-07
 -1       941-3.88701E-08-2.39901E+04-1.09455E+05
 -1       943-1.89705E-07-2.39901E+04 1.09455E+05
 -1       952 1.03009E-07-7.27377E+04-1.05264E-06
 -1       954 9.13555E-08 7.42512E+04 5.42847E-07
 -1       955-4.69765E-08-1.23262E+04-1.15369E+05
 -1       957-8.08670E-08-1.23262E+04 1.15369E+05
 -1       966 6.35488E-08-8.43376E+04-1.35937E-06
 -1       968 6.22479E-08 9.90846E+04-1.59110E-07
 -1       969-1.38706E-07-1.90642E+04-1.43965E+05
 -1       971-1.68341E-07-1.90642E+04 1.43965E+05
 -1       980-5.39523E+05 8.76106E+04-3.78824E+03
 -1       982-6.84628E+05 5.96108E+04-3.78824E+03
 -1       983-1.70497E+01-3.82694E+03 7.88159E+02
 -1       985-1.70497E+01-3.82694E+03 7.88159E+02
 -1       986-3.96022E+01-6.24134E+01 3.88978E+01
 -1       988-3.96022E+01-6.24134E+01 3.88978E+01
 -1       989-7.09333E+01-1.56995E+02 8.45328E+01
 -1       991-7.09333E+01-1.56995E+02 8.45328E+01
 -1       992-9.28359E+01-2.87148E+02 1.33341E+02
 -1       994-9.28359E+01-2.87148E+02 1.33341E+02
 -1       995-1.07791E+02-4.42295E+02 1.84061E+02
 -1       997-1.07791E+02-4.42295E+02 1.84061E+02
 -1       998-1.17726E+02-6.14091E+02 2.37034E+02
 -1      1000-1.17726E+02-6.14091E+02 2.37034E+02
 -1      1001-1.23958E+02-7.96622E+02 2.91441E+02
 -1      1003-1.23958E+02-7.96622E+02 2.91441E+02
 -1      1004-1.27449E+02-9.85467E+02 3.46934E+02
 -1      1006-1.27449E+02-9.85467E+02 3.46934E+02
 -1      1007-1.28874E+02-1.17732E+03 4.02943E+02
 -1      1009-1.28874E+02-1.17732E+03 4.02943E+02
 -1      1010-1.28720E+02-1.36966E+03 4.59056E+02
 -1      1012-1.28720E+02-1.36966E+03 4.59056E+02
 -1      1013-1.27334E+02-1.56053E+03 5.14843E+02
 -1      1015-1.27334E+02-1.56053E+03 5.14843E+02
 -1      1016-1.24967E+02-1.74839E+03 5.69940E+02
 -1      1018-1.24967E+02-1.74839E+03 5.69940E+02
 -1      1019-1.21799E+02-1.93198E+03 6.24006E+02
 -1      1021-1.21799E+02-1.93198E+03 6.24006E+02
 -1      1022-1.17964E+02-2.11025E+03 6.76738E+02
 -1      1024-1.17964E+02-2.11025E+03 6.76738E+02
 -1      1025-1.13564E+02-2.28233E+03 7.27858E+02
 -1      1027-1.13564E+02-2.28233E+03 7.27858E+02
 -1      1028-1.08674E+02-2.44745E+03 7.77115E+02
 -1      1030-1.08674E+02-2.44745E+03 7.77115E+02
 -1      1031-1.03358E+02-2.60494E+03 8.24281E+02
 -1      1033-1.03358E+02-2.60494E+03 8.24281E+02
 -1      1034-9.76706E+01-2.75423E+03 8.69150E+02
 -1      1036-9.76706E+01-2.75423E+03 8.69150E+02
 -1      1037-9.16593E+01-2.89480E+03 9.11533E+02
 -1      1039-9.16593E+01-2.89480E+03 9.11533E+02
 -1      1040-8.53728E+01-3.02621E+03 9.51262E+02
 -1      1042-8.53728E+01-3.02621E+03 9.51262E+02
 -1      1043-7.88617E+01-3.14807E+03 9.88188E+02
 -1      1045-7.88617E+01-3.14807E+03 9.88188E+02
 -1      1046-7.21829E+01-3.26010E+03 1.02218E+03
 -1      1048-7.21829E+01-3.26010E+03 1.02218E+03
 -1      1049-6.54040E+01-3.36208E+03 1.05311E+03
 -1      1051-6.54040E+01-3.36208E+03 1.05311E+03
 -1      1052-5.86079E+01-3.45391E+03 1.08090E+03
 -1      1054-5.86079E+01-3.45391E+03 1.08090E+03
 -1      1055-5.19012E+01-3.53559E+03 1.10545E+03
 -1      1057-5.19012E+01-3.53559E+03 1.10545E+03
 -1      1058-4.54218E+01-3.60734E+03 1.12669E+03
 -1      1060-4.54218E+01-3.60734E+03 1.12669E+03
 -1      1061-3.93532E+01-3.66954E+03 1.14456E+03
 -1      1063-3.93532E+01-3.66954E+03 1.14456E+03
 -1      1064-3.39463E+01-3.72296E+03 1.15898E+03
 -1      1066-3.39463E+01-3.72296E+03 1.15898E+03
 -1      1067-2.95236E+01-3.76860E+03 1.16982E+03
 -1      1069-2.95236E+01-3.76860E+03 1.16982E+03
 -1      1070-2.65760E+01-3.80832E+03 1.17679E+03
 -1      1072-2.65760E+01-3.80832E+03 1.17679E+03
 -1      1073 5.39523E+05 8.76106E+04 3.78824E+03
 -1      1075 6.84628E+05 5.96108E+04 3.78824E+03
 -1      1076 9.40214E+04-1.62995E+04-6.83105E+03
 -1      1078-9.40214E+04-1.62995E+04 6.83105E+03
 -1      1079-4.49307E-06-1.24322E-06-3.56695E+03
 -1      1081 4.42360E-06-1.32844E-06 3.56695E+03
 -1      1082-9.40214E+04 1.62995E+04-6.83105E+03
 -1      1084 9.40214E+04 1.62995E+04 6.83105E+03
 -1      1085 1.86614E-07-1.40433E+05 5.02391E+04
 -1      1087 1.95638E-07-1.40433E+05-5.02391E+04
 -1      1088-2.11298E-07 1.08610E+05 3.87881E-08
 -1      1090-2.24626E-07 1.72618E+05 1.54978E-08
 -1      1099 2.20770E-07-1.00583E+05 1.16605E+05
 -1      1101 2.16893E-07-1.00583E+05-1.16605E+05
 -1      1102-2.30373E-07 2.67729E+04 3.70753E-09
 -1      1104-2.41786E-07 1.75336E+05-1.89434E-08
 -1      1113 2.56465E-07-6.35787E+04 1.14748E+05
 -1      1115 1.62211E-07-6.35787E+04-1.14748E+05
 -1      1116-2.00555E-07-8.64778E+03 7.01879E-08
 -1      1118-2.08645E-07 1.37550E+05-5.77169E-08
 -1      1127 2.37531E-07-5.03023E+04 1.03876E+05
 -1      1129 1.75838E-07-5.03023E+04-1.03876E+05
 -1      1130-1.69420E-07-1.45216E+04 5.43569E-08
 -1      1132-1.68577E-07 1.17824E+05-1.47933E-07
 -1      1141 1.21403E-07-2.73731E+04 8.92060E+04
 -1      1143 1.28627E-07-2.73731E+04-8.92060E+04
 -1      1144-1.39534E-07-2.75778E+04 1.20513E-07
 -1      1146-1.78060E-07 8.60773E+04-2.43142E-07
 -1      1155 9.54979E-08-2.04764E+04 6.80719E+04
 -1      1157 1.52904E-07-2.04764E+04-6.80719E+04
 -1      1158-1.26350E-07-2.04505E+04 1.66829E-07
 -1      1160-1.73292E-07 6.62782E+04-2.20554E-07
 -1      1169 8.56380E-08-7.87019E+03 5.11345E+04
 -1      1171 9.34830E-08-7.87019E+03-5.11345E+04
 -1      1172-9.72981E-08-2.16868E+04 9.08164E-08
 -1      1174-1.09674E-07 4.34624E+04-1.73187E-07
 -1      1183 2.69257E-08-3.36472E+03 3.20091E+04
 -1      1185 1.36683E-07-3.36472E+03-3.20091E+04
 -1      1186-6.36713E-08-1.34191E+04 6.01846E-08
 -1      1188-3.66971E-08 2.73628E+04-3.90200E-07
 -1      1197-8.04191E-08 3.73192E+03 1.64786E+04
 -1      1199-6.59640E-08 3.73192E+03-1.64786E+04
 -1      1200 2.42457E-09-1.00313E+04 1.36764E-07
 -1      1202 3.73790E-08 1.09637E+04-3.77140E-07
 -1      1211 8.44778E-08 6.92231E+03 9.62456E+02
 -1      1213-4.62525E-08 6.92231E+03-9.62456E+02
 -1      1214-1.65035E-08-2.75082E+03-1.78768E-07
 -1      1216-1.56358E-09-1.52458E+03 8.94047E-08
 -1      1225-2.25617E-08 1.12343E+04-1.21278E+04
 -1      1227-5.35327E-08 1.12343E+04 1.21278E+04
 -1      1228-8.45304E-10 1.85343E+03 3.58642E-09
 -1      1230 4.47412E-08-1.35983E+04-2.57452E-07
 -1      1239-7.11224E-08 1.36272E+04-2.44351E+04
 -1      1241-7.33277E-08 1.36272E+04 2.44351E+04
 -1      1242 7.83075E-08 7.86491E+03 4.52552E-07
 -1      1244 8.65312E-08-2.32673E+04-1.59207E-07
 -1      1253-7.61878E-08 1.64990E+04-3.50987E+04
 -1      1255-2.14769E-08 1.64990E+04 3.50987E+04
 -1      1256 4.46092E-08 1.23341E+04 6.92961E-07
 -1      1258-6.71420E-09-3.23842E+04-3.59249E-07
 -1      1267-5.74330E-08 1.83727E+04-4.48289E+04
 -1      1269 3.05286E-08 1.83727E+04 4.48289E+04
 -1      1270 1.17068E-07 1.71876E+04 3.32683E-07
 -1      1272 8.19531E-08-3.99278E+04-4.57356E-07
 -1      1281-1.13625E-07 2.04505E+04-5.33877E+04
 -1      1283-1.19876E-07 2.04505E+04 5.33877E+04
 -1      1284 1.32579E-07 2.10696E+04-1.06732E-07
 -1      1286 4.72781E-08-4.69504E+04-1.16618E-07
 -1      1295-1.47332E-07 2.19289E+04-6.10548E+04
 -1      1297-7.41016E-08 2.19289E+04 6.10548E+04
 -1      1298 1.94069E-07 2.49593E+04 3.99862E-08
 -1      1300 8.19634E-08-5.28290E+04-4.40309E-07
 -1      1309-2.99766E-07 2.35164E+04-6.78431E+04
 -1      1311-2.18398E-07 2.35164E+04 6.78431E+04
 -1      1312 2.65982E-07 2.81550E+04 3.14847E-07
 -1      1314 1.99317E-07-5.82822E+04-5.50254E-07
 -1      1323-3.62158E-07 2.46112E+04-7.38044E+04
 -1      1325-3.11290E-07 2.46112E+04 7.38044E+04
 -1      1326 3.27572E-07 3.12897E+04 8.67328E-07
 -1      1328 2.99103E-07-6.27425E+04-7.56020E-08
 -1      1337-3.95953E-07 2.58402E+04-7.90921E+04
 -1      1339-3.74307E-07 2.58402E+04 7.90921E+04
 -1      1340 3.61795E-07 3.38329E+04 9.68202E-07
 -1      1342 3.75919E-07-6.69362E+04-5.26173E-08
 -1      1351-2.86550E-07 2.64549E+04-8.35890E+04
 -1      1353-4.27620E-07 2.64549E+04 8.35890E+04
 -1      1354 3.40391E-07 3.64573E+04 2.40054E-07
 -1      1356 3.42603E-07-7.00412E+04-1.29670E-07
 -1      1365-1.99587E-07 2.73674E+04-8.76203E+04
 -1      1367-1.40782E-07 2.73674E+04 8.76203E+04
 -1      1368 2.80153E-07 3.84572E+04 3.52215E-07
 -1      1370 2.63441E-07-7.31775E+04-8.69914E-08
 -1      1379-2.11235E-07 2.72486E+04-9.08597E+04
 -1      1381-1.23888E-07 2.72486E+04 9.08597E+04
 -1      1382 1.81059E-07 4.09530E+04-3.43544E-07
 -1      1384 1.36383E-07-7.48089E+04-1.49591E-07
 -1      1393-6.05855E-08 2.78507E+04-9.40197E+04
 -1      1395-2.08995E-07 2.78507E+04 9.40197E+04
 -1      1396 3.27698E-07 4.26460E+04-7.55500E-07
 -1      1398 2.37801E-07-7.71420E+04-3.99406E-07
 -1      1407-2.91852E-07 2.64149E+04-9.63311E+04
 -1      1409-4.03784E-07 2.64149E+04 9.63311E+04
 -1      1410 2.26739E-07 4.58054E+04-1.25118E-06
 -1      1412 2.57896E-07-7.69277E+04 1.12703E-06
 -1      1421 3.14825E-08 2.68520E+04-9.96880E+04
 -1      1423-1.70797E-08 2.68520E+04 9.96880E+04
 -1      1424 4.70793E-08 4.77271E+04 2.12191E-07
 -1      1426-8.60402E-09-7.92828E+04-3.45457E-07
 -1      1435 2.68592E-08 2.25543E+04-1.01972E+05
 -1      1437 4.79522E-08 2.25543E+04 1.01972E+05
 -1      1438-3.96386E-09 5.36710E+04-6.21897E-07
 -1      1440 1.07293E-07-7.62489E+04-2.51068E-07
 -1      1449-1.73454E-07 2.39901E+04-1.09455E+05
 -1      1451-7.52199E-08 2.39901E+04 1.09455E+05
 -1      1452-2.51274E-08 5.71657E+04 4.45406E-07
 -1      1454 1.08975E-08-8.22876E+04-9.84703E-08
 -1      1463-2.42443E-08 1.23262E+04-1.15369E+05
 -1      1465 1.84322E-07 1.23262E+04 1.15369E+05
 -1      1466 4.09720E-08 7.27377E+04 1.20573E-06
 -1      1468 7.35402E-08-7.42512E+04 1.41986E-07
 -1      1477 1.44267E-07 1.90642E+04-1.43965E+05
 -1      1479 1.59783E-07 1.90642E+04 1.43965E+05
 -1      1480-6.51636E-08 8.43376E+04-7.64398E-08
 -1      1482-6.34280E-08-9.90846E+04 4.98828E-07
 -1      1491 8.38597E-08-2.73907E+03 1.49673E-07
 -1      1493 1.51814E-07-2.73907E+03 1.00245E-07
 -1      1494-1.19196E-07 1.36272E-06 1.89964E-07
 -1      1496 4.94515E-08-2.21444E-06-1.46287E-07
 -1      1497-1.33242E-07 2.73907E+03 2.68595E-07
 -1      1499-1.75954E-07 2.73907E+03 1.30195E-07
 -1      1500 3.96022E+01 6.24134E+01 3.88978E+01
 -1      1502 3.96022E+01 6.24134E+01 3.88978E+01
 -1      1503 7.09333E+01 1.56995E+02 8.45328E+01
 -1      1505 7.09333E+01 1.56995E+02 8.45328E+01
 -1      1506 9.28359E+01 2.87148E+02 1.33341E+02
 -1      1508 9.28359E+01 2.87148E+02 1.33341E+02
 -1      1509 1.07791E+02 4.42295E+02 1.84061E+02
 -1      1511 1.07791E+02 4.42295E+02 1.84061E+02
 -1      1512 1.17726E+02 6.14091E+02 2.37034E+02
 -1      1514 1.17726E+02 6.14091E+02 2.37034E+02
 -1      1515 1.23958E+02 7.96622E+02 2.91441E+02
 -1      1517 1.23958E+02 7.96622E+02 2.91441E+02
 -1      1518 1.27449E+02 9.85467E+02 3.46934E+02
 -1      1520 1.27449E+02 9.85467E+02 3.46934E+02
 -1      1521 1.28874E+02 1.17732E+03 4.02943E+02
 -1      1523 1.28874E+02 1.17732E+03 4.02943E+02
 -1      1524 1.28720E+02 1.36966E+03 4.59056E+02
 -1      1526 1.28720E+02 1.36966E+03 4.59056E+02
 -1      1527 1.27334E+02 1.56053E+03 5.14843E+02
 -1      1529 1.27334E+02 1.56053E+03 5.14843E+02
 -1      1530 1.24967E+02 1.74839E+03 5.69940E+02
 -1      1532 1.24967E+02 1.74839E+03 5.69940E+02
 -1      1533 1.21799E+02 1.93198E+03 6.24006E+02
 -1      1535 1.21799E+02 1.93198E+03 6.24006E+02
 -1      1536 1.17964E+02 2.11025E+03 6.76738E+02
 -1      1538 1.17964E+02 2.11025E+03 6.76738E+02
 -1      1539 1.13564E+02 2.28233E+03 7.27858E+02
 -1      1541 1.13564E+02 2.28233E+03 7.27858E+02
 -1      1542 1.08674E+02 2.44745E+03 7.77115E+02
 -1      1544 1.08674E+02 2.44745E+03 7.77115E+02
 -1      1545 1.03358E+02 2.60494E+03 8.24281E+02
 -1      1547 1.03358E+02 2.60494E+03 8.24281E+02
 -1      1548 9.76706E+01 2.75423E+03 8.69150E+02
 -1      1550 9.76706E+01 2.75423E+03 8.69150E+02
 -1      1551 9.16593E+01 2.89480E+03 9.11533E+02
 -1      1553 9.16593E+01 2.89480E+03 9.11533E+02
 -1      1554 8.53728E+01 3.02621E+03 9.51262E+02
 -1      1556 8.53728E+01 3.02621E+03 9.51262E+02
 -1      1557 7.88617E+01 3.14807E+03 9.88188E+02
 -1      1559 7.88617E+01 3.14807E+03 9.88188E+02
 -1      1560 7.21829E+01 3.26010E+03 1.02218E+03
 -1      1562 7.21829E+01 3.26010E+03 1.02218E+03
 -1      1563 6.54040E+01 3.36208E+03 1.05311E+03
 -1      1565 6.54040E+01 3.36208E+03 1.05311E+03
 -1      1566 5.86079E+01 3.45391E+03 1.08090E+03
 -1      1568 5.86079E+01 3.45391E+03 1.08090E+03
 -1      1569 5.19012E+01 3.53559E+03 1.10545E+03
 -1      1571 5.19012E+01 3.53559E+03 1.10545E+03
 -1      1572 4.54218E+01 3.60734E+03 1.12669E+03
 -1      1574 4.54218E+01 3.60734E+03 1.12669E+03
 -1      1575 3.93532E+01 3.66954E+03 1.14456E+03
 -1      1577 3.93532E+01 3.66954E+03 1.14456E+03
 -1      1578 3.39463E+01 3.72296E+03 1.15898E+03
 -1      1580 3.39463E+01 3.72296E+03 1.15898E+03
 -1      1581 2.95236E+01 3.76860E+03 1.16982E+03
 -1      1583 2.95236E+01 3.76860E+03 1.16982E+03
 -1      1584 2.65760E+01 3.80832E+03 1.17679E+03
 -1      1586 2.65760E+01 3.80832E+03 1.17679E+03
 -1      1587 1.70497E+01 3.82694E+03 7.88159E+02
 -1      1589 1.70497E+01 3.82694E+03 7.88159E+02
 -1      1590-5.39523E+05-8.76106E+04 3.78824E+03
 -1      1592-6.84628E+05-5.96108E+04 3.78824E+03
 -1      1593-1.70497E+01 3.82694E+03-7.88159E+02
 -1      1595-1.70497E+01 3.82694E+03-7.88159E+02
 -1      1596-3.96022E+01 6.24134E+01-3.88978E+01
 -1      1598-3.96022E+01 6.24134E+01-3.88978E+01
 -1      1599-7.09333E+01 1.56995E+02-8.45328E+01
 -1      1601-7.09333E+01 1.56995E+02-8.45328E+01
 -1      1602-9.28359E+01 2.87148E+02-1.33341E+02
 -1      1604-9.28359E+01 2.87148E+02-1.33341E+02
 -1      1605-1.07791E+02 4.42295E+02-1.84061E+02
 -1      1607-1.07791E+02 4.42295E+02-1.84061E+02
 -1      1608-1.17726E+02 6.14091E+02-2.37034E+02
 -1      1610-1.17726E+02 6.14091E+02-2.37034E+02
 -1      1611-1.23958E+02 7.96622E+02-2.91441E+02
 -1      1613-1.23958E+02 7.96622E+02-2.91441E+02
 -1      1614-1.27449E+02 9.85467E+02-3.46934E+02
 -1      1616-1.27449E+02 9.85467E+02-3.46934E+02
 -1      1617-1.28874E+02 1.17732E+03-4.02943E+02
 -1      1619-1.28874E+02 1.17732E+03-4.02943E+02
 -1      1620-1.28720E+02 1.36966E+03-4.59056E+02
 -1      1622-1.28720E+02 1.36966E+03-4.59056E+02
 -1      1623-1.27334E+02 1.56053E+03-5.14843E+02
 -1      1625-1.27334E+02 1.56053E+03-5.14843E+02
 -1      1626-1.24967E+02 1.74839E+03-5.69940E+02
 -1      1628-1.24967E+02 1.74839E+03-5.69940E+02
 -1      1629-1.21799E+02 1.93198E+03-6.24006E+02
 -1      1631-1.21799E+02 1.93198E+03-6.24006E+02
 -1      1632-1.17964E+02 2.11025E+03-6.76738E+02
 -1      1634-1.17964E+02 2.11025E+03-6.76738E+02
 -1      1635-1.13564E+02 2.28233E+03-7.27858E+02
 -1      1637-1.13564E+02 2.28233E+03-7.27858E+02
 -1      1638-1.08674E+02 2.44745E+03-7.77115E+02
 -1      1640-1.08674E+02 2.44745E+03-7.77115E+02
 -1      1641-1.03358E+02 2.60494E+03-8.24281E+02
 -1      1643-1.03358E+02 2.60494E+03-8.24281E+02
 -1      1644-9.76706E+01 2.75423E+03-8.69150E+02
 -1      1646-9.76706E+01 2.75423E+03-8.69150E+02
 -1      1647-9.16593E+01 2.89480E+03-9.11533E+02
 -1      1649-9.16593E+01 2.89480E+03-9.11533E+02
 -1      1650-8.53728E+01 3.02621E+03-9.51262E+02
 -1      1652-8.53728E+01 3.02621E+03-9.51262E+02
 -1      1653-7.88617E+01 3.14807E+03-9.88188E+02
 -1      1655-7.88617E+01 3.14807E+03-9.88188E+02
 -1      1656-7.21829E+01 3.26010E+03-1.02218E+03
 -1      1658-7.21829E+01 3.26010E+03-1.02218E+03
 -1      1659-6.54040E+01 3.36208E+03-1.05311E+03
 -1      1661-6.54040E+01 3.36208E+03-1.05311E+03
 -1      1662-5.86079E+01 3.45391E+03-1.08090E+03
 -1      1664-5.86079E+01 3.45391E+03-1.08090E+03
 -1      1665-5.19012E+01 3.53559E+03-1.10545E+03
 -1      1667-5.19012E+01 3.53559E+03-1.10545E+03
 -1      1668-4.54218E+01 3.60734E+03-1.12669E+03
 -1      1670-4.54218E+01 3.60734E+03-1.12669E+03
 -1      1671-3.93532E+01 3.66954E+03-1.14456E+03
 -1      1673-3.93532E+01 3.66954E+03-1.14456E+03
 -1      1674-3.39463E+01 3.72296E+03-1.15898E+03
 -1      1676-3.39463E+01 3.72296E+03-1.15898E+03
 -1      1677-2.95236E+01 3.76860E+03-1.16982E+03
 -1      1679-2.95236E+01 3.76860E+03-1.16982E+03
 -1      1680-2.65760E+01 3.80832E+03-1.17679E+03
 -1      1682-2.65760E+01 3.80832E+03-1.17679E+03
 -1      1683 5.39523E+05-8.76106E+04-3.78824E+03
 -1      1685 6.84628E+05-5.96108E+04-3.78824E+03
 -1      1686 5.21451E+01-1.22128E+02-5.07750E+01
 -1      1688 5.21451E+01-1.22128E+02-5.07750E+01
 -1      1689 9.40500E+01-3.11655E+02-1.11005E+02
 -1      1691 9.40500E+01-3.11655E+02-1.11005E+02
 -1      1692 1.23446E+02-5.72862E+02-1.75803E+02
 -1      1694 1.23446E+02-5.72862E+02-1.75803E+02
 -1      1695 1.43451E+02-8.83559E+02-2.43410E+02
 -1      1697 1.43451E+02-8.83559E+02-2.43410E+02
 -1      1698 1.56781E+02-1.22753E+03-3.14234E+02
 -1      1700 1.56781E+02-1.22753E+03-3.14234E+02
 -1      1701 1.65135E+02-1.59285E+03-3.87089E+02
 -1      1703 1.65135E+02-1.59285E+03-3.87089E+02
 -1      1704 1.69826E+02-1.97074E+03-4.61459E+02
 -1      1706 1.69826E+02-1.97074E+03-4.61459E+02
 -1      1707 1.71750E+02-2.35459E+03-5.36542E+02
 -1      1709 1.71750E+02-2.35459E+03-5.36542E+02
 -1      1710 1.71563E+02-2.73938E+03-6.11762E+02
 -1      1712 1.71563E+02-2.73938E+03-6.11762E+02
 -1      1713 1.69728E+02-3.12122E+03-6.86530E+02
 -1      1715 1.69728E+02-3.12122E+03-6.86530E+02
 -1      1716 1.66581E+02-3.49701E+03-7.60355E+02
 -1      1718 1.66581E+02-3.49701E+03-7.60355E+02
 -1      1719 1.62364E+02-3.86425E+03-8.32777E+02
 -1      1721 1.62364E+02-3.86425E+03-8.32777E+02
 -1      1722 1.57257E+02-4.22084E+03-9.03391E+02
 -1      1724 1.57257E+02-4.22084E+03-9.03391E+02
 -1      1725 1.51393E+02-4.56504E+03-9.71827E+02
 -1      1727 1.51393E+02-4.56504E+03-9.71827E+02
 -1      1728 1.44877E+02-4.89531E+03-1.03775E+03
 -1      1730 1.44877E+02-4.89531E+03-1.03775E+03
 -1      1731 1.37792E+02-5.21033E+03-1.10087E+03
 -1      1733 1.37792E+02-5.21033E+03-1.10087E+03
 -1      1734 1.30211E+02-5.50894E+03-1.16089E+03
 -1      1736 1.30211E+02-5.50894E+03-1.16089E+03
 -1      1737 1.22198E+02-5.79010E+03-1.21758E+03
 -1      1739 1.22198E+02-5.79010E+03-1.21758E+03
 -1      1740 1.13819E+02-6.05294E+03-1.27071E+03
 -1      1742 1.13819E+02-6.05294E+03-1.27071E+03
 -1      1743 1.05140E+02-6.29669E+03-1.32009E+03
 -1      1745 1.05140E+02-6.29669E+03-1.32009E+03
 -1      1746 9.62388E+01-6.52076E+03-1.36553E+03
 -1      1748 9.62388E+01-6.52076E+03-1.36553E+03
 -1      1749 8.72045E+01-6.72473E+03-1.40690E+03
 -1      1751 8.72045E+01-6.72473E+03-1.40690E+03
 -1      1752 7.81489E+01-6.90837E+03-1.44406E+03
 -1      1754 7.81489E+01-6.90837E+03-1.44406E+03
 -1      1755 6.92128E+01-7.07173E+03-1.47690E+03
 -1      1757 6.92128E+01-7.07173E+03-1.47690E+03
 -1      1758 6.05852E+01-7.21519E+03-1.50535E+03
 -1      1760 6.05852E+01-7.21519E+03-1.50535E+03
 -1      1761 5.25030E+01-7.33957E+03-1.52931E+03
 -1      1763 5.25030E+01-7.33957E+03-1.52931E+03
 -1      1764 4.53141E+01-7.44630E+03-1.54872E+03
 -1      1766 4.53141E+01-7.44630E+03-1.54872E+03
 -1      1767 3.94480E+01-7.53754E+03-1.56338E+03
 -1      1769 3.94480E+01-7.53754E+03-1.56338E+03
 -1      1770 3.54987E+01-7.61674E+03-1.57291E+03
 -1      1772 3.54987E+01-7.61674E+03-1.57291E+03
 -1      1773-5.21451E+01-1.22128E+02 5.07750E+01
 -1      1775-5.21451E+01-1.22128E+02 5.07750E+01
 -1      1776-9.40500E+01-3.11655E+02 1.11005E+02
 -1      1778-9.40500E+01-3.11655E+02 1.11005E+02
 -1      1779-1.23446E+02-5.72862E+02 1.75803E+02
 -1      1781-1.23446E+02-5.72862E+02 1.75803E+02
 -1      1782-1.43451E+02-8.83559E+02 2.43410E+02
 -1      1784-1.43451E+02-8.83559E+02 2.43410E+02
 -1      1785-1.56781E+02-1.22753E+03 3.14234E+02
 -1      1787-1.56781E+02-1.22753E+03 3.14234E+02
 -1      1788-1.65135E+02-1.59285E+03 3.87089E+02
 -1      1790-1.65135E+02-1.59285E+03 3.87089E+02
 -1      1791-1.69826E+02-1.97074E+03 4.61459E+02
 -1      1793-1.69826E+02-1.97074E+03 4.61459E+02
 -1      1794-1.71750E+02-2.35459E+03 5.36542E+02
 -1      1796-1.71750E+02-2.35459E+03 5.36542E+02
 -1      1797-1.71563E+02-2.73938E+03 6.11762E+02
 -1      1799-1.71563E+02-2.73938E+03 6.11762E+02
 -1      1800-1.69728E+02-3.12122E+03 6.86530E+02
 -1      1802-1.69728E+02-3.12122E+03 6.86530E+02
 -1      1803-1.66581E+02-3.49701E+03 7.60355E+02
 -1      1805-1.66581E+02-3.49701E+03 7.60355E+02
 -1      1806-1.62364E+02-3.86425E+03 8.32777E+02
 -1      1808-1.62364E+02-3.86425E+03 8.32777E+02
 -1      1809-1.57257E+02-4.22084E+03 9.03391E+02
 -1      1811-1.57257E+02-4.22084E+03 9.03391E+02
 -1      1812-1.51393E+02-4.56504E+03 9.71827E+02
 -1      1814-1.51393E+02-4.56504E+03 9.71827E+02
 -1      1815-1.44877E+02-4.89531E+03 1.03775E+03
 -1      1817-1.44877E+02-4.89531E+03 1.03775E+03
 -1      1818-1.37792E+02-5.21033E+03 1.10087E+03
 -1      1820-1.37792E+02-5.21033E+03 1.10087E+03
 -1      1821-1.30211E+02-5.50894E+03 1.16089E+03
 -1      1823-1.30211E+02-5.50894E+03 1.16089E+03
 -1      1824-1.22198E+02-5.79010E+03 1.21758E+03
 -1      1826-1.22198E+02-5.79010E+03 1.21758E+03
 -1      1827-1.13819E+02-6.05294E+03 1.27071E+03
 -1      1829-1.13819E+02-6.05294E+03 1.27071E+03
 -1      1830-1.05140E+02-6.29669E+03 1.32009E+03
 -1      1832-1.05140E+02-6.29669E+03 1.32009E+03
 -1      1833-9.62388E+01-6.52076E+03 1.36553E+03
 -1      1835-9.62388E+01-6.52076E+03 1.36553E+03
 -1      1836-8.72045E+01-6.72473E+03 1.40690E+03
 -1      1838-8.72045E+01-6.72473E+03 1.40690E+03
 -1      1839-7.81489E+01-6.90837E+03 1.44406E+03
 -1      1841-7.81489E+01-6.90837E+03 1.44406E+03
 -1      1842-6.92128E+01-7.07173E+03 1.47690E+03
 -1      1844-6.92128E+01-7.07173E+03 1.47690E+03
 -1      1845-6.05852E+01-7.21519E+03 1.50535E+03
 -1      1847-6.05852E+01-7.21519E+03 1.50535E+03
 -1      1848-5.25030E+01-7.33957E+03 1.52931E+03
 -1      1850-5.25030E+01-7.33957E+03 1.52931E+03
 -1      1851-4.53141E+01-7.44630E+03 1.54872E+03
 -1      1853-4.53141E+01-7.44630E+03 1.54872E+03
 -1      1854-3.94480E+01-7.53754E+03 1.56338E+03
 -1      1856-3.94480E+01-7.53754E+03 1.56338E+03
 -1      1857-3.54987E+01-7.61674E+03 1.57291E+03
 -1      1859-3.54987E+01-7.61674E+03 1.57291E+03
 -1      1860-1.72031E-09-8.14297E+01 1.47215E-08
 -1      1862-5.05406E-09-8.14297E+01-2.99642E-08
 -1      1863 3.99541E-09-2.14230E+02 6.05529E-08
 -1      1865 7.54881E-11-2.14230E+02-3.97364E-08
 -1      1866-4.91377E-09-3.99448E+02 3.81498E-08
 -1      1868 3.25660E-08-3.99448E+02 1.26882E-08
 -1      1869-8.92123E-09-6.20211E+02-7.08771E-08
 -1      1871 1.81308E-08-6.20211E+02 1.74997E-07
 -1      1872-7.25835E-08-8.65420E+02-5.68588E-08
 -1      1874-5.57083E-08-8.65420E+02 8.86438E-08
 -1      1875-3.81444E-08-1.12640E+03 1.21787E-07
 -1      1877 7.41841E-08-1.12640E+03-1.02722E-07
 -1      1878 2.50803E-08-1.39680E+03-5.44864E-08
 -1      1880-1.41117E-09-1.39680E+03 4.50758E-09
 -1      1881 7.75277E-08-1.67181E+03-4.55481E-07
 -1      1883-2.87861E-08-1.67181E+03 5.22104E-07
 -1      1884-9.74929E-08-1.94775E+03-3.37780E-07
 -1      1886-6.03693E-08-1.94775E+03 6.03174E-07
 -1      1887-3.99349E-08-2.22176E+03-2.30910E-07
 -1      1889 6.31009E-08-2.22176E+03 2.62176E-07
 -1      1890 2.71367E-08-2.49155E+03-6.27532E-08
 -1      1892-1.51889E-08-2.49155E+03-1.94093E-07
 -1      1893 9.62134E-08-2.75529E+03-2.55919E-07
 -1      1895 6.93253E-08-2.75529E+03 5.21781E-08
 -1      1896 3.22326E-08-3.01144E+03-3.95355E-07
 -1      1898 8.45326E-08-3.01144E+03 3.11408E-07
 -1      1899-7.22938E-08-3.25871E+03-6.11492E-08
 -1      1901-3.02697E-08-3.25871E+03 1.15290E-07
 -1      1902 1.61416E-07-3.49599E+03 1.33278E-07
 -1      1904-1.36546E-07-3.49599E+03-2.45339E-07
 -1      1905-2.53731E-08-3.72232E+03 1.32393E-07
 -1      1907 1.12719E-07-3.72232E+03-2.18730E-07
 -1      1908 2.25477E-07-3.93686E+03 3.68349E-07
 -1      1910 9.39854E-08-3.93686E+03-2.91372E-07
 -1      1911 2.79051E-08-4.13886E+03-8.58230E-08
 -1      1913 3.19551E-09-4.13886E+03-1.30106E-07
 -1      1914-1.66606E-07-4.32770E+03 6.43129E-08
 -1      1916 2.05721E-08-4.32770E+03 3.69594E-07
 -1      1917 7.54612E-08-4.50284E+03 3.01647E-07
 -1      1919-8.77144E-08-4.50284E+03-8.30222E-07
 -1      1920-1.00090E-08-4.66385E+03 6.96230E-07
 -1      1922 2.69465E-08-4.66385E+03-9.98475E-07
 -1      1923-8.31051E-10-4.81044E+03-3.90087E-07
 -1      1925 3.46586E-09-4.81044E+03 1.48065E-08
 -1      1926-7.22252E-09-4.94246E+03-8.44269E-07
 -1      1928 8.11744E-08-4.94246E+03 3.83639E-07
 -1      1929 3.66072E-10-5.05994E+03-5.94470E-07
 -1      1931-9.75015E-08-5.05994E+03 3.63374E-08
 -1      1932 9.05443E-08-5.16316E+03-2.05932E-07
 -1      1934-3.45701E-08-5.16316E+03 1.55608E-07
 -1      1935 1.36463E-07-5.25274E+03-7.59204E-07
 -1      1937-1.23492E-07-5.25274E+03-3.13499E-07
 -1      1938 6.84716E-08-5.32955E+03 1.57033E-07
 -1      1940-1.32764E-07-5.32955E+03 2.16003E-07
 -1      1941-1.45655E-07-5.39534E+03 2.81105E-07
 -1      1943 1.70621E-07-5.39534E+03 3.20920E-08
 -1      1944-5.16716E-08-5.45196E+03-1.77987E-07
 -1      1946-2.41935E-08-5.45196E+03-3.09456E-08
 -1      1947-7.87168E-09-3.54214E-07 3.16386E-08
 -1      1949-9.73159E-09 2.86984E-07-8.98763E-09
 -1      1950 9.68976E-09-7.50952E-07 2.50763E-08
 -1      1952-1.10849E-08 7.88088E-07 1.71241E-08
 -1      1953 6.98992E-09-3.29095E-07 4.67935E-10
 -1      1955 1.58675E-08 4.90097E-07 2.74554E-09
 -1      1956 3.90637E-08 1.43218E-06 1.45003E-08
 -1      1958 3.34894E-08-8.46963E-07 8.22339E-08
 -1      1959-5.72433E-08 5.37092E-07 1.45778E-07
 -1      1961-4.90624E-08-4.53215E-07-2.55037E-08
 -1      1962-1.73771E-08-9.72739E-07 3.00643E-07
 -1      1964 6.44161E-09 1.85296E-06-1.24947E-07
 -1      1965 3.45482E-08 4.14322E-07 2.12901E-07
 -1      1967 7.28892E-08 1.62050E-07-1.92262E-08
 -1      1968-2.37996E-08 2.78972E-06 5.38719E-08
 -1      1970-1.97495E-08-2.43186E-06 6.72668E-08
 -1      1971-9.21979E-08 1.58375E-06-5.98338E-08
 -1      1973-1.23237E-07-9.24606E-07 2.59017E-07
 -1      1974-5.05538E-08-2.04070E-06-2.11344E-09
 -1      1976-4.48984E-08 1.27492E-06 4.25337E-08
 -1      1977 1.48850E-08-3.96117E-07-1.26610E-07
 -1      1979 6.47378E-09 1.99188E-06 3.76710E-07
 -1      1980 5.00761E-08 1.09867E-06-7.06968E-07
 -1      1982 4.63294E-08-8.62288E-07 8.14789E-07
 -1      1983 8.24139E-09 3.52288E-06-9.28035E-07
 -1      1985 1.03373E-07-4.22865E-06 9.13390E-07
 -1      1986-9.21073E-08 3.41835E-06-2.57479E-07
 -1      1988-1.28856E-07-1.97078E-06 4.58567E-07
 -1      1989-2.00897E-08-6.79230E-08 2.18647E-08
 -1      1991 1.10805E-08 1.54075E-06 4.95500E-08
 -1      1992-9.37962E-09-2.73925E-07-1.93728E-07
 -1      1994 1.09001E-07 1.38546E-06-1.61467E-07
 -1      1995-6.14627E-08 8.29343E-07 4.31647E-07
 -1      1997 3.27127E-08-4.89585E-07-3.03474E-07
 -1      1998-1.48276E-07 1.01071E-06-3.97707E-08
 -1      2000 2.84506E-08-3.50114E-07 5.12956E-08
 -1      2001-7.74430E-08 2.56432E-07 1.84919E-07
 -1      2003 2.56896E-08-1.28875E-06-3.15378E-08
 -1      2004 4.54731E-08-1.67196E-07 7.62108E-07
 -1      2006-9.74148E-08-5.85312E-07-8.58371E-07
 -1      2007 2.47110E-09 4.72338E-07 7.02812E-09
 -1      2009-1.13423E-08 5.61081E-07-5.40250E-07
 -1      2010-5.69021E-08-4.73656E-07-2.07023E-07
 -1      2012 3.00988E-08 1.76584E-06-5.45070E-08
 -1      2013 5.24039E-08 1.52516E-07 2.64538E-07
 -1      2015 3.13319E-08-1.10505E-06 4.59885E-07
 -1      2016 7.44847E-08 1.40946E-06-1.09992E-07
 -1      2018-1.26024E-07-1.01950E-06-1.29521E-07
 -1      2019-5.69844E-08 2.08545E-07 2.43118E-07
 -1      2021-3.24371E-08 2.22191E-07-9.11638E-09
 -1      2022 1.10046E-07 2.40333E-06-1.36277E-07
 -1      2024-2.43429E-08-2.39114E-06-2.14011E-07
 -1      2025-1.65964E-07-2.46089E-06 4.79928E-07
 -1      2027-2.27278E-08 1.28577E-06-6.27788E-07
 -1      2028-5.59817E-08-6.98286E-07-4.52155E-08
 -1      2030 1.50509E-07 1.65999E-06-6.84072E-07
 -1      2031-6.36576E-08 1.40996E-06 5.94334E-07
 -1      2033 2.46145E-07-2.60728E-06-6.57965E-07
 -1      2034-3.29715E-08 8.14297E+01 1.67147E-08
 -1      2036-2.51912E-08 8.14297E+01 2.47155E-08
 -1      2037 5.72072E-10 2.14230E+02-2.39048E-08
 -1      2039-2.79142E-08 2.14230E+02 7.62490E-08
 -1      2040 6.66021E-08 3.99448E+02 9.27935E-09
 -1      2042-2.20614E-08 3.99448E+02-4.43606E-10
 -1      2043 9.48496E-08 6.20211E+02 1.67242E-07
 -1      2045 3.73986E-08 6.20211E+02-2.04811E-07
 -1      2046-4.02764E-08 8.65420E+02 1.70291E-07
 -1      2048-5.16400E-08 8.65420E+02-1.91173E-07
 -1      2049-2.42953E-08 1.12640E+03 2.68162E-07
 -1      2051 3.82568E-08 1.12640E+03-2.50556E-07
 -1      2052-3.03043E-08 1.39680E+03 4.00429E-07
 -1      2054 6.94621E-08 1.39680E+03-3.55505E-07
 -1      2055-2.61835E-08 1.67181E+03 3.36861E-07
 -1      2057 8.29494E-08 1.67181E+03-2.21083E-07
 -1      2058-1.02659E-07 1.94775E+03 1.40333E-07
 -1      2060-1.90179E-07 1.94775E+03-5.69776E-08
 -1      2061 6.74078E-08 2.22176E+03 2.80106E-07
 -1      2063-7.37645E-08 2.22176E+03-1.80633E-07
 -1      2064 8.14805E-09 2.49155E+03 4.28388E-08
 -1      2066 5.07897E-08 2.49155E+03 1.03355E-07
 -1      2067-3.17597E-08 2.75529E+03-3.94007E-07
 -1      2069 4.44130E-08 2.75529E+03 4.96957E-07
 -1      2070-1.23530E-07 3.01144E+03-6.85443E-07
 -1      2072 5.03770E-08 3.01144E+03 5.15188E-07
 -1      2073 7.97831E-09 3.25871E+03-3.25418E-07
 -1      2075 2.12544E-08 3.25871E+03 3.89950E-07
 -1      2076 3.86462E-08 3.49599E+03-2.02927E-07
 -1      2078-1.00084E-07 3.49599E+03 1.74426E-07
 -1      2079-5.79879E-08 3.72232E+03-2.49310E-07
 -1      2081 1.02893E-07 3.72232E+03 7.01216E-08
 -1      2082-8.41717E-08 3.93686E+03 3.87740E-07
 -1      2084 8.13407E-08 3.93686E+03 1.96038E-07
 -1      2085-8.29637E-08 4.13886E+03 8.03357E-09
 -1      2087 7.72593E-08 4.13886E+03-1.34912E-07
 -1      2088-2.94283E-08 4.32770E+03 2.94690E-07
 -1      2090 4.94333E-09 4.32770E+03-3.37775E-08
 -1      2091 1.32504E-08 4.50284E+03-4.57501E-08
 -1      2093-6.71562E-08 4.50284E+03-5.02236E-07
 -1      2094 1.12072E-07 4.66385E+03 2.08146E-07
 -1      2096 5.01091E-08 4.66385E+03-5.21277E-07
 -1      2097-2.42219E-08 4.81044E+03 3.99041E-07
 -1      2099 7.28301E-09 4.81044E+03-6.58409E-07
 -1      2100 1.99560E-07 4.94246E+03 5.81840E-07
 -1      2102 4.59590E-08 4.94246E+03 1.35809E-07
 -1      2103 3.44030E-08 5.05994E+03-7.16906E-07
 -1      2105-1.66815E-07 5.05994E+03 2.65389E-07
 -1      2106 1.12736E-07 5.16316E+03-3.22138E-07
 -1      2108 7.09691E-08 5.16316E+03-7.73168E-08
 -1      2109 1.00759E-07 5.25274E+03 2.11805E-07
 -1      2111 7.92279E-08 5.25274E+03-2.83515E-07
 -1      2112-2.45093E-07 5.32955E+03 7.85199E-07
 -1      2114-5.08124E-08 5.32955E+03 7.53441E-08
 -1      2115 1.06347E-08 5.39534E+03 6.60912E-08
 -1      2117 1.27655E-07 5.39534E+03-1.46811E-07
 -1      2118 4.37343E-08 5.45196E+03 6.19725E-08
 -1      2120 2.40302E-07 5.45196E+03-5.54123E-08
 -1      2121 5.21451E+01 1.22128E+02 5.07750E+01
 -1      2123 5.21451E+01 1.22128E+02 5.07750E+01
 -1      2124 9.40500E+01 3.11655E+02 1.11005E+02
 -1      2126 9.40500E+01 3.11655E+02 1.11005E+02
 -1      2127 1.23446E+02 5.72862E+02 1.75803E+02
 -1      2129 1.23446E+02 5.72862E+02 1.75803E+02
 -1      2130 1.43451E+02 8.83559E+02 2.43410E+02
 -1      2132 1.43451E+02 8.83559E+02 2.43410E+02
 -1      2133 1.56781E+02 1.22753E+03 3.14234E+02
 -1      2135 1.56781E+02 1.22753E+03 3.14234E+02
 -1      2136 1.65135E+02 1.59285E+03 3.87089E+02
 -1      2138 1.65135E+02 1.59285E+03 3.87089E+02
 -1      2139 1.69826E+02 1.97074E+03 4.61459E+02
 -1      2141 1.69826E+02 1.97074E+03 4.61459E+02
 -1      2142 1.71750E+02 2.35459E+03 5.36542E+02
 -1      2144 1.71750E+02 2.35459E+03 5.36542E+02
 -1      2145 1.71563E+02 2.73938E+03 6.11762E+02
 -1      2147 1.71563E+02 2.73938E+03 6.11762E+02
 -1      2148 1.69728E+02 3.12122E+03 6.86530E+02
 -1      2150 1.69728E+02 3.12122E+03 6.86530E+02
 -1      2151 1.66581E+02 3.49701E+03 7.60355E+02
 -1      2153 1.66581E+02 3.49701E+03 7.60355E+02
 -1      2154 1.62364E+02 3.86425E+03 8.32777E+02
 -1      2156 1.62364E+02 3.86425E+03 8.32777E+02
 -1      2157 1.57257E+02 4.22084E+03 9.03391E+02
 -1      2159 1.57257E+02 4.22084E+03 9.03391E+02
 -1      2160 1.51393E+02 4.56504E+03 9.71827E+02
 -1      2162 1.51393E+02 4.56504E+03 9.71827E+02
 -1      2163 1.44877E+02 4.89531E+03 1.03775E+03
 -1      2165 1.44877E+02 4.89531E+03 1.03775E+03
 -1      2166 1.37792E+02 5.21033E+03 1.10087E+03
 -1      2168 1.37792E+02 5.21033E+03 1.10087E+03
 -1      2169 1.30211E+02 5.50894E+03 1.16089E+03
 -1      2171 1.30211E+02 5.50894E+03 1.16089E+03
 -1      2172 1.22198E+02 5.79010E+03 1.21758E+03
 -1      2174 1.22198E+02 5.79010E+03 1.21758E+03
 -1      2175 1.13819E+02 6.05294E+03 1.27071E+03
 -1      2177 1.13819E+02 6.05294E+03 1.27071E+03
 -1      2178 1.05140E+02 6.29669E+03 1.32009E+03
 -1      2180 1.05140E+02 6.29669E+03 1.32009E+03
 -1      2181 9.62388E+01 6.52076E+03 1.36553E+03
 -1      2183 9.62388E+01 6.52076E+03 1.36553E+03
 -1      2184 8.72045E+01 6.72473E+03 1.40690E+03
 -1      2186 8.72045E+01 6.72473E+03 1.40690E+03
 -1      2187 7.81489E+01 6.90837E+03 1.44406E+03
 -1      2189 7.81489E+01 6.90837E+03 1.44406E+03
 -1      2190 6.92128E+01 7.07173E+03 1.47690E+03
 -1      2192 6.92128E+01 7.07173E+03 1.47690E+03
 -1      2193 6.05852E+01 7.21519E+03 1.50535E+03
 -1      2195 6.05852E+01 7.21519E+03 1.50535E+03
 -1      2196 5.25030E+01 7.33957E+03 1.52931E+03
 -1      2198 5.25030E+01 7.33957E+03 1.52931E+03
 -1      2199 4.53141E+01 7.44630E+03 1.54872E+03
 -1      2201 4.53141E+01 7.44630E+03 1.54872E+03
 -1      2202 3.94480E+01 7.53754E+03 1.56338E+03
 -1      2204 3.94480E+01 7.53754E+03 1.56338E+03
 -1      2205 3.54987E+01 7.61674E+03 1.57291E+03
 -1      2207 3.54987E+01 7.61674E+03 1.57291E+03
 -1      2208-5.21451E+01 1.22128E+02-5.07750E+01
 -1      2210-5.21451E+01 1.22128E+02-5.07750E+01
 -1      2211-9.40500E+01 3.11655E+02-1.11005E+02
 -1      2213-9.40500E+01 3.11655E+02-1.11005E+02
 -1      2214-1.23446E+02 5.72862E+02-1.75803E+02
 -1      2216-1.23446E+02 5.72862E+02-1.75803E+02
 -1      2217-1.43451E+02 8.83559E+02-2.43410E+02
 -1      2219-1.43451E+02 8.83559E+02-2.43410E+02
 -1      2220-1.56781E+02 1.22753E+03-3.14234E+02
 -1      2222-1.56781E+02 1.22753E+03-3.14234E+02
 -1      2223-1.65135E+02 1.59285E+03-3.87089E+02
 -1      2225-1.65135E+02 1.59285E+03-3.87089E+02
 -1      2226-1.69826E+02 1.97074E+03-4.61459E+02
 -1      2228-1.69826E+02 1.97074E+03-4.61459E+02
 -1      2229-1.71750E+02 2.35459E+03-5.36542E+02
 -1      2231-1.71750E+02 2.35459E+03-5.36542E+02
 -1      2232-1.71563E+02 2.73938E+03-6.11762E+02
 -1      2234-1.71563E+02 2.73938E+03-6.11762E+02
 -1      2235-1.69728E+02 3.12122E+03-6.86530E+02
 -1      2237-1.69728E+02 3.12122E+03-6.86530E+02
 -1      2238-1.66581E+02 3.49701E+03-7.60355E+02
 -1      2240-1.66581E+02 3.49701E+03-7.60355E+02
 -1      2241-1.62364E+02 3.86425E+03-8.32777E+02
 -1      2243-1.62364E+02 3.86425E+03-8.32777E+02
 -1      2244-1.57257E+02 4.22084E+03-9.03391E+02
 -1      2246-1.57257E+02 4.22084E+03-9.03391E+02
 -1      2247-1.51393E+02 4.56504E+03-9.71827E+02
 -1      2249-1.51393E+02 4.56504E+03-9.71827E+02
 -1      2250-1.44877E+02 4.89531E+03-1.03775E+03
 -1      2252-1.44877E+02 4.89531E+03-1.03775E+03
 -1      2253-1.37792E+02 5.21033E+03-1.10087E+03
 -1      2255-1.37792E+02 5.21033E+03-1.10087E+03
 -1      2256-1.30211E+02 5.50894E+03-1.16089E+03
 -1      2258-1.30211E+02 5.50894E+03-1.16089E+03
 -1      2259-1.22198E+02 5.79010E+03-1.21758E+03
 -1      2261-1.22198E+02 5.79010E+03-1.21758E+03
 -1      2262-1.13819E+02 6.05294E+03-1.27071E+03
 -1      2264-1.13819E+02 6.05294E+03-1.27071E+03
 -1      2265-1.05140E+02 6.29669E+03-1.32009E+03
 -1      2267-1.05140E+02 6.29669E+03-1.32009E+03
 -1      2268-9.62388E+01 6.52076E+03-1.36553E+03
 -1      2270-9.62388E+01 6.52076E+03-1.36553E+03
 -1      2271-8.72045E+01 6.72473E+03-1.40690E+03
 -1      2273-8.72045E+01 6.72473E+03-1.40690E+03
 -1      2274-7.81489E+01 6.90837E+03-1.44406E+03
 -1      2276-7.81489E+01 6.90837E+03-1.44406E+03
 -1      2277-6.92128E+01 7.07173E+03-1.47690E+03
 -1      2279-6.92128E+01 7.07173E+03-1.47690E+03
 -1      2280-6.05852E+01 7.21519E+03-1.50535E+03
 -1      2282-6.05852E+01 7.21519E+03-1.50535E+03
 -1      2283-5.25030E+01 7.33957E+03-1.52931E+03
 -1      2285-5.25030E+01 7.33957E+03-1.52931E+03
 -1      2286-4.53141E+01 7.44630E+03-1.54872E+03
 -1      2288-4.53141E+01 7.44630E+03-1.54872E+03
 -1      2289-3.94480E+01 7.53754E+03-1.56338E+03
 -1      2291-3.94480E+01 7.53754E+03-1.56338E+03
 -1      2292-3.54987E+01 7.61674E+03-1.57291E+03
 -1      2294-3.54987E+01 7.61674E+03-1.57291E+03
 -3
    1PSTEP                        16           1           1          
    1PGM                1.000000E+00                                  
    1PGK                2.589949E+05                                  
    1PHID                         -1                                  
    1PSUBC                         0                                  
    1PMODE                         4                                  
  100CL  104 80.99639828         930                     2    4MODAL      1
 -4  ERROR       1    1
 -5  STR(%)      1    1    0    0
 -1       404 0.00000E+00
 -1       406 0.00000E+00
 -1       407 0.00000E+00
 -1       409 0.00000E+00
 -1       410 0.00000E+00
 -1       412 0.00000E+00
 -1       413 0.00000E+00
 -1       415 0.00000E+00
 -1       424 0.00000E+00
 -1       426 0.00000E+00
 -1       427 0.00000E+00
 -1       429 0.00000E+00
 -1       438 0.00000E+00
 -1       440 0.00000E+00
 -1       441 0.00000E+00
 -1       443 0.00000E+00
 -1       444 0.00000E+00
 -1       446 0.00000E+00
 -1       447 0.00000E+00
 -1       449 0.00000E+00
 -1       458 0.00000E+00
 -1       460 0.00000E+00
 -1       461 0.00000E+00
 -1       463 0.00000E+00
 -1       472 0.00000E+00
 -1       474 0.00000E+00
 -1       475 0.00000E+00
 -1       477 0.00000E+00
 -1       478 0.00000E+00
 -1       480 0.00000E+00
 -1       481 0.00000E+00
 -1       483 0.00000E+00
 -1       484 0.00000E+00
 -1       486 0.00000E+00
 -1       487 0.00000E+00
 -1       489 0.00000E+00
 -1       490 0.00000E+00
 -1       492 0.00000E+00
 -1       493 0.00000E+00
 -1       495 0.00000E+00
 -1       496 0.00000E+00
 -1       498 0.00000E+00
 -1       499 0.00000E+00
 -1       501 0.00000E+00
 -1       502 0.00000E+00
 -1       504 0.00000E+00
 -1       505 0.00000E+00
 -1       507 0.00000E+00
 -1       508 0.00000E+00
 -1       510 0.00000E+00
 -1       511 0.00000E+00
 -1       513 0.00000E+00
 -1       514 0.00000E+00
 -1       516 0.00000E+00
 -1       517 0.00000E+00
 -1       519 0.00000E+00
 -1       520 0.00000E+00
 -1       522 0.00000E+00
 -1       523 0.00000E+00
 -1       525 0.00000E+00
 -1       526 0.00000E+00
 -1       528 0.00000E+00
 -1       529 0.00000E+00
 -1       531 0.00000E+00
 -1       532 0.00000E+00
 -1       534 0.00000E+00
 -1       535 0.00000E+00
 -1       537 0.00000E+00
 -1       538 0.00000E+00
 -1       540 0.00000E+00
 -1       541 0.00000E+00
 -1       543 0.00000E+00
 -1       544 0.00000E+00
 -1       546 0.00000E+00
 -1       547 0.00000E+00
 -1       549 0.00000E+00
 -1       550 0.00000E+00
 -1       552 0.00000E+00
 -1       553 0.00000E+00
 -1       555 0.00000E+00
 -1       556 0.00000E+00
 -1       558 0.00000E+00
 -1       559 0.00000E+00
 -1       561 0.00000E+00
 -1       562 0.00000E+00
 -1       564 0.00000E+00
 -1       565 0.00000E+00
 -1       567 0.00000E+00
 -1       568 0.00000E+00
 -1       570 0.00000E+00
 -1       571 0.00000E+00
 -1       573 0.00000E+00
 -1       574 0.00000E+00
 -1       576 0.00000E+00
 -1       577 0.00000E+00
 -1       579 0.00000E+00
 -1       588 0.00000E+00
 -1       590 0.00000E+00
 -1       591 0.00000E+00
 -1       593 0.00000E+00
 -1       602 0.00000E+00
 -1       604 0.00000E+00
 -1       605 0.00000E+00
 -1       607 0.00000E+00
 -1       616 0.00000E+00
 -1       618 0.00000E+00
 -1       619 0.00000E+00
 -1       621 0.00000E+00
 -1       630 0.00000E+00
 -1       632 0.00000E+00
 -1       633 0.00000E+00
 -1       635 0.00000E+00
 -1       644 0.00000E+00
 -1       646 0.00000E+00
 -1       647 0.00000E+00
 -1       649 0.00000E+00
 -1       658 0.00000E+00
 -1       660 0.00000E+00
 -1       661 0.00000E+00
 -1       663 0.00000E+00
 -1       672 0.00000E+00
 -1       674 0.00000E+00
 -1       675 0.00000E+00
 -1       677 0.00000E+00
 -1       686 0.00000E+00
 -1       688 0.00000E+00
 -1       689 0.00000E+00
 -1       691 0.00000E+00
 -1       700 0.00000E+00
 -1       702 0.00000E+00
 -1       703 0.00000E+00
 -1       705 0.00000E+00
 -1       714 0.00000E+00
 -1       716 0.00000E+00
 -1       717 0.00000E+00
 -1       719 0.00000E+00
 -1       728 0.00000E+00
 -1       730 0.00000E+00
 -1       731 0.00000E+00
 -1       733 0.00000E+00
 -1       742 0.00000E+00
 -1       744 0.00000E+00
 -1       745 0.00000E+00
 -1       747 0.00000E+00
 -1       756 0.00000E+00
 -1       758 0.00000E+00
 -1       759 0.00000E+00
 -1       761 0.00000E+00
 -1       770 0.00000E+00
 -1       772 0.00000E+00
 -1       773 0.00000E+00
 -1       775 0.00000E+00
 -1       784 0.00000E+00
 -1       786 0.00000E+00
 -1       787 0.00000E+00
 -1       789 0.00000E+00
 -1       798 0.00000E+00
 -1       800 0.00000E+00
 -1       801 0.00000E+00
 -1       803 0.00000E+00
 -1       812 0.00000E+00
 -1       814 0.00000E+00
 -1       815 0.00000E+00
 -1       817 0.00000E+00
 -1       826 0.00000E+00
 -1       828 0.00000E+00
 -1       829 0.00000E+00
 -1       831 0.00000E+00
 -1       840 0.00000E+00
 -1       842 0.00000E+00
 -1       843 0.00000E+00
 -1       845 0.00000E+00
 -1       854 0.00000E+00
 -1       856 0.00000E+00
 -1       857 0.00000E+00
 -1       859 0.00000E+00
 -1       868 0.00000E+00
 -1       870 0.00000E+00
 -1       871 0.00000E+00
 -1       873 0.00000E+00
 -1       882 0.00000E+00
 -1       884 0.00000E+00
 -1       885 0.00000E+00
 -1       887 0.00000E+00
 -1       896 0.00000E+00
 -1       898 0.00000E+00
 -1       899 0.00000E+00
 -1       901 0.00000E+00
 -1       910 0.00000E+00
 -1       912 0.00000E+00
 -1       913 0.00000E+00
 -1       915 0.00000E+00
 -1       924 0.00000E+00
 -1       926 0.00000E+00
 -1       927 0.00000E+00
 -1       929 0.00000E+00
 -1       938 0.00000E+00
 -1       940 0.00000E+00
 -1       941 0.00000E+00
 -1       943 0.00000E+00
 -1       952 0.00000E+00
 -1       954 0.00000E+00
 -1       955 0.00000E+00
 -1       957 0.00000E+00
 -1       966 0.00000E+00
 -1       968 0.00000E+00
 -1       969 0.00000E+00
 -1       971 0.00000E+00
 -1       980 0.00000E+00
 -1       982 0.00000E+00
 -1       983 0.00000E+00
 -1       985 0.00000E+00
 -1       986 0.00000E+00
 -1       988 0.00000E+00
 -1       989 0.00000E+00
 -1       991 0.00000E+00
 -1       992 0.00000E+00
 -1       994 0.00000E+00
 -1       995 0.00000E+00
 -1       997 0.00000E+00
 -1       998 0.00000E+00
 -1      1000 0.00000E+00
 -1      1001 0.00000E+00
 -1      1003 0.00000E+00
 -1      1004 0.00000E+00
 -1      1006 0.00000E+00
 -1      1007 0.00000E+00
 -1      1009 0.00000E+00
 -1      1010 0.00000E+00
 -1      1012 0.00000E+00
 -1      1013 0.00000E+00
 -1      1015 0.00000E+00
 -1      1016 0.00000E+00
 -1      1018 0.00000E+00
 -1      1019 0.00000E+00
 -1      1021 0.00000E+00
 -1      1022 0.00000E+00
 -1      1024 0.00000E+00
 -1      1025 0.00000E+00
 -1      1027 0.00000E+00
 -1      1028 0.00000E+00
 -1      1030 0.00000E+00
 -1      1031 0.00000E+00
 -1      1033 0.00000E+00
 -1      1034 0.00000E+00
 -1      1036 0.00000E+00
 -1      1037 0.00000E+00
 -1      1039 0.00000E+00
 -1      1040 0.00000E+00
 -1      1042 0.00000E+00
 -1      1043 0.00000E+00
 -1      1045 0.00000E+00
 -1      1046 0.00000E+00
 -1      1048 0.00000E+00
 -1      1049 0.00000E+00
 -1      1051 0.00000E+00
 -1      1052 0.00000E+00
 -1      1054 0.00000E+00
 -1      1055 0.00000E+00
 -1      1057 0.00000E+00
 -1      1058 0.00000E+00
 -1      1060 0.00000E+00
 -1      1061 0.00000E+00
 -1      1063 0.00000E+00
 -1      1064 0.00000E+00
 -1      1066 0.00000E+00
 -1      1067 0.00000E+00
 -1      1069 0.00000E+00
 -1      1070 0.00000E+00
 -1      1072 0.00000E+00
 -1      1073 0.00000E+00
 -1      1075 0.00000E+00
 -1      1076 0.00000E+00
 -1      1078 0.00000E+00
 -1      1079 0.00000E+00
 -1      1081 0.00000E+00
 -1      1082 0.00000E+00
 -1      1084 0.00000E+00
 -1      1085 0.00000E+00
 -1      1087 0.00000E+00
 -1      1088 0.00000E+00
 -1      1090 0.00000E+00
 -1      1099 0.00000E+00
 -1      1101 0.00000E+00
 -1      1102 0.00000E+00
 -1      1104 0.00000E+00
 -1      1113 0.00000E+00
 -1      1115 0.00000E+00
 -1      1116 0.00000E+00
 -1      1118 0.00000E+00
 -1      1127 0.00000E+00
 -1      1129 0.00000E+00
 -1      1130 0.00000E+00
 -1      1132 0.00000E+00
 -1      1141 0.00000E+00
 -1      1143 0.00000E+00
 -1      1144 0.00000E+00
 -1      1146 0.00000E+00
 -1      1155 0.00000E+00
 -1      1157 0.00000E+00
 -1      1158 0.00000E+00
 -1      1160 0.00000E+00
 -1      1169 0.00000E+00
 -1      1171 0.00000E+00
 -1      1172 0.00000E+00
 -1      1174 0.00000E+00
 -1      1183 0.00000E+00
 -1      1185 0.00000E+00
 -1      1186 0.00000E+00
 -1      1188 0.00000E+00
 -1      1197 0.00000E+00
 -1      1199 0.00000E+00
 -1      1200 0.00000E+00
 -1      1202 0.00000E+00
 -1      1211 0.00000E+00
 -1      1213 0.00000E+00
 -1      1214 0.00000E+00
 -1      1216 0.00000E+00
 -1      1225 0.00000E+00
 -1      1227 0.00000E+00
 -1      1228 0.00000E+00
 -1      1230 0.00000E+00
 -1      1239 0.00000E+00
 -1      1241 0.00000E+00
 -1      1242 0.00000E+00
 -1      1244 0.00000E+00
 -1      1253 0.00000E+00
 -1      1255 0.00000E+00
 -1      1256 0.00000E+00
 -1      1258 0.00000E+00
 -1      1267 0.00000E+00
 -1      1269 0.00000E+00
 -1      1270 0.00000E+00
 -1      1272 0.00000E+00
 -1      1281 0.00000E+00
 -1      1283 0.00000E+00
 -1      1284 0.00000E+00
 -1      1286 0.00000E+00
 -1      1295 0.00000E+00
 -1      1297 0.00000E+00
 -1      1298 0.00000E+00
 -1      1300 0.00000E+00
 -1      1309 0.00000E+00
 -1      1311 0.00000E+00
 -1      1312 0.00000E+00
 -1      1314 0.00000E+00
 -1      1323 0.00000E+00
 -1      1325 0.00000E+00
 -1      1326 0.00000E+00
 -1      1328 0.00000E+00
 -1      1337 0.00000E+00
 -1      1339 0.00000E+00
 -1      1340 0.00000E+00
 -1      1342 0.00000E+00
 -1      1351 0.00000E+00
 -1      1353 0.00000E+00
 -1      1354 0.00000E+00
 -1      1356 0.00000E+00
 -1      1365 0.00000E+00
 -1      1367 0.00000E+00
 -1      1368 0.00000E+00
 -1      1370 0.00000E+00
 -1      1379 0.00000E+00
 -1      1381 0.00000E+00
 -1      1382 0.00000E+00
 -1      1384 0.00000E+00
 -1      1393 0.00000E+00
 -1      1395 0.00000E+00
 -1      1396 0.00000E+00
 -1      1398 0.00000E+00
 -1      1407 0.00000E+00
 -1      1409 0.00000E+00
 -1      1410 0.00000E+00
 -1      1412 0.00000E+00
 -1      1421 0.00000E+00
 -1      1423 0.00000E+00
 -1      1424 0.00000E+00
 -1      1426 0.00000E+00
 -1      1435 0.00000E+00
 -1      1437 0.00000E+00
 -1      1438 0.00000E+00
 -1      1440 0.00000E+00
 -1      1449 0.00000E+00
 -1      1451 0.00000E+00
 -1      1452 0.00000E+00
 -1      1454 0.00000E+00
 -1      1463 0.00000E+00
 -1      1465 0.00000E+00
 -1      1466 0.00000E+00
 -1      1468 0.00000E+00
 -1      1477 0.00000E+00
 -1      1479 0.00000E+00
 -1      1480 0.00000E+00
 -1      1482 0.00000E+00
 -1      1491 0.00000E+00
 -1      1493 0.00000E+00
 -1      1494 0.00000E+00
 -1      1496 0.00000E+00
 -1      1497 0.00000E+00
 -1      1499 0.00000E+00
 -1      1500 0.00000E+00
 -1      1502 0.00000E+00
 -1      1503 0.00000E+00
 -1      1505 0.00000E+00
 -1      1506 0.00000E+00
 -1      1508 0.00000E+00
 -1      1509 0.00000E+00
 -1      1511 0.00000E+00
 -1      1512 0.00000E+00
 -1      1514 0.00000E+00
 -1      1515 0.00000E+00
 -1      1517 0.00000E+00
 -1      1518 0.00000E+00
 -1      1520 0.00000E+00
 -1      1521 0.00000E+00
 -1      1523 0.00000E+00
 -1      1524 0.00000E+00
 -1      1526 0.00000E+00
 -1      1527 0.00000E+00
 -1      1529 0.00000E+00
 -1      1530 0.00000E+00
 -1      1532 0.00000E+00
 -1      1533 0.00000E+00
 -1      1535 0.00000E+00
 -1      1536 0.00000E+00
 -1      1538 0.00000E+00
 -1      1539 0.00000E+00
 -1      1541 0.00000E+00
 -1      1542 0.00000E+00
 -1      1544 0.00000E+00
 -1      1545 0.00000E+00
 -1      1547 0.00000E+00
 -1      1548 0.00000E+00
 -1      1550 0.00000E+00
 -1      1551 0.00000E+00
 -1      1553 0.00000E+00
 -1      1554 0.00000E+00
 -1      1556 0.00000E+00
 -1      1557 0.00000E+00
 -1      1559 0.00000E+00
 -1      1560 0.00000E+00
 -1      1562 0.00000E+00
 -1      1563 0.00000E+00
 -1      1565 0.00000E+00
 -1      1566 0.00000E+00
 -1      1568 0.00000E+00
 -1      1569 0.00000E+00
 -1      1571 0.00000E+00
 -1      1572 0.00000E+00
 -1      1574 0.00000E+00
 -1      1575 0.00000E+00
 -1      1577 0.00000E+00
 -1      1578 0.00000E+00
 -1      1580 0.00000E+00
 -1      1581 0.00000E+00
 -1      1583 0.00000E+00
 -1      1584 0.00000E+00
 -1      1586 0.00000E+00
 -1      1587 0.00000E+00
 -1      1589 0.00000E+00
 -1      1590 0.00000E+00
 -1      1592 0.00000E+00
 -1      1593 0.00000E+00
 -1      1595 0.00000E+00
 -1      1596 0.00000E+00
 -1      1598 0.00000E+00
 -1      1599 0.00000E+00
 -1      1601 0.00000E+00
 -1      1602 0.00000E+00
 -1      1604 0.00000E+00
 -1      1605 0.00000E+00
 -1      1607 0.00000E+00
 -1      1608 0.00000E+00
 -1      1610 0.00000E+00
 -1      1611 0.00000E+00
 -1      1613 0.00000E+00
 -1      1614 0.00000E+00
 -1      1616 0.00000E+00
 -1      1617 0.00000E+00
 -1      1619 0.00000E+00
 -1      1620 0.00000E+00
 -1      1622 0.00000E+00
 -1      1623 0.00000E+00
 -1      1625 0.00000E+00
 -1      1626 0.00000E+00
 -1      1628 0.00000E+00
 -1      1629 0.00000E+00
 -1      1631 0.00000E+00
 -1      1632 0.00000E+00
 -1      1634 0.00000E+00
 -1      1635 0.00000E+00
 -1      1637 0.00000E+00
 -1      1638 0.00000E+00
 -1      1640 0.00000E+00
 -1      1641 0.00000E+00
 -1      1643 0.00000E+00
 -1      1644 0.00000E+00
 -1      1646 0.00000E+00
 -1      1647 0.00000E+00
 -1      1649 0.00000E+00
 -1      1650 0.00000E+00
 -1      1652 0.00000E+00
 -1      1653 0.00000E+00
 -1      1655 0.00000E+00
 -1      1656 0.00000E+00
 -1      1658 0.00000E+00
 -1      1659 0.00000E+00
 -1      1661 0.00000E+00
 -1      1662 0.00000E+00
 -1      1664 0.00000E+00
 -1      1665 0.00000E+00
 -1      1667 0.00000E+00
 -1      1668 0.00000E+00
 -1      1670 0.00000E+00
 -1      1671 0.00000E+00
 -1      1673 0.00000E+00
 -1      1674 0.00000E+00
 -1      1676 0.00000E+00
 -1      1677 0.00000E+00
 -1      1679 0.00000E+00
 -1      1680 0.00000E+00
 -1      1682 0.00000E+00
 -1      1683 0.00000E+00
 -1      1685 0.00000E+00
 -1      1686 0.00000E+00
 -1      1688 0.00000E+00
 -1      1689 0.00000E+00
 -1      1691 0.00000E+00
 -1      1692 0.00000E+00
 -1      1694 0.00000E+00
 -1      1695 0.00000E+00
 -1      1697 0.00000E+00
 -1      1698 0.00000E+00
 -1      1700 0.00000E+00
 -1      1701 0.00000E+00
 -1      1703 0.00000E+00
 -1      1704 0.00000E+00
 -1      1706 0.00000E+00
 -1      1707 0.00000E+00
 -1      1709 0.00000E+00
 -1      1710 0.00000E+00
 -1      1712 0.00000E+00
 -1      1713 0.00000E+00
 -1      1715 0.00000E+00
 -1      1716 0.00000E+00
 -1      1718 0.00000E+00
 -1      1719 0.00000E+00
 -1      1721 0.00000E+00
 -1      1722 0.00000E+00
 -1      1724 0.00000E+00
 -1      1725 0.00000E+00
 -1      1727 0.00000E+00
 -1      1728 0.00000E+00
 -1      1730 0.00000E+00
 -1      1731 0.00000E+00
 -1      1733 0.00000E+00
 -1      1734 0.00000E+00
 -1      1736 0.00000E+00
 -1      1737 0.00000E+00
 -1      1739 0.00000E+00
 -1      1740 0.00000E+00
 -1      1742 0.00000E+00
 -1      1743 0.00000E+00
 -1      1745 0.00000E+00
 -1      1746 0.00000E+00
 -1      1748 0.00000E+00
 -1      1749 0.00000E+00
 -1      1751 0.00000E+00
 -1      1752 0.00000E+00
 -1      1754 0.00000E+00
 -1      1755 0.00000E+00
 -1      1757 0.00000E+00
 -1      1758 0.00000E+00
 -1      1760 0.00000E+00
 -1      1761 0.00000E+00
 -1      1763 0.00000E+00
 -1      1764 0.00000E+00
 -1      1766 0.00000E+00
 -1      1767 0.00000E+00
 -1      1769 0.00000E+00
 -1      1770 0.00000E+00
 -1      1772 0.00000E+00
 -1      1773 0.00000E+00
 -1      1775 0.00000E+00
 -1      1776 0.00000E+00
 -1      1778 0.00000E+00
 -1      1779 0.00000E+00
 -1      1781 0.00000E+00
 -1      1782 0.00000E+00
 -1      1784 0.00000E+00
 -1      1785 0.00000E+00
 -1      1787 0.00000E+00
 -1      1788 0.00000E+00
 -1      1790 0.00000E+00
 -1      1791 0.00000E+00
 -1      1793 0.00000E+00
 -1      1794 0.00000E+00
 -1      1796 0.00000E+00
 -1      1797 0.00000E+00
 -1      1799 0.00000E+00
 -1      1800 0.00000E+00
 -1      1802 0.00000E+00
 -1      1803 0.00000E+00
 -1      1805 0.00000E+00
 -1      1806 0.00000E+00
 -1      1808 0.00000E+00
 -1      1809 0.00000E+00
 -1      1811 0.00000E+00
 -1      1812 0.00000E+00
 -1      1814 0.00000E+00
 -1      1815 0.00000E+00
 -1      1817 0.00000E+00
 -1      1818 0.00000E+00
 -1      1820 0.00000E+00
 -1      1821 0.00000E+00
 -1      1823 0.00000E+00
 -1      1824 0.00000E+00
 -1      1826 0.00000E+00
 -1      1827 0.00000E+00
 -1      1829 0.00000E+00
 -1      1830 0.00000E+00
 -1      1832 0.00000E+00
 -1      1833 0.00000E+00
 -1      1835 0.00000E+00
 -1      1836 0.00000E+00
 -1      1838 0.00000E+00
 -1      1839 0.00000E+00
 -1      1841 0.00000E+00
 -1      1842 0.00000E+00
 -1      1844 0.00000E+00
 -1      1845 0.00000E+00
 -1      1847 0.00000E+00
 -1      1848 0.00000E+00
 -1      1850 0.00000E+00
 -1      1851 0.00000E+00
 -1      1853 0.00000E+00
 -1      1854 0.00000E+00
 -1      1856 0.00000E+00
 -1      1857 0.00000E+00
 -1      1859 0.00000E+00
 -1      1860 0.00000E+00
 -1      1862 0.00000E+00
 -1      1863 0.00000E+00
 -1      1865 0.00000E+00
 -1      1866 0.00000E+00
 -1      1868 0.00000E+00
 -1      1869 0.00000E+00
 -1      1871 0.00000E+00
 -1      1872 0.00000E+00
 -1      1874 0.00000E+00
 -1      1875 0.00000E+00
 -1      1877 0.00000E+00
 -1      1878 0.00000E+00
 -1      1880 0.00000E+00
 -1      1881 0.00000E+00
 -1      1883 0.00000E+00
 -1      1884 0.00000E+00
 -1      1886 0.00000E+00
 -1      1887 0.00000E+00
 -1      1889 0.00000E+00
 -1      1890 0.00000E+00
 -1      1892 0.00000E+00
 -1      1893 0.00000E+00
 -1      1895 0.00000E+00
 -1      1896 0.00000E+00
 -1      1898 0.00000E+00
 -1      1899 0.00000E+00
 -1      1901 0.00000E+00
 -1      1902 0.00000E+00
 -1      1904 0.00000E+00
 -1      1905 0.00000E+00
 -1      1907 0.00000E+00
 -1      1908 0.00000E+00
 -1      1910 0.00000E+00
 -1      1911 0.00000E+00
 -1      1913 0.00000E+00
 -1      1914 0.00000E+00
 -1      1916 0.00000E+00
 -1      1917 0.00000E+00
 -1      1919 0.00000E+00
 -1      1920 0.00000E+00
 -1      1922 0.00000E+00
 -1      1923 0.00000E+00
 -1      1925 0.00000E+00
 -1      1926 0.00000E+00
 -1      1928 0.00000E+00
 -1      1929 0.00000E+00
 -1      1931 0.00000E+00
 -1      1932 0.00000E+00
 -1      1934 0.00000E+00
 -1      1935 0.00000E+00
 -1      1937 0.00000E+00
 -1      1938 0.00000E+00
 -1      1940 0.00000E+00
 -1      1941 0.00000E+00
 -1      1943 0.00000E+00
 -1      1944 0.00000E+00
 -1      1946 0.00000E+00
 -1      1947 0.00000E+00
 -1      1949 0.00000E+00
 -1      1950 0.00000E+00
 -1      1952 0.00000E+00
 -1      1953 0.00000E+00
 -1      1955 0.00000E+00
 -1      1956 0.00000E+00
 -1      1958 0.00000E+00
 -1      1959 0.00000E+00
 -1      1961 0.00000E+00
 -1      1962 0.00000E+00
 -1      1964 0.00000E+00
 -1      1965 0.00000E+00
 -1      1967 0.00000E+00
 -1      1968 0.00000E+00
 -1      1970 0.00000E+00
 -1      1971 0.00000E+00
 -1      1973 0.00000E+00
 -1      1974 0.00000E+00
 -1      1976 0.00000E+00
 -1      1977 0.00000E+00
 -1      1979 0.00000E+00
 -1      1980 0.00000E+00
 -1      1982 0.00000E+00
 -1      1983 0.00000E+00
 -1      1985 0.00000E+00
 -1      1986 0.00000E+00
 -1      1988 0.00000E+00
 -1      1989 0.00000E+00
 -1      1991 0.00000E+00
 -1      1992 0.00000E+00
 -1      1994 0.00000E+00
 -1      1995 0.00000E+00
 -1      1997 0.00000E+00
 -1      1998 0.00000E+00
 -1      2000 0.00000E+00
 -1      2001 0.00000E+00
 -1      2003 0.00000E+00
 -1      2004 0.00000E+00
 -1      2006 0.00000E+00
 -1      2007 0.00000E+00
 -1      2009 0.00000E+00
 -1      2010 0.00000E+00
 -1      2012 0.00000E+00
 -1      2013 0.00000E+00
 -1      2015 0.00000E+00
 -1      2016 0.00000E+00
 -1      2018 0.00000E+00
 -1      2019 0.00000E+00
 -1      2021 0.00000E+00
 -1      2022 0.00000E+00
 -1      2024 0.00000E+00
 -1      2025 0.00000E+00
 -1      2027 0.00000E+00
 -1      2028 0.00000E+00
 -1      2030 0.00000E+00
 -1      2031 0.00000E+00
 -1      2033 0.00000E+00
 -1      2034 0.00000E+00
 -1      2036 0.00000E+00
 -1      2037 0.00000E+00
 -1      2039 0.00000E+00
 -1      2040 0.00000E+00
 -1      2042 0.00000E+00
 -1      2043 0.00000E+00
 -1      2045 0.00000E+00
 -1      2046 0.00000E+00
 -1      2048 0.00000E+00
 -1      2049 0.00000E+00
 -1      2051 0.00000E+00
 -1      2052 0.00000E+00
 -1      2054 0.00000E+00
 -1      2055 0.00000E+00
 -1      2057 0.00000E+00
 -1      2058 0.00000E+00
 -1      2060 0.00000E+00
 -1      2061 0.00000E+00
 -1      2063 0.00000E+00
 -1      2064 0.00000E+00
 -1      2066 0.00000E+00
 -1      2067 0.00000E+00
 -1      2069 0.00000E+00
 -1      2070 0.00000E+00
 -1      2072 0.00000E+00
 -1      2073 0.00000E+00
 -1      2075 0.00000E+00
 -1      2076 0.00000E+00
 -1      2078 0.00000E+00
 -1      2079 0.00000E+00
 -1      2081 0.00000E+00
 -1      2082 0.00000E+00
 -1      2084 0.00000E+00
 -1      2085 0.00000E+00
 -1      2087 0.00000E+00
 -1      2088 0.00000E+00
 -1      2090 0.00000E+00
 -1      2091 0.00000E+00
 -1      2093 0.00000E+00
 -1      2094 0.00000E+00
 -1      2096 0.00000E+00
 -1      2097 0.00000E+00
 -1      2099 0.00000E+00
 -1      2100 0.00000E+00
 -1      2102 0.00000E+00
 -1      2103 0.00000E+00
 -1      2105 0.00000E+00
 -1      2106 0.00000E+00
 -1      2108 0.00000E+00
 -1      2109 0.00000E+00
 -1      2111 0.00000E+00
 -1      2112 0.00000E+00
 -1      2114 0.00000E+00
 -1      2115 0.00000E+00
 -1      2117 0.00000E+00
 -1      2118 0.00000E+00
 -1      2120 0.00000E+00
 -1      2121 0.00000E+00
 -1      2123 0.00000E+00
 -1      2124 0.00000E+00
 -1      2126 0.00000E+00
 -1      2127 0.00000E+00
 -1      2129 0.00000E+00
 -1      2130 0.00000E+00
 -1      2132 0.00000E+00
 -1      2133 0.00000E+00
 -1      2135 0.00000E+00
 -1      2136 0.00000E+00
 -1      2138 0.00000E+00
 -1      2139 0.00000E+00
 -1      2141 0.00000E+00
 -1      2142 0.00000E+00
 -1      2144 0.00000E+00
 -1      2145 0.00000E+00
 -1      2147 0.00000E+00
 -1      2148 0.00000E+00
 -1      2150 0.00000E+00
 -1      2151 0.00000E+00
 -1      2153 0.00000E+00
 -1      2154 0.00000E+00
 -1      2156 0.00000E+00
 -1      2157 0.00000E+00
 -1      2159 0.00000E+00
 -1      2160 0.00000E+00
 -1      2162 0.00000E+00
 -1      2163 0.00000E+00
 -1      2165 0.00000E+00
 -1      2166 0.00000E+00
 -1      2168 0.00000E+00
 -1      2169 0.00000E+00
 -1      2171 0.00000E+00
 -1      2172 0.00000E+00
 -1      2174 0.00000E+00
 -1      2175 0.00000E+00
 -1      2177 0.00000E+00
 -1      2178 0.00000E+00
 -1      2180 0.00000E+00
 -1      2181 0.00000E+00
 -1      2183 0.00000E+00
 -1      2184 0.00000E+00
 -1      2186 0.00000E+00
 -1      2187 0.00000E+00
 -1      2189 0.00000E+00
 -1      2190 0.00000E+00
 -1      2192 0.00000E+00
 -1      2193 0.00000E+00
 -1      2195 0.00000E+00
 -1      2196 0.00000E+00
 -1      2198 0.00000E+00
 -1      2199 0.00000E+00
 -1      2201 0.00000E+00
 -1      2202 0.00000E+00
 -1      2204 0.00000E+00
 -1      2205 0.00000E+00
 -1      2207 0.00000E+00
 -1      2208 0.00000E+00
 -1      2210 0.00000E+00
 -1      2211 0.00000E+00
 -1      2213 0.00000E+00
 -1      2214 0.00000E+00
 -1      2216 0.00000E+00
 -1      2217 0.00000E+00
 -1      2219 0.00000E+00
 -1      2220 0.00000E+00
 -1      2222 0.00000E+00
 -1      2223 0.00000E+00
 -1      2225 0.00000E+00
 -1      2226 0.00000E+00
 -1      2228 0.00000E+00
 -1      2229 0.00000E+00
 -1      2231 0.00000E+00
 -1      2232 0.00000E+00
 -1      2234 0.00000E+00
 -1      2235 0.00000E+00
 -1      2237 0.00000E+00
 -1      2238 0.00000E+00
 -1      2240 0.00000E+00
 -1      2241 0.00000E+00
 -1      2243 0.00000E+00
 -1      2244 0.00000E+00
 -1      2246 0.00000E+00
 -1      2247 0.00000E+00
 -1      2249 0.00000E+00
 -1      2250 0.00000E+00
 -1      2252 0.00000E+00
 -1      2253 0.00000E+00
 -1      2255 0.00000E+00
 -1      2256 0.00000E+00
 -1      2258 0.00000E+00
 -1      2259 0.00000E+00
 -1      2261 0.00000E+00
 -1      2262 0.00000E+00
 -1      2264 0.00000E+00
 -1      2265 0.00000E+00
 -1      2267 0.00000E+00
 -1      2268 0.00000E+00
 -1      2270 0.00000E+00
 -1      2271 0.00000E+00
 -1      2273 0.00000E+00
 -1      2274 0.00000E+00
 -1      2276 0.00000E+00
 -1      2277 0.00000E+00
 -1      2279 0.00000E+00
 -1      2280 0.00000E+00
 -1      2282 0.00000E+00
 -1      2283 0.00000E+00
 -1      2285 0.00000E+00
 -1      2286 0.00000E+00
 -1      2288 0.00000E+00
 -1      2289 0.00000E+00
 -1      2291 0.00000E+00
 -1      2292 0.00000E+00
 -1      2294 0.00000E+00
 -3
    1PSTEP                        17           1           1          
    1PGM                1.000000E+00                                  
    1PGK                1.832614E+06                                  
    1PHID                         -1                                  
    1PSUBC                         0                                  
    1PMODE                         5                                  
  100CL  105 215.4545135         930                     2    5MODAL      1
 -4  DISP        4    1
 -5  D1          1    2    1    0
 -5  D2          1    2    2    0
 -5  D3          1    2    3    0
 -5  ALL         1    2    0    0    1ALL
 -1       404 0.00000E+00 0.00000E+00-2.15131E-04
 -1       406 0.00000E+00-0.00000E+00 2.15131E-04
 -1       407-3.16248E-02 1.31971E-01-1.72389E-02
 -1       409-3.16196E-02 1.34548E-01-1.72430E-02
 -1       410 7.87611E-14 1.31953E-01 6.19613E-13
 -1       412 6.82394E-14 1.34582E-01 6.17710E-13
 -1       413 1.51313E-03 1.33268E-01 8.37228E-04
 -1       415-1.51313E-03 1.33268E-01-8.37228E-04
 -1       424 0.00000E+00 0.00000E+00-7.91349E-16
 -1       426 0.00000E+00 0.00000E+00 7.91349E-16
 -1       427 0.00000E+00-5.04119E-16 0.00000E+00
 -1       429 0.00000E+00 5.04119E-16 0.00000E+00
 -1       438 3.16248E-02 1.31971E-01 1.72389E-02
 -1       440 3.16196E-02 1.34548E-01 1.72430E-02
 -1       441 0.00000E+00 0.00000E+00 2.15131E-04
 -1       443 0.00000E+00-0.00000E+00-2.15131E-04
 -1       444 0.00000E+00 4.67537E-16 0.00000E+00
 -1       446 0.00000E+00-4.67537E-16 0.00000E+00
 -1       447 0.00000E+00 0.00000E+00-7.33924E-16
 -1       449 0.00000E+00 0.00000E+00 7.33924E-16
 -1       458 1.51313E-03 1.33268E-01-8.37228E-04
 -1       460-1.51313E-03 1.33268E-01 8.37228E-04
 -1       461-1.95371E-13 1.31953E-01 6.10569E-13
 -1       463-1.90469E-13 1.34582E-01 6.09468E-13
 -1       472 0.00000E+00 0.00000E+00-2.15131E-04
 -1       474 0.00000E+00 0.00000E+00 2.15131E-04
 -1       475 3.16248E-02 1.31971E-01-1.72389E-02
 -1       477 3.16196E-02 1.34548E-01-1.72430E-02
 -1       478-3.16248E-02 1.31971E-01 1.72389E-02
 -1       480-3.16196E-02 1.34548E-01 1.72430E-02
 -1       481 0.00000E+00 0.00000E+00 2.15131E-04
 -1       483 0.00000E+00 0.00000E+00-2.15131E-04
 -1       484-7.20783E-03 6.11441E-03-1.99696E-03
 -1       486-6.73657E-03 6.39963E-03-1.80435E-03
 -1       487-1.17374E-02 1.73289E-02-4.55877E-03
 -1       489-1.15032E-02 1.79241E-02-4.40574E-03
 -1       490-1.44865E-02 3.31967E-02-6.65632E-03
 -1       492-1.41592E-02 3.40833E-02-6.58116E-03
 -1       493-1.51209E-02 5.05566E-02-8.77550E-03
 -1       495-1.48656E-02 5.17292E-02-8.80270E-03
 -1       496-1.40175E-02 6.76777E-02-1.06664E-02
 -1       498-1.37657E-02 6.91094E-02-1.07308E-02
 -1       499-1.13491E-02 8.24654E-02-1.23466E-02
 -1       501-1.11406E-02 8.41322E-02-1.24980E-02
 -1       502-7.45106E-03 9.34395E-02-1.37862E-02
 -1       504-7.27425E-03 9.53119E-02-1.39540E-02
 -1       505-2.69366E-03 9.93531E-02-1.49341E-02
 -1       507-2.55824E-03 1.01399E-01-1.51511E-02
 -1       508 2.52777E-03 9.94886E-02-1.58107E-02
 -1       510 2.62409E-03 1.01677E-01-1.60196E-02
 -1       511 7.78618E-03 9.35468E-02-1.63857E-02
 -1       513 7.84318E-03 9.58444E-02-1.66026E-02
 -1       514 1.26832E-02 8.17336E-02-1.67011E-02
 -1       516 1.27043E-02 8.41115E-02-1.68831E-02
 -1       517 1.68395E-02 6.46822E-02-1.67611E-02
 -1       519 1.68292E-02 6.71119E-02-1.69158E-02
 -1       520 1.99457E-02 4.34336E-02-1.66236E-02
 -1       522 1.99101E-02 4.58921E-02-1.67220E-02
 -1       523 2.17581E-02 1.93386E-02-1.63209E-02
 -1       525 2.17045E-02 2.18059E-02-1.63693E-02
 -1       526 2.21319E-02-6.02399E-03-1.59196E-02
 -1       528 2.20679E-02-3.56152E-03-1.59023E-02
 -1       529 2.10143E-02-3.09655E-02-1.54656E-02
 -1       531 2.09479E-02-2.85175E-02-1.53921E-02
 -1       532 1.84583E-02-5.37964E-02-1.50229E-02
 -1       534 1.83970E-02-5.13666E-02-1.48895E-02
 -1       535 1.46082E-02-7.29431E-02-1.46347E-02
 -1       537 1.45586E-02-7.05314E-02-1.44557E-02
 -1       538 9.69594E-03-8.70492E-02-1.43491E-02
 -1       540 9.66313E-03-8.46511E-02-1.41301E-02
 -1       541 4.01689E-03-9.50644E-02-1.41924E-02
 -1       543 4.00437E-03-9.26732E-02-1.39509E-02
 -1       544-2.08665E-03-9.63070E-02-1.41863E-02
 -1       546-2.07742E-03-9.39138E-02-1.39332E-02
 -1       547-8.25609E-03-9.05018E-02-1.43307E-02
 -1       549-8.22568E-03-8.80979E-02-1.40837E-02
 -1       550-1.41397E-02-7.77858E-02-1.46167E-02
 -1       552-1.40908E-02-7.53627E-02-1.43871E-02
 -1       553-1.94249E-02-5.86816E-02-1.50162E-02
 -1       555-1.93619E-02-5.62333E-02-1.48179E-02
 -1       556-2.38601E-02-3.40424E-02-1.54927E-02
 -1       558-2.37896E-02-3.15651E-02-1.53324E-02
 -1       559-2.72833E-02-4.96323E-03-1.59974E-02
 -1       561-2.72119E-02-2.45660E-03-1.58817E-02
 -1       562-2.96369E-02 2.73227E-02-1.64762E-02
 -1       564-2.95735E-02 2.98562E-02-1.64029E-02
 -1       565-3.09895E-02 6.15901E-02-1.68755E-02
 -1       567-3.09396E-02 6.41458E-02-1.68421E-02
 -1       568-3.15266E-02 9.67260E-02-1.71369E-02
 -1       570-3.15024E-02 9.92969E-02-1.71299E-02
 -1       571-1.57927E-02 1.31970E-01-8.66424E-03
 -1       573-1.57887E-02 1.34539E-01-8.66142E-03
 -1       574-3.22784E-14 4.82665E-03-6.38956E-14
 -1       576-1.64672E-14 5.16162E-03-6.29456E-14
 -1       577 4.60586E-04 4.99414E-03 1.06693E-04
 -1       579-4.60586E-04 4.99414E-03-1.06693E-04
 -1       588-4.25083E-14 1.69437E-02-1.39872E-13
 -1       590-3.66482E-14 1.77304E-02-1.39831E-13
 -1       591 6.35969E-04 1.73370E-02 2.50591E-04
 -1       593-6.35969E-04 1.73370E-02-2.50591E-04
 -1       602-5.59228E-14 3.27498E-02-2.01177E-13
 -1       604-4.62171E-14 3.39192E-02-2.00744E-13
 -1       605 7.73819E-04 3.33345E-02 3.72471E-04
 -1       607-7.73819E-04 3.33345E-02-3.72471E-04
 -1       616-6.42791E-14 5.04415E-02-2.65222E-13
 -1       618-5.67045E-14 5.19925E-02-2.64873E-13
 -1       619 7.95447E-04 5.12170E-02 4.94020E-04
 -1       621-7.95447E-04 5.12170E-02-4.94020E-04
 -1       630-7.02103E-14 6.76970E-02-3.35809E-13
 -1       632-5.93102E-14 6.95900E-02-3.35717E-13
 -1       633 7.32396E-04 6.86435E-02 6.02942E-04
 -1       635-7.32396E-04 6.86435E-02-6.02942E-04
 -1       644-6.71940E-14 8.26692E-02-4.15983E-13
 -1       646-5.63321E-14 8.48566E-02-4.16562E-13
 -1       647 5.92750E-04 8.37629E-02 6.96720E-04
 -1       649-5.92750E-04 8.37629E-02-6.96720E-04
 -1       658-5.76591E-14 9.37549E-02-4.90355E-13
 -1       660-4.86569E-14 9.61859E-02-4.91436E-13
 -1       661 3.91512E-04 9.49704E-02 7.74319E-04
 -1       663-3.91512E-04 9.49704E-02-7.74319E-04
 -1       672-4.50489E-14 9.97648E-02-5.40929E-13
 -1       674-4.13559E-14 1.02372E-01-5.41851E-13
 -1       675 1.47900E-04 1.01068E-01 8.30438E-04
 -1       677-1.47900E-04 1.01068E-01-8.30438E-04
 -1       686-3.61712E-14 9.99438E-02-5.71899E-13
 -1       688-3.27511E-14 1.02665E-01-5.72387E-13
 -1       689-1.18258E-04 1.01304E-01 8.66751E-04
 -1       691 1.18258E-04 1.01304E-01-8.66751E-04
 -1       700-2.89343E-14 9.40154E-02-6.08133E-13
 -1       702-2.32956E-14 9.67798E-02-6.07724E-13
 -1       703-3.86098E-04 9.53976E-02 8.80494E-04
 -1       705 3.86098E-04 9.53976E-02-8.80494E-04
 -1       714-1.60286E-14 8.21731E-02-6.46957E-13
 -1       716-1.14590E-14 8.49198E-02-6.48586E-13
 -1       717-6.34937E-04 8.35465E-02 8.74882E-04
 -1       719 6.34937E-04 8.35465E-02-8.74882E-04
 -1       728 2.06402E-15 6.50641E-02-6.69939E-13
 -1       730 3.06903E-15 6.77339E-02-6.71273E-13
 -1       731-8.46402E-04 6.63990E-02 8.50402E-04
 -1       733 8.46402E-04 6.63990E-02-8.50402E-04
 -1       742 2.15803E-14 4.37283E-02-6.67601E-13
 -1       744 1.88058E-14 4.62766E-02-6.67866E-13
 -1       745-1.00435E-03 4.50025E-02 8.11677E-04
 -1       747 1.00435E-03 4.50025E-02-8.11677E-04
 -1       756 4.15552E-14 1.95288E-02-6.41223E-13
 -1       758 3.60797E-14 2.19203E-02-6.41300E-13
 -1       759-1.09706E-03 2.07246E-02 7.61725E-04
 -1       761 1.09706E-03 2.07246E-02-7.61725E-04
 -1       770 5.97651E-14-5.95080E-03-6.00704E-13
 -1       772 5.43597E-14-3.73415E-03-6.02845E-13
 -1       773-1.11685E-03-4.84248E-03 7.06043E-04
 -1       775 1.11685E-03-4.84248E-03-7.06043E-04
 -1       784 7.86518E-14-3.10110E-02-5.43438E-13
 -1       786 6.86323E-14-2.89738E-02-5.44635E-13
 -1       787-1.06146E-03-2.99924E-02 6.48882E-04
 -1       789 1.06146E-03-2.99924E-02-6.48882E-04
 -1       798 9.56382E-14-5.39554E-02-4.68278E-13
 -1       800 8.55341E-14-5.20854E-02-4.68917E-13
 -1       801-9.33374E-04-5.30204E-02 5.95615E-04
 -1       803 9.33374E-04-5.30204E-02-5.95615E-04
 -1       812 1.13338E-13-7.32016E-02-3.80858E-13
 -1       814 1.00493E-13-7.14741E-02-3.82053E-13
 -1       815-7.40142E-04-7.23378E-02 5.50250E-04
 -1       817 7.40142E-04-7.23378E-02-5.50250E-04
 -1       826 1.24168E-13-8.73879E-02-2.87339E-13
 -1       828 1.11569E-13-8.57651E-02-2.86185E-13
 -1       829-4.93399E-04-8.65765E-02 5.16885E-04
 -1       831 4.93399E-04-8.65765E-02-5.16885E-04
 -1       840 1.26281E-13-9.54582E-02-2.01393E-13
 -1       842 1.16797E-13-9.38949E-02-2.00824E-13
 -1       843-2.08257E-04-9.46766E-02 4.97959E-04
 -1       845 2.08257E-04-9.46766E-02-4.97959E-04
 -1       854 1.28210E-13-9.67293E-02-1.08060E-13
 -1       856 1.12922E-13-9.51741E-02-1.07521E-13
 -1       857 9.79194E-05-9.59517E-02 4.95361E-04
 -1       859-9.79194E-05-9.59517E-02-4.95361E-04
 -1       868 1.21611E-13-9.09243E-02-1.30757E-14
 -1       870 1.10938E-13-8.93261E-02-1.31360E-14
 -1       871 4.06954E-04-9.01252E-02 5.09069E-04
 -1       873-4.06954E-04-9.01252E-02-5.09069E-04
 -1       882 1.14845E-13-7.81834E-02 6.82597E-14
 -1       884 1.05014E-13-7.64933E-02 6.67608E-14
 -1       885 7.00662E-04-7.73384E-02 5.38326E-04
 -1       887-7.00662E-04-7.73384E-02-5.38326E-04
 -1       896 1.09206E-13-5.90314E-02 1.51276E-13
 -1       898 9.63869E-14-5.72093E-02 1.50983E-13
 -1       899 9.63592E-04-5.81203E-02 5.80368E-04
 -1       901-9.63592E-04-5.81203E-02-5.80368E-04
 -1       910 1.01693E-13-3.43302E-02 2.35338E-13
 -1       912 9.10039E-14-3.23462E-02 2.35136E-13
 -1       913 1.18166E-03-3.33382E-02 6.31949E-04
 -1       915-1.18166E-03-3.33382E-02-6.31949E-04
 -1       924 9.70253E-14-5.17840E-03 3.11591E-13
 -1       926 8.61893E-14-3.01866E-03 3.11024E-13
 -1       927 1.34831E-03-4.09853E-03 6.87917E-04
 -1       929-1.34831E-03-4.09853E-03-6.87917E-04
 -1       938 9.10525E-14 2.71787E-02 3.85140E-13
 -1       940 8.04076E-14 2.95116E-02 3.86916E-13
 -1       941 1.45681E-03 2.83451E-02 7.43095E-04
 -1       943-1.45681E-03 2.83451E-02-7.43095E-04
 -1       952 8.58530E-14 6.15077E-02 4.60180E-13
 -1       954 7.54555E-14 6.39907E-02 4.58440E-13
 -1       955 1.51524E-03 6.27492E-02 7.90889E-04
 -1       957-1.51524E-03 6.27492E-02-7.90889E-04
 -1       966 8.16285E-14 9.66959E-02 5.37248E-13
 -1       968 6.99239E-14 9.92840E-02 5.40612E-13
 -1       969 1.52456E-03 9.79900E-02 8.24355E-04
 -1       971-1.52456E-03 9.79900E-02-8.24355E-04
 -1       980 0.00000E+00 0.00000E+00-8.28701E-05
 -1       982 0.00000E+00-0.00000E+00 8.28701E-05
 -1       983 1.57927E-02 1.31970E-01 8.66424E-03
 -1       985 1.57887E-02 1.34539E-01 8.66142E-03
 -1       986 7.20783E-03 6.11441E-03 1.99696E-03
 -1       988 6.73657E-03 6.39963E-03 1.80435E-03
 -1       989 1.17374E-02 1.73289E-02 4.55877E-03
 -1       991 1.15032E-02 1.79241E-02 4.40574E-03
 -1       992 1.44865E-02 3.31967E-02 6.65632E-03
 -1       994 1.41592E-02 3.40833E-02 6.58116E-03
 -1       995 1.51209E-02 5.05566E-02 8.77550E-03
 -1       997 1.48656E-02 5.17292E-02 8.80270E-03
 -1       998 1.40175E-02 6.76777E-02 1.06664E-02
 -1      1000 1.37657E-02 6.91094E-02 1.07308E-02
 -1      1001 1.13491E-02 8.24654E-02 1.23466E-02
 -1      1003 1.11406E-02 8.41322E-02 1.24980E-02
 -1      1004 7.45106E-03 9.34395E-02 1.37862E-02
 -1      1006 7.27425E-03 9.53119E-02 1.39540E-02
 -1      1007 2.69366E-03 9.93531E-02 1.49341E-02
 -1      1009 2.55824E-03 1.01399E-01 1.51511E-02
 -1      1010-2.52777E-03 9.94886E-02 1.58107E-02
 -1      1012-2.62409E-03 1.01677E-01 1.60196E-02
 -1      1013-7.78618E-03 9.35468E-02 1.63857E-02
 -1      1015-7.84318E-03 9.58444E-02 1.66026E-02
 -1      1016-1.26832E-02 8.17336E-02 1.67011E-02
 -1      1018-1.27043E-02 8.41115E-02 1.68831E-02
 -1      1019-1.68395E-02 6.46822E-02 1.67611E-02
 -1      1021-1.68292E-02 6.71119E-02 1.69158E-02
 -1      1022-1.99457E-02 4.34336E-02 1.66236E-02
 -1      1024-1.99101E-02 4.58921E-02 1.67220E-02
 -1      1025-2.17581E-02 1.93386E-02 1.63209E-02
 -1      1027-2.17045E-02 2.18059E-02 1.63693E-02
 -1      1028-2.21319E-02-6.02399E-03 1.59196E-02
 -1      1030-2.20679E-02-3.56152E-03 1.59023E-02
 -1      1031-2.10143E-02-3.09655E-02 1.54656E-02
 -1      1033-2.09479E-02-2.85175E-02 1.53921E-02
 -1      1034-1.84583E-02-5.37964E-02 1.50229E-02
 -1      1036-1.83970E-02-5.13666E-02 1.48895E-02
 -1      1037-1.46082E-02-7.29431E-02 1.46347E-02
 -1      1039-1.45586E-02-7.05314E-02 1.44557E-02
 -1      1040-9.69594E-03-8.70492E-02 1.43491E-02
 -1      1042-9.66313E-03-8.46511E-02 1.41301E-02
 -1      1043-4.01689E-03-9.50644E-02 1.41924E-02
 -1      1045-4.00437E-03-9.26732E-02 1.39509E-02
 -1      1046 2.08665E-03-9.63070E-02 1.41863E-02
 -1      1048 2.07742E-03-9.39138E-02 1.39332E-02
 -1      1049 8.25609E-03-9.05018E-02 1.43307E-02
 -1      1051 8.22568E-03-8.80979E-02 1.40837E-02
 -1      1052 1.41397E-02-7.77858E-02 1.46167E-02
 -1      1054 1.40908E-02-7.53627E-02 1.43871E-02
 -1      1055 1.94249E-02-5.86816E-02 1.50162E-02
 -1      1057 1.93619E-02-5.62333E-02 1.48179E-02
 -1      1058 2.38601E-02-3.40424E-02 1.54927E-02
 -1      1060 2.37896E-02-3.15651E-02 1.53324E-02
 -1      1061 2.72833E-02-4.96323E-03 1.59974E-02
 -1      1063 2.72119E-02-2.45660E-03 1.58817E-02
 -1      1064 2.96369E-02 2.73227E-02 1.64762E-02
 -1      1066 2.95735E-02 2.98562E-02 1.64029E-02
 -1      1067 3.09895E-02 6.15901E-02 1.68755E-02
 -1      1069 3.09396E-02 6.41458E-02 1.68421E-02
 -1      1070 3.15266E-02 9.67260E-02 1.71369E-02
 -1      1072 3.15024E-02 9.92969E-02 1.71299E-02
 -1      1073 0.00000E+00 0.00000E+00 8.28701E-05
 -1      1075 0.00000E+00-0.00000E+00-8.28701E-05
 -1      1076 0.00000E+00-1.52180E-16 0.00000E+00
 -1      1078 0.00000E+00 1.52180E-16 0.00000E+00
 -1      1079 0.00000E+00-6.74442E-17 0.00000E+00
 -1      1081 0.00000E+00 6.74442E-17 0.00000E+00
 -1      1082 0.00000E+00 1.32881E-16 0.00000E+00
 -1      1084 0.00000E+00-1.32881E-16 0.00000E+00
 -1      1085 4.60586E-04 4.99414E-03-1.06693E-04
 -1      1087-4.60586E-04 4.99414E-03 1.06693E-04
 -1      1088 2.53000E-14 4.82665E-03-4.78931E-14
 -1      1090 1.39741E-14 5.16162E-03-4.72675E-14
 -1      1099 6.35969E-04 1.73370E-02-2.50591E-04
 -1      1101-6.35969E-04 1.73370E-02 2.50591E-04
 -1      1102 3.86477E-14 1.69437E-02-1.20800E-13
 -1      1104 3.01547E-14 1.77304E-02-1.20276E-13
 -1      1113 7.73819E-04 3.33345E-02-3.72471E-04
 -1      1115-7.73819E-04 3.33345E-02 3.72471E-04
 -1      1116 4.95818E-14 3.27498E-02-1.99403E-13
 -1      1118 3.77429E-14 3.39192E-02-1.99285E-13
 -1      1127 7.95447E-04 5.12170E-02-4.94020E-04
 -1      1129-7.95447E-04 5.12170E-02 4.94020E-04
 -1      1130 5.14472E-14 5.04415E-02-2.81167E-13
 -1      1132 4.15557E-14 5.19925E-02-2.81099E-13
 -1      1141 7.32396E-04 6.86435E-02-6.02942E-04
 -1      1143-7.32396E-04 6.86435E-02 6.02942E-04
 -1      1144 4.97603E-14 6.76970E-02-3.59917E-13
 -1      1146 3.88164E-14 6.95900E-02-3.60375E-13
 -1      1155 5.92750E-04 8.37629E-02-6.96720E-04
 -1      1157-5.92750E-04 8.37629E-02 6.96720E-04
 -1      1158 4.19395E-14 8.26692E-02-4.31548E-13
 -1      1160 3.37361E-14 8.48566E-02-4.31935E-13
 -1      1169 3.91512E-04 9.49704E-02-7.74319E-04
 -1      1171-3.91512E-04 9.49704E-02 7.74319E-04
 -1      1172 3.27888E-14 9.37549E-02-4.83684E-13
 -1      1174 2.75016E-14 9.61859E-02-4.84191E-13
 -1      1183 1.47900E-04 1.01068E-01-8.30438E-04
 -1      1185-1.47900E-04 1.01068E-01 8.30438E-04
 -1      1186 2.54416E-14 9.97648E-02-5.25049E-13
 -1      1188 1.97236E-14 1.02372E-01-5.25059E-13
 -1      1197-1.18258E-04 1.01304E-01-8.66751E-04
 -1      1199 1.18258E-04 1.01304E-01 8.66751E-04
 -1      1200 1.56998E-14 9.99438E-02-5.71497E-13
 -1      1202 8.05025E-15 1.02665E-01-5.72803E-13
 -1      1211-3.86098E-04 9.53976E-02-8.80494E-04
 -1      1213 3.86098E-04 9.53976E-02 8.80494E-04
 -1      1214-1.08125E-15 9.40154E-02-6.17300E-13
 -1      1216-6.84470E-15 9.67798E-02-6.18153E-13
 -1      1225-6.34937E-04 8.35465E-02-8.74882E-04
 -1      1227 6.34937E-04 8.35465E-02 8.74882E-04
 -1      1228-1.97446E-14 8.21731E-02-6.44174E-13
 -1      1230-2.25740E-14 8.49198E-02-6.45045E-13
 -1      1239-8.46402E-04 6.63990E-02-8.50402E-04
 -1      1241 8.46402E-04 6.63990E-02 8.50402E-04
 -1      1242-3.95057E-14 6.50641E-02-6.46303E-13
 -1      1244-3.84250E-14 6.77339E-02-6.46448E-13
 -1      1253-1.00435E-03 4.50025E-02-8.11677E-04
 -1      1255 1.00435E-03 4.50025E-02 8.11677E-04
 -1      1256-6.03368E-14 4.37283E-02-6.32019E-13
 -1      1258-5.89098E-14 4.62766E-02-6.33580E-13
 -1      1267-1.09706E-03 2.07246E-02-7.61725E-04
 -1      1269 1.09706E-03 2.07246E-02 7.61725E-04
 -1      1270-8.49409E-14 1.95288E-02-6.11164E-13
 -1      1272-8.21841E-14 2.19203E-02-6.12471E-13
 -1      1281-1.11685E-03-4.84248E-03-7.06043E-04
 -1      1283 1.11685E-03-4.84248E-03 7.06043E-04
 -1      1284-1.11813E-13-5.95080E-03-5.72242E-13
 -1      1286-1.04715E-13-3.73415E-03-5.71461E-13
 -1      1295-1.06146E-03-2.99924E-02-6.48882E-04
 -1      1297 1.06146E-03-2.99924E-02 6.48882E-04
 -1      1298-1.35172E-13-3.10110E-02-5.05455E-13
 -1      1300-1.24683E-13-2.89738E-02-5.07028E-13
 -1      1309-9.33374E-04-5.30204E-02-5.95615E-04
 -1      1311 9.33374E-04-5.30204E-02 5.95615E-04
 -1      1312-1.51462E-13-5.39554E-02-4.33085E-13
 -1      1314-1.42501E-13-5.20854E-02-4.32827E-13
 -1      1323-7.40142E-04-7.23378E-02-5.50250E-04
 -1      1325 7.40142E-04-7.23378E-02 5.50250E-04
 -1      1326-1.64539E-13-7.32016E-02-3.59398E-13
 -1      1328-1.54210E-13-7.14741E-02-3.60210E-13
 -1      1337-4.93399E-04-8.65765E-02-5.16885E-04
 -1      1339 4.93399E-04-8.65765E-02 5.16885E-04
 -1      1340-1.72153E-13-8.73879E-02-2.82755E-13
 -1      1342-1.61946E-13-8.57651E-02-2.83528E-13
 -1      1351-2.08257E-04-9.46766E-02-4.97959E-04
 -1      1353 2.08257E-04-9.46766E-02 4.97959E-04
 -1      1354-1.78943E-13-9.54582E-02-2.00492E-13
 -1      1356-1.67564E-13-9.38949E-02-2.02394E-13
 -1      1365 9.79194E-05-9.59517E-02-4.95361E-04
 -1      1367-9.79194E-05-9.59517E-02 4.95361E-04
 -1      1368-1.84655E-13-9.67293E-02-1.12480E-13
 -1      1370-1.72528E-13-9.51741E-02-1.12670E-13
 -1      1379 4.06954E-04-9.01252E-02-5.09069E-04
 -1      1381-4.06954E-04-9.01252E-02 5.09069E-04
 -1      1382-1.90771E-13-9.09243E-02-1.24979E-14
 -1      1384-1.76136E-13-8.93261E-02-1.34813E-14
 -1      1393 7.00662E-04-7.73384E-02-5.38326E-04
 -1      1395-7.00662E-04-7.73384E-02 5.38326E-04
 -1      1396-1.95478E-13-7.81834E-02 9.24404E-14
 -1      1398-1.80028E-13-7.64933E-02 9.52567E-14
 -1      1407 9.63592E-04-5.81203E-02-5.80368E-04
 -1      1409-9.63592E-04-5.81203E-02 5.80368E-04
 -1      1410-1.97453E-13-5.90314E-02 1.88058E-13
 -1      1412-1.86867E-13-5.72093E-02 1.87013E-13
 -1      1421 1.18166E-03-3.33382E-02-6.31949E-04
 -1      1423-1.18166E-03-3.33382E-02 6.31949E-04
 -1      1424-2.00382E-13-3.43302E-02 2.58135E-13
 -1      1426-1.91798E-13-3.23462E-02 2.59834E-13
 -1      1435 1.34831E-03-4.09853E-03-6.87917E-04
 -1      1437-1.34831E-03-4.09853E-03 6.87917E-04
 -1      1438-2.04037E-13-5.17840E-03 3.34532E-13
 -1      1440-1.92232E-13-3.01866E-03 3.32642E-13
 -1      1449 1.45681E-03 2.83451E-02-7.43095E-04
 -1      1451-1.45681E-03 2.83451E-02 7.43095E-04
 -1      1452-2.04737E-13 2.71787E-02 4.18715E-13
 -1      1454-1.92592E-13 2.95116E-02 4.19873E-13
 -1      1463 1.51524E-03 6.27492E-02-7.90889E-04
 -1      1465-1.51524E-03 6.27492E-02 7.90889E-04
 -1      1466-2.00547E-13 6.15077E-02 4.94596E-13
 -1      1468-1.92482E-13 6.39907E-02 4.94685E-13
 -1      1477 1.52456E-03 9.79900E-02-8.24355E-04
 -1      1479-1.52456E-03 9.79900E-02 8.24355E-04
 -1      1480-1.98219E-13 9.66959E-02 5.58555E-13
 -1      1482-1.89502E-13 9.92840E-02 5.58329E-13
 -1      1491 1.51655E-03 1.49369E-01 5.41558E-04
 -1      1493-1.51655E-03 1.49369E-01-5.41558E-04
 -1      1494 1.51997E-03 1.55648E-01 6.45716E-13
 -1      1496-1.51997E-03 1.55648E-01 5.83259E-13
 -1      1497 1.51655E-03 1.49369E-01-5.41558E-04
 -1      1499-1.51655E-03 1.49369E-01 5.41558E-04
 -1      1500 7.20783E-03 6.11441E-03-1.99696E-03
 -1      1502 6.73657E-03 6.39963E-03-1.80435E-03
 -1      1503 1.17374E-02 1.73289E-02-4.55877E-03
 -1      1505 1.15032E-02 1.79241E-02-4.40574E-03
 -1      1506 1.44865E-02 3.31967E-02-6.65632E-03
 -1      1508 1.41592E-02 3.40833E-02-6.58116E-03
 -1      1509 1.51209E-02 5.05566E-02-8.77550E-03
 -1      1511 1.48656E-02 5.17292E-02-8.80270E-03
 -1      1512 1.40175E-02 6.76777E-02-1.06664E-02
 -1      1514 1.37657E-02 6.91094E-02-1.07308E-02
 -1      1515 1.13491E-02 8.24654E-02-1.23466E-02
 -1      1517 1.11406E-02 8.41322E-02-1.24980E-02
 -1      1518 7.45106E-03 9.34395E-02-1.37862E-02
 -1      1520 7.27425E-03 9.53119E-02-1.39540E-02
 -1      1521 2.69366E-03 9.93531E-02-1.49341E-02
 -1      1523 2.55824E-03 1.01399E-01-1.51511E-02
 -1      1524-2.52777E-03 9.94886E-02-1.58107E-02
 -1      1526-2.62409E-03 1.01677E-01-1.60196E-02
 -1      1527-7.78618E-03 9.35468E-02-1.63857E-02
 -1      1529-7.84318E-03 9.58444E-02-1.66026E-02
 -1      1530-1.26832E-02 8.17336E-02-1.67011E-02
 -1      1532-1.27043E-02 8.41115E-02-1.68831E-02
 -1      1533-1.68395E-02 6.46822E-02-1.67611E-02
 -1      1535-1.68292E-02 6.71119E-02-1.69158E-02
 -1      1536-1.99457E-02 4.34336E-02-1.66236E-02
 -1      1538-1.99101E-02 4.58921E-02-1.67220E-02
 -1      1539-2.17581E-02 1.93386E-02-1.63209E-02
 -1      1541-2.17045E-02 2.18059E-02-1.63693E-02
 -1      1542-2.21319E-02-6.02399E-03-1.59196E-02
 -1      1544-2.20679E-02-3.56152E-03-1.59023E-02
 -1      1545-2.10143E-02-3.09655E-02-1.54656E-02
 -1      1547-2.09479E-02-2.85175E-02-1.53921E-02
 -1      1548-1.84583E-02-5.37964E-02-1.50229E-02
 -1      1550-1.83970E-02-5.13666E-02-1.48895E-02
 -1      1551-1.46082E-02-7.29431E-02-1.46347E-02
 -1      1553-1.45586E-02-7.05314E-02-1.44557E-02
 -1      1554-9.69594E-03-8.70492E-02-1.43491E-02
 -1      1556-9.66313E-03-8.46511E-02-1.41301E-02
 -1      1557-4.01689E-03-9.50644E-02-1.41924E-02
 -1      1559-4.00437E-03-9.26732E-02-1.39509E-02
 -1      1560 2.08665E-03-9.63070E-02-1.41863E-02
 -1      1562 2.07742E-03-9.39138E-02-1.39332E-02
 -1      1563 8.25609E-03-9.05018E-02-1.43307E-02
 -1      1565 8.22568E-03-8.80979E-02-1.40837E-02
 -1      1566 1.41397E-02-7.77858E-02-1.46167E-02
 -1      1568 1.40908E-02-7.53627E-02-1.43871E-02
 -1      1569 1.94249E-02-5.86816E-02-1.50162E-02
 -1      1571 1.93619E-02-5.62333E-02-1.48179E-02
 -1      1572 2.38601E-02-3.40424E-02-1.54927E-02
 -1      1574 2.37896E-02-3.15651E-02-1.53324E-02
 -1      1575 2.72833E-02-4.96323E-03-1.59974E-02
 -1      1577 2.72119E-02-2.45660E-03-1.58817E-02
 -1      1578 2.96369E-02 2.73227E-02-1.64762E-02
 -1      1580 2.95735E-02 2.98562E-02-1.64029E-02
 -1      1581 3.09895E-02 6.15901E-02-1.68755E-02
 -1      1583 3.09396E-02 6.41458E-02-1.68421E-02
 -1      1584 3.15266E-02 9.67260E-02-1.71369E-02
 -1      1586 3.15024E-02 9.92969E-02-1.71299E-02
 -1      1587 1.57927E-02 1.31970E-01-8.66424E-03
 -1      1589 1.57887E-02 1.34539E-01-8.66142E-03
 -1      1590 0.00000E+00 0.00000E+00-8.28701E-05
 -1      1592 0.00000E+00 0.00000E+00 8.28701E-05
 -1      1593-1.57927E-02 1.31970E-01 8.66424E-03
 -1      1595-1.57887E-02 1.34539E-01 8.66142E-03
 -1      1596-7.20783E-03 6.11441E-03 1.99696E-03
 -1      1598-6.73657E-03 6.39963E-03 1.80435E-03
 -1      1599-1.17374E-02 1.73289E-02 4.55877E-03
 -1      1601-1.15032E-02 1.79241E-02 4.40574E-03
 -1      1602-1.44865E-02 3.31967E-02 6.65632E-03
 -1      1604-1.41592E-02 3.40833E-02 6.58116E-03
 -1      1605-1.51209E-02 5.05566E-02 8.77550E-03
 -1      1607-1.48656E-02 5.17292E-02 8.80270E-03
 -1      1608-1.40175E-02 6.76777E-02 1.06664E-02
 -1      1610-1.37657E-02 6.91094E-02 1.07308E-02
 -1      1611-1.13491E-02 8.24654E-02 1.23466E-02
 -1      1613-1.11406E-02 8.41322E-02 1.24980E-02
 -1      1614-7.45106E-03 9.34395E-02 1.37862E-02
 -1      1616-7.27425E-03 9.53119E-02 1.39540E-02
 -1      1617-2.69366E-03 9.93531E-02 1.49341E-02
 -1      1619-2.55824E-03 1.01399E-01 1.51511E-02
 -1      1620 2.52777E-03 9.94886E-02 1.58107E-02
 -1      1622 2.62409E-03 1.01677E-01 1.60196E-02
 -1      1623 7.78618E-03 9.35468E-02 1.63857E-02
 -1      1625 7.84318E-03 9.58444E-02 1.66026E-02
 -1      1626 1.26832E-02 8.17336E-02 1.67011E-02
 -1      1628 1.27043E-02 8.41115E-02 1.68831E-02
 -1      1629 1.68395E-02 6.46822E-02 1.67611E-02
 -1      1631 1.68292E-02 6.71119E-02 1.69158E-02
 -1      1632 1.99457E-02 4.34336E-02 1.66236E-02
 -1      1634 1.99101E-02 4.58921E-02 1.67220E-02
 -1      1635 2.17581E-02 1.93386E-02 1.63209E-02
 -1      1637 2.17045E-02 2.18059E-02 1.63693E-02
 -1      1638 2.21319E-02-6.02399E-03 1.59196E-02
 -1      1640 2.20679E-02-3.56152E-03 1.59023E-02
 -1      1641 2.10143E-02-3.09655E-02 1.54656E-02
 -1      1643 2.09479E-02-2.85175E-02 1.53921E-02
 -1      1644 1.84583E-02-5.37964E-02 1.50229E-02
 -1      1646 1.83970E-02-5.13666E-02 1.48895E-02
 -1      1647 1.46082E-02-7.29431E-02 1.46347E-02
 -1      1649 1.45586E-02-7.05314E-02 1.44557E-02
 -1      1650 9.69594E-03-8.70492E-02 1.43491E-02
 -1      1652 9.66313E-03-8.46511E-02 1.41301E-02
 -1      1653 4.01689E-03-9.50644E-02 1.41924E-02
 -1      1655 4.00437E-03-9.26732E-02 1.39509E-02
 -1      1656-2.08665E-03-9.63070E-02 1.41863E-02
 -1      1658-2.07742E-03-9.39138E-02 1.39332E-02
 -1      1659-8.25609E-03-9.05018E-02 1.43307E-02
 -1      1661-8.22568E-03-8.80979E-02 1.40837E-02
 -1      1662-1.41397E-02-7.77858E-02 1.46167E-02
 -1      1664-1.40908E-02-7.53627E-02 1.43871E-02
 -1      1665-1.94249E-02-5.86816E-02 1.50162E-02
 -1      1667-1.93619E-02-5.62333E-02 1.48179E-02
 -1      1668-2.38601E-02-3.40424E-02 1.54927E-02
 -1      1670-2.37896E-02-3.15651E-02 1.53324E-02
 -1      1671-2.72833E-02-4.96323E-03 1.59974E-02
 -1      1673-2.72119E-02-2.45660E-03 1.58817E-02
 -1      1674-2.96369E-02 2.73227E-02 1.64762E-02
 -1      1676-2.95735E-02 2.98562E-02 1.64029E-02
 -1      1677-3.09895E-02 6.15901E-02 1.68755E-02
 -1      1679-3.09396E-02 6.41458E-02 1.68421E-02
 -1      1680-3.15266E-02 9.67260E-02 1.71369E-02
 -1      1682-3.15024E-02 9.92969E-02 1.71299E-02
 -1      1683 0.00000E+00 0.00000E+00 8.28701E-05
 -1      1685 0.00000E+00 0.00000E+00-8.28701E-05
 -1      1686-3.21075E-03 5.14800E-03-1.04428E-03
 -1      1688-2.94776E-03 5.41369E-03-9.24411E-04
 -1      1689-5.71588E-03 1.71175E-02-2.44513E-03
 -1      1691-5.58843E-03 1.77657E-02-2.37044E-03
 -1      1692-6.98539E-03 3.28981E-02-3.55730E-03
 -1      1694-6.80499E-03 3.38621E-02-3.52272E-03
 -1      1695-7.37389E-03 5.05799E-02-4.71319E-03
 -1      1697-7.23384E-03 5.18514E-02-4.71504E-03
 -1      1698-6.83059E-03 6.77870E-02-5.71248E-03
 -1      1700-6.69325E-03 6.93394E-02-5.75000E-03
 -1      1701-5.53729E-03 8.27512E-02-6.61514E-03
 -1      1703-5.42480E-03 8.45495E-02-6.67882E-03
 -1      1704-3.62821E-03 9.38041E-02-7.35662E-03
 -1      1706-3.53512E-03 9.58176E-02-7.44212E-03
 -1      1707-1.29348E-03 9.97993E-02-7.94051E-03
 -1      1709-1.22501E-03 1.01986E-01-8.03947E-03
 -1      1710 1.27033E-03 9.99544E-02-8.34966E-03
 -1      1712 1.31485E-03 1.02277E-01-8.45271E-03
 -1      1713 3.85543E-03 9.40088E-02-8.58596E-03
 -1      1715 3.87618E-03 9.64264E-02-8.68742E-03
 -1      1716 6.26241E-03 8.21459E-02-8.65926E-03
 -1      1718 6.26126E-03 8.46231E-02-8.74787E-03
 -1      1719 8.30620E-03 6.50189E-02-8.58387E-03
 -1      1721 8.28619E-03 6.75206E-02-8.65677E-03
 -1      1722 9.83264E-03 4.36646E-02-8.38835E-03
 -1      1724 9.79760E-03 4.61635E-02-8.43582E-03
 -1      1725 1.07225E-02 1.94483E-02-8.09957E-03
 -1      1727 1.06772E-02 2.19213E-02-8.12189E-03
 -1      1728 1.09036E-02-6.04709E-03-7.75652E-03
 -1      1730 1.08530E-02-3.61453E-03-7.74774E-03
 -1      1731 1.03501E-02-3.11206E-02-7.39219E-03
 -1      1733 1.02994E-02-2.87370E-02-7.35600E-03
 -1      1734 9.08777E-03-5.40760E-02-7.04624E-03
 -1      1736 9.04178E-03-5.17416E-02-6.98122E-03
 -1      1737 7.18763E-03-7.33299E-02-6.74852E-03
 -1      1739 7.15070E-03-7.10395E-02-6.66145E-03
 -1      1740 4.76360E-03-8.75203E-02-6.52965E-03
 -1      1742 4.73912E-03-8.52624E-02-6.42304E-03
 -1      1743 1.96105E-03-9.55907E-02-6.40748E-03
 -1      1745 1.95130E-03-9.33505E-02-6.29009E-03
 -1      1746-1.05180E-03-9.68571E-02-6.39597E-03
 -1      1748-1.04587E-03-9.46172E-02-6.27262E-03
 -1      1749-4.09847E-03-9.10438E-02-6.49517E-03
 -1      1751-4.07726E-03-8.87867E-02-6.37478E-03
 -1      1752-7.00646E-03-7.82892E-02-6.69878E-03
 -1      1754-6.97179E-03-7.59986E-02-6.58633E-03
 -1      1755-9.62191E-03-5.91213E-02-6.98784E-03
 -1      1757-9.57680E-03-5.67847E-02-6.89025E-03
 -1      1758-1.18221E-02-3.43985E-02-7.33681E-03
 -1      1760-1.17709E-02-3.20076E-02-7.25711E-03
 -1      1761-1.35278E-02-5.22651E-03-7.71178E-03
 -1      1763-1.34754E-02-2.77990E-03-7.65280E-03
 -1      1764-1.47117E-02 2.71561E-02-8.07258E-03
 -1      1766-1.46646E-02 2.96540E-02-8.03384E-03
 -1      1767-1.54087E-02 6.15044E-02-8.37986E-03
 -1      1769-1.53709E-02 6.40419E-02-8.35876E-03
 -1      1770-1.57198E-02 9.67102E-02-8.58480E-03
 -1      1772-1.57013E-02 9.92713E-02-8.57526E-03
 -1      1773 3.21075E-03 5.14800E-03 1.04428E-03
 -1      1775 2.94776E-03 5.41369E-03 9.24411E-04
 -1      1776 5.71588E-03 1.71175E-02 2.44513E-03
 -1      1778 5.58843E-03 1.77657E-02 2.37044E-03
 -1      1779 6.98539E-03 3.28981E-02 3.55730E-03
 -1      1781 6.80499E-03 3.38621E-02 3.52272E-03
 -1      1782 7.37389E-03 5.05799E-02 4.71319E-03
 -1      1784 7.23384E-03 5.18514E-02 4.71504E-03
 -1      1785 6.83059E-03 6.77870E-02 5.71248E-03
 -1      1787 6.69325E-03 6.93394E-02 5.75000E-03
 -1      1788 5.53729E-03 8.27512E-02 6.61514E-03
 -1      1790 5.42480E-03 8.45495E-02 6.67882E-03
 -1      1791 3.62821E-03 9.38041E-02 7.35662E-03
 -1      1793 3.53512E-03 9.58176E-02 7.44212E-03
 -1      1794 1.29348E-03 9.97993E-02 7.94051E-03
 -1      1796 1.22501E-03 1.01986E-01 8.03947E-03
 -1      1797-1.27033E-03 9.99544E-02 8.34966E-03
 -1      1799-1.31485E-03 1.02277E-01 8.45271E-03
 -1      1800-3.85543E-03 9.40088E-02 8.58596E-03
 -1      1802-3.87618E-03 9.64264E-02 8.68742E-03
 -1      1803-6.26241E-03 8.21459E-02 8.65926E-03
 -1      1805-6.26126E-03 8.46231E-02 8.74787E-03
 -1      1806-8.30620E-03 6.50189E-02 8.58387E-03
 -1      1808-8.28619E-03 6.75206E-02 8.65677E-03
 -1      1809-9.83264E-03 4.36646E-02 8.38835E-03
 -1      1811-9.79760E-03 4.61635E-02 8.43582E-03
 -1      1812-1.07225E-02 1.94483E-02 8.09957E-03
 -1      1814-1.06772E-02 2.19213E-02 8.12189E-03
 -1      1815-1.09036E-02-6.04709E-03 7.75652E-03
 -1      1817-1.08530E-02-3.61453E-03 7.74774E-03
 -1      1818-1.03501E-02-3.11206E-02 7.39219E-03
 -1      1820-1.02994E-02-2.87370E-02 7.35600E-03
 -1      1821-9.08777E-03-5.40760E-02 7.04624E-03
 -1      1823-9.04178E-03-5.17416E-02 6.98122E-03
 -1      1824-7.18763E-03-7.33299E-02 6.74852E-03
 -1      1826-7.15070E-03-7.10395E-02 6.66145E-03
 -1      1827-4.76360E-03-8.75203E-02 6.52965E-03
 -1      1829-4.73912E-03-8.52624E-02 6.42304E-03
 -1      1830-1.96105E-03-9.55907E-02 6.40748E-03
 -1      1832-1.95130E-03-9.33505E-02 6.29009E-03
 -1      1833 1.05180E-03-9.68571E-02 6.39597E-03
 -1      1835 1.04587E-03-9.46172E-02 6.27262E-03
 -1      1836 4.09847E-03-9.10438E-02 6.49517E-03
 -1      1838 4.07726E-03-8.87867E-02 6.37478E-03
 -1      1839 7.00646E-03-7.82892E-02 6.69878E-03
 -1      1841 6.97179E-03-7.59986E-02 6.58633E-03
 -1      1842 9.62191E-03-5.91213E-02 6.98784E-03
 -1      1844 9.57680E-03-5.67847E-02 6.89025E-03
 -1      1845 1.18221E-02-3.43985E-02 7.33681E-03
 -1      1847 1.17709E-02-3.20076E-02 7.25711E-03
 -1      1848 1.35278E-02-5.22651E-03 7.71178E-03
 -1      1850 1.34754E-02-2.77990E-03 7.65280E-03
 -1      1851 1.47117E-02 2.71561E-02 8.07258E-03
 -1      1853 1.46646E-02 2.96540E-02 8.03384E-03
 -1      1854 1.54087E-02 6.15044E-02 8.37986E-03
 -1      1856 1.53709E-02 6.40419E-02 8.35876E-03
 -1      1857 1.57198E-02 9.67102E-02 8.58480E-03
 -1      1859 1.57013E-02 9.92713E-02 8.57526E-03
 -1      1860 5.89709E-04 7.30339E-03 9.06115E-05
 -1      1862-5.89709E-04 7.30339E-03-9.06115E-05
 -1      1863 6.93965E-04 2.25948E-02 1.99066E-04
 -1      1865-6.93965E-04 2.25948E-02-1.99066E-04
 -1      1866 8.66741E-04 4.11373E-02 2.96709E-04
 -1      1868-8.66741E-04 4.11373E-02-2.96709E-04
 -1      1869 8.60377E-04 6.15729E-02 3.91314E-04
 -1      1871-8.60377E-04 6.15729E-02-3.91314E-04
 -1      1872 8.01193E-04 8.12244E-02 4.75152E-04
 -1      1874-8.01193E-04 8.12244E-02-4.75152E-04
 -1      1875 6.43048E-04 9.82989E-02 5.46440E-04
 -1      1877-6.43048E-04 9.82989E-02-5.46440E-04
 -1      1878 4.32894E-04 1.11041E-01 6.02098E-04
 -1      1880-4.32894E-04 1.11041E-01-6.02098E-04
 -1      1881 1.72300E-04 1.18247E-01 6.39337E-04
 -1      1883-1.72300E-04 1.18247E-01-6.39337E-04
 -1      1884-1.07507E-04 1.19105E-01 6.57810E-04
 -1      1886 1.07507E-04 1.19105E-01-6.57810E-04
 -1      1887-3.90904E-04 1.13349E-01 6.56329E-04
 -1      1889 3.90904E-04 1.13349E-01-6.56329E-04
 -1      1890-6.52839E-04 1.01191E-01 6.36912E-04
 -1      1892 6.52839E-04 1.01191E-01-6.36912E-04
 -1      1893-8.76090E-04 8.33349E-02 6.00769E-04
 -1      1895 8.76090E-04 8.33349E-02-6.00769E-04
 -1      1896-1.04273E-03 6.09006E-02 5.51852E-04
 -1      1898 1.04273E-03 6.09006E-02-5.51852E-04
 -1      1899-1.14109E-03 3.53523E-02 4.93439E-04
 -1      1901 1.14109E-03 3.53523E-02-4.93439E-04
 -1      1902-1.16290E-03 8.38822E-03 4.30615E-04
 -1      1904 1.16290E-03 8.38822E-03-4.30615E-04
 -1      1905-1.10595E-03-1.81707E-02 3.67679E-04
 -1      1907 1.10595E-03-1.81707E-02-3.67679E-04
 -1      1908-9.72849E-04-4.25082E-02 3.09724E-04
 -1      1910 9.72849E-04-4.25082E-02-3.09724E-04
 -1      1911-7.71587E-04-6.29327E-02 2.60722E-04
 -1      1913 7.71587E-04-6.29327E-02-2.60722E-04
 -1      1914-5.14411E-04-7.79900E-02 2.24576E-04
 -1      1916 5.14411E-04-7.79900E-02-2.24576E-04
 -1      1917-2.17250E-04-8.65565E-02 2.03663E-04
 -1      1919 2.17250E-04-8.65565E-02-2.03663E-04
 -1      1920 1.01616E-04-8.79100E-02 1.99732E-04
 -1      1922-1.01616E-04-8.79100E-02-1.99732E-04
 -1      1923 4.22986E-04-8.17681E-02 2.12688E-04
 -1      1925-4.22986E-04-8.17681E-02-2.12688E-04
 -1      1926 7.27671E-04-6.82990E-02 2.41654E-04
 -1      1928-7.27671E-04-6.82990E-02-2.41654E-04
 -1      1929 9.99284E-04-4.80886E-02 2.83772E-04
 -1      1931-9.99284E-04-4.80886E-02-2.83772E-04
 -1      1932 1.22269E-03-2.20930E-02 3.35641E-04
 -1      1934-1.22269E-03-2.20930E-02-3.35641E-04
 -1      1935 1.39110E-03 8.47302E-03 3.92005E-04
 -1      1937-1.39110E-03 8.47302E-03-3.92005E-04
 -1      1938 1.49591E-03 4.22144E-02 4.47455E-04
 -1      1940-1.49591E-03 4.22144E-02-4.47455E-04
 -1      1941 1.54772E-03 7.77539E-02 4.95358E-04
 -1      1943-1.54772E-03 7.77539E-02-4.95358E-04
 -1      1944 1.54107E-03 1.13778E-01 5.28777E-04
 -1      1946-1.54107E-03 1.13778E-01-5.28777E-04
 -1      1947 7.18832E-04 8.33662E-03-5.41039E-14
 -1      1949-7.18832E-04 8.33662E-03-5.27959E-14
 -1      1950 7.51961E-04 2.49283E-02-1.22147E-13
 -1      1952-7.51961E-04 2.49283E-02-1.17398E-13
 -1      1953 9.59663E-04 4.45799E-02-2.00022E-13
 -1      1955-9.59663E-04 4.45799E-02-1.90415E-13
 -1      1956 9.25307E-04 6.61326E-02-2.80902E-13
 -1      1958-9.25307E-04 6.61326E-02-2.64427E-13
 -1      1959 8.69991E-04 8.67451E-02-3.60155E-13
 -1      1961-8.69991E-04 8.67451E-02-3.35386E-13
 -1      1962 6.93346E-04 1.04656E-01-4.36101E-13
 -1      1964-6.93346E-04 1.04656E-01-4.02855E-13
 -1      1965 4.74276E-04 1.18037E-01-5.01623E-13
 -1      1967-4.74276E-04 1.18037E-01-4.61051E-13
 -1      1968 1.96699E-04 1.25681E-01-5.56334E-13
 -1      1970-1.96699E-04 1.25681E-01-5.09337E-13
 -1      1971-9.67568E-05 1.26749E-01-6.02962E-13
 -1      1973 9.67568E-05 1.26749E-01-5.51659E-13
 -1      1974-3.95709E-04 1.20981E-01-6.42089E-13
 -1      1976 3.95709E-04 1.20981E-01-5.88590E-13
 -1      1977-6.70741E-04 1.08595E-01-6.72219E-13
 -1      1979 6.70741E-04 1.08595E-01-6.17542E-13
 -1      1980-9.05777E-04 9.03233E-02-6.85086E-13
 -1      1982 9.05777E-04 9.03233E-02-6.30943E-13
 -1      1983-1.08110E-03 6.73207E-02-6.80211E-13
 -1      1985 1.08110E-03 6.73207E-02-6.29181E-13
 -1      1986-1.18512E-03 4.10979E-02-6.57306E-13
 -1      1988 1.18512E-03 4.10979E-02-6.10534E-13
 -1      1989-1.20894E-03 1.34051E-02-6.10330E-13
 -1      1991 1.20894E-03 1.34051E-02-5.69629E-13
 -1      1992-1.15044E-03-1.38813E-02-5.44982E-13
 -1      1994 1.15044E-03-1.38813E-02-5.10680E-13
 -1      1995-1.01232E-03-3.88908E-02-4.69129E-13
 -1      1997 1.01232E-03-3.88908E-02-4.41112E-13
 -1      1998-8.03031E-04-5.98819E-02-3.83464E-13
 -1      2000 8.03031E-04-5.98819E-02-3.62243E-13
 -1      2001-5.35423E-04-7.53585E-02-2.93899E-13
 -1      2003 5.35423E-04-7.53585E-02-2.80980E-13
 -1      2004-2.26243E-04-8.41666E-02-2.00142E-13
 -1      2006 2.26243E-04-8.41666E-02-1.97453E-13
 -1      2007 1.05312E-04-8.55668E-02-1.01039E-13
 -1      2009-1.05312E-04-8.55668E-02-1.09851E-13
 -1      2010 4.39019E-04-7.92746E-02-2.95597E-15
 -1      2012-4.39019E-04-7.92746E-02-2.28897E-14
 -1      2013 7.54681E-04-6.54720E-02 9.20774E-14
 -1      2015-7.54681E-04-6.54720E-02 6.32411E-14
 -1      2016 1.03498E-03-4.47741E-02 1.85598E-13
 -1      2018-1.03498E-03-4.47741E-02 1.49309E-13
 -1      2019 1.26371E-03-1.81814E-02 2.70146E-13
 -1      2021-1.26371E-03-1.81814E-02 2.26508E-13
 -1      2022 1.43389E-03 1.30363E-02 3.53740E-13
 -1      2024-1.43389E-03 1.30363E-02 3.04393E-13
 -1      2025 1.53501E-03 4.74139E-02 4.31713E-13
 -1      2027-1.53501E-03 4.74139E-02 3.79886E-13
 -1      2028 1.58021E-03 8.35058E-02 5.08343E-13
 -1      2030-1.58021E-03 8.35058E-02 4.51325E-13
 -1      2031 1.55759E-03 1.19909E-01 5.79276E-13
 -1      2033-1.55759E-03 1.19909E-01 5.19855E-13
 -1      2034 5.89709E-04 7.30339E-03-9.06115E-05
 -1      2036-5.89709E-04 7.30339E-03 9.06115E-05
 -1      2037 6.93965E-04 2.25948E-02-1.99066E-04
 -1      2039-6.93965E-04 2.25948E-02 1.99066E-04
 -1      2040 8.66741E-04 4.11373E-02-2.96709E-04
 -1      2042-8.66741E-04 4.11373E-02 2.96709E-04
 -1      2043 8.60377E-04 6.15729E-02-3.91314E-04
 -1      2045-8.60377E-04 6.15729E-02 3.91314E-04
 -1      2046 8.01193E-04 8.12244E-02-4.75152E-04
 -1      2048-8.01193E-04 8.12244E-02 4.75152E-04
 -1      2049 6.43048E-04 9.82989E-02-5.46440E-04
 -1      2051-6.43048E-04 9.82989E-02 5.46440E-04
 -1      2052 4.32894E-04 1.11041E-01-6.02098E-04
 -1      2054-4.32894E-04 1.11041E-01 6.02098E-04
 -1      2055 1.72300E-04 1.18247E-01-6.39337E-04
 -1      2057-1.72300E-04 1.18247E-01 6.39337E-04
 -1      2058-1.07507E-04 1.19105E-01-6.57810E-04
 -1      2060 1.07507E-04 1.19105E-01 6.57810E-04
 -1      2061-3.90904E-04 1.13349E-01-6.56329E-04
 -1      2063 3.90904E-04 1.13349E-01 6.56329E-04
 -1      2064-6.52839E-04 1.01191E-01-6.36912E-04
 -1      2066 6.52839E-04 1.01191E-01 6.36912E-04
 -1      2067-8.76090E-04 8.33349E-02-6.00769E-04
 -1      2069 8.76090E-04 8.33349E-02 6.00769E-04
 -1      2070-1.04273E-03 6.09006E-02-5.51852E-04
 -1      2072 1.04273E-03 6.09006E-02 5.51852E-04
 -1      2073-1.14109E-03 3.53523E-02-4.93439E-04
 -1      2075 1.14109E-03 3.53523E-02 4.93439E-04
 -1      2076-1.16290E-03 8.38822E-03-4.30615E-04
 -1      2078 1.16290E-03 8.38822E-03 4.30615E-04
 -1      2079-1.10595E-03-1.81707E-02-3.67679E-04
 -1      2081 1.10595E-03-1.81707E-02 3.67679E-04
 -1      2082-9.72849E-04-4.25082E-02-3.09724E-04
 -1      2084 9.72849E-04-4.25082E-02 3.09724E-04
 -1      2085-7.71587E-04-6.29327E-02-2.60722E-04
 -1      2087 7.71587E-04-6.29327E-02 2.60722E-04
 -1      2088-5.14411E-04-7.79900E-02-2.24576E-04
 -1      2090 5.14411E-04-7.79900E-02 2.24576E-04
 -1      2091-2.17250E-04-8.65565E-02-2.03663E-04
 -1      2093 2.17250E-04-8.65565E-02 2.03663E-04
 -1      2094 1.01616E-04-8.79100E-02-1.99732E-04
 -1      2096-1.01616E-04-8.79100E-02 1.99732E-04
 -1      2097 4.22986E-04-8.17681E-02-2.12688E-04
 -1      2099-4.22986E-04-8.17681E-02 2.12688E-04
 -1      2100 7.27671E-04-6.82990E-02-2.41654E-04
 -1      2102-7.27671E-04-6.82990E-02 2.41654E-04
 -1      2103 9.99284E-04-4.80886E-02-2.83772E-04
 -1      2105-9.99284E-04-4.80886E-02 2.83772E-04
 -1      2106 1.22269E-03-2.20930E-02-3.35641E-04
 -1      2108-1.22269E-03-2.20930E-02 3.35641E-04
 -1      2109 1.39110E-03 8.47302E-03-3.92005E-04
 -1      2111-1.39110E-03 8.47302E-03 3.92005E-04
 -1      2112 1.49591E-03 4.22144E-02-4.47455E-04
 -1      2114-1.49591E-03 4.22144E-02 4.47455E-04
 -1      2115 1.54772E-03 7.77539E-02-4.95358E-04
 -1      2117-1.54772E-03 7.77539E-02 4.95358E-04
 -1      2118 1.54107E-03 1.13778E-01-5.28777E-04
 -1      2120-1.54107E-03 1.13778E-01 5.28777E-04
 -1      2121 3.21075E-03 5.14800E-03-1.04428E-03
 -1      2123 2.94776E-03 5.41369E-03-9.24411E-04
 -1      2124 5.71588E-03 1.71175E-02-2.44513E-03
 -1      2126 5.58843E-03 1.77657E-02-2.37044E-03
 -1      2127 6.98539E-03 3.28981E-02-3.55730E-03
 -1      2129 6.80499E-03 3.38621E-02-3.52272E-03
 -1      2130 7.37389E-03 5.05799E-02-4.71319E-03
 -1      2132 7.23384E-03 5.18514E-02-4.71504E-03
 -1      2133 6.83059E-03 6.77870E-02-5.71248E-03
 -1      2135 6.69325E-03 6.93394E-02-5.75000E-03
 -1      2136 5.53729E-03 8.27512E-02-6.61514E-03
 -1      2138 5.42480E-03 8.45495E-02-6.67882E-03
 -1      2139 3.62821E-03 9.38041E-02-7.35662E-03
 -1      2141 3.53512E-03 9.58176E-02-7.44212E-03
 -1      2142 1.29348E-03 9.97993E-02-7.94051E-03
 -1      2144 1.22501E-03 1.01986E-01-8.03947E-03
 -1      2145-1.27033E-03 9.99544E-02-8.34966E-03
 -1      2147-1.31485E-03 1.02277E-01-8.45271E-03
 -1      2148-3.85543E-03 9.40088E-02-8.58596E-03
 -1      2150-3.87618E-03 9.64264E-02-8.68742E-03
 -1      2151-6.26241E-03 8.21459E-02-8.65926E-03
 -1      2153-6.26126E-03 8.46231E-02-8.74787E-03
 -1      2154-8.30620E-03 6.50189E-02-8.58387E-03
 -1      2156-8.28619E-03 6.75206E-02-8.65677E-03
 -1      2157-9.83264E-03 4.36646E-02-8.38835E-03
 -1      2159-9.79760E-03 4.61635E-02-8.43582E-03
 -1      2160-1.07225E-02 1.94483E-02-8.09957E-03
 -1      2162-1.06772E-02 2.19213E-02-8.12189E-03
 -1      2163-1.09036E-02-6.04709E-03-7.75652E-03
 -1      2165-1.08530E-02-3.61453E-03-7.74774E-03
 -1      2166-1.03501E-02-3.11206E-02-7.39219E-03
 -1      2168-1.02994E-02-2.87370E-02-7.35600E-03
 -1      2169-9.08777E-03-5.40760E-02-7.04624E-03
 -1      2171-9.04178E-03-5.17416E-02-6.98122E-03
 -1      2172-7.18763E-03-7.33299E-02-6.74852E-03
 -1      2174-7.15070E-03-7.10395E-02-6.66145E-03
 -1      2175-4.76360E-03-8.75203E-02-6.52965E-03
 -1      2177-4.73912E-03-8.52624E-02-6.42304E-03
 -1      2178-1.96105E-03-9.55907E-02-6.40748E-03
 -1      2180-1.95130E-03-9.33505E-02-6.29009E-03
 -1      2181 1.05180E-03-9.68571E-02-6.39597E-03
 -1      2183 1.04587E-03-9.46172E-02-6.27262E-03
 -1      2184 4.09847E-03-9.10438E-02-6.49517E-03
 -1      2186 4.07726E-03-8.87867E-02-6.37478E-03
 -1      2187 7.00646E-03-7.82892E-02-6.69878E-03
 -1      2189 6.97179E-03-7.59986E-02-6.58633E-03
 -1      2190 9.62191E-03-5.91213E-02-6.98784E-03
 -1      2192 9.57680E-03-5.67847E-02-6.89025E-03
 -1      2193 1.18221E-02-3.43985E-02-7.33681E-03
 -1      2195 1.17709E-02-3.20076E-02-7.25711E-03
 -1      2196 1.35278E-02-5.22651E-03-7.71178E-03
 -1      2198 1.34754E-02-2.77990E-03-7.65280E-03
 -1      2199 1.47117E-02 2.71561E-02-8.07258E-03
 -1      2201 1.46646E-02 2.96540E-02-8.03384E-03
 -1      2202 1.54087E-02 6.15044E-02-8.37986E-03
 -1      2204 1.53709E-02 6.40419E-02-8.35876E-03
 -1      2205 1.57198E-02 9.67102E-02-8.58480E-03
 -1      2207 1.57013E-02 9.92713E-02-8.57526E-03
 -1      2208-3.21075E-03 5.14800E-03 1.04428E-03
 -1      2210-2.94776E-03 5.41369E-03 9.24411E-04
 -1      2211-5.71588E-03 1.71175E-02 2.44513E-03
 -1      2213-5.58843E-03 1.77657E-02 2.37044E-03
 -1      2214-6.98539E-03 3.28981E-02 3.55730E-03
 -1      2216-6.80499E-03 3.38621E-02 3.52272E-03
 -1      2217-7.37389E-03 5.05799E-02 4.71319E-03
 -1      2219-7.23384E-03 5.18514E-02 4.71504E-03
 -1      2220-6.83059E-03 6.77870E-02 5.71248E-03
 -1      2222-6.69325E-03 6.93394E-02 5.75000E-03
 -1      2223-5.53729E-03 8.27512E-02 6.61514E-03
 -1      2225-5.42480E-03 8.45495E-02 6.67882E-03
 -1      2226-3.62821E-03 9.38041E-02 7.35662E-03
 -1      2228-3.53512E-03 9.58176E-02 7.44212E-03
 -1      2229-1.29348E-03 9.97993E-02 7.94051E-03
 -1      2231-1.22501E-03 1.01986E-01 8.03947E-03
 -1      2232 1.27033E-03 9.99544E-02 8.34966E-03
 -1      2234 1.31485E-03 1.02277E-01 8.45271E-03
 -1      2235 3.85543E-03 9.40088E-02 8.58596E-03
 -1      2237 3.87618E-03 9.64264E-02 8.68742E-03
 -1      2238 6.26241E-03 8.21459E-02 8.65926E-03
 -1      2240 6.26126E-03 8.46231E-02 8.74787E-03
 -1      2241 8.30620E-03 6.50189E-02 8.58387E-03
 -1      2243 8.28619E-03 6.75206E-02 8.65677E-03
 -1      2244 9.83264E-03 4.36646E-02 8.38835E-03
 -1      2246 9.79760E-03 4.61635E-02 8.43582E-03
 -1      2247 1.07225E-02 1.94483E-02 8.09957E-03
 -1      2249 1.06772E-02 2.19213E-02 8.12189E-03
 -1      2250 1.09036E-02-6.04709E-03 7.75652E-03
 -1      2252 1.08530E-02-3.61453E-03 7.74774E-03
 -1      2253 1.03501E-02-3.11206E-02 7.39219E-03
 -1      2255 1.02994E-02-2.87370E-02 7.35600E-03
 -1      2256 9.08777E-03-5.40760E-02 7.04624E-03
 -1      2258 9.04178E-03-5.17416E-02 6.98122E-03
 -1      2259 7.18763E-03-7.33299E-02 6.74852E-03
 -1      2261 7.15070E-03-7.10395E-02 6.66145E-03
 -1      2262 4.76360E-03-8.75203E-02 6.52965E-03
 -1      2264 4.73912E-03-8.52624E-02 6.42304E-03
 -1      2265 1.96105E-03-9.55907E-02 6.40748E-03
 -1      2267 1.95130E-03-9.33505E-02 6.29009E-03
 -1      2268-1.05180E-03-9.68571E-02 6.39597E-03
 -1      2270-1.04587E-03-9.46172E-02 6.27262E-03
 -1      2271-4.09847E-03-9.10438E-02 6.49517E-03
 -1      2273-4.07726E-03-8.87867E-02 6.37478E-03
 -1      2274-7.00646E-03-7.82892E-02 6.69878E-03
 -1      2276-6.97179E-03-7.59986E-02 6.58633E-03
 -1      2277-9.62191E-03-5.91213E-02 6.98784E-03
 -1      2279-9.57680E-03-5.67847E-02 6.89025E-03
 -1      2280-1.18221E-02-3.43985E-02 7.33681E-03
 -1      2282-1.17709E-02-3.20076E-02 7.25711E-03
 -1      2283-1.35278E-02-5.22651E-03 7.71178E-03
 -1      2285-1.34754E-02-2.77990E-03 7.65280E-03
 -1      2286-1.47117E-02 2.71561E-02 8.07258E-03
 -1      2288-1.46646E-02 2.96540E-02 8.03384E-03
 -1      2289-1.54087E-02 6.15044E-02 8.37986E-03
 -1      2291-1.53709E-02 6.40419E-02 8.35876E-03
 -1      2292-1.57198E-02 9.67102E-02 8.58480E-03
 -1      2294-1.57013E-02 9.92713E-02 8.57526E-03
 -3
    1PSTEP                        18           1           1          
    1PGM                1.000000E+00                                  
    1PGK                1.832614E+06                                  
    1PHID                         -1                                  
    1PSUBC                         0                                  
    1PMODE                         5                                  
  100CL  105 215.4545135         930                     2    5MODAL      1
 -4  STRESS      6    1
 -5  SXX         1    4    1    1
 -5  SYY         1    4    2    2
 -5  SZZ         1    4    3    3
 -5  SXY         1    4    1    2
 -5  SYZ         1    4    2    3
 -5  SZX         1    4    3    1
 -1       404-1.08550E+10-9.84412E+08-1.88569E+07 1.16585E+09 1.69232E+06-6.68555E+07
 -1       406-1.08550E+10-9.84412E+08-1.88569E+07 1.16585E+09 1.69232E+06-6.68555E+07
 -1       407-1.96514E+08 1.57143E+06 7.38113E+05 8.50292E+07-6.75463E+05 7.26316E+05
 -1       409-1.96514E+08 1.57143E+06 7.38113E+05 8.50292E+07-6.75463E+05 7.26316E+05
 -1       410-5.41157E-03-2.34053E-04-1.35269E-03 2.17443E+08 2.28767E+06-1.02078E-04
 -1       412-5.41157E-03-2.34053E-04-1.35269E-03 2.17443E+08 2.28767E+06-1.02078E-04
 -1       413-3.93581E-03-1.99783E-04 1.71555E-03-2.85471E+06 4.98628E+07 2.04116E-03
 -1       415-3.93581E-03-1.99783E-04 1.71555E-03-2.85471E+06 4.98628E+07 2.04116E-03
 -1       424-4.69396E-02-6.64479E-03 2.24710E-05 1.38608E+09 1.50343E+07-2.65110E-03
 -1       426-4.69396E-02-6.64479E-03 2.24710E-05 1.38608E+09 1.50343E+07-2.65110E-03
 -1       427-3.65154E-02-1.84467E-04-5.69680E-03 3.42425E+07 6.06136E+06-4.28627E-02
 -1       429-3.65154E-02-1.84467E-04-5.69680E-03 3.42425E+07 6.06136E+06-4.28627E-02
 -1       438 1.96514E+08-1.57143E+06-7.38113E+05 8.50292E+07-6.75463E+05-7.26316E+05
 -1       440 1.96514E+08-1.57143E+06-7.38113E+05 8.50292E+07-6.75463E+05-7.26316E+05
 -1       441 1.08550E+10 9.84412E+08 1.88569E+07 1.16585E+09 1.69232E+06 6.68555E+07
 -1       443 1.08550E+10 9.84412E+08 1.88569E+07 1.16585E+09 1.69232E+06 6.68555E+07
 -1       444 2.75047E-02 2.26358E-04 1.00870E-02 3.42425E+07-6.06136E+06-3.26363E-02
 -1       446 2.75047E-02 2.26358E-04 1.00870E-02 3.42425E+07-6.06136E+06-3.26363E-02
 -1       447 3.88658E-02 4.49264E-03-3.99947E-05 1.38608E+09-1.50343E+07-1.47451E-03
 -1       449 3.88658E-02 4.49264E-03-3.99947E-05 1.38608E+09-1.50343E+07-1.47451E-03
 -1       458 8.10987E-04 8.15191E-04 1.90632E-03-2.85471E+06-4.98628E+07-5.86394E-03
 -1       460 8.10987E-04 8.15191E-04 1.90632E-03-2.85471E+06-4.98628E+07-5.86394E-03
 -1       461 2.44438E-03 3.58307E-03-2.15244E-04 2.17443E+08-2.28767E+06-4.09872E-05
 -1       463 2.44438E-03 3.58307E-03-2.15244E-04 2.17443E+08-2.28767E+06-4.09872E-05
 -1       472 1.08550E+10 9.84412E+08 1.88569E+07 1.16585E+09-1.69232E+06-6.68555E+07
 -1       474 1.08550E+10 9.84412E+08 1.88569E+07 1.16585E+09-1.69232E+06-6.68555E+07
 -1       475 1.96514E+08-1.57143E+06-7.38113E+05 8.50292E+07 6.75463E+05 7.26316E+05
 -1       477 1.96514E+08-1.57143E+06-7.38113E+05 8.50292E+07 6.75463E+05 7.26316E+05
 -1       478-1.96514E+08 1.57143E+06 7.38113E+05 8.50292E+07 6.75463E+05-7.26316E+05
 -1       480-1.96514E+08 1.57143E+06 7.38113E+05 8.50292E+07 6.75463E+05-7.26316E+05
 -1       481-1.08550E+10-9.84412E+08-1.88569E+07 1.16585E+09-1.69232E+06 6.68555E+07
 -1       483-1.08550E+10-9.84412E+08-1.88569E+07 1.16585E+09-1.69232E+06 6.68555E+07
 -1       484-9.14330E+09-2.49782E+08-1.06978E+06 9.09367E+08 7.35898E+05-2.25083E+07
 -1       486-9.14330E+09-2.49782E+08-1.06978E+06 9.09367E+08 7.35898E+05-2.25083E+07
 -1       487-5.82630E+09 1.24526E+08-4.02169E+06 7.67350E+08 1.46836E+06 1.05921E+06
 -1       489-5.82630E+09 1.24526E+08-4.02169E+06 7.67350E+08 1.46836E+06 1.05921E+06
 -1       490-2.65668E+09-6.03856E+07-2.12481E+06 7.93276E+08 3.43102E+06-9.81237E+06
 -1       492-2.65668E+09-6.03856E+07-2.12481E+06 7.93276E+08 3.43102E+06-9.81237E+06
 -1       493 3.05244E+08 2.76801E+07 1.94113E+06 6.88967E+08 3.96937E+06-4.12161E+06
 -1       495 3.05244E+08 2.76801E+07 1.94113E+06 6.88967E+08 3.96937E+06-4.12161E+06
 -1       496 2.92082E+09-1.43061E+07 7.84356E+05 6.07194E+08 4.91985E+06-6.03494E+06
 -1       498 2.92082E+09-1.43061E+07 7.84356E+05 6.07194E+08 4.91985E+06-6.03494E+06
 -1       499 5.10057E+09 5.83445E+06 4.93598E+06 4.77900E+08 5.40081E+06-4.25495E+06
 -1       501 5.10057E+09 5.83445E+06 4.93598E+06 4.77900E+08 5.40081E+06-4.25495E+06
 -1       502 6.74109E+09-4.49811E+06 3.53770E+06 3.37085E+08 5.68470E+06-4.05915E+06
 -1       504 6.74109E+09-4.49811E+06 3.53770E+06 3.37085E+08 5.68470E+06-4.05915E+06
 -1       505 7.77890E+09 9.30384E+05 6.25093E+06 1.79218E+08 5.73055E+06-3.07332E+06
 -1       507 7.77890E+09 9.30384E+05 6.25093E+06 1.79218E+08 5.73055E+06-3.07332E+06
 -1       508 8.17273E+09-2.31099E+06 4.79281E+06 1.74683E+07 5.37999E+06-2.40402E+06
 -1       510 8.17273E+09-2.31099E+06 4.79281E+06 1.74683E+07 5.37999E+06-2.40402E+06
 -1       511 7.92236E+09-4.48206E+05 5.98253E+06-1.40555E+08 4.82210E+06-1.62126E+06
 -1       513 7.92236E+09-4.48206E+05 5.98253E+06-1.40555E+08 4.82210E+06-1.62126E+06
 -1       514 7.06205E+09-1.74745E+06 4.28155E+06-2.84953E+08 3.87338E+06-9.42775E+05
 -1       516 7.06205E+09-1.74745E+06 4.28155E+06-2.84953E+08 3.87338E+06-9.42775E+05
 -1       517 5.66437E+09-9.92280E+05 4.24301E+06-4.07249E+08 2.76044E+06-3.35258E+05
 -1       519 5.66437E+09-9.92280E+05 4.24301E+06-4.07249E+08 2.76044E+06-3.35258E+05
 -1       520 3.83301E+09-1.60921E+06 2.28774E+06-4.99989E+08 1.37526E+06 1.65680E+05
 -1       522 3.83301E+09-1.60921E+06 2.28774E+06-4.99989E+08 1.37526E+06 1.65680E+05
 -1       523 1.69854E+09-1.27529E+06 1.45895E+06-5.57713E+08-6.66264E+04 5.33185E+05
 -1       525 1.69854E+09-1.27529E+06 1.45895E+06-5.57713E+08-6.66264E+04 5.33185E+05
 -1       526-5.91439E+08-1.60625E+06-5.49487E+05-5.77161E+08-1.59978E+06 7.72103E+05
 -1       528-5.91439E+08-1.60625E+06-5.49487E+05-5.77161E+08-1.59978E+06 7.72103E+05
 -1       529-2.88098E+09-1.44942E+06-1.67279E+06-5.57675E+08-3.03529E+06 8.66157E+05
 -1       531-2.88098E+09-1.44942E+06-1.67279E+06-5.57675E+08-3.03529E+06 8.66157E+05
 -1       532-5.01698E+09-1.63903E+06-3.41443E+06-5.01182E+08-4.36652E+06 8.36218E+05
 -1       534-5.01698E+09-1.63903E+06-3.41443E+06-5.01182E+08-4.36652E+06 8.36218E+05
 -1       535-6.85907E+09-1.55971E+06-4.36296E+06-4.12176E+08-5.44380E+06 6.87970E+05
 -1       537-6.85907E+09-1.55971E+06-4.36296E+06-4.12176E+08-5.44380E+06 6.87970E+05
 -1       538-8.28968E+09-1.66132E+06-5.52373E+06-2.97415E+08-6.25629E+06 4.53552E+05
 -1       540-8.28968E+09-1.66132E+06-5.52373E+06-2.97415E+08-6.25629E+06 4.53552E+05
 -1       541-9.22219E+09-1.61503E+06-5.94592E+06-1.65524E+08-6.70619E+06 1.56391E+05
 -1       543-9.22219E+09-1.61503E+06-5.94592E+06-1.65524E+08-6.70619E+06 1.56391E+05
 -1       544-9.60756E+09-1.64456E+06-6.33093E+06-2.64971E+07-6.80978E+06-1.64541E+05
 -1       546-9.60756E+09-1.64456E+06-6.33093E+06-2.64971E+07-6.80978E+06-1.64541E+05
 -1       547-9.43842E+09-1.61421E+06-6.06694E+06 1.08978E+08-6.53020E+06-4.79467E+05
 -1       549-9.43842E+09-1.61421E+06-6.06694E+06 1.08978E+08-6.53020E+06-4.79467E+05
 -1       550-8.75077E+09-1.55077E+06-5.67728E+06 2.30064E+08-5.93238E+06-7.46348E+05
 -1       552-8.75077E+09-1.55077E+06-5.67728E+06 2.30064E+08-5.93238E+06-7.46348E+05
 -1       553-7.62330E+09-1.58915E+06-4.79034E+06 3.26429E+08-5.04397E+06-9.50874E+05
 -1       555-7.62330E+09-1.58915E+06-4.79034E+06 3.26429E+08-5.04397E+06-9.50874E+05
 -1       556-6.17369E+09-1.24904E+06-3.85217E+06 3.89058E+08-3.98983E+06-1.03579E+06
 -1       558-6.17369E+09-1.24904E+06-3.85217E+06 3.89058E+08-3.98983E+06-1.03579E+06
 -1       559-4.55409E+09-1.71306E+06-2.60365E+06 4.09773E+08-2.86532E+06-1.06298E+06
 -1       561-4.55409E+09-1.71306E+06-2.60365E+06 4.09773E+08-2.86532E+06-1.06298E+06
 -1       562-2.94330E+09-4.81510E+05-1.54653E+06 3.83434E+08-1.84904E+06-8.63493E+05
 -1       564-2.94330E+09-4.81510E+05-1.54653E+06 3.83434E+08-1.84904E+06-8.63493E+05
 -1       565-1.53979E+09-1.68378E+06-3.43921E+05 3.06439E+08-1.11065E+06-8.14492E+05
 -1       567-1.53979E+09-1.68378E+06-3.43921E+05 3.06439E+08-1.11065E+06-8.14492E+05
 -1       568-5.56210E+08-1.91807E+06 3.49920E+05 1.69851E+08-7.38476E+05-1.31714E+05
 -1       570-5.56210E+08-1.91807E+06 3.49920E+05 1.69851E+08-7.38476E+05-1.31714E+05
 -1       571-1.49418E+08-2.91738E+07 5.83842E+04 1.51236E+08 8.06102E+05 4.96175E+05
 -1       573-1.49418E+08-2.91738E+07 5.83842E+04 1.51236E+08 8.06102E+05 4.96175E+05
 -1       574-3.98473E-02-2.54917E-03-1.36197E-05 1.72294E+09 7.73934E+06-5.28363E-04
 -1       576-3.98473E-02-2.54917E-03-1.36197E-05 1.72294E+09 7.73934E+06-5.28363E-04
 -1       577-3.06001E-02 1.92217E-06 2.46375E-03 8.47827E+06 1.19569E+07-4.37976E-02
 -1       579-3.06001E-02 1.92217E-06 2.46375E-03 8.47827E+06 1.19569E+07-4.37976E-02
 -1       588-2.84752E-02 5.44593E-04-1.18047E-04 1.84831E+09-5.97595E+04 3.35446E-04
 -1       590-2.84752E-02 5.44593E-04-1.18047E-04 1.84831E+09-5.97595E+04 3.35446E-04
 -1       591-2.19701E-02 1.99921E-04 1.07848E-02-8.77198E+06 1.91977E+07-4.05604E-02
 -1       593-2.19701E-02 1.99921E-04 1.07848E-02-8.77198E+06 1.91977E+07-4.05604E-02
 -1       602-2.20959E-02-3.62128E-04-1.08980E-04 1.65934E+09 2.24189E+06-2.04354E-04
 -1       604-2.20959E-02-3.62128E-04-1.08980E-04 1.65934E+09 2.24189E+06-2.04354E-04
 -1       605-1.80101E-02 3.00372E-04 3.46827E-03-2.54608E+06 2.70097E+07-3.62057E-02
 -1       607-1.80101E-02 3.00372E-04 3.46827E-03-2.54608E+06 2.70097E+07-3.62057E-02
 -1       616-1.43696E-02-2.28904E-04-3.24436E-05 1.55104E+09 3.02880E+06 8.49953E-05
 -1       618-1.43696E-02-2.28904E-04-3.24436E-05 1.55104E+09 3.02880E+06 8.49953E-05
 -1       619-1.28721E-02-1.14586E-05-8.30474E-03-4.07695E+06 3.81762E+07-3.64901E-02
 -1       621-1.28721E-02-1.14586E-05-8.30474E-03-4.07695E+06 3.81762E+07-3.64901E-02
 -1       630-1.67120E-03-9.03822E-04 4.76576E-05 1.31587E+09 3.63405E+06-1.04036E-05
 -1       632-1.67120E-03-9.03822E-04 4.76576E-05 1.31587E+09 3.63405E+06-1.04036E-05
 -1       633-2.73991E-03-2.46681E-04-1.00506E-02-3.32354E+06 4.67913E+07-3.86384E-02
 -1       635-2.73991E-03-2.46681E-04-1.00506E-02-3.32354E+06 4.67913E+07-3.86384E-02
 -1       644 1.10499E-02-8.71360E-04-6.26743E-05 1.05579E+09 4.91070E+06 1.24218E-04
 -1       646 1.10499E-02-8.71360E-04-6.26743E-05 1.05579E+09 4.91070E+06 1.24218E-04
 -1       647 8.81788E-03 1.00496E-04 2.21255E-04-2.92177E+06 5.48977E+07-3.88050E-02
 -1       649 8.81788E-03 1.00496E-04 2.21255E-04-2.92177E+06 5.48977E+07-3.88050E-02
 -1       658 1.82914E-02 5.44131E-04-1.76698E-04 7.37141E+08 5.00634E+06 8.18693E-05
 -1       660 1.82914E-02 5.44131E-04-1.76698E-04 7.37141E+08 5.00634E+06 8.18693E-05
 -1       661 1.53948E-02 5.69155E-04 1.15268E-02-2.42560E+06 6.05608E+07-3.21178E-02
 -1       663 1.53948E-02 5.69155E-04 1.15268E-02-2.42560E+06 6.05608E+07-3.21178E-02
 -1       672 1.93319E-02 1.40631E-03-1.42455E-05 3.94878E+08 5.37601E+06 2.07734E-04
 -1       674 1.93319E-02 1.40631E-03-1.42455E-05 3.94878E+08 5.37601E+06 2.07734E-04
 -1       675 1.50117E-02-6.55356E-04 9.69334E-03-1.86266E+06 6.35926E+07-2.31088E-02
 -1       677 1.50117E-02-6.55356E-04 9.69334E-03-1.86266E+06 6.35926E+07-2.31088E-02
 -1       686 1.91505E-02 2.21694E-03 1.49101E-04 3.86883E+07 4.67234E+06 1.31115E-04
 -1       688 1.91505E-02 2.21694E-03 1.49101E-04 3.86883E+07 4.67234E+06 1.31115E-04
 -1       689 1.39794E-02-1.35969E-03 4.50950E-04-1.25856E+06 6.38630E+07-2.13188E-02
 -1       691 1.39794E-02-1.35969E-03 4.50950E-04-1.25856E+06 6.38630E+07-2.13188E-02
 -1       700 2.24593E-02 1.51908E-03 1.29044E-04-3.06995E+08 3.84889E+06 4.39857E-05
 -1       702 2.24593E-02 1.51908E-03 1.29044E-04-3.06995E+08 3.84889E+06 4.39857E-05
 -1       703 1.85575E-02-6.66534E-04 5.14753E-04-7.08432E+05 6.08978E+07-2.49344E-02
 -1       705 1.85575E-02-6.66534E-04 5.14753E-04-7.08432E+05 6.08978E+07-2.49344E-02
 -1       714 2.87951E-02-1.13095E-03-1.08972E-04-6.23823E+08 2.18394E+06 9.94524E-05
 -1       716 2.87951E-02-1.13095E-03-1.08972E-04-6.23823E+08 2.18394E+06 9.94524E-05
 -1       717 2.59740E-02-4.60234E-04 1.08057E-02-1.48519E+05 5.52439E+07-2.27221E-02
 -1       719 2.59740E-02-4.60234E-04 1.08057E-02-1.48519E+05 5.52439E+07-2.27221E-02
 -1       728 3.43536E-02-1.57444E-03-2.09615E-04-8.91675E+08 2.93552E+05 1.37919E-04
 -1       730 3.43536E-02-1.57444E-03-2.09615E-04-8.91675E+08 2.93552E+05 1.37919E-04
 -1       731 3.08610E-02-1.95439E-04 1.94690E-02 2.87525E+05 4.68333E+07-1.36333E-02
 -1       733 3.08610E-02-1.95439E-04 1.94690E-02 2.87525E+05 4.68333E+07-1.36333E-02
 -1       742 3.73055E-02-5.56551E-04-2.34827E-04-1.09507E+09-2.14116E+06 1.24621E-04
 -1       744 3.73055E-02-5.56551E-04-2.34827E-04-1.09507E+09-2.14116E+06 1.24621E-04
 -1       745 3.36855E-02-6.65095E-06 2.01104E-02 6.66522E+05 3.65320E+07-3.30366E-03
 -1       747 3.36855E-02-6.65095E-06 2.01104E-02 6.66522E+05 3.65320E+07-3.30366E-03
 -1       756 3.70283E-02-1.16947E-03-6.08768E-05-1.22155E+09-4.67449E+06 1.24048E-04
 -1       758 3.70283E-02-1.16947E-03-6.08768E-05-1.22155E+09-4.67449E+06 1.24048E-04
 -1       759 3.50954E-02 4.72170E-04 1.83828E-02 8.89606E+05 2.47211E+07 4.65271E-03
 -1       761 3.50954E-02 4.72170E-04 1.83828E-02 8.89606E+05 2.47211E+07 4.65271E-03
 -1       770 3.43035E-02-3.22351E-03-2.58191E-04-1.26431E+09-7.39729E+06-1.24678E-04
 -1       772 3.43035E-02-3.22351E-03-2.58191E-04-1.26431E+09-7.39729E+06-1.24678E-04
 -1       773 3.27913E-02-9.81837E-05 1.98738E-02 1.00880E+06 1.24120E+07 1.10271E-02
 -1       775 3.27913E-02-9.81837E-05 1.98738E-02 1.00880E+06 1.24120E+07 1.10271E-02
 -1       784 3.32035E-02-4.65402E-03 4.00618E-05-1.22170E+09-9.96080E+06-4.12457E-06
 -1       786 3.32035E-02-4.65402E-03 4.00618E-05-1.22170E+09-9.96080E+06-4.12457E-06
 -1       787 2.96666E-02-1.38964E-03 2.06851E-02 9.70426E+05 2.41483E+05 1.63262E-02
 -1       789 2.96666E-02-1.38964E-03 2.06851E-02 9.70426E+05 2.41483E+05 1.63262E-02
 -1       798 3.35655E-02-3.73685E-03 3.35589E-04-1.09808E+09-1.23504E+07-2.09643E-04
 -1       800 3.35655E-02-3.73685E-03 3.35589E-04-1.09808E+09-1.23504E+07-2.09643E-04
 -1       801 2.86267E-02 5.27212E-04 1.80502E-02 8.20575E+05-1.08108E+07 1.84698E-02
 -1       803 2.86267E-02 5.27212E-04 1.80502E-02 8.20575E+05-1.08108E+07 1.84698E-02
 -1       812 2.86496E-02-5.58704E-04 6.90728E-04-9.03229E+08-1.42974E+07-9.70146E-05
 -1       814 2.86496E-02-5.58704E-04 6.90728E-04-9.03229E+08-1.42974E+07-9.70146E-05
 -1       815 2.34772E-02 3.56643E-04 1.08185E-02 5.45478E+05-2.01118E+07 1.81468E-02
 -1       817 2.34772E-02 3.56643E-04 1.08185E-02 5.45478E+05-2.01118E+07 1.81468E-02
 -1       826 1.68360E-02 2.99817E-03 5.40882E-04-6.51991E+08-1.57705E+07-2.67374E-05
 -1       828 1.68360E-02 2.99817E-03 5.40882E-04-6.51991E+08-1.57705E+07-2.67374E-05
 -1       829 1.31158E-02-1.09445E-03 4.68551E-03 1.88930E+05-2.68984E+07 1.44102E-02
 -1       831 1.31158E-02-1.09445E-03 4.68551E-03 1.88930E+05-2.68984E+07 1.44102E-02
 -1       840 4.38082E-03 3.96553E-03-1.58221E-04-3.63279E+08-1.65860E+07-2.84502E-04
 -1       842 4.38082E-03 3.96553E-03-1.58221E-04-3.63279E+08-1.65860E+07-2.84502E-04
 -1       843 3.17067E-03 3.94361E-05 4.88778E-03-2.25809E+05-3.07805E+07 1.28079E-02
 -1       845 3.17067E-03 3.94361E-05 4.88778E-03-2.25809E+05-3.07805E+07 1.28079E-02
 -1       854-4.65989E-03 2.40496E-03 5.42998E-04-5.89278E+07-1.67565E+07 8.85181E-05
 -1       856-4.65989E-03 2.40496E-03 5.42998E-04-5.89278E+07-1.67565E+07 8.85181E-05
 -1       857-4.87212E-03-5.47052E-04 2.58232E-03-6.72091E+05-3.13561E+07 1.43752E-02
 -1       859-4.87212E-03-5.47052E-04 2.58232E-03-6.72091E+05-3.13561E+07 1.43752E-02
 -1       868-1.06224E-02 4.70608E-04 3.68536E-04 2.37498E+08-1.61867E+07-8.68871E-05
 -1       870-1.06224E-02 4.70608E-04 3.68536E-04 2.37498E+08-1.61867E+07-8.68871E-05
 -1       871-9.62560E-03-2.13500E-04 1.14237E-03-1.07134E+06-2.86443E+07 1.12494E-02
 -1       873-9.62560E-03-2.13500E-04 1.14237E-03-1.07134E+06-2.86443E+07 1.12494E-02
 -1       882-1.40959E-02-1.27697E-03-2.63721E-04 5.02433E+08-1.49654E+07-1.11932E-04
 -1       884-1.40959E-02-1.27697E-03-2.63721E-04 5.02433E+08-1.49654E+07-1.11932E-04
 -1       885-1.13448E-02-2.01438E-04 7.25385E-03-1.47402E+06-2.26631E+07 8.61834E-03
 -1       887-1.13448E-02-2.01438E-04 7.25385E-03-1.47402E+06-2.26631E+07 8.61834E-03
 -1       896-1.40729E-02-2.30660E-03 6.81862E-04 7.13065E+08-1.30746E+07 7.56475E-05
 -1       898-1.40729E-02-2.30660E-03 6.81862E-04 7.13065E+08-1.30746E+07 7.56475E-05
 -1       899-1.08380E-02-9.15822E-04 1.15156E-02-1.65784E+06-1.39063E+07 8.41180E-03
 -1       901-1.08380E-02-9.15822E-04 1.15156E-02-1.65784E+06-1.39063E+07 8.41180E-03
 -1       910-1.18593E-02-1.89982E-03 6.54310E-05 8.49538E+08-1.06830E+07 1.84685E-05
 -1       912-1.18593E-02-1.89982E-03 6.54310E-05 8.49538E+08-1.06830E+07 1.84685E-05
 -1       913-8.36601E-03-1.04083E-03 1.21533E-02-1.92400E+06-2.78111E+06 5.75733E-03
 -1       915-8.36601E-03-1.04083E-03 1.21533E-02-1.92400E+06-2.78111E+06 5.75733E-03
 -1       924-1.05321E-02 6.26191E-04 2.17453E-04 8.94419E+08-7.82407E+06 1.85644E-04
 -1       926-1.05321E-02 6.26191E-04 2.17453E-04 8.94419E+08-7.82407E+06 1.85644E-04
 -1       927-6.74526E-03-3.23948E-04 1.50204E-02-1.64796E+06 9.79055E+06 2.55579E-03
 -1       929-6.74526E-03-3.23948E-04 1.50204E-02-1.64796E+06 9.79055E+06 2.55579E-03
 -1       938-1.08902E-02 1.08812E-03 5.52759E-04 8.36041E+08-4.73832E+06 1.64378E-04
 -1       940-1.08902E-02 1.08812E-03 5.52759E-04 8.36041E+08-4.73832E+06 1.64378E-04
 -1       941-5.80938E-03 1.10022E-03 1.81032E-02-1.77898E+06 2.30102E+07 9.05957E-04
 -1       943-5.80938E-03 1.10022E-03 1.81032E-02-1.77898E+06 2.30102E+07 9.05957E-04
 -1       952-1.15424E-02-2.02662E-03-3.22826E-04 6.62073E+08-1.54585E+06 1.61873E-05
 -1       954-1.15424E-02-2.02662E-03-3.22826E-04 6.62073E+08-1.54585E+06 1.61873E-05
 -1       955-5.06373E-03 2.08739E-03 1.71509E-02-7.46164E+05 3.56387E+07 1.72392E-03
 -1       957-5.06373E-03 2.08739E-03 1.71509E-02-7.46164E+05 3.56387E+07 1.72392E-03
 -1       966-8.46124E-03-1.90975E-03-5.85785E-04 3.80602E+08 1.23402E+06-5.60342E-06
 -1       968-8.46124E-03-1.90975E-03-5.85785E-04 3.80602E+08 1.23402E+06-5.60342E-06
 -1       969-4.50732E-03 1.24857E-03 8.51377E-03-9.15688E+05 4.56358E+07 2.47207E-03
 -1       971-4.50732E-03 1.24857E-03 8.51377E-03-9.15688E+05 4.56358E+07 2.47207E-03
 -1       980-7.09034E+09-6.54200E+08-1.52971E+06 1.27596E+09 8.36329E+06-3.55045E+07
 -1       982-7.09034E+09-6.54200E+08-1.52971E+06 1.27596E+09 8.36329E+06-3.55045E+07
 -1       983 1.49418E+08 2.91738E+07-5.83842E+04 1.51236E+08 8.06102E+05-4.96175E+05
 -1       985 1.49418E+08 2.91738E+07-5.83842E+04 1.51236E+08 8.06102E+05-4.96175E+05
 -1       986 9.14330E+09 2.49782E+08 1.06978E+06 9.09367E+08 7.35898E+05 2.25083E+07
 -1       988 9.14330E+09 2.49782E+08 1.06978E+06 9.09367E+08 7.35898E+05 2.25083E+07
 -1       989 5.82630E+09-1.24526E+08 4.02169E+06 7.67350E+08 1.46836E+06-1.05921E+06
 -1       991 5.82630E+09-1.24526E+08 4.02169E+06 7.67350E+08 1.46836E+06-1.05921E+06
 -1       992 2.65668E+09 6.03856E+07 2.12481E+06 7.93276E+08 3.43102E+06 9.81237E+06
 -1       994 2.65668E+09 6.03856E+07 2.12481E+06 7.93276E+08 3.43102E+06 9.81237E+06
 -1       995-3.05244E+08-2.76801E+07-1.94113E+06 6.88967E+08 3.96937E+06 4.12161E+06
 -1       997-3.05244E+08-2.76801E+07-1.94113E+06 6.88967E+08 3.96937E+06 4.12161E+06
 -1       998-2.92082E+09 1.43061E+07-7.84356E+05 6.07194E+08 4.91985E+06 6.03494E+06
 -1      1000-2.92082E+09 1.43061E+07-7.84356E+05 6.07194E+08 4.91985E+06 6.03494E+06
 -1      1001-5.10057E+09-5.83445E+06-4.93598E+06 4.77900E+08 5.40081E+06 4.25495E+06
 -1      1003-5.10057E+09-5.83445E+06-4.93598E+06 4.77900E+08 5.40081E+06 4.25495E+06
 -1      1004-6.74109E+09 4.49811E+06-3.53770E+06 3.37085E+08 5.68470E+06 4.05915E+06
 -1      1006-6.74109E+09 4.49811E+06-3.53770E+06 3.37085E+08 5.68470E+06 4.05915E+06
 -1      1007-7.77890E+09-9.30384E+05-6.25093E+06 1.79218E+08 5.73055E+06 3.07332E+06
 -1      1009-7.77890E+09-9.30384E+05-6.25093E+06 1.79218E+08 5.73055E+06 3.07332E+06
 -1      1010-8.17273E+09 2.31099E+06-4.79281E+06 1.74683E+07 5.37999E+06 2.40402E+06
 -1      1012-8.17273E+09 2.31099E+06-4.79281E+06 1.74683E+07 5.37999E+06 2.40402E+06
 -1      1013-7.92236E+09 4.48206E+05-5.98253E+06-1.40555E+08 4.82210E+06 1.62126E+06
 -1      1015-7.92236E+09 4.48206E+05-5.98253E+06-1.40555E+08 4.82210E+06 1.62126E+06
 -1      1016-7.06205E+09 1.74745E+06-4.28155E+06-2.84953E+08 3.87338E+06 9.42775E+05
 -1      1018-7.06205E+09 1.74745E+06-4.28155E+06-2.84953E+08 3.87338E+06 9.42775E+05
 -1      1019-5.66437E+09 9.92280E+05-4.24301E+06-4.07249E+08 2.76044E+06 3.35258E+05
 -1      1021-5.66437E+09 9.92280E+05-4.24301E+06-4.07249E+08 2.76044E+06 3.35258E+05
 -1      1022-3.83301E+09 1.60921E+06-2.28774E+06-4.99989E+08 1.37526E+06-1.65680E+05
 -1      1024-3.83301E+09 1.60921E+06-2.28774E+06-4.99989E+08 1.37526E+06-1.65680E+05
 -1      1025-1.69854E+09 1.27529E+06-1.45895E+06-5.57713E+08-6.66264E+04-5.33185E+05
 -1      1027-1.69854E+09 1.27529E+06-1.45895E+06-5.57713E+08-6.66264E+04-5.33185E+05
 -1      1028 5.91439E+08 1.60625E+06 5.49487E+05-5.77161E+08-1.59978E+06-7.72103E+05
 -1      1030 5.91439E+08 1.60625E+06 5.49487E+05-5.77161E+08-1.59978E+06-7.72103E+05
 -1      1031 2.88098E+09 1.44942E+06 1.67279E+06-5.57675E+08-3.03529E+06-8.66157E+05
 -1      1033 2.88098E+09 1.44942E+06 1.67279E+06-5.57675E+08-3.03529E+06-8.66157E+05
 -1      1034 5.01698E+09 1.63903E+06 3.41443E+06-5.01182E+08-4.36652E+06-8.36218E+05
 -1      1036 5.01698E+09 1.63903E+06 3.41443E+06-5.01182E+08-4.36652E+06-8.36218E+05
 -1      1037 6.85907E+09 1.55971E+06 4.36296E+06-4.12176E+08-5.44380E+06-6.87970E+05
 -1      1039 6.85907E+09 1.55971E+06 4.36296E+06-4.12176E+08-5.44380E+06-6.87970E+05
 -1      1040 8.28968E+09 1.66132E+06 5.52373E+06-2.97415E+08-6.25629E+06-4.53552E+05
 -1      1042 8.28968E+09 1.66132E+06 5.52373E+06-2.97415E+08-6.25629E+06-4.53552E+05
 -1      1043 9.22219E+09 1.61503E+06 5.94592E+06-1.65524E+08-6.70619E+06-1.56391E+05
 -1      1045 9.22219E+09 1.61503E+06 5.94592E+06-1.65524E+08-6.70619E+06-1.56391E+05
 -1      1046 9.60756E+09 1.64456E+06 6.33093E+06-2.64971E+07-6.80978E+06 1.64541E+05
 -1      1048 9.60756E+09 1.64456E+06 6.33093E+06-2.64971E+07-6.80978E+06 1.64541E+05
 -1      1049 9.43842E+09 1.61421E+06 6.06694E+06 1.08978E+08-6.53020E+06 4.79467E+05
 -1      1051 9.43842E+09 1.61421E+06 6.06694E+06 1.08978E+08-6.53020E+06 4.79467E+05
 -1      1052 8.75077E+09 1.55077E+06 5.67728E+06 2.30064E+08-5.93238E+06 7.46348E+05
 -1      1054 8.75077E+09 1.55077E+06 5.67728E+06 2.30064E+08-5.93238E+06 7.46348E+05
 -1      1055 7.62330E+09 1.58915E+06 4.79034E+06 3.26429E+08-5.04397E+06 9.50874E+05
 -1      1057 7.62330E+09 1.58915E+06 4.79034E+06 3.26429E+08-5.04397E+06 9.50874E+05
 -1      1058 6.17369E+09 1.24904E+06 3.85217E+06 3.89058E+08-3.98983E+06 1.03579E+06
 -1      1060 6.17369E+09 1.24904E+06 3.85217E+06 3.89058E+08-3.98983E+06 1.03579E+06
 -1      1061 4.55409E+09 1.71306E+06 2.60365E+06 4.09773E+08-2.86532E+06 1.06298E+06
 -1      1063 4.55409E+09 1.71306E+06 2.60365E+06 4.09773E+08-2.86532E+06 1.06298E+06
 -1      1064 2.94330E+09 4.81510E+05 1.54653E+06 3.83434E+08-1.84904E+06 8.63493E+05
 -1      1066 2.94330E+09 4.81510E+05 1.54653E+06 3.83434E+08-1.84904E+06 8.63493E+05
 -1      1067 1.53979E+09 1.68378E+06 3.43921E+05 3.06439E+08-1.11065E+06 8.14492E+05
 -1      1069 1.53979E+09 1.68378E+06 3.43921E+05 3.06439E+08-1.11065E+06 8.14492E+05
 -1      1070 5.56210E+08 1.91807E+06-3.49920E+05 1.69851E+08-7.38476E+05 1.31714E+05
 -1      1072 5.56210E+08 1.91807E+06-3.49920E+05 1.69851E+08-7.38476E+05 1.31714E+05
 -1      1073 7.09034E+09 6.54200E+08 1.52971E+06 1.27596E+09 8.36329E+06 3.55045E+07
 -1      1075 7.09034E+09 6.54200E+08 1.52971E+06 1.27596E+09 8.36329E+06 3.55045E+07
 -1      1076-2.34205E-02 2.08417E-06-1.79125E-03 1.02821E+08-1.08663E+06-4.26028E-02
 -1      1078-2.34205E-02 2.08417E-06-1.79125E-03 1.02821E+08-1.08663E+06-4.26028E-02
 -1      1079-3.42344E-03-1.79103E-05 3.74261E-03 1.71399E+08 7.83228E-05-4.08267E-02
 -1      1081-3.42344E-03-1.79103E-05 3.74261E-03 1.71399E+08 7.83228E-05-4.08267E-02
 -1      1082 1.54917E-02 9.51231E-07 7.72896E-03 1.02821E+08 1.08663E+06-3.59735E-02
 -1      1084 1.54917E-02 9.51231E-07 7.72896E-03 1.02821E+08 1.08663E+06-3.59735E-02
 -1      1085 2.43761E-02 1.12564E-04 7.55165E-03 8.47827E+06-1.19569E+07-3.62012E-02
 -1      1087 2.43761E-02 1.12564E-04 7.55165E-03 8.47827E+06-1.19569E+07-3.62012E-02
 -1      1088 3.48020E-02 1.65415E-03-4.44651E-05 1.72294E+09-7.73934E+06-2.46020E-04
 -1      1090 3.48020E-02 1.65415E-03-4.44651E-05 1.72294E+09-7.73934E+06-2.46020E-04
 -1      1099 1.76292E-02 3.94744E-05 1.69817E-03-8.77198E+06-1.91977E+07-4.00225E-02
 -1      1101 1.76292E-02 3.94744E-05 1.69817E-03-8.77198E+06-1.91977E+07-4.00225E-02
 -1      1102 2.43565E-02-1.65656E-04 6.48350E-05 1.84831E+09 5.97595E+04 2.51641E-04
 -1      1104 2.43565E-02-1.65656E-04 6.48350E-05 1.84831E+09 5.97595E+04 2.51641E-04
 -1      1113 8.76251E-03 1.36706E-04-3.48845E-03-2.54608E+06-2.70097E+07-4.00790E-02
 -1      1115 8.76251E-03 1.36706E-04-3.48845E-03-2.54608E+06-2.70097E+07-4.00790E-02
 -1      1116 1.18077E-02-3.65857E-04 1.92970E-05 1.65934E+09-2.24189E+06-1.01759E-05
 -1      1118 1.18077E-02-3.65857E-04 1.92970E-05 1.65934E+09-2.24189E+06-1.01759E-05
 -1      1127-1.18592E-03 4.51849E-04-8.49896E-03-4.07695E+06-3.81762E+07-3.86771E-02
 -1      1129-1.18592E-03 4.51849E-04-8.49896E-03-4.07695E+06-3.81762E+07-3.86771E-02
 -1      1130 6.46174E-04-1.13018E-03-3.22238E-05 1.55104E+09-3.02880E+06 1.96070E-04
 -1      1132 6.46174E-04-1.13018E-03-3.22238E-05 1.55104E+09-3.02880E+06 1.96070E-04
 -1      1141-9.89169E-03 5.04838E-04-1.50043E-02-3.32354E+06-4.67913E+07-3.60349E-02
 -1      1143-9.89169E-03 5.04838E-04-1.50043E-02-3.32354E+06-4.67913E+07-3.60349E-02
 -1      1144-8.11285E-03 6.79258E-04 8.94442E-05 1.31587E+09-3.63405E+06 1.87048E-05
 -1      1146-8.11285E-03 6.79258E-04 8.94442E-05 1.31587E+09-3.63405E+06 1.87048E-05
 -1      1155-1.55639E-02 3.13970E-04-1.72735E-02-2.92177E+06-5.48977E+07-2.96750E-02
 -1      1157-1.55639E-02 3.13970E-04-1.72735E-02-2.92177E+06-5.48977E+07-2.96750E-02
 -1      1158-1.31559E-02 1.69662E-03 1.88768E-04 1.05579E+09-4.91070E+06 3.54833E-05
 -1      1160-1.31559E-02 1.69662E-03 1.88768E-04 1.05579E+09-4.91070E+06 3.54833E-05
 -1      1169-1.70327E-02 3.08255E-04-1.03837E-02-2.42560E+06-6.05608E+07-2.14201E-02
 -1      1171-1.70327E-02 3.08255E-04-1.03837E-02-2.42560E+06-6.05608E+07-2.14201E-02
 -1      1172-1.50107E-02 4.90248E-04 2.08095E-04 7.37141E+08-5.00634E+06 3.99322E-05
 -1      1174-1.50107E-02 4.90248E-04 2.08095E-04 7.37141E+08-5.00634E+06 3.99322E-05
 -1      1183-1.83270E-02-3.82315E-04-1.91003E-03-1.86266E+06-6.35926E+07-1.97999E-02
 -1      1185-1.83270E-02-3.82315E-04-1.91003E-03-1.86266E+06-6.35926E+07-1.97999E-02
 -1      1186-1.93057E-02-3.44872E-04-2.92957E-05 3.94878E+08-5.37601E+06-3.52906E-05
 -1      1188-1.93057E-02-3.44872E-04-2.92957E-05 3.94878E+08-5.37601E+06-3.52906E-05
 -1      1197-2.29854E-02-8.71258E-04-1.98998E-03-1.25856E+06-6.38630E+07-2.24127E-02
 -1      1199-2.29854E-02-8.71258E-04-1.98998E-03-1.25856E+06-6.38630E+07-2.24127E-02
 -1      1200-2.75789E-02 5.37604E-04-4.43161E-05 3.86883E+07-4.67234E+06-1.79418E-04
 -1      1202-2.75789E-02 5.37604E-04-4.43161E-05 3.86883E+07-4.67234E+06-1.79418E-04
 -1      1211-2.65523E-02-4.37890E-04-6.30443E-03-7.08432E+05-6.08978E+07-2.05014E-02
 -1      1213-2.65523E-02-4.37890E-04-6.30443E-03-7.08432E+05-6.08978E+07-2.05014E-02
 -1      1214-3.35904E-02 1.39400E-03-6.69658E-05-3.06995E+08-3.84889E+06-1.97629E-04
 -1      1216-3.35904E-02 1.39400E-03-6.69658E-05-3.06995E+08-3.84889E+06-1.97629E-04
 -1      1225-2.62532E-02-2.07554E-04-4.28146E-03-1.48519E+05-5.52439E+07-1.31547E-02
 -1      1227-2.62532E-02-2.07554E-04-4.28146E-03-1.48519E+05-5.52439E+07-1.31547E-02
 -1      1228-3.60043E-02 1.57183E-03 5.94556E-06-6.23823E+08-2.18394E+06-2.68712E-04
 -1      1230-3.60043E-02 1.57183E-03 5.94556E-06-6.23823E+08-2.18394E+06-2.68712E-04
 -1      1239-2.74210E-02 1.56155E-04 5.32626E-03 2.87525E+05-4.68333E+07-6.91915E-03
 -1      1241-2.74210E-02 1.56155E-04 5.32626E-03 2.87525E+05-4.68333E+07-6.91915E-03
 -1      1242-4.02114E-02 1.42761E-03-8.00192E-06-8.91675E+08-2.93552E+05-1.86321E-04
 -1      1244-4.02114E-02 1.42761E-03-8.00192E-06-8.91675E+08-2.93552E+05-1.86321E-04
 -1      1253-3.19907E-02-7.31465E-04 1.36985E-02 6.66522E+05-3.65320E+07-5.16945E-03
 -1      1255-3.19907E-02-7.31465E-04 1.36985E-02 6.66522E+05-3.65320E+07-5.16945E-03
 -1      1256-4.61128E-02 1.49711E-03 3.15778E-04-1.09507E+09 2.14116E+06-2.06771E-04
 -1      1258-4.61128E-02 1.49711E-03 3.15778E-04-1.09507E+09 2.14116E+06-2.06771E-04
 -1      1267-3.54121E-02-1.47642E-03 1.42968E-02 8.89606E+05-2.47211E+07-1.25707E-03
 -1      1269-3.54121E-02-1.47642E-03 1.42968E-02 8.89606E+05-2.47211E+07-1.25707E-03
 -1      1270-4.88289E-02 2.49196E-03-1.10269E-05-1.22155E+09 4.67449E+06-1.75263E-04
 -1      1272-4.88289E-02 2.49196E-03-1.10269E-05-1.22155E+09 4.67449E+06-1.75263E-04
 -1      1281-3.38816E-02-4.73969E-04 1.24551E-02 1.00880E+06-1.24120E+07 7.61280E-03
 -1      1283-3.38816E-02-4.73969E-04 1.24551E-02 1.00880E+06-1.24120E+07 7.61280E-03
 -1      1284-4.62098E-02 2.24365E-03-3.97805E-04-1.26431E+09 7.39729E+06-6.08963E-05
 -1      1286-4.62098E-02 2.24365E-03-3.97805E-04-1.26431E+09 7.39729E+06-6.08963E-05
 -1      1295-2.84009E-02-6.70744E-05 1.42662E-02 9.70426E+05-2.41483E+05 1.29657E-02
 -1      1297-2.84009E-02-6.70744E-05 1.42662E-02 9.70426E+05-2.41483E+05 1.29657E-02
 -1      1298-3.99717E-02 2.60849E-04-2.12055E-04-1.22170E+09 9.96080E+06 4.77693E-06
 -1      1300-3.99717E-02 2.60849E-04-2.12055E-04-1.22170E+09 9.96080E+06 4.77693E-06
 -1      1309-2.14424E-02 5.54518E-04 1.45089E-02 8.20575E+05 1.08108E+07 1.25497E-02
 -1      1311-2.14424E-02 5.54518E-04 1.45089E-02 8.20575E+05 1.08108E+07 1.25497E-02
 -1      1312-3.16522E-02-1.05847E-03-1.83925E-04-1.09808E+09 1.23504E+07-1.14826E-04
 -1      1314-3.16522E-02-1.05847E-03-1.83925E-04-1.09808E+09 1.23504E+07-1.14826E-04
 -1      1323-1.41136E-02 1.37947E-04 9.13337E-03 5.45478E+05 2.01118E+07 1.09677E-02
 -1      1325-1.41136E-02 1.37947E-04 9.13337E-03 5.45478E+05 2.01118E+07 1.09677E-02
 -1      1326-2.25244E-02-2.11123E-03-3.18334E-04-9.03229E+08 1.42974E+07 1.23255E-05
 -1      1328-2.25244E-02-2.11123E-03-3.18334E-04-9.03229E+08 1.42974E+07 1.23255E-05
 -1      1337-9.14595E-03 3.11789E-04 2.87998E-03 1.88930E+05 2.68984E+07 1.06639E-02
 -1      1339-9.14595E-03 3.11789E-04 2.87998E-03 1.88930E+05 2.68984E+07 1.06639E-02
 -1      1340-1.64402E-02-3.76454E-03-1.49339E-04-6.51991E+08 1.57705E+07 3.48332E-05
 -1      1342-1.64402E-02-3.76454E-03-1.49339E-04-6.51991E+08 1.57705E+07 3.48332E-05
 -1      1351-8.12224E-03 3.21414E-04-3.24088E-03-2.25809E+05 3.07805E+07 1.19101E-02
 -1      1353-8.12224E-03 3.21414E-04-3.24088E-03-2.25809E+05 3.07805E+07 1.19101E-02
 -1      1354-1.38518E-02-4.49729E-03-1.67578E-04-3.63279E+08 1.65860E+07 6.97926E-05
 -1      1356-1.38518E-02-4.49729E-03-1.67578E-04-3.63279E+08 1.65860E+07 6.97926E-05
 -1      1365-8.06882E-03-5.63832E-05-6.41879E-03-6.72091E+05 3.13561E+07 1.43036E-02
 -1      1367-8.06882E-03-5.63832E-05-6.41879E-03-6.72091E+05 3.13561E+07 1.43036E-02
 -1      1368-1.15715E-02-2.64749E-03 8.50856E-05-5.89278E+07 1.67565E+07-4.90730E-05
 -1      1370-1.15715E-02-2.64749E-03 8.50856E-05-5.89278E+07 1.67565E+07-4.90730E-05
 -1      1379-7.70417E-03 2.77028E-04 4.67458E-04-1.07134E+06 2.86443E+07 1.65933E-02
 -1      1381-7.70417E-03 2.77028E-04 4.67458E-04-1.07134E+06 2.86443E+07 1.65933E-02
 -1      1382-1.01699E-02-1.52618E-03-5.61178E-05 2.37498E+08 1.61867E+07-5.26516E-05
 -1      1384-1.01699E-02-1.52618E-03-5.61178E-05 2.37498E+08 1.61867E+07-5.26516E-05
 -1      1393-7.68213E-03 2.96738E-04 1.33342E-02-1.47402E+06 2.26631E+07 1.47559E-02
 -1      1395-7.68213E-03 2.96738E-04 1.33342E-02-1.47402E+06 2.26631E+07 1.47559E-02
 -1      1396-1.02693E-02-2.27880E-03-6.29991E-04 5.02433E+08 1.49654E+07 4.05888E-05
 -1      1398-1.02693E-02-2.27880E-03-6.29991E-04 5.02433E+08 1.49654E+07 4.05888E-05
 -1      1407-7.42193E-03 2.90076E-06 1.62135E-02-1.65784E+06 1.39063E+07 6.48886E-03
 -1      1409-7.42193E-03 2.90076E-06 1.62135E-02-1.65784E+06 1.39063E+07 6.48886E-03
 -1      1410-8.88073E-03-6.41674E-04 1.10719E-03 7.13065E+08 1.30746E+07 5.72621E-05
 -1      1412-8.88073E-03-6.41674E-04 1.10719E-03 7.13065E+08 1.30746E+07 5.72621E-05
 -1      1421-5.25895E-03-2.34209E-04 7.95603E-03-1.92400E+06 2.78111E+06 1.50105E-03
 -1      1423-5.25895E-03-2.34209E-04 7.95603E-03-1.92400E+06 2.78111E+06 1.50105E-03
 -1      1424-6.11192E-03 4.59626E-04 1.77488E-04 8.49538E+08 1.06830E+07 3.22390E-05
 -1      1426-6.11192E-03 4.59626E-04 1.77488E-04 8.49538E+08 1.06830E+07 3.22390E-05
 -1      1435-1.58847E-03 5.31113E-06 5.08394E-03-1.64796E+06-9.79055E+06 5.21945E-03
 -1      1437-1.58847E-03 5.31113E-06 5.08394E-03-1.64796E+06-9.79055E+06 5.21945E-03
 -1      1438-2.30247E-03 1.16262E-03-1.91018E-04 8.94419E+08 7.82407E+06 1.84559E-04
 -1      1440-2.30247E-03 1.16262E-03-1.91018E-04 8.94419E+08 7.82407E+06 1.84559E-04
 -1      1449 2.08010E-03-9.17390E-04 1.05605E-02-1.77898E+06-2.30102E+07 6.00149E-03
 -1      1451 2.08010E-03-9.17390E-04 1.05605E-02-1.77898E+06-2.30102E+07 6.00149E-03
 -1      1452 1.73542E-03 1.11432E-03 5.70282E-04 8.36041E+08 4.73832E+06 7.87913E-05
 -1      1454 1.73542E-03 1.11432E-03 5.70282E-04 8.36041E+08 4.73832E+06 7.87913E-05
 -1      1463 3.98413E-03-1.07372E-03 1.32646E-02-7.46164E+05-3.56387E+07 1.53307E-03
 -1      1465 3.98413E-03-1.07372E-03 1.32646E-02-7.46164E+05-3.56387E+07 1.53307E-03
 -1      1466 4.18350E-03-2.59288E-04 4.60282E-04 6.62073E+08 1.54585E+06-9.59112E-05
 -1      1468 4.18350E-03-2.59288E-04 4.60282E-04 6.62073E+08 1.54585E+06-9.59112E-05
 -1      1477 2.37243E-03 5.62332E-05 7.14089E-03-9.15688E+05-4.56358E+07-3.34045E-03
 -1      1479 2.37243E-03 5.62332E-05 7.14089E-03-9.15688E+05-4.56358E+07-3.34045E-03
 -1      1480 3.77733E-03 1.66252E-03 5.79262E-04 3.80602E+08-1.23402E+06 2.01900E-04
 -1      1482 3.77733E-03 1.66252E-03 5.79262E-04 3.80602E+08-1.23402E+06 2.01900E-04
 -1      1491-3.59499E-03-9.87743E-04 2.01225E-03-3.27214E+06 1.76864E+07 9.86863E-04
 -1      1493-3.59499E-03-9.87743E-04 2.01225E-03-3.27214E+06 1.76864E+07 9.86863E-04
 -1      1494-2.64696E-03-1.41260E-03 2.29035E-03-3.68958E+06 1.14556E-03-6.24148E-04
 -1      1496-2.64696E-03-1.41260E-03 2.29035E-03-3.68958E+06 1.14556E-03-6.24148E-04
 -1      1497-6.14379E-04-1.17156E-04 2.08903E-03-3.27214E+06-1.76864E+07-3.52241E-03
 -1      1499-6.14379E-04-1.17156E-04 2.08903E-03-3.27214E+06-1.76864E+07-3.52241E-03
 -1      1500 9.14330E+09 2.49782E+08 1.06978E+06 9.09367E+08-7.35898E+05-2.25083E+07
 -1      1502 9.14330E+09 2.49782E+08 1.06978E+06 9.09367E+08-7.35898E+05-2.25083E+07
 -1      1503 5.82630E+09-1.24526E+08 4.02169E+06 7.67350E+08-1.46836E+06 1.05921E+06
 -1      1505 5.82630E+09-1.24526E+08 4.02169E+06 7.67350E+08-1.46836E+06 1.05921E+06
 -1      1506 2.65668E+09 6.03856E+07 2.12481E+06 7.93276E+08-3.43102E+06-9.81237E+06
 -1      1508 2.65668E+09 6.03856E+07 2.12481E+06 7.93276E+08-3.43102E+06-9.81237E+06
 -1      1509-3.05244E+08-2.76801E+07-1.94113E+06 6.88967E+08-3.96937E+06-4.12161E+06
 -1      1511-3.05244E+08-2.76801E+07-1.94113E+06 6.88967E+08-3.96937E+06-4.12161E+06
 -1      1512-2.92082E+09 1.43061E+07-7.84356E+05 6.07194E+08-4.91985E+06-6.03494E+06
 -1      1514-2.92082E+09 1.43061E+07-7.84356E+05 6.07194E+08-4.91985E+06-6.03494E+06
 -1      1515-5.10057E+09-5.83445E+06-4.93598E+06 4.77900E+08-5.40081E+06-4.25495E+06
 -1      1517-5.10057E+09-5.83445E+06-4.93598E+06 4.77900E+08-5.40081E+06-4.25495E+06
 -1      1518-6.74109E+09 4.49811E+06-3.53770E+06 3.37085E+08-5.68470E+06-4.05915E+06
 -1      1520-6.74109E+09 4.49811E+06-3.53770E+06 3.37085E+08-5.68470E+06-4.05915E+06
 -1      1521-7.77890E+09-9.30384E+05-6.25093E+06 1.79218E+08-5.73055E+06-3.07332E+06
 -1      1523-7.77890E+09-9.30384E+05-6.25093E+06 1.79218E+08-5.73055E+06-3.07332E+06
 -1      1524-8.17273E+09 2.31099E+06-4.79281E+06 1.74683E+07-5.37999E+06-2.40402E+06
 -1      1526-8.17273E+09 2.31099E+06-4.79281E+06 1.74683E+07-5.37999E+06-2.40402E+06
 -1      1527-7.92236E+09 4.48206E+05-5.98253E+06-1.40555E+08-4.82210E+06-1.62126E+06
 -1      1529-7.92236E+09 4.48206E+05-5.98253E+06-1.40555E+08-4.82210E+06-1.62126E+06
 -1      1530-7.06205E+09 1.74745E+06-4.28155E+06-2.84953E+08-3.87338E+06-9.42775E+05
 -1      1532-7.06205E+09 1.74745E+06-4.28155E+06-2.84953E+08-3.87338E+06-9.42775E+05
 -1      1533-5.66437E+09 9.92280E+05-4.24301E+06-4.07249E+08-2.76044E+06-3.35258E+05
 -1      1535-5.66437E+09 9.92280E+05-4.24301E+06-4.07249E+08-2.76044E+06-3.35258E+05
 -1      1536-3.83301E+09 1.60921E+06-2.28774E+06-4.99989E+08-1.37526E+06 1.65680E+05
 -1      1538-3.83301E+09 1.60921E+06-2.28774E+06-4.99989E+08-1.37526E+06 1.65680E+05
 -1      1539-1.69854E+09 1.27529E+06-1.45895E+06-5.57713E+08 6.66264E+04 5.33185E+05
 -1      1541-1.69854E+09 1.27529E+06-1.45895E+06-5.57713E+08 6.66264E+04 5.33185E+05
 -1      1542 5.91439E+08 1.60625E+06 5.49487E+05-5.77161E+08 1.59978E+06 7.72103E+05
 -1      1544 5.91439E+08 1.60625E+06 5.49487E+05-5.77161E+08 1.59978E+06 7.72103E+05
 -1      1545 2.88098E+09 1.44942E+06 1.67279E+06-5.57675E+08 3.03529E+06 8.66157E+05
 -1      1547 2.88098E+09 1.44942E+06 1.67279E+06-5.57675E+08 3.03529E+06 8.66157E+05
 -1      1548 5.01698E+09 1.63903E+06 3.41443E+06-5.01182E+08 4.36652E+06 8.36218E+05
 -1      1550 5.01698E+09 1.63903E+06 3.41443E+06-5.01182E+08 4.36652E+06 8.36218E+05
 -1      1551 6.85907E+09 1.55971E+06 4.36296E+06-4.12176E+08 5.44380E+06 6.87970E+05
 -1      1553 6.85907E+09 1.55971E+06 4.36296E+06-4.12176E+08 5.44380E+06 6.87970E+05
 -1      1554 8.28968E+09 1.66132E+06 5.52373E+06-2.97415E+08 6.25629E+06 4.53552E+05
 -1      1556 8.28968E+09 1.66132E+06 5.52373E+06-2.97415E+08 6.25629E+06 4.53552E+05
 -1      1557 9.22219E+09 1.61503E+06 5.94592E+06-1.65524E+08 6.70619E+06 1.56391E+05
 -1      1559 9.22219E+09 1.61503E+06 5.94592E+06-1.65524E+08 6.70619E+06 1.56391E+05
 -1      1560 9.60756E+09 1.64456E+06 6.33093E+06-2.64971E+07 6.80978E+06-1.64541E+05
 -1      1562 9.60756E+09 1.64456E+06 6.33093E+06-2.64971E+07 6.80978E+06-1.64541E+05
 -1      1563 9.43842E+09 1.61421E+06 6.06694E+06 1.08978E+08 6.53020E+06-4.79467E+05
 -1      1565 9.43842E+09 1.61421E+06 6.06694E+06 1.08978E+08 6.53020E+06-4.79467E+05
 -1      1566 8.75077E+09 1.55077E+06 5.67728E+06 2.30064E+08 5.93238E+06-7.46348E+05
 -1      1568 8.75077E+09 1.55077E+06 5.67728E+06 2.30064E+08 5.93238E+06-7.46348E+05
 -1      1569 7.62330E+09 1.58915E+06 4.79034E+06 3.26429E+08 5.04397E+06-9.50874E+05
 -1      1571 7.62330E+09 1.58915E+06 4.79034E+06 3.26429E+08 5.04397E+06-9.50874E+05
 -1      1572 6.17369E+09 1.24904E+06 3.85217E+06 3.89058E+08 3.98983E+06-1.03579E+06
 -1      1574 6.17369E+09 1.24904E+06 3.85217E+06 3.89058E+08 3.98983E+06-1.03579E+06
 -1      1575 4.55409E+09 1.71306E+06 2.60365E+06 4.09773E+08 2.86532E+06-1.06298E+06
 -1      1577 4.55409E+09 1.71306E+06 2.60365E+06 4.09773E+08 2.86532E+06-1.06298E+06
 -1      1578 2.94330E+09 4.81510E+05 1.54653E+06 3.83434E+08 1.84904E+06-8.63493E+05
 -1      1580 2.94330E+09 4.81510E+05 1.54653E+06 3.83434E+08 1.84904E+06-8.63493E+05
 -1      1581 1.53979E+09 1.68378E+06 3.43921E+05 3.06439E+08 1.11065E+06-8.14492E+05
 -1      1583 1.53979E+09 1.68378E+06 3.43921E+05 3.06439E+08 1.11065E+06-8.14492E+05
 -1      1584 5.56210E+08 1.91807E+06-3.49920E+05 1.69851E+08 7.38476E+05-1.31714E+05
 -1      1586 5.56210E+08 1.91807E+06-3.49920E+05 1.69851E+08 7.38476E+05-1.31714E+05
 -1      1587 1.49418E+08 2.91738E+07-5.83842E+04 1.51236E+08-8.06102E+05 4.96175E+05
 -1      1589 1.49418E+08 2.91738E+07-5.83842E+04 1.51236E+08-8.06102E+05 4.96175E+05
 -1      1590 7.09034E+09 6.54200E+08 1.52971E+06 1.27596E+09-8.36329E+06-3.55045E+07
 -1      1592 7.09034E+09 6.54200E+08 1.52971E+06 1.27596E+09-8.36329E+06-3.55045E+07
 -1      1593-1.49418E+08-2.91738E+07 5.83842E+04 1.51236E+08-8.06102E+05-4.96175E+05
 -1      1595-1.49418E+08-2.91738E+07 5.83842E+04 1.51236E+08-8.06102E+05-4.96175E+05
 -1      1596-9.14330E+09-2.49782E+08-1.06978E+06 9.09367E+08-7.35898E+05 2.25083E+07
 -1      1598-9.14330E+09-2.49782E+08-1.06978E+06 9.09367E+08-7.35898E+05 2.25083E+07
 -1      1599-5.82630E+09 1.24526E+08-4.02169E+06 7.67350E+08-1.46836E+06-1.05921E+06
 -1      1601-5.82630E+09 1.24526E+08-4.02169E+06 7.67350E+08-1.46836E+06-1.05921E+06
 -1      1602-2.65668E+09-6.03856E+07-2.12481E+06 7.93276E+08-3.43102E+06 9.81237E+06
 -1      1604-2.65668E+09-6.03856E+07-2.12481E+06 7.93276E+08-3.43102E+06 9.81237E+06
 -1      1605 3.05244E+08 2.76801E+07 1.94113E+06 6.88967E+08-3.96937E+06 4.12161E+06
 -1      1607 3.05244E+08 2.76801E+07 1.94113E+06 6.88967E+08-3.96937E+06 4.12161E+06
 -1      1608 2.92082E+09-1.43061E+07 7.84356E+05 6.07194E+08-4.91985E+06 6.03494E+06
 -1      1610 2.92082E+09-1.43061E+07 7.84356E+05 6.07194E+08-4.91985E+06 6.03494E+06
 -1      1611 5.10057E+09 5.83445E+06 4.93598E+06 4.77900E+08-5.40081E+06 4.25495E+06
 -1      1613 5.10057E+09 5.83445E+06 4.93598E+06 4.77900E+08-5.40081E+06 4.25495E+06
 -1      1614 6.74109E+09-4.49811E+06 3.53770E+06 3.37085E+08-5.68470E+06 4.05915E+06
 -1      1616 6.74109E+09-4.49811E+06 3.53770E+06 3.37085E+08-5.68470E+06 4.05915E+06
 -1      1617 7.77890E+09 9.30384E+05 6.25093E+06 1.79218E+08-5.73055E+06 3.07332E+06
 -1      1619 7.77890E+09 9.30384E+05 6.25093E+06 1.79218E+08-5.73055E+06 3.07332E+06
 -1      1620 8.17273E+09-2.31099E+06 4.79281E+06 1.74683E+07-5.37999E+06 2.40402E+06
 -1      1622 8.17273E+09-2.31099E+06 4.79281E+06 1.74683E+07-5.37999E+06 2.40402E+06
 -1      1623 7.92236E+09-4.48206E+05 5.98253E+06-1.40555E+08-4.82210E+06 1.62126E+06
 -1      1625 7.92236E+09-4.48206E+05 5.98253E+06-1.40555E+08-4.82210E+06 1.62126E+06
 -1      1626 7.06205E+09-1.74745E+06 4.28155E+06-2.84953E+08-3.87338E+06 9.42775E+05
 -1      1628 7.06205E+09-1.74745E+06 4.28155E+06-2.84953E+08-3.87338E+06 9.42775E+05
 -1      1629 5.66437E+09-9.92280E+05 4.24301E+06-4.07249E+08-2.76044E+06 3.35258E+05
 -1      1631 5.66437E+09-9.92280E+05 4.24301E+06-4.07249E+08-2.76044E+06 3.35258E+05
 -1      1632 3.83301E+09-1.60921E+06 2.28774E+06-4.99989E+08-1.37526E+06-1.65680E+05
 -1      1634 3.83301E+09-1.60921E+06 2.28774E+06-4.99989E+08-1.37526E+06-1.65680E+05
 -1      1635 1.69854E+09-1.27529E+06 1.45895E+06-5.57713E+08 6.66264E+04-5.33185E+05
 -1      1637 1.69854E+09-1.27529E+06 1.45895E+06-5.57713E+08 6.66264E+04-5.33185E+05
 -1      1638-5.91439E+08-1.60625E+06-5.49487E+05-5.77161E+08 1.59978E+06-7.72103E+05
 -1      1640-5.91439E+08-1.60625E+06-5.49487E+05-5.77161E+08 1.59978E+06-7.72103E+05
 -1      1641-2.88098E+09-1.44942E+06-1.67279E+06-5.57675E+08 3.03529E+06-8.66157E+05
 -1      1643-2.88098E+09-1.44942E+06-1.67279E+06-5.57675E+08 3.03529E+06-8.66157E+05
 -1      1644-5.01698E+09-1.63903E+06-3.41443E+06-5.01182E+08 4.36652E+06-8.36218E+05
 -1      1646-5.01698E+09-1.63903E+06-3.41443E+06-5.01182E+08 4.36652E+06-8.36218E+05
 -1      1647-6.85907E+09-1.55971E+06-4.36296E+06-4.12176E+08 5.44380E+06-6.87970E+05
 -1      1649-6.85907E+09-1.55971E+06-4.36296E+06-4.12176E+08 5.44380E+06-6.87970E+05
 -1      1650-8.28968E+09-1.66132E+06-5.52373E+06-2.97415E+08 6.25629E+06-4.53552E+05
 -1      1652-8.28968E+09-1.66132E+06-5.52373E+06-2.97415E+08 6.25629E+06-4.53552E+05
 -1      1653-9.22219E+09-1.61503E+06-5.94592E+06-1.65524E+08 6.70619E+06-1.56391E+05
 -1      1655-9.22219E+09-1.61503E+06-5.94592E+06-1.65524E+08 6.70619E+06-1.56391E+05
 -1      1656-9.60756E+09-1.64456E+06-6.33093E+06-2.64971E+07 6.80978E+06 1.64541E+05
 -1      1658-9.60756E+09-1.64456E+06-6.33093E+06-2.64971E+07 6.80978E+06 1.64541E+05
 -1      1659-9.43842E+09-1.61421E+06-6.06694E+06 1.08978E+08 6.53020E+06 4.79467E+05
 -1      1661-9.43842E+09-1.61421E+06-6.06694E+06 1.08978E+08 6.53020E+06 4.79467E+05
 -1      1662-8.75077E+09-1.55077E+06-5.67728E+06 2.30064E+08 5.93238E+06 7.46348E+05
 -1      1664-8.75077E+09-1.55077E+06-5.67728E+06 2.30064E+08 5.93238E+06 7.46348E+05
 -1      1665-7.62330E+09-1.58915E+06-4.79034E+06 3.26429E+08 5.04397E+06 9.50874E+05
 -1      1667-7.62330E+09-1.58915E+06-4.79034E+06 3.26429E+08 5.04397E+06 9.50874E+05
 -1      1668-6.17369E+09-1.24904E+06-3.85217E+06 3.89058E+08 3.98983E+06 1.03579E+06
 -1      1670-6.17369E+09-1.24904E+06-3.85217E+06 3.89058E+08 3.98983E+06 1.03579E+06
 -1      1671-4.55409E+09-1.71306E+06-2.60365E+06 4.09773E+08 2.86532E+06 1.06298E+06
 -1      1673-4.55409E+09-1.71306E+06-2.60365E+06 4.09773E+08 2.86532E+06 1.06298E+06
 -1      1674-2.94330E+09-4.81510E+05-1.54653E+06 3.83434E+08 1.84904E+06 8.63493E+05
 -1      1676-2.94330E+09-4.81510E+05-1.54653E+06 3.83434E+08 1.84904E+06 8.63493E+05
 -1      1677-1.53979E+09-1.68378E+06-3.43921E+05 3.06439E+08 1.11065E+06 8.14492E+05
 -1      1679-1.53979E+09-1.68378E+06-3.43921E+05 3.06439E+08 1.11065E+06 8.14492E+05
 -1      1680-5.56210E+08-1.91807E+06 3.49920E+05 1.69851E+08 7.38476E+05 1.31714E+05
 -1      1682-5.56210E+08-1.91807E+06 3.49920E+05 1.69851E+08 7.38476E+05 1.31714E+05
 -1      1683-7.09034E+09-6.54200E+08-1.52971E+06 1.27596E+09-8.36329E+06 3.55045E+07
 -1      1685-7.09034E+09-6.54200E+08-1.52971E+06 1.27596E+09-8.36329E+06 3.55045E+07
 -1      1686-6.07145E+09-1.79175E+08 6.35191E+04 1.31616E+09 4.23762E+06-1.00036E+07
 -1      1688-6.07145E+09-1.79175E+08 6.35191E+04 1.31616E+09 4.23762E+06-1.00036E+07
 -1      1689-3.90895E+09 7.99309E+07-7.84243E+04 1.30783E+09 7.04298E+05 3.62229E+06
 -1      1691-3.90895E+09 7.99309E+07-7.84243E+04 1.30783E+09 7.04298E+05 3.62229E+06
 -1      1692-1.76694E+09-4.80454E+07 4.00718E+04 1.22631E+09 2.83646E+06-2.81721E+06
 -1      1694-1.76694E+09-4.80454E+07 4.00718E+04 1.22631E+09 2.83646E+06-2.81721E+06
 -1      1695 1.83379E+08 8.79047E+05-1.58913E+05 1.12000E+09 3.49909E+06 2.59422E+05
 -1      1697 1.83379E+08 8.79047E+05-1.58913E+05 1.12000E+09 3.49909E+06 2.59422E+05
 -1      1698 1.93329E+09-2.55364E+07 6.82960E+04 9.61534E+08 4.27695E+06-1.01801E+06
 -1      1700 1.93329E+09-2.55364E+07 6.82960E+04 9.61534E+08 4.27695E+06-1.01801E+06
 -1      1701 3.37713E+09-2.10865E+07-9.76515E+04 7.66842E+08 5.15576E+06-2.51799E+05
 -1      1703 3.37713E+09-2.10865E+07-9.76515E+04 7.66842E+08 5.15576E+06-2.51799E+05
 -1      1704 4.47074E+09-2.72339E+07-1.89468E+04 5.37113E+08 5.34552E+06-3.34629E+05
 -1      1706 4.47074E+09-2.72339E+07-1.89468E+04 5.37113E+08 5.34552E+06-3.34629E+05
 -1      1707 5.15955E+09-2.76981E+07-1.78341E+03 2.87048E+08 5.55328E+06-1.41333E+04
 -1      1709 5.15955E+09-2.76981E+07-1.78341E+03 2.87048E+08 5.55328E+06-1.41333E+04
 -1      1710 5.42275E+09-2.84784E+07-9.20597E+04 2.80783E+07 5.02616E+06 1.69220E+05
 -1      1712 5.42275E+09-2.84784E+07-9.20597E+04 2.80783E+07 5.02616E+06 1.69220E+05
 -1      1713 5.25673E+09-2.68810E+07 5.52100E+04-2.23775E+08 4.33549E+06 4.01114E+05
 -1      1715 5.25673E+09-2.68810E+07 5.52100E+04-2.23775E+08 4.33549E+06 4.01114E+05
 -1      1716 4.68629E+09-2.43171E+07-1.21136E+05-4.54388E+08 3.02866E+06 6.03649E+05
 -1      1718 4.68629E+09-2.43171E+07-1.21136E+05-4.54388E+08 3.02866E+06 6.03649E+05
 -1      1719 3.75843E+09-2.00789E+07 7.47122E+04-6.49462E+08 1.52700E+06 7.68996E+05
 -1      1721 3.75843E+09-2.00789E+07 7.47122E+04-6.49462E+08 1.52700E+06 7.68996E+05
 -1      1722 2.54281E+09-1.50622E+07-1.19448E+05-7.97529E+08-3.82947E+05 8.97157E+05
 -1      1724 2.54281E+09-1.50622E+07-1.19448E+05-7.97529E+08-3.82947E+05 8.97157E+05
 -1      1725 1.12561E+09-9.10612E+06 7.36775E+04-8.89632E+08-2.37056E+06 9.61448E+05
 -1      1727 1.12561E+09-9.10612E+06 7.36775E+04-8.89632E+08-2.37056E+06 9.61448E+05
 -1      1728-3.94794E+08-3.00137E+06-1.03559E+05-9.20736E+08-4.49853E+06 9.72162E+05
 -1      1730-3.94794E+08-3.00137E+06-1.03559E+05-9.20736E+08-4.49853E+06 9.72162E+05
 -1      1731-1.91510E+09 3.15978E+06 6.41556E+04-8.89686E+08-6.49804E+06 9.14326E+05
 -1      1733-1.91510E+09 3.15978E+06 6.41556E+04-8.89686E+08-6.49804E+06 9.14326E+05
 -1      1734-3.33349E+09 8.68679E+06-8.44527E+04-7.99632E+08-8.35845E+06 8.01024E+05
 -1      1736-3.33349E+09 8.68679E+06-8.44527E+04-7.99632E+08-8.35845E+06 8.01024E+05
 -1      1737-4.55687E+09 1.34241E+07 5.17637E+04-6.57702E+08-9.87061E+06 6.31371E+05
 -1      1739-4.55687E+09 1.34241E+07 5.17637E+04-6.57702E+08-9.87061E+06 6.31371E+05
 -1      1740-5.50714E+09 1.68288E+07-6.81939E+04-4.74703E+08-1.10134E+07 4.21745E+05
 -1      1742-5.50714E+09 1.68288E+07-6.81939E+04-4.74703E+08-1.10134E+07 4.21745E+05
 -1      1743-6.12685E+09 1.88409E+07 3.79960E+04-2.64401E+08-1.16461E+07 1.81848E+05
 -1      1745-6.12685E+09 1.88409E+07 3.79960E+04-2.64401E+08-1.16461E+07 1.81848E+05
 -1      1746-6.38343E+09 1.90894E+07-5.74743E+04-4.27125E+07-1.17832E+07-6.87438E+04
 -1      1748-6.38343E+09 1.90894E+07-5.74743E+04-4.27125E+07-1.17832E+07-6.87438E+04
 -1      1749-6.27206E+09 1.77398E+07 2.17760E+04 1.73238E+08-1.13584E+07-3.15912E+05
 -1      1751-6.27206E+09 1.77398E+07 2.17760E+04 1.73238E+08-1.13584E+07-3.15912E+05
 -1      1752-5.81671E+09 1.45722E+07-5.20534E+04 3.66249E+08-1.04489E+07-5.35594E+05
 -1      1754-5.81671E+09 1.45722E+07-5.20534E+04 3.66249E+08-1.04489E+07-5.35594E+05
 -1      1755-5.06964E+09 9.97101E+06-5.12465E+02 5.19747E+08-9.05930E+06-7.21595E+05
 -1      1757-5.06964E+09 9.97101E+06-5.12465E+02 5.19747E+08-9.05930E+06-7.21595E+05
 -1      1758-4.10921E+09 4.08477E+06-4.89222E+04 6.19298E+08-7.33642E+06-8.30350E+05
 -1      1760-4.10921E+09 4.08477E+06-4.89222E+04 6.19298E+08-7.33642E+06-8.30350E+05
 -1      1761-3.03645E+09-3.31382E+06-3.31176E+04 6.52096E+08-5.34470E+06-9.04112E+05
 -1      1763-3.03645E+09-3.31382E+06-3.31176E+04 6.52096E+08-5.34470E+06-9.04112E+05
 -1      1764-1.97003E+09-1.00822E+07-5.19472E+04 6.09737E+08-3.29368E+06-7.97561E+05
 -1      1766-1.97003E+09-1.00822E+07-5.19472E+04 6.09737E+08-3.29368E+06-7.97561E+05
 -1      1767-1.04389E+09-1.96653E+07-5.47613E+04 4.84256E+08-1.32825E+06-7.79425E+05
 -1      1769-1.04389E+09-1.96653E+07-5.47613E+04 4.84256E+08-1.32825E+06-7.79425E+05
 -1      1770-3.91520E+08-2.79005E+07-1.35232E+05 2.75227E+08 2.47774E+05-2.09610E+05
 -1      1772-3.91520E+08-2.79005E+07-1.35232E+05 2.75227E+08 2.47774E+05-2.09610E+05
 -1      1773 6.07145E+09 1.79175E+08-6.35191E+04 1.31616E+09 4.23762E+06 1.00036E+07
 -1      1775 6.07145E+09 1.79175E+08-6.35191E+04 1.31616E+09 4.23762E+06 1.00036E+07
 -1      1776 3.90895E+09-7.99309E+07 7.84243E+04 1.30783E+09 7.04298E+05-3.62229E+06
 -1      1778 3.90895E+09-7.99309E+07 7.84243E+04 1.30783E+09 7.04298E+05-3.62229E+06
 -1      1779 1.76694E+09 4.80454E+07-4.00718E+04 1.22631E+09 2.83646E+06 2.81721E+06
 -1      1781 1.76694E+09 4.80454E+07-4.00718E+04 1.22631E+09 2.83646E+06 2.81721E+06
 -1      1782-1.83379E+08-8.79047E+05 1.58913E+05 1.12000E+09 3.49909E+06-2.59422E+05
 -1      1784-1.83379E+08-8.79047E+05 1.58913E+05 1.12000E+09 3.49909E+06-2.59422E+05
 -1      1785-1.93329E+09 2.55364E+07-6.82960E+04 9.61534E+08 4.27695E+06 1.01801E+06
 -1      1787-1.93329E+09 2.55364E+07-6.82960E+04 9.61534E+08 4.27695E+06 1.01801E+06
 -1      1788-3.37713E+09 2.10865E+07 9.76515E+04 7.66842E+08 5.15576E+06 2.51799E+05
 -1      1790-3.37713E+09 2.10865E+07 9.76515E+04 7.66842E+08 5.15576E+06 2.51799E+05
 -1      1791-4.47074E+09 2.72339E+07 1.89468E+04 5.37113E+08 5.34552E+06 3.34629E+05
 -1      1793-4.47074E+09 2.72339E+07 1.89468E+04 5.37113E+08 5.34552E+06 3.34629E+05
 -1      1794-5.15955E+09 2.76981E+07 1.78341E+03 2.87048E+08 5.55328E+06 1.41333E+04
 -1      1796-5.15955E+09 2.76981E+07 1.78341E+03 2.87048E+08 5.55328E+06 1.41333E+04
 -1      1797-5.42275E+09 2.84784E+07 9.20597E+04 2.80783E+07 5.02616E+06-1.69220E+05
 -1      1799-5.42275E+09 2.84784E+07 9.20597E+04 2.80783E+07 5.02616E+06-1.69220E+05
 -1      1800-5.25673E+09 2.68810E+07-5.52100E+04-2.23775E+08 4.33549E+06-4.01114E+05
 -1      1802-5.25673E+09 2.68810E+07-5.52100E+04-2.23775E+08 4.33549E+06-4.01114E+05
 -1      1803-4.68629E+09 2.43171E+07 1.21136E+05-4.54388E+08 3.02866E+06-6.03649E+05
 -1      1805-4.68629E+09 2.43171E+07 1.21136E+05-4.54388E+08 3.02866E+06-6.03649E+05
 -1      1806-3.75843E+09 2.00789E+07-7.47122E+04-6.49462E+08 1.52700E+06-7.68996E+05
 -1      1808-3.75843E+09 2.00789E+07-7.47122E+04-6.49462E+08 1.52700E+06-7.68996E+05
 -1      1809-2.54281E+09 1.50622E+07 1.19448E+05-7.97529E+08-3.82947E+05-8.97157E+05
 -1      1811-2.54281E+09 1.50622E+07 1.19448E+05-7.97529E+08-3.82947E+05-8.97157E+05
 -1      1812-1.12561E+09 9.10612E+06-7.36775E+04-8.89632E+08-2.37056E+06-9.61448E+05
 -1      1814-1.12561E+09 9.10612E+06-7.36775E+04-8.89632E+08-2.37056E+06-9.61448E+05
 -1      1815 3.94794E+08 3.00137E+06 1.03559E+05-9.20736E+08-4.49853E+06-9.72162E+05
 -1      1817 3.94794E+08 3.00137E+06 1.03559E+05-9.20736E+08-4.49853E+06-9.72162E+05
 -1      1818 1.91510E+09-3.15978E+06-6.41556E+04-8.89686E+08-6.49804E+06-9.14326E+05
 -1      1820 1.91510E+09-3.15978E+06-6.41556E+04-8.89686E+08-6.49804E+06-9.14326E+05
 -1      1821 3.33349E+09-8.68679E+06 8.44527E+04-7.99632E+08-8.35845E+06-8.01024E+05
 -1      1823 3.33349E+09-8.68679E+06 8.44527E+04-7.99632E+08-8.35845E+06-8.01024E+05
 -1      1824 4.55687E+09-1.34241E+07-5.17637E+04-6.57702E+08-9.87061E+06-6.31371E+05
 -1      1826 4.55687E+09-1.34241E+07-5.17637E+04-6.57702E+08-9.87061E+06-6.31371E+05
 -1      1827 5.50714E+09-1.68288E+07 6.81939E+04-4.74703E+08-1.10134E+07-4.21745E+05
 -1      1829 5.50714E+09-1.68288E+07 6.81939E+04-4.74703E+08-1.10134E+07-4.21745E+05
 -1      1830 6.12685E+09-1.88409E+07-3.79960E+04-2.64401E+08-1.16461E+07-1.81848E+05
 -1      1832 6.12685E+09-1.88409E+07-3.79960E+04-2.64401E+08-1.16461E+07-1.81848E+05
 -1      1833 6.38343E+09-1.90894E+07 5.74743E+04-4.27125E+07-1.17832E+07 6.87438E+04
 -1      1835 6.38343E+09-1.90894E+07 5.74743E+04-4.27125E+07-1.17832E+07 6.87438E+04
 -1      1836 6.27206E+09-1.77398E+07-2.17760E+04 1.73238E+08-1.13584E+07 3.15912E+05
 -1      1838 6.27206E+09-1.77398E+07-2.17760E+04 1.73238E+08-1.13584E+07 3.15912E+05
 -1      1839 5.81671E+09-1.45722E+07 5.20534E+04 3.66249E+08-1.04489E+07 5.35594E+05
 -1      1841 5.81671E+09-1.45722E+07 5.20534E+04 3.66249E+08-1.04489E+07 5.35594E+05
 -1      1842 5.06964E+09-9.97101E+06 5.12466E+02 5.19747E+08-9.05930E+06 7.21595E+05
 -1      1844 5.06964E+09-9.97101E+06 5.12466E+02 5.19747E+08-9.05930E+06 7.21595E+05
 -1      1845 4.10921E+09-4.08477E+06 4.89222E+04 6.19298E+08-7.33642E+06 8.30350E+05
 -1      1847 4.10921E+09-4.08477E+06 4.89222E+04 6.19298E+08-7.33642E+06 8.30350E+05
 -1      1848 3.03645E+09 3.31382E+06 3.31176E+04 6.52096E+08-5.34470E+06 9.04112E+05
 -1      1850 3.03645E+09 3.31382E+06 3.31176E+04 6.52096E+08-5.34470E+06 9.04112E+05
 -1      1851 1.97003E+09 1.00822E+07 5.19472E+04 6.09737E+08-3.29368E+06 7.97561E+05
 -1      1853 1.97003E+09 1.00822E+07 5.19472E+04 6.09737E+08-3.29368E+06 7.97561E+05
 -1      1854 1.04389E+09 1.96653E+07 5.47613E+04 4.84256E+08-1.32825E+06 7.79425E+05
 -1      1856 1.04389E+09 1.96653E+07 5.47613E+04 4.84256E+08-1.32825E+06 7.79425E+05
 -1      1857 3.91520E+08 2.79005E+07 1.35232E+05 2.75227E+08 2.47774E+05 2.09610E+05
 -1      1859 3.91520E+08 2.79005E+07 1.35232E+05 2.75227E+08 2.47774E+05 2.09610E+05
 -1      1860-2.14175E-02 6.14173E-05 4.09732E-03 3.23869E+07 3.75651E+06-4.41155E-02
 -1      1862-2.14175E-02 6.14173E-05 4.09732E-03 3.23869E+07 3.75651E+06-4.41155E-02
 -1      1863-1.76624E-02 8.93281E-05 9.39201E-03-4.57129E+06 1.05710E+07-4.31571E-02
 -1      1865-1.76624E-02 8.93281E-05 9.39201E-03-4.57129E+06 1.05710E+07-4.31571E-02
 -1      1866-1.42338E-02 3.90526E-04 2.12963E-03 1.19513E+07 1.48473E+07-3.98918E-02
 -1      1868-1.42338E-02 3.90526E-04 2.12963E-03 1.19513E+07 1.48473E+07-3.98918E-02
 -1      1869-9.45549E-03 3.49976E-04-8.37939E-03 3.52385E+06 1.98243E+07-3.89158E-02
 -1      1871-9.45549E-03 3.49976E-04-8.37939E-03 3.52385E+06 1.98243E+07-3.89158E-02
 -1      1872-2.14033E-03-1.67189E-04-9.84116E-03 6.60221E+06 2.38454E+07-3.95342E-02
 -1      1874-2.14033E-03-1.67189E-04-9.84116E-03 6.60221E+06 2.38454E+07-3.95342E-02
 -1      1875 5.04962E-03 1.14888E-04-7.80885E-04 3.46975E+06 2.72209E+07-3.84250E-02
 -1      1877 5.04962E-03 1.14888E-04-7.80885E-04 3.46975E+06 2.72209E+07-3.84250E-02
 -1      1878 8.33816E-03 8.21106E-04 9.16483E-03 3.36508E+06 2.96518E+07-3.22347E-02
 -1      1880 8.33816E-03 8.21106E-04 9.16483E-03 3.36508E+06 2.96518E+07-3.22347E-02
 -1      1881 8.21401E-03-7.82500E-05 8.07858E-03 1.28179E+06 3.08603E+07-2.50775E-02
 -1      1883 8.21401E-03-7.82500E-05 8.07858E-03 1.28179E+06 3.08603E+07-2.50775E-02
 -1      1884 9.03638E-03-1.17929E-03-6.65643E-05 2.39470E+05 3.09883E+07-2.35333E-02
 -1      1886 9.03638E-03-1.17929E-03-6.65643E-05 2.39470E+05 3.09883E+07-2.35333E-02
 -1      1887 1.32526E-02-1.00455E-03-8.24787E-04-1.43173E+06 2.97529E+07-2.58044E-02
 -1      1889 1.32526E-02-1.00455E-03-8.24787E-04-1.43173E+06 2.97529E+07-2.58044E-02
 -1      1890 1.82730E-02-4.32570E-04 8.22386E-03-2.58089E+06 2.74879E+07-2.29046E-02
 -1      1892 1.82730E-02-4.32570E-04 8.22386E-03-2.58089E+06 2.74879E+07-2.29046E-02
 -1      1893 2.12271E-02 4.78330E-05 1.71684E-02-3.77701E+06 2.40896E+07-1.41020E-02
 -1      1895 2.12271E-02 4.78330E-05 1.71684E-02-3.77701E+06 2.40896E+07-1.41020E-02
 -1      1896 2.35122E-02 2.91663E-04 1.92128E-02-4.55490E+06 1.99866E+07-4.57700E-03
 -1      1898 2.35122E-02 2.91663E-04 1.92128E-02-4.55490E+06 1.99866E+07-4.57700E-03
 -1      1899 2.46726E-02-1.60240E-04 1.77214E-02-5.10740E+06 1.52638E+07 3.65046E-03
 -1      1901 2.46726E-02-1.60240E-04 1.77214E-02-5.10740E+06 1.52638E+07 3.65046E-03
 -1      1902 2.23591E-02-6.58539E-04 1.88791E-02-5.25368E+06 1.03818E+07 1.06531E-02
 -1      1904 2.23591E-02-6.58539E-04 1.88791E-02-5.25368E+06 1.03818E+07 1.06531E-02
 -1      1905 1.91594E-02-8.83285E-04 2.06205E-02-5.08118E+06 5.53809E+06 1.53907E-02
 -1      1907 1.91594E-02-8.83285E-04 2.06205E-02-5.08118E+06 5.53809E+06 1.53907E-02
 -1      1908 1.79244E-02 2.59117E-04 1.90383E-02-4.54716E+06 1.15952E+06 1.72317E-02
 -1      1910 1.79244E-02 2.59117E-04 1.90383E-02-4.54716E+06 1.15952E+06 1.72317E-02
 -1      1911 1.56129E-02 3.73925E-05 1.25671E-02-3.73024E+06-2.55076E+06 1.67087E-02
 -1      1913 1.56129E-02 3.73925E-05 1.25671E-02-3.73024E+06-2.55076E+06 1.67087E-02
 -1      1914 9.49883E-03-1.07271E-03 5.03321E-03-2.66761E+06-5.26773E+06 1.36984E-02
 -1      1916 9.49883E-03-1.07271E-03 5.03321E-03-2.66761E+06-5.26773E+06 1.36984E-02
 -1      1917 1.71740E-03-5.31162E-05 2.14676E-03-1.44805E+06-6.88532E+06 1.30877E-02
 -1      1919 1.71740E-03-5.31162E-05 2.14676E-03-1.44805E+06-6.88532E+06 1.30877E-02
 -1      1920-4.74933E-03-8.25508E-05 4.32944E-04-1.67074E+05-7.23300E+06 1.45687E-02
 -1      1922-4.74933E-03-8.25508E-05 4.32944E-04-1.67074E+05-7.23300E+06 1.45687E-02
 -1      1923-8.78931E-03-1.57065E-04 6.88491E-04 1.11316E+06-6.37694E+06 1.25541E-02
 -1      1925-8.78931E-03-1.57065E-04 6.88491E-04 1.11316E+06-6.37694E+06 1.25541E-02
 -1      1926-1.10854E-02-9.38873E-05 6.30380E-03 2.20644E+06-4.32256E+06 1.05801E-02
 -1      1928-1.10854E-02-9.38873E-05 6.30380E-03 2.20644E+06-4.32256E+06 1.05801E-02
 -1      1929-1.06869E-02-3.08614E-04 1.13679E-02 3.21627E+06-1.34000E+06 8.88653E-03
 -1      1931-1.06869E-02-3.08614E-04 1.13679E-02 3.21627E+06-1.34000E+06 8.88653E-03
 -1      1932-7.67446E-03-1.34576E-04 1.34723E-02 3.66837E+06 2.40102E+06 5.98461E-03
 -1      1934-7.67446E-03-1.34576E-04 1.34723E-02 3.66837E+06 2.40102E+06 5.98461E-03
 -1      1935-5.36810E-03 6.08142E-04 1.65171E-02 4.24378E+06 6.45451E+06 3.55633E-03
 -1      1937-5.36810E-03 6.08142E-04 1.65171E-02 4.24378E+06 6.45451E+06 3.55633E-03
 -1      1938-4.60008E-03 1.30312E-03 1.94354E-02 3.53553E+06 1.05033E+07 2.07835E-03
 -1      1940-4.60008E-03 1.30312E-03 1.94354E-02 3.53553E+06 1.05033E+07 2.07835E-03
 -1      1941-4.79855E-03 1.46081E-03 1.77503E-02 3.90030E+06 1.40534E+07 2.26285E-03
 -1      1943-4.79855E-03 1.46081E-03 1.77503E-02 3.90030E+06 1.40534E+07 2.26285E-03
 -1      1944-4.40400E-03 2.64782E-04 8.62838E-03 1.19240E+06 1.65897E+07 1.80367E-03
 -1      1946-4.40400E-03 2.64782E-04 8.62838E-03 1.19240E+06 1.65897E+07 1.80367E-03
 -1      1947-4.87845E-03 6.25755E-05 6.01476E-03 5.62956E+07 5.87769E-05-4.36627E-02
 -1      1949-4.87845E-03 6.25755E-05 6.01476E-03 5.62956E+07 5.87769E-05-4.36627E-02
 -1      1950-5.99976E-03 1.48417E-04 6.10591E-03-3.70595E+05 4.13330E-05-4.64050E-02
 -1      1952-5.99976E-03 1.48417E-04 6.10591E-03-3.70595E+05 4.13330E-05-4.64050E-02
 -1      1953-5.25474E-03 3.96986E-04-1.07696E-03 2.64487E+07 8.08446E-05-4.48027E-02
 -1      1955-5.25474E-03 3.96986E-04-1.07696E-03 2.64487E+07 8.08446E-05-4.48027E-02
 -1      1956-4.29506E-03 4.69945E-04-9.21528E-03 1.11246E+07-1.48519E-05-4.19376E-02
 -1      1958-4.29506E-03 4.69945E-04-9.21528E-03 1.11246E+07-1.48519E-05-4.19376E-02
 -1      1959-3.01209E-03 3.91045E-05-1.13127E-02 1.65280E+07-1.77943E-04-3.98022E-02
 -1      1961-3.01209E-03 3.91045E-05-1.13127E-02 1.65280E+07-1.77943E-04-3.98022E-02
 -1      1962-2.68130E-03 4.14108E-04-5.80822E-03 9.86128E+06-3.73539E-04-3.59564E-02
 -1      1964-2.68130E-03 4.14108E-04-5.80822E-03 9.86128E+06-3.73539E-04-3.59564E-02
 -1      1965-4.06311E-03 1.12760E-03 2.30395E-03 9.15577E+06-4.22298E-04-2.97698E-02
 -1      1967-4.06311E-03 1.12760E-03 2.30395E-03 9.15577E+06-4.22298E-04-2.97698E-02
 -1      1968-4.47388E-03 2.91478E-04 4.59060E-03 4.42625E+06-4.01842E-04-2.58789E-02
 -1      1970-4.47388E-03 2.91478E-04 4.59060E-03 4.42625E+06-4.01842E-04-2.58789E-02
 -1      1971-2.51106E-03-8.97500E-04-2.47457E-04 1.73750E+06-3.51962E-04-2.56998E-02
 -1      1973-2.51106E-03-8.97500E-04-2.47457E-04 1.73750E+06-3.51962E-04-2.56998E-02
 -1      1974 4.84530E-04-6.66580E-04-2.86189E-03-2.15503E+06-1.86910E-04-2.57447E-02
 -1      1976 4.84530E-04-6.66580E-04-2.86189E-03-2.15503E+06-1.86910E-04-2.57447E-02
 -1      1977 2.66712E-03-3.14267E-05 2.82365E-03-5.01327E+06-2.30064E-04-2.10648E-02
 -1      1979 2.66712E-03-3.14267E-05 2.82365E-03-5.01327E+06-2.30064E-04-2.10648E-02
 -1      1980 2.82395E-03 8.83776E-04 1.19347E-02-7.84154E+06-1.86069E-04-1.31475E-02
 -1      1982 2.82395E-03 8.83776E-04 1.19347E-02-7.84154E+06-1.86069E-04-1.31475E-02
 -1      1983 2.43603E-03 1.01783E-03 1.66942E-02-9.77632E+06-1.71217E-04-6.38013E-03
 -1      1985 2.43603E-03 1.01783E-03 1.66942E-02-9.77632E+06-1.71217E-04-6.38013E-03
 -1      1986 2.50796E-03 8.78832E-05 1.67136E-02-1.11044E+07-3.16652E-05 9.24579E-04
 -1      1988 2.50796E-03 8.78832E-05 1.67136E-02-1.11044E+07-3.16652E-05 9.24579E-04
 -1      1989 1.09978E-03-3.90351E-04 1.71494E-02-1.15161E+07 1.24560E-04 8.56313E-03
 -1      1991 1.09978E-03-3.90351E-04 1.71494E-02-1.15161E+07 1.24560E-04 8.56313E-03
 -1      1992-1.19297E-03-6.15553E-04 1.89975E-02-1.11328E+07 2.38610E-04 1.26865E-02
 -1      1994-1.19297E-03-6.15553E-04 1.89975E-02-1.11328E+07 2.38610E-04 1.26865E-02
 -1      1995-1.31444E-03-3.85562E-04 1.87587E-02-9.91490E+06 3.96658E-04 1.41628E-02
 -1      1997-1.31444E-03-3.85562E-04 1.87587E-02-9.91490E+06 3.96658E-04 1.41628E-02
 -1      1998 1.31066E-03-5.54204E-04 1.33954E-02-8.00595E+06 2.79313E-04 1.37394E-02
 -1      2000 1.31066E-03-5.54204E-04 1.33954E-02-8.00595E+06 2.79313E-04 1.37394E-02
 -1      2001 2.27254E-03-4.64780E-04 4.72691E-03-5.52416E+06 2.36369E-04 1.25142E-02
 -1      2003 2.27254E-03-4.64780E-04 4.72691E-03-5.52416E+06 2.36369E-04 1.25142E-02
 -1      2004-8.25227E-04 2.42330E-04-2.17507E-03-2.67030E+06 5.41181E-04 1.38376E-02
 -1      2006-8.25227E-04 2.42330E-04-2.17507E-03-2.67030E+06 5.41181E-04 1.38376E-02
 -1      2007-4.32937E-03 3.06794E-04-3.89615E-03 3.37942E+05 4.32525E-04 1.60061E-02
 -1      2009-4.32937E-03 3.06794E-04-3.89615E-03 3.37942E+05 4.32525E-04 1.60061E-02
 -1      2010-7.53812E-03-4.17084E-04-6.94125E-05 3.29766E+06 3.51191E-04 1.60574E-02
 -1      2012-7.53812E-03-4.17084E-04-6.94125E-05 3.29766E+06 3.51191E-04 1.60574E-02
 -1      2013-1.09395E-02-4.94431E-04 6.84338E-03 5.88691E+06 4.85489E-04 1.45028E-02
 -1      2015-1.09395E-02-4.94431E-04 6.84338E-03 5.88691E+06 4.85489E-04 1.45028E-02
 -1      2016-1.08756E-02-1.23441E-04 1.22128E-02 8.09038E+06 3.12380E-04 9.80784E-03
 -1      2018-1.08756E-02-1.23441E-04 1.22128E-02 8.09038E+06 3.12380E-04 9.80784E-03
 -1      2019-6.79095E-03 2.72055E-04 1.36188E-02 9.26075E+06 4.97259E-04 5.93173E-03
 -1      2021-6.79095E-03 2.72055E-04 1.36188E-02 9.26075E+06 4.97259E-04 5.93173E-03
 -1      2022-3.17215E-03 1.20846E-03 1.47145E-02 1.01355E+07 4.68255E-04 5.52510E-03
 -1      2024-3.17215E-03 1.20846E-03 1.47145E-02 1.01355E+07 4.68255E-04 5.52510E-03
 -1      2025-2.39195E-03 1.29170E-03 1.73835E-02 8.85004E+06 4.40233E-04 4.92858E-03
 -1      2027-2.39195E-03 1.29170E-03 1.73835E-02 8.85004E+06 4.40233E-04 4.92858E-03
 -1      2028-3.49958E-03 6.26512E-04 1.63127E-02 8.54676E+06 6.04164E-04 3.55904E-03
 -1      2030-3.49958E-03 6.26512E-04 1.63127E-02 8.54676E+06 6.04164E-04 3.55904E-03
 -1      2031-3.45157E-03-5.69806E-04 8.08032E-03 3.30049E+06 8.54264E-04 9.14776E-04
 -1      2033-3.45157E-03-5.69806E-04 8.08032E-03 3.30049E+06 8.54264E-04 9.14776E-04
 -1      2034 1.34270E-02 5.84011E-05 6.92514E-03 3.23869E+07-3.75651E+06-3.95467E-02
 -1      2036 1.34270E-02 5.84011E-05 6.92514E-03 3.23869E+07-3.75651E+06-3.95467E-02
 -1      2037 9.49219E-03 1.78787E-04 2.95540E-03-4.57129E+06-1.05710E+07-4.35394E-02
 -1      2039 9.49219E-03 1.78787E-04 2.95540E-03-4.57129E+06-1.05710E+07-4.35394E-02
 -1      2040 4.35526E-03 2.25000E-04-3.21669E-03 1.19513E+07-1.48473E+07-4.30533E-02
 -1      2042 4.35526E-03 2.25000E-04-3.21669E-03 1.19513E+07-1.48473E+07-4.30533E-02
 -1      2043-1.86858E-03 3.40164E-04-9.23774E-03 3.52385E+06-1.98243E+07-4.06054E-02
 -1      2045-1.86858E-03 3.40164E-04-9.23774E-03 3.52385E+06-1.98243E+07-4.06054E-02
 -1      2046-7.18756E-03 3.35372E-04-1.39989E-02 6.60221E+06-2.38454E+07-3.76047E-02
 -1      2048-7.18756E-03 3.35372E-04-1.39989E-02 6.60221E+06-2.38454E+07-3.76047E-02
 -1      2049-1.11039E-02 5.06453E-04-1.35535E-02 3.46975E+06-2.72209E+07-3.17713E-02
 -1      2051-1.11039E-02 5.06453E-04-1.35535E-02 3.46975E+06-2.72209E+07-3.17713E-02
 -1      2052-1.32202E-02 7.45194E-04-6.28931E-03 3.36508E+06-2.96518E+07-2.43041E-02
 -1      2054-1.32202E-02 7.45194E-04-6.28931E-03 3.36508E+06-2.96518E+07-2.43041E-02
 -1      2055-1.43455E-02-1.49107E-04 4.03679E-04 1.28179E+06-3.08603E+07-2.22558E-02
 -1      2057-1.43455E-02-1.49107E-04 4.03679E-04 1.28179E+06-3.08603E+07-2.22558E-02
 -1      2058-1.60505E-02-8.33679E-04-9.50410E-04 2.39470E+05-3.09883E+07-2.40323E-02
 -1      2060-1.60505E-02-8.33679E-04-9.50410E-04 2.39470E+05-3.09883E+07-2.40323E-02
 -1      2061-1.67654E-02-2.14240E-04-4.93194E-03-1.43173E+06-2.97529E+07-2.26581E-02
 -1      2063-1.67654E-02-2.14240E-04-4.93194E-03-1.43173E+06-2.97529E+07-2.26581E-02
 -1      2064-1.57455E-02 6.72495E-05-2.13809E-03-2.58089E+06-2.74879E+07-1.60986E-02
 -1      2066-1.57455E-02 6.72495E-05-2.13809E-03-2.58089E+06-2.74879E+07-1.60986E-02
 -1      2067-1.66831E-02 8.16301E-04 7.16394E-03-3.77701E+06-2.40896E+07-9.32171E-03
 -1      2069-1.66831E-02 8.16301E-04 7.16394E-03-3.77701E+06-2.40896E+07-9.32171E-03
 -1      2070-2.02288E-02 3.57111E-04 1.43859E-02-4.55490E+06-1.99866E+07-6.03968E-03
 -1      2072-2.02288E-02 3.57111E-04 1.43859E-02-4.55490E+06-1.99866E+07-6.03968E-03
 -1      2073-2.23230E-02-2.53999E-04 1.53320E-02-5.10740E+06-1.52638E+07-1.02806E-03
 -1      2075-2.23230E-02-2.53999E-04 1.53320E-02-5.10740E+06-1.52638E+07-1.02806E-03
 -1      2076-2.18044E-02-1.78884E-05 1.44347E-02-5.25368E+06-1.03818E+07 7.22996E-03
 -1      2078-2.18044E-02-1.78884E-05 1.44347E-02-5.25368E+06-1.03818E+07 7.22996E-03
 -1      2079-1.97195E-02-4.60624E-04 1.58526E-02-5.08118E+06-5.53809E+06 1.19418E-02
 -1      2081-1.97195E-02-4.60624E-04 1.58526E-02-5.08118E+06-5.53809E+06 1.19418E-02
 -1      2082-1.56466E-02-1.03813E-04 1.60000E-02-4.54716E+06-1.15952E+06 1.24409E-02
 -1      2084-1.56466E-02-1.03813E-04 1.60000E-02-4.54716E+06-1.15952E+06 1.24409E-02
 -1      2085-9.62048E-03-3.44302E-04 1.08043E-02-3.73024E+06 2.55076E+06 1.15879E-02
 -1      2087-9.62048E-03-3.44302E-04 1.08043E-02-3.73024E+06 2.55076E+06 1.15879E-02
 -1      2088-5.24135E-03 2.16597E-04 3.47645E-03-2.66761E+06 5.26773E+06 1.13530E-02
 -1      2090-5.24135E-03 2.16597E-04 3.47645E-03-2.66761E+06 5.26773E+06 1.13530E-02
 -1      2091-5.01841E-03 4.75872E-04-3.49838E-03-1.44805E+06 6.88532E+06 1.31090E-02
 -1      2093-5.01841E-03 4.75872E-04-3.49838E-03-1.44805E+06 6.88532E+06 1.31090E-02
 -1      2094-6.05051E-03 8.76271E-05-6.24733E-03-1.67074E+05 7.23300E+06 1.57768E-02
 -1      2096-6.05051E-03 8.76271E-05-6.24733E-03-1.67074E+05 7.23300E+06 1.57768E-02
 -1      2097-7.41369E-03-2.28255E-04 4.70088E-05 1.11316E+06 6.37694E+06 1.74247E-02
 -1      2099-7.41369E-03-2.28255E-04 4.70088E-05 1.11316E+06 6.37694E+06 1.74247E-02
 -1      2100-9.36759E-03-3.52894E-04 1.08336E-02 2.20644E+06 4.32256E+06 1.56098E-02
 -1      2102-9.36759E-03-3.52894E-04 1.08336E-02 2.20644E+06 4.32256E+06 1.56098E-02
 -1      2103-9.31872E-03-2.71288E-04 1.47094E-02 3.21627E+06 1.34000E+06 8.37163E-03
 -1      2105-9.31872E-03-2.71288E-04 1.47094E-02 3.21627E+06 1.34000E+06 8.37163E-03
 -1      2106-5.92898E-03-2.30890E-04 1.02011E-02 3.66837E+06-2.40102E+06 3.57631E-03
 -1      2108-5.92898E-03-2.30890E-04 1.02011E-02 3.66837E+06-2.40102E+06 3.57631E-03
 -1      2109-1.97091E-03 4.40999E-04 8.24956E-03 4.24378E+06-6.45451E+06 5.85639E-03
 -1      2111-1.97091E-03 4.40999E-04 8.24956E-03 4.24378E+06-6.45451E+06 5.85639E-03
 -1      2112 3.43483E-04 8.00019E-05 1.22800E-02 3.53553E+06-1.05033E+07 6.30395E-03
 -1      2114 3.43483E-04 8.00019E-05 1.22800E-02 3.53553E+06-1.05033E+07 6.30395E-03
 -1      2115 7.59168E-04-3.27456E-04 1.37702E-02 3.90030E+06-1.40534E+07 2.92469E-03
 -1      2117 7.59168E-04-3.27456E-04 1.37702E-02 3.90030E+06-1.40534E+07 2.92469E-03
 -1      2118-1.15004E-04-1.82188E-04 7.27927E-03 1.19240E+06-1.65897E+07-1.32308E-03
 -1      2120-1.15004E-04-1.82188E-04 7.27927E-03 1.19240E+06-1.65897E+07-1.32308E-03
 -1      2121 6.07145E+09 1.79175E+08-6.35191E+04 1.31616E+09-4.23762E+06-1.00036E+07
 -1      2123 6.07145E+09 1.79175E+08-6.35191E+04 1.31616E+09-4.23762E+06-1.00036E+07
 -1      2124 3.90895E+09-7.99309E+07 7.84243E+04 1.30783E+09-7.04298E+05 3.62229E+06
 -1      2126 3.90895E+09-7.99309E+07 7.84243E+04 1.30783E+09-7.04298E+05 3.62229E+06
 -1      2127 1.76694E+09 4.80454E+07-4.00718E+04 1.22631E+09-2.83646E+06-2.81721E+06
 -1      2129 1.76694E+09 4.80454E+07-4.00718E+04 1.22631E+09-2.83646E+06-2.81721E+06
 -1      2130-1.83379E+08-8.79047E+05 1.58913E+05 1.12000E+09-3.49909E+06 2.59422E+05
 -1      2132-1.83379E+08-8.79047E+05 1.58913E+05 1.12000E+09-3.49909E+06 2.59422E+05
 -1      2133-1.93329E+09 2.55364E+07-6.82960E+04 9.61534E+08-4.27695E+06-1.01801E+06
 -1      2135-1.93329E+09 2.55364E+07-6.82960E+04 9.61534E+08-4.27695E+06-1.01801E+06
 -1      2136-3.37713E+09 2.10865E+07 9.76515E+04 7.66842E+08-5.15576E+06-2.51799E+05
 -1      2138-3.37713E+09 2.10865E+07 9.76515E+04 7.66842E+08-5.15576E+06-2.51799E+05
 -1      2139-4.47074E+09 2.72339E+07 1.89468E+04 5.37113E+08-5.34552E+06-3.34629E+05
 -1      2141-4.47074E+09 2.72339E+07 1.89468E+04 5.37113E+08-5.34552E+06-3.34629E+05
 -1      2142-5.15955E+09 2.76981E+07 1.78341E+03 2.87048E+08-5.55328E+06-1.41333E+04
 -1      2144-5.15955E+09 2.76981E+07 1.78341E+03 2.87048E+08-5.55328E+06-1.41333E+04
 -1      2145-5.42275E+09 2.84784E+07 9.20597E+04 2.80783E+07-5.02616E+06 1.69220E+05
 -1      2147-5.42275E+09 2.84784E+07 9.20597E+04 2.80783E+07-5.02616E+06 1.69220E+05
 -1      2148-5.25673E+09 2.68810E+07-5.52100E+04-2.23775E+08-4.33549E+06 4.01114E+05
 -1      2150-5.25673E+09 2.68810E+07-5.52100E+04-2.23775E+08-4.33549E+06 4.01114E+05
 -1      2151-4.68629E+09 2.43171E+07 1.21136E+05-4.54388E+08-3.02866E+06 6.03649E+05
 -1      2153-4.68629E+09 2.43171E+07 1.21136E+05-4.54388E+08-3.02866E+06 6.03649E+05
 -1      2154-3.75843E+09 2.00789E+07-7.47122E+04-6.49462E+08-1.52700E+06 7.68996E+05
 -1      2156-3.75843E+09 2.00789E+07-7.47122E+04-6.49462E+08-1.52700E+06 7.68996E+05
 -1      2157-2.54281E+09 1.50622E+07 1.19448E+05-7.97529E+08 3.82947E+05 8.97157E+05
 -1      2159-2.54281E+09 1.50622E+07 1.19448E+05-7.97529E+08 3.82947E+05 8.97157E+05
 -1      2160-1.12561E+09 9.10612E+06-7.36775E+04-8.89632E+08 2.37056E+06 9.61448E+05
 -1      2162-1.12561E+09 9.10612E+06-7.36775E+04-8.89632E+08 2.37056E+06 9.61448E+05
 -1      2163 3.94794E+08 3.00137E+06 1.03559E+05-9.20736E+08 4.49853E+06 9.72162E+05
 -1      2165 3.94794E+08 3.00137E+06 1.03559E+05-9.20736E+08 4.49853E+06 9.72162E+05
 -1      2166 1.91510E+09-3.15978E+06-6.41556E+04-8.89686E+08 6.49804E+06 9.14326E+05
 -1      2168 1.91510E+09-3.15978E+06-6.41556E+04-8.89686E+08 6.49804E+06 9.14326E+05
 -1      2169 3.33349E+09-8.68679E+06 8.44527E+04-7.99632E+08 8.35845E+06 8.01024E+05
 -1      2171 3.33349E+09-8.68679E+06 8.44527E+04-7.99632E+08 8.35845E+06 8.01024E+05
 -1      2172 4.55687E+09-1.34241E+07-5.17637E+04-6.57702E+08 9.87061E+06 6.31371E+05
 -1      2174 4.55687E+09-1.34241E+07-5.17637E+04-6.57702E+08 9.87061E+06 6.31371E+05
 -1      2175 5.50714E+09-1.68288E+07 6.81939E+04-4.74703E+08 1.10134E+07 4.21745E+05
 -1      2177 5.50714E+09-1.68288E+07 6.81939E+04-4.74703E+08 1.10134E+07 4.21745E+05
 -1      2178 6.12685E+09-1.88409E+07-3.79960E+04-2.64401E+08 1.16461E+07 1.81848E+05
 -1      2180 6.12685E+09-1.88409E+07-3.79960E+04-2.64401E+08 1.16461E+07 1.81848E+05
 -1      2181 6.38343E+09-1.90894E+07 5.74743E+04-4.27125E+07 1.17832E+07-6.87438E+04
 -1      2183 6.38343E+09-1.90894E+07 5.74743E+04-4.27125E+07 1.17832E+07-6.87438E+04
 -1      2184 6.27206E+09-1.77398E+07-2.17760E+04 1.73238E+08 1.13584E+07-3.15912E+05
 -1      2186 6.27206E+09-1.77398E+07-2.17760E+04 1.73238E+08 1.13584E+07-3.15912E+05
 -1      2187 5.81671E+09-1.45722E+07 5.20534E+04 3.66249E+08 1.04489E+07-5.35594E+05
 -1      2189 5.81671E+09-1.45722E+07 5.20534E+04 3.66249E+08 1.04489E+07-5.35594E+05
 -1      2190 5.06964E+09-9.97101E+06 5.12467E+02 5.19747E+08 9.05930E+06-7.21595E+05
 -1      2192 5.06964E+09-9.97101E+06 5.12467E+02 5.19747E+08 9.05930E+06-7.21595E+05
 -1      2193 4.10921E+09-4.08477E+06 4.89222E+04 6.19298E+08 7.33642E+06-8.30350E+05
 -1      2195 4.10921E+09-4.08477E+06 4.89222E+04 6.19298E+08 7.33642E+06-8.30350E+05
 -1      2196 3.03645E+09 3.31382E+06 3.31176E+04 6.52096E+08 5.34470E+06-9.04112E+05
 -1      2198 3.03645E+09 3.31382E+06 3.31176E+04 6.52096E+08 5.34470E+06-9.04112E+05
 -1      2199 1.97003E+09 1.00822E+07 5.19472E+04 6.09737E+08 3.29368E+06-7.97561E+05
 -1      2201 1.97003E+09 1.00822E+07 5.19472E+04 6.09737E+08 3.29368E+06-7.97561E+05
 -1      2202 1.04389E+09 1.96653E+07 5.47613E+04 4.84256E+08 1.32825E+06-7.79425E+05
 -1      2204 1.04389E+09 1.96653E+07 5.47613E+04 4.84256E+08 1.32825E+06-7.79425E+05
 -1      2205 3.91520E+08 2.79005E+07 1.35232E+05 2.75227E+08-2.47774E+05-2.09610E+05
 -1      2207 3.91520E+08 2.79005E+07 1.35232E+05 2.75227E+08-2.47774E+05-2.09610E+05
 -1      2208-6.07145E+09-1.79175E+08 6.35191E+04 1.31616E+09-4.23762E+06 1.00036E+07
 -1      2210-6.07145E+09-1.79175E+08 6.35191E+04 1.31616E+09-4.23762E+06 1.00036E+07
 -1      2211-3.90895E+09 7.99309E+07-7.84243E+04 1.30783E+09-7.04298E+05-3.62229E+06
 -1      2213-3.90895E+09 7.99309E+07-7.84243E+04 1.30783E+09-7.04298E+05-3.62229E+06
 -1      2214-1.76694E+09-4.80454E+07 4.00718E+04 1.22631E+09-2.83646E+06 2.81721E+06
 -1      2216-1.76694E+09-4.80454E+07 4.00718E+04 1.22631E+09-2.83646E+06 2.81721E+06
 -1      2217 1.83379E+08 8.79047E+05-1.58913E+05 1.12000E+09-3.49909E+06-2.59422E+05
 -1      2219 1.83379E+08 8.79047E+05-1.58913E+05 1.12000E+09-3.49909E+06-2.59422E+05
 -1      2220 1.93329E+09-2.55364E+07 6.82960E+04 9.61534E+08-4.27695E+06 1.01801E+06
 -1      2222 1.93329E+09-2.55364E+07 6.82960E+04 9.61534E+08-4.27695E+06 1.01801E+06
 -1      2223 3.37713E+09-2.10865E+07-9.76515E+04 7.66842E+08-5.15576E+06 2.51799E+05
 -1      2225 3.37713E+09-2.10865E+07-9.76515E+04 7.66842E+08-5.15576E+06 2.51799E+05
 -1      2226 4.47074E+09-2.72339E+07-1.89468E+04 5.37113E+08-5.34552E+06 3.34629E+05
 -1      2228 4.47074E+09-2.72339E+07-1.89468E+04 5.37113E+08-5.34552E+06 3.34629E+05
 -1      2229 5.15955E+09-2.76981E+07-1.78341E+03 2.87048E+08-5.55328E+06 1.41333E+04
 -1      2231 5.15955E+09-2.76981E+07-1.78341E+03 2.87048E+08-5.55328E+06 1.41333E+04
 -1      2232 5.42275E+09-2.84784E+07-9.20597E+04 2.80783E+07-5.02616E+06-1.69220E+05
 -1      2234 5.42275E+09-2.84784E+07-9.20597E+04 2.80783E+07-5.02616E+06-1.69220E+05
 -1      2235 5.25673E+09-2.68810E+07 5.52100E+04-2.23775E+08-4.33549E+06-4.01114E+05
 -1      2237 5.25673E+09-2.68810E+07 5.52100E+04-2.23775E+08-4.33549E+06-4.01114E+05
 -1      2238 4.68629E+09-2.43171E+07-1.21136E+05-4.54388E+08-3.02866E+06-6.03649E+05
 -1      2240 4.68629E+09-2.43171E+07-1.21136E+05-4.54388E+08-3.02866E+06-6.03649E+05
 -1      2241 3.75843E+09-2.00789E+07 7.47122E+04-6.49462E+08-1.52700E+06-7.68996E+05
 -1      2243 3.75843E+09-2.00789E+07 7.47122E+04-6.49462E+08-1.52700E+06-7.68996E+05
 -1      2244 2.54281E+09-1.50622E+07-1.19448E+05-7.97529E+08 3.82947E+05-8.97157E+05
 -1      2246 2.54281E+09-1.50622E+07-1.19448E+05-7.97529E+08 3.82947E+05-8.97157E+05
 -1      2247 1.12561E+09-9.10612E+06 7.36775E+04-8.89632E+08 2.37056E+06-9.61448E+05
 -1      2249 1.12561E+09-9.10612E+06 7.36775E+04-8.89632E+08 2.37056E+06-9.61448E+05
 -1      2250-3.94794E+08-3.00137E+06-1.03559E+05-9.20736E+08 4.49853E+06-9.72162E+05
 -1      2252-3.94794E+08-3.00137E+06-1.03559E+05-9.20736E+08 4.49853E+06-9.72162E+05
 -1      2253-1.91510E+09 3.15978E+06 6.41556E+04-8.89686E+08 6.49804E+06-9.14326E+05
 -1      2255-1.91510E+09 3.15978E+06 6.41556E+04-8.89686E+08 6.49804E+06-9.14326E+05
 -1      2256-3.33349E+09 8.68679E+06-8.44527E+04-7.99632E+08 8.35845E+06-8.01024E+05
 -1      2258-3.33349E+09 8.68679E+06-8.44527E+04-7.99632E+08 8.35845E+06-8.01024E+05
 -1      2259-4.55687E+09 1.34241E+07 5.17637E+04-6.57702E+08 9.87061E+06-6.31371E+05
 -1      2261-4.55687E+09 1.34241E+07 5.17637E+04-6.57702E+08 9.87061E+06-6.31371E+05
 -1      2262-5.50714E+09 1.68288E+07-6.81939E+04-4.74703E+08 1.10134E+07-4.21745E+05
 -1      2264-5.50714E+09 1.68288E+07-6.81939E+04-4.74703E+08 1.10134E+07-4.21745E+05
 -1      2265-6.12685E+09 1.88409E+07 3.79960E+04-2.64401E+08 1.16461E+07-1.81848E+05
 -1      2267-6.12685E+09 1.88409E+07 3.79960E+04-2.64401E+08 1.16461E+07-1.81848E+05
 -1      2268-6.38343E+09 1.90894E+07-5.74743E+04-4.27125E+07 1.17832E+07 6.87438E+04
 -1      2270-6.38343E+09 1.90894E+07-5.74743E+04-4.27125E+07 1.17832E+07 6.87438E+04
 -1      2271-6.27206E+09 1.77398E+07 2.17760E+04 1.73238E+08 1.13584E+07 3.15912E+05
 -1      2273-6.27206E+09 1.77398E+07 2.17760E+04 1.73238E+08 1.13584E+07 3.15912E+05
 -1      2274-5.81671E+09 1.45722E+07-5.20534E+04 3.66249E+08 1.04489E+07 5.35594E+05
 -1      2276-5.81671E+09 1.45722E+07-5.20534E+04 3.66249E+08 1.04489E+07 5.35594E+05
 -1      2277-5.06964E+09 9.97101E+06-5.12465E+02 5.19747E+08 9.05930E+06 7.21595E+05
 -1      2279-5.06964E+09 9.97101E+06-5.12465E+02 5.19747E+08 9.05930E+06 7.21595E+05
 -1      2280-4.10921E+09 4.08477E+06-4.89222E+04 6.19298E+08 7.33642E+06 8.30350E+05
 -1      2282-4.10921E+09 4.08477E+06-4.89222E+04 6.19298E+08 7.33642E+06 8.30350E+05
 -1      2283-3.03645E+09-3.31382E+06-3.31176E+04 6.52096E+08 5.34470E+06 9.04112E+05
 -1      2285-3.03645E+09-3.31382E+06-3.31176E+04 6.52096E+08 5.34470E+06 9.04112E+05
 -1      2286-1.97003E+09-1.00822E+07-5.19472E+04 6.09737E+08 3.29368E+06 7.97561E+05
 -1      2288-1.97003E+09-1.00822E+07-5.19472E+04 6.09737E+08 3.29368E+06 7.97561E+05
 -1      2289-1.04389E+09-1.96653E+07-5.47613E+04 4.84256E+08 1.32825E+06 7.79425E+05
 -1      2291-1.04389E+09-1.96653E+07-5.47613E+04 4.84256E+08 1.32825E+06 7.79425E+05
 -1      2292-3.91520E+08-2.79005E+07-1.35232E+05 2.75227E+08-2.47774E+05 2.09610E+05
 -1      2294-3.91520E+08-2.79005E+07-1.35232E+05 2.75227E+08-2.47774E+05 2.09610E+05
 -3
    1PSTEP                        19           1           1          
    1PGM                1.000000E+00                                  
    1PGK                1.832614E+06                                  
    1PHID                         -1                                  
    1PSUBC                         0                                  
    1PMODE                         5                                  
  100CL  105 215.4545135         930                     2    5MODAL      1
 -4  FORC        4    1
 -5  F1          1    2    1    0
 -5  F2          1    2    2    0
 -5  F3          1    2    3    0
 -5  ALL         1    2    0    0    1ALL
 -1       404 2.33973E+06-5.47794E+05 5.85695E+04
 -1       406 2.15097E+06-5.72752E+05 5.85695E+04
 -1       407-2.58465E+03 1.26318E+04-1.40972E+03
 -1       409-2.58465E+03 1.26318E+04-1.40972E+03
 -1       410-1.33801E-06 9.41063E+04 2.89994E-06
 -1       412-1.46781E-06 1.21818E+05-3.98954E-06
 -1       413-1.42943E-06-6.35842E+04-2.17501E+04
 -1       415-1.26435E-06-6.35842E+04 2.17501E+04
 -1       424 1.81837E-05-1.74853E+05-6.11860E-07
 -1       426 2.66695E-06-1.69925E+05-2.81729E-07
 -1       427-2.60782E+05 3.76488E+05-4.80613E+04
 -1       429 2.60782E+05 3.76488E+05 4.80613E+04
 -1       438 2.58465E+03 1.26318E+04 1.40972E+03
 -1       440 2.58465E+03 1.26318E+04 1.40972E+03
 -1       441-2.33973E+06-5.47794E+05-5.85695E+04
 -1       443-2.15097E+06-5.72752E+05-5.85695E+04
 -1       444-2.60782E+05 3.76488E+05 4.80613E+04
 -1       446 2.60782E+05 3.76488E+05-4.80613E+04
 -1       447-1.38423E-05-1.74853E+05-5.07839E-07
 -1       449-4.60541E-06-1.69925E+05-6.52369E-08
 -1       458-5.90369E-07-6.35842E+04 2.17501E+04
 -1       460-9.53000E-07-6.35842E+04-2.17501E+04
 -1       461 2.67150E-06 9.41063E+04 2.50697E-06
 -1       463 2.68741E-06 1.21818E+05 2.96127E-06
 -1       472-2.33973E+06-5.47794E+05 5.85695E+04
 -1       474-2.15097E+06-5.72752E+05 5.85695E+04
 -1       475 2.58465E+03 1.26318E+04-1.40972E+03
 -1       477 2.58465E+03 1.26318E+04-1.40972E+03
 -1       478-2.58465E+03 1.26318E+04 1.40972E+03
 -1       480-2.58465E+03 1.26318E+04 1.40972E+03
 -1       481 2.33973E+06-5.47794E+05-5.85695E+04
 -1       483 2.15097E+06-5.72752E+05-5.85695E+04
 -1       484-1.02076E+03 1.58796E+03-3.45758E+02
 -1       486-1.02076E+03 1.58796E+03-3.45758E+02
 -1       487-1.79745E+03 4.06098E+03-7.32585E+02
 -1       489-1.79745E+03 4.06098E+03-7.32585E+02
 -1       490-2.23965E+03 7.41402E+03-1.11185E+03
 -1       492-2.23965E+03 7.41402E+03-1.11185E+03
 -1       493-2.36146E+03 1.11618E+04-1.46373E+03
 -1       495-2.36146E+03 1.11618E+04-1.46373E+03
 -1       496-2.19389E+03 1.48359E+04-1.78701E+03
 -1       498-2.19389E+03 1.48359E+04-1.78701E+03
 -1       499-1.77657E+03 1.80264E+04-2.07120E+03
 -1       501-1.77657E+03 1.80264E+04-2.07120E+03
 -1       502-1.16071E+03 2.03901E+04-2.31162E+03
 -1       504-1.16071E+03 2.03901E+04-2.31162E+03
 -1       505-4.05463E+02 2.16691E+04-2.50307E+03
 -1       507-4.05463E+02 2.16691E+04-2.50307E+03
 -1       508 4.24203E+02 2.17007E+04-2.64359E+03
 -1       510 4.24203E+02 2.17007E+04-2.64359E+03
 -1       511 1.26136E+03 2.04240E+04-2.73311E+03
 -1       513 1.26136E+03 2.04240E+04-2.73311E+03
 -1       514 2.04073E+03 1.78803E+04-2.77427E+03
 -1       516 2.04073E+03 1.78803E+04-2.77427E+03
 -1       517 2.70268E+03 1.42076E+04-2.77201E+03
 -1       519 2.70268E+03 1.42076E+04-2.77201E+03
 -1       520 3.19668E+03 9.62923E+03-2.73340E+03
 -1       522 3.19668E+03 9.62923E+03-2.73340E+03
 -1       523 3.48443E+03 4.43714E+03-2.66718E+03
 -1       525 3.48443E+03 4.43714E+03-2.66718E+03
 -1       526 3.54205E+03-1.02854E+03-2.58320E+03
 -1       528 3.54205E+03-1.02854E+03-2.58320E+03
 -1       529 3.36149E+03-6.40318E+03-2.49182E+03
 -1       531 3.36149E+03-6.40318E+03-2.49182E+03
 -1       532 2.95076E+03-1.13224E+04-2.40317E+03
 -1       534 2.95076E+03-1.13224E+04-2.40317E+03
 -1       535 2.33313E+03-1.54464E+04-2.32652E+03
 -1       537 2.33313E+03-1.54464E+04-2.32652E+03
 -1       538 1.54529E+03-1.84825E+04-2.26961E+03
 -1       540 1.54529E+03-1.84825E+04-2.26961E+03
 -1       541 6.34533E+02-2.02038E+04-2.23816E+03
 -1       543 6.34533E+02-2.02038E+04-2.23816E+03
 -1       544-3.44765E+02-2.04627E+04-2.23542E+03
 -1       546-3.44765E+02-2.04627E+04-2.23542E+03
 -1       547-1.33531E+03-1.91995E+04-2.26197E+03
 -1       549-1.33531E+03-1.91995E+04-2.26197E+03
 -1       550-2.28129E+03-1.64429E+04-2.31562E+03
 -1       552-2.28129E+03-1.64429E+04-2.31562E+03
 -1       553-3.13287E+03-1.23048E+04-2.39151E+03
 -1       555-3.13287E+03-1.23048E+04-2.39151E+03
 -1       556-3.85043E+03-6.96804E+03-2.48248E+03
 -1       558-3.85043E+03-6.96804E+03-2.48248E+03
 -1       559-4.40835E+03-6.67442E+02-2.57941E+03
 -1       561-4.40835E+03-6.67442E+02-2.57941E+03
 -1       562-4.79827E+03 6.33387E+03-2.67198E+03
 -1       564-4.79827E+03 6.33387E+03-2.67198E+03
 -1       565-5.03142E+03 1.37723E+04-2.74919E+03
 -1       567-5.03142E+03 1.37723E+04-2.74919E+03
 -1       568-5.14040E+03 2.14161E+04-2.80098E+03
 -1       570-5.14040E+03 2.14161E+04-2.80098E+03
 -1       571-3.44498E+03 2.52632E+04-1.88064E+03
 -1       573-3.44498E+03 2.52632E+04-1.88064E+03
 -1       574-1.55294E-05-1.44140E+05-1.71997E-06
 -1       576-1.55380E-05-6.99427E+04-1.73048E-06
 -1       577 1.43106E-05 1.12558E+05-5.82364E+04
 -1       579 1.43208E-05 1.12558E+05 5.82364E+04
 -1       588-1.41661E-05 5.78933E+04 6.81193E-06
 -1       590-1.41434E-05 1.29416E+05 5.34060E-06
 -1       591 1.58711E-05-7.92078E+04-5.61374E+04
 -1       593 1.58907E-05-7.92078E+04 5.61374E+04
 -1       602-1.27488E-05-1.77196E+04 1.18975E-06
 -1       604-1.26989E-05 8.92299E+04 2.14698E-07
 -1       605 1.54169E-05-9.30917E+03-8.39429E+04
 -1       607 1.54683E-05-9.30917E+03 8.39429E+04
 -1       616-1.47119E-05 3.56863E+04-2.41046E-06
 -1       618-1.46623E-05 1.86612E+05-2.64316E-06
 -1       619 1.39511E-05-7.14252E+04-1.18459E+05
 -1       621 1.40135E-05-7.14252E+04 1.18459E+05
 -1       630-1.54878E-05 2.60943E+04-5.24184E-06
 -1       632-1.54545E-05 2.09666E+05-4.77883E-06
 -1       633 1.32378E-05-6.51633E+04-1.44082E+05
 -1       635 1.32252E-05-6.51633E+04 1.44082E+05
 -1       644-1.39577E-05 5.02836E+04-7.49134E-07
 -1       646-1.39176E-05 2.65505E+05-1.62859E-06
 -1       647 1.35857E-05-9.39074E+04-1.68923E+05
 -1       649 1.33443E-05-9.39074E+04 1.68923E+05
 -1       658-9.28918E-06 5.41600E+04 5.22191E-06
 -1       660-9.22254E-06 2.85089E+05 3.04216E-06
 -1       661 1.29425E-05-9.72682E+04-1.81252E+05
 -1       663 1.27575E-05-9.72682E+04 1.81252E+05
 -1       672-5.66697E-06 6.81634E+04 4.06630E-06
 -1       674-5.55620E-06 3.02640E+05 3.50405E-06
 -1       675 1.12022E-05-1.08471E+05-1.84037E+05
 -1       677 1.11711E-05-1.08471E+05 1.84037E+05
 -1       686-5.96082E-06 7.32762E+04-7.84009E-07
 -1       688-5.85038E-06 2.93471E+05 4.89188E-07
 -1       689 9.58330E-06-1.06224E+05-1.72828E+05
 -1       691 9.45295E-06-1.06224E+05 1.72828E+05
 -1       700-8.03198E-06 8.08382E+04-1.07567E-06
 -1       702-8.07955E-06 2.70316E+05 8.08269E-07
 -1       703 8.44747E-06-1.02773E+05-1.48718E+05
 -1       705 8.69961E-06-1.02773E+05 1.48718E+05
 -1       714-7.28833E-06 8.36579E+04 3.55890E-06
 -1       716-7.46225E-06 2.25744E+05 1.66858E-06
 -1       717 7.49159E-06-9.06619E+04-1.11521E+05
 -1       719 7.36559E-06-9.06619E+04 1.11521E+05
 -1       728-5.04635E-06 8.63529E+04 6.82264E-06
 -1       730-5.17407E-06 1.66770E+05 4.36088E-06
 -1       731 5.07343E-06-7.52236E+04-6.31179E+04
 -1       733 5.02909E-06-7.52236E+04 6.31179E+04
 -1       742-2.87514E-06 8.63043E+04 6.69914E-06
 -1       744-2.93050E-06 9.37724E+04 4.97083E-06
 -1       745 1.01998E-06-5.45610E+04-5.86159E+03
 -1       747 1.10618E-06-5.45610E+04 5.86159E+03
 -1       756 4.46002E-07 8.56262E+04 3.77871E-06
 -1       758 3.45587E-07 1.29113E+04 3.74847E-06
 -1       759-2.00094E-06-3.17943E+04 5.70727E+04
 -1       761-1.77723E-06-3.17943E+04-5.70727E+04
 -1       770 4.12142E-06 8.35310E+04 8.06873E-06
 -1       772 3.83446E-06-7.18502E+04 4.47213E-06
 -1       773-4.09787E-06-7.32815E+03 1.21956E+05
 -1       775-3.90297E-06-7.32815E+03-1.21956E+05
 -1       784 4.79558E-06 8.11637E+04 6.43422E-06
 -1       786 4.46151E-06-1.54434E+05 6.25347E-06
 -1       787-6.97706E-06 1.64942E+04 1.84917E+05
 -1       789-6.88541E-06 1.64942E+04-1.84917E+05
 -1       798 5.99023E-06 7.84529E+04 2.61100E-06
 -1       800 5.81594E-06-2.29840E+05 5.55983E-06
 -1       801-7.60311E-06 3.84757E+04 2.41974E+05
 -1       803-7.92210E-06 3.84757E+04-2.41974E+05
 -1       812 8.78455E-06 7.61079E+04-2.92629E-07
 -1       814 8.50355E-06-2.92828E+05 5.34174E-06
 -1       815-4.77897E-06 5.68220E+04 2.89571E+05
 -1       817-4.62197E-06 5.68220E+04-2.89571E+05
 -1       826 9.69086E-06 7.42854E+04-3.73775E-06
 -1       828 9.70731E-06-3.39224E+05 2.38538E-06
 -1       829-3.17807E-06 7.03859E+04 3.24557E+05
 -1       831-3.20238E-06 7.03859E+04-3.24557E+05
 -1       840 8.20867E-06 7.34611E+04 3.79351E-06
 -1       842 8.29684E-06-3.65694E+05 2.98869E-06
 -1       843-3.56061E-06 7.80503E+04 3.44686E+05
 -1       845-3.53126E-06 7.80503E+04-3.44686E+05
 -1       854 7.51654E-06 7.37568E+04-1.50068E-06
 -1       856 7.03054E-06-3.70223E+05 3.77177E-06
 -1       857-4.00444E-06 7.92570E+04 3.48473E+05
 -1       859-4.61101E-06 7.92570E+04-3.48473E+05
 -1       868 6.01225E-06 7.56514E+04-4.81247E-06
 -1       870 6.37655E-06-3.52040E+05-1.72942E-06
 -1       871-4.23600E-06 7.35866E+04 3.35688E+05
 -1       873-4.32332E-06 7.35866E+04-3.35688E+05
 -1       882 4.84444E-06 7.88906E+04 4.50534E-06
 -1       884 4.66271E-06-3.12141E+05 6.44170E-07
 -1       885-3.69467E-06 6.15612E+04 3.06914E+05
 -1       887-3.71778E-06 6.15612E+04-3.06914E+05
 -1       896 2.39144E-06 8.47164E+04-1.95354E-06
 -1       898 1.81491E-06-2.51879E+05 3.63842E-06
 -1       899-3.92927E-06 4.28418E+04 2.64188E+05
 -1       901-4.02494E-06 4.28418E+04-2.64188E+05
 -1       910 6.74928E-07 9.14142E+04-5.91941E-07
 -1       912 3.40097E-07-1.76275E+05-3.96723E-07
 -1       913-3.28329E-06 2.01553E+04 2.10105E+05
 -1       915-3.19652E-06 2.01553E+04-2.10105E+05
 -1       924 2.60940E-09 1.03503E+05 1.07017E-06
 -1       926 2.89683E-08-8.60132E+04 2.38350E-06
 -1       927-1.18911E-06-9.24170E+03 1.48748E+05
 -1       929-9.07805E-07-9.24170E+03-1.48748E+05
 -1       938 3.41431E-07 1.14268E+05 8.59510E-07
 -1       940 4.94955E-07 6.38665E+03 7.13167E-06
 -1       941-1.12030E-06-3.66569E+04 8.46746E+04
 -1       943-6.05277E-07-3.66569E+04-8.46746E+04
 -1       952 5.92483E-07 1.39183E+05 6.09139E-06
 -1       954 6.34675E-07 1.08892E+05 1.52804E-06
 -1       955-7.74117E-07-7.47404E+04 2.37756E+04
 -1       957-6.02470E-07-7.47404E+04-2.37756E+04
 -1       966-1.02471E-06 1.57451E+05 2.88664E-06
 -1       968-1.47064E-06 1.88166E+05 2.89103E-07
 -1       969-1.28567E-06-9.72501E+04-2.41071E+04
 -1       971-1.13260E-06-9.72501E+04 2.41071E+04
 -1       980 2.29145E+06-1.17433E+05 1.88398E+04
 -1       982 2.07961E+06-1.39927E+05 1.88398E+04
 -1       983 3.44498E+03 2.52632E+04 1.88064E+03
 -1       985 3.44498E+03 2.52632E+04 1.88064E+03
 -1       986 1.02076E+03 1.58796E+03 3.45758E+02
 -1       988 1.02076E+03 1.58796E+03 3.45758E+02
 -1       989 1.79745E+03 4.06098E+03 7.32585E+02
 -1       991 1.79745E+03 4.06098E+03 7.32585E+02
 -1       992 2.23965E+03 7.41402E+03 1.11185E+03
 -1       994 2.23965E+03 7.41402E+03 1.11185E+03
 -1       995 2.36146E+03 1.11618E+04 1.46373E+03
 -1       997 2.36146E+03 1.11618E+04 1.46373E+03
 -1       998 2.19389E+03 1.48359E+04 1.78701E+03
 -1      1000 2.19389E+03 1.48359E+04 1.78701E+03
 -1      1001 1.77657E+03 1.80264E+04 2.07120E+03
 -1      1003 1.77657E+03 1.80264E+04 2.07120E+03
 -1      1004 1.16071E+03 2.03901E+04 2.31162E+03
 -1      1006 1.16071E+03 2.03901E+04 2.31162E+03
 -1      1007 4.05464E+02 2.16691E+04 2.50307E+03
 -1      1009 4.05464E+02 2.16691E+04 2.50307E+03
 -1      1010-4.24203E+02 2.17007E+04 2.64359E+03
 -1      1012-4.24203E+02 2.17007E+04 2.64359E+03
 -1      1013-1.26136E+03 2.04240E+04 2.73311E+03
 -1      1015-1.26136E+03 2.04240E+04 2.73311E+03
 -1      1016-2.04073E+03 1.78803E+04 2.77427E+03
 -1      1018-2.04073E+03 1.78803E+04 2.77427E+03
 -1      1019-2.70268E+03 1.42076E+04 2.77201E+03
 -1      1021-2.70268E+03 1.42076E+04 2.77201E+03
 -1      1022-3.19668E+03 9.62923E+03 2.73340E+03
 -1      1024-3.19668E+03 9.62923E+03 2.73340E+03
 -1      1025-3.48443E+03 4.43714E+03 2.66718E+03
 -1      1027-3.48443E+03 4.43714E+03 2.66718E+03
 -1      1028-3.54205E+03-1.02854E+03 2.58320E+03
 -1      1030-3.54205E+03-1.02854E+03 2.58320E+03
 -1      1031-3.36149E+03-6.40318E+03 2.49182E+03
 -1      1033-3.36149E+03-6.40318E+03 2.49182E+03
 -1      1034-2.95076E+03-1.13224E+04 2.40317E+03
 -1      1036-2.95076E+03-1.13224E+04 2.40317E+03
 -1      1037-2.33313E+03-1.54464E+04 2.32652E+03
 -1      1039-2.33313E+03-1.54464E+04 2.32652E+03
 -1      1040-1.54529E+03-1.84825E+04 2.26961E+03
 -1      1042-1.54529E+03-1.84825E+04 2.26961E+03
 -1      1043-6.34533E+02-2.02038E+04 2.23816E+03
 -1      1045-6.34533E+02-2.02038E+04 2.23816E+03
 -1      1046 3.44765E+02-2.04627E+04 2.23542E+03
 -1      1048 3.44765E+02-2.04627E+04 2.23542E+03
 -1      1049 1.33531E+03-1.91995E+04 2.26197E+03
 -1      1051 1.33531E+03-1.91995E+04 2.26197E+03
 -1      1052 2.28129E+03-1.64429E+04 2.31562E+03
 -1      1054 2.28129E+03-1.64429E+04 2.31562E+03
 -1      1055 3.13287E+03-1.23048E+04 2.39151E+03
 -1      1057 3.13287E+03-1.23048E+04 2.39151E+03
 -1      1058 3.85043E+03-6.96804E+03 2.48248E+03
 -1      1060 3.85043E+03-6.96804E+03 2.48248E+03
 -1      1061 4.40835E+03-6.67442E+02 2.57941E+03
 -1      1063 4.40835E+03-6.67442E+02 2.57941E+03
 -1      1064 4.79827E+03 6.33387E+03 2.67198E+03
 -1      1066 4.79827E+03 6.33387E+03 2.67198E+03
 -1      1067 5.03142E+03 1.37723E+04 2.74919E+03
 -1      1069 5.03142E+03 1.37723E+04 2.74919E+03
 -1      1070 5.14040E+03 2.14161E+04 2.80098E+03
 -1      1072 5.14040E+03 2.14161E+04 2.80098E+03
 -1      1073-2.29145E+06-1.17433E+05-1.88398E+04
 -1      1075-2.07961E+06-1.39927E+05-1.88398E+04
 -1      1076-9.07528E+05-2.53963E+05-4.25876E+04
 -1      1078 9.07528E+05-2.53963E+05 4.25876E+04
 -1      1079-1.29349E+06-4.21902E+05 1.67516E-05
 -1      1081 1.29349E+06-4.21902E+05 1.67174E-05
 -1      1082-9.07528E+05-2.53963E+05 4.25876E+04
 -1      1084 9.07528E+05-2.53963E+05-4.25876E+04
 -1      1085-1.33158E-05 1.12558E+05 5.82364E+04
 -1      1087-1.33573E-05 1.12558E+05-5.82364E+04
 -1      1088 9.54495E-06-1.44140E+05-3.36624E-06
 -1      1090 9.51582E-06-6.99427E+04-3.03348E-06
 -1      1099-1.46469E-05-7.92078E+04 5.61374E+04
 -1      1101-1.46634E-05-7.92078E+04-5.61374E+04
 -1      1102 1.23850E-05 5.78933E+04 1.44120E-06
 -1      1104 1.22972E-05 1.29416E+05 9.08101E-07
 -1      1113-1.44243E-05-9.30917E+03 8.39429E+04
 -1      1115-1.42344E-05-9.30917E+03-8.39429E+04
 -1      1116 1.49841E-05-1.77196E+04-2.67490E-07
 -1      1118 1.49026E-05 8.92299E+04-5.25240E-07
 -1      1127-1.41159E-05-7.14252E+04 1.18459E+05
 -1      1129-1.41702E-05-7.14252E+04-1.18459E+05
 -1      1130 1.43935E-05 3.56863E+04 7.47016E-07
 -1      1132 1.44179E-05 1.86612E+05 1.09962E-06
 -1      1141-1.31674E-05-6.51633E+04 1.44082E+05
 -1      1143-1.34152E-05-6.51633E+04-1.44082E+05
 -1      1144 1.22472E-05 2.60943E+04 4.35151E-06
 -1      1146 1.23028E-05 2.09666E+05 3.28725E-06
 -1      1155-1.23258E-05-9.39074E+04 1.68923E+05
 -1      1157-1.22027E-05-9.39074E+04-1.68923E+05
 -1      1158 9.24570E-06 5.02836E+04 6.84362E-06
 -1      1160 9.21428E-06 2.65505E+05 5.01546E-06
 -1      1169-9.79114E-06-9.72682E+04 1.81252E+05
 -1      1171-9.86206E-06-9.72682E+04-1.81252E+05
 -1      1172 6.60682E-06 5.41600E+04 4.47522E-06
 -1      1174 6.66763E-06 2.85089E+05 2.42355E-06
 -1      1183-7.59862E-06-1.08471E+05 1.84037E+05
 -1      1185-7.37854E-06-1.08471E+05-1.84037E+05
 -1      1186 7.24596E-06 6.81634E+04 1.55419E-06
 -1      1188 7.29830E-06 3.02640E+05 2.12334E-06
 -1      1197-7.49597E-06-1.06224E+05 1.72828E+05
 -1      1199-7.15374E-06-1.06224E+05-1.72828E+05
 -1      1200 7.72515E-06 7.32762E+04 2.56928E-06
 -1      1202 7.62898E-06 2.93471E+05 2.30839E-06
 -1      1211-8.04593E-06-1.02773E+05 1.48718E+05
 -1      1213-8.34059E-06-1.02773E+05-1.48718E+05
 -1      1214 5.09401E-06 8.08382E+04 2.99814E-06
 -1      1216 5.10150E-06 2.70316E+05 3.40185E-06
 -1      1225-5.84979E-06-9.06619E+04 1.11521E+05
 -1      1227-5.89182E-06-9.06619E+04-1.11521E+05
 -1      1228 3.68502E-06 8.36579E+04 2.38563E-06
 -1      1230 3.59300E-06 2.25744E+05 2.15789E-06
 -1      1239-2.62265E-06-7.52236E+04 6.31179E+04
 -1      1241-2.22844E-06-7.52236E+04-6.31179E+04
 -1      1242 5.02322E-06 8.63529E+04-2.52686E-06
 -1      1244 5.03848E-06 1.66770E+05-1.95331E-06
 -1      1253-8.39604E-07-5.45610E+04 5.86159E+03
 -1      1255-1.01446E-06-5.45610E+04-5.86159E+03
 -1      1256 4.82092E-06 8.63043E+04-3.53536E-06
 -1      1258 4.79864E-06 9.37724E+04-6.94566E-06
 -1      1267-4.73708E-08-3.17943E+04-5.70727E+04
 -1      1269-1.31807E-07-3.17943E+04 5.70727E+04
 -1      1270 1.37343E-06 8.56262E+04-2.95596E-06
 -1      1272 1.38442E-06 1.29113E+04-3.20312E-06
 -1      1281 1.92518E-06-7.32815E+03-1.21956E+05
 -1      1283 2.01703E-06-7.32815E+03 1.21956E+05
 -1      1284-3.91778E-06 8.35310E+04-3.81765E-06
 -1      1286-3.82453E-06-7.18502E+04 1.10133E-06
 -1      1295 3.53360E-06 1.64942E+04-1.84917E+05
 -1      1297 3.46518E-06 1.64942E+04 1.84917E+05
 -1      1298-7.64348E-06 8.11637E+04-3.73315E-06
 -1      1300-7.25020E-06-1.54434E+05-2.51251E-06
 -1      1309 3.55936E-06 3.84757E+04-2.41974E+05
 -1      1311 3.47210E-06 3.84757E+04 2.41974E+05
 -1      1312-8.54109E-06 7.84529E+04-4.83465E-06
 -1      1314-8.57699E-06-2.29840E+05-2.44795E-06
 -1      1323 3.25349E-06 5.68220E+04-2.89571E+05
 -1      1325 3.14039E-06 5.68220E+04 2.89571E+05
 -1      1326-7.09136E-06 7.61079E+04-4.82626E-06
 -1      1328-7.04250E-06-2.92828E+05-2.25987E-06
 -1      1337 4.09282E-06 7.03859E+04-3.24557E+05
 -1      1339 4.03000E-06 7.03859E+04 3.24557E+05
 -1      1340-3.77076E-06 7.42854E+04-3.91160E-06
 -1      1342-4.02517E-06-3.39224E+05-2.89625E-06
 -1      1351 5.27527E-06 7.80503E+04-3.44686E+05
 -1      1353 5.39102E-06 7.80503E+04 3.44686E+05
 -1      1354-2.71163E-06 7.34611E+04-6.14490E-07
 -1      1356-2.80035E-06-3.65694E+05-4.10869E-07
 -1      1365 5.97957E-06 7.92570E+04-3.48473E+05
 -1      1367 5.66843E-06 7.92570E+04 3.48473E+05
 -1      1368-2.80957E-06 7.37568E+04 2.37185E-06
 -1      1370-2.74041E-06-3.70223E+05 1.68075E-06
 -1      1379 6.40727E-06 7.35866E+04-3.35688E+05
 -1      1381 6.36514E-06 7.35866E+04 3.35688E+05
 -1      1382-1.58414E-06 7.56514E+04 1.82469E-06
 -1      1384-1.26297E-06-3.52040E+05 1.69476E-06
 -1      1393 5.74116E-06 6.15612E+04-3.06914E+05
 -1      1395 5.68232E-06 6.15612E+04 3.06914E+05
 -1      1396-1.42750E-06 7.88906E+04-8.47012E-06
 -1      1398-1.00398E-06-3.12141E+05-2.78207E-07
 -1      1407 2.93112E-06 4.28418E+04-2.64188E+05
 -1      1409 3.11852E-06 4.28418E+04 2.64188E+05
 -1      1410-1.37479E-06 8.47164E+04-2.17754E-06
 -1      1412-1.99329E-06-2.51879E+05-1.28031E-05
 -1      1421 1.96523E-07 2.01553E+04-2.10105E+05
 -1      1423 1.83379E-07 2.01553E+04 2.10105E+05
 -1      1424-7.99012E-07 9.14142E+04-1.92379E-06
 -1      1426-1.08552E-06-1.76275E+05-2.00177E-06
 -1      1435 1.48455E-06-9.24170E+03-1.48748E+05
 -1      1437 1.32435E-06-9.24170E+03 1.48748E+05
 -1      1438-1.65082E-06 1.03503E+05 7.05203E-07
 -1      1440-2.11978E-06-8.60132E+04 8.53104E-07
 -1      1449 1.09826E-06-3.66569E+04-8.46746E+04
 -1      1451 1.25242E-06-3.66569E+04 8.46746E+04
 -1      1452-6.91495E-07 1.14268E+05-4.50250E-07
 -1      1454-5.62837E-07 6.38665E+03-4.62981E-06
 -1      1463 5.68180E-07-7.47404E+04-2.37756E+04
 -1      1465 5.24105E-07-7.47404E+04 2.37756E+04
 -1      1466 1.43177E-06 1.39183E+05-2.51737E-06
 -1      1468 1.29206E-06 1.08892E+05-6.62266E-06
 -1      1477-6.18616E-08-9.72501E+04 2.41071E+04
 -1      1479-4.64069E-07-9.72501E+04-2.41071E+04
 -1      1480 3.88305E-06 1.57451E+05-1.14731E-06
 -1      1482 3.74307E-06 1.88166E+05-6.60705E-06
 -1      1491-1.25760E-06 3.99425E+04-9.52014E-07
 -1      1493-9.90418E-07 3.99425E+04 1.49671E-06
 -1      1494-8.91612E-07 4.16553E+04-2.69075E-06
 -1      1496-8.52942E-07 4.16553E+04 1.72780E-06
 -1      1497 3.54984E-07 3.99425E+04-1.75799E-06
 -1      1499 6.34720E-07 3.99425E+04-6.72063E-07
 -1      1500 1.02076E+03 1.58796E+03-3.45758E+02
 -1      1502 1.02076E+03 1.58796E+03-3.45758E+02
 -1      1503 1.79745E+03 4.06098E+03-7.32585E+02
 -1      1505 1.79745E+03 4.06098E+03-7.32585E+02
 -1      1506 2.23965E+03 7.41402E+03-1.11185E+03
 -1      1508 2.23965E+03 7.41402E+03-1.11185E+03
 -1      1509 2.36146E+03 1.11618E+04-1.46373E+03
 -1      1511 2.36146E+03 1.11618E+04-1.46373E+03
 -1      1512 2.19389E+03 1.48359E+04-1.78701E+03
 -1      1514 2.19389E+03 1.48359E+04-1.78701E+03
 -1      1515 1.77657E+03 1.80264E+04-2.07120E+03
 -1      1517 1.77657E+03 1.80264E+04-2.07120E+03
 -1      1518 1.16071E+03 2.03901E+04-2.31162E+03
 -1      1520 1.16071E+03 2.03901E+04-2.31162E+03
 -1      1521 4.05464E+02 2.16691E+04-2.50307E+03
 -1      1523 4.05464E+02 2.16691E+04-2.50307E+03
 -1      1524-4.24203E+02 2.17007E+04-2.64359E+03
 -1      1526-4.24203E+02 2.17007E+04-2.64359E+03
 -1      1527-1.26136E+03 2.04240E+04-2.73311E+03
 -1      1529-1.26136E+03 2.04240E+04-2.73311E+03
 -1      1530-2.04073E+03 1.78803E+04-2.77427E+03
 -1      1532-2.04073E+03 1.78803E+04-2.77427E+03
 -1      1533-2.70268E+03 1.42076E+04-2.77201E+03
 -1      1535-2.70268E+03 1.42076E+04-2.77201E+03
 -1      1536-3.19668E+03 9.62923E+03-2.73340E+03
 -1      1538-3.19668E+03 9.62923E+03-2.73340E+03
 -1      1539-3.48443E+03 4.43714E+03-2.66718E+03
 -1      1541-3.48443E+03 4.43714E+03-2.66718E+03
 -1      1542-3.54205E+03-1.02854E+03-2.58320E+03
 -1      1544-3.54205E+03-1.02854E+03-2.58320E+03
 -1      1545-3.36149E+03-6.40318E+03-2.49182E+03
 -1      1547-3.36149E+03-6.40318E+03-2.49182E+03
 -1      1548-2.95076E+03-1.13224E+04-2.40317E+03
 -1      1550-2.95076E+03-1.13224E+04-2.40317E+03
 -1      1551-2.33313E+03-1.54464E+04-2.32652E+03
 -1      1553-2.33313E+03-1.54464E+04-2.32652E+03
 -1      1554-1.54529E+03-1.84825E+04-2.26961E+03
 -1      1556-1.54529E+03-1.84825E+04-2.26961E+03
 -1      1557-6.34533E+02-2.02038E+04-2.23816E+03
 -1      1559-6.34533E+02-2.02038E+04-2.23816E+03
 -1      1560 3.44765E+02-2.04627E+04-2.23542E+03
 -1      1562 3.44765E+02-2.04627E+04-2.23542E+03
 -1      1563 1.33531E+03-1.91995E+04-2.26197E+03
 -1      1565 1.33531E+03-1.91995E+04-2.26197E+03
 -1      1566 2.28129E+03-1.64429E+04-2.31562E+03
 -1      1568 2.28129E+03-1.64429E+04-2.31562E+03
 -1      1569 3.13287E+03-1.23048E+04-2.39151E+03
 -1      1571 3.13287E+03-1.23048E+04-2.39151E+03
 -1      1572 3.85043E+03-6.96804E+03-2.48248E+03
 -1      1574 3.85043E+03-6.96804E+03-2.48248E+03
 -1      1575 4.40835E+03-6.67442E+02-2.57941E+03
 -1      1577 4.40835E+03-6.67442E+02-2.57941E+03
 -1      1578 4.79827E+03 6.33387E+03-2.67198E+03
 -1      1580 4.79827E+03 6.33387E+03-2.67198E+03
 -1      1581 5.03142E+03 1.37723E+04-2.74919E+03
 -1      1583 5.03142E+03 1.37723E+04-2.74919E+03
 -1      1584 5.14040E+03 2.14161E+04-2.80098E+03
 -1      1586 5.14040E+03 2.14161E+04-2.80098E+03
 -1      1587 3.44498E+03 2.52632E+04-1.88064E+03
 -1      1589 3.44498E+03 2.52632E+04-1.88064E+03
 -1      1590-2.29145E+06-1.17433E+05 1.88398E+04
 -1      1592-2.07961E+06-1.39927E+05 1.88398E+04
 -1      1593-3.44498E+03 2.52632E+04 1.88064E+03
 -1      1595-3.44498E+03 2.52632E+04 1.88064E+03
 -1      1596-1.02076E+03 1.58796E+03 3.45758E+02
 -1      1598-1.02076E+03 1.58796E+03 3.45758E+02
 -1      1599-1.79745E+03 4.06098E+03 7.32585E+02
 -1      1601-1.79745E+03 4.06098E+03 7.32585E+02
 -1      1602-2.23965E+03 7.41402E+03 1.11185E+03
 -1      1604-2.23965E+03 7.41402E+03 1.11185E+03
 -1      1605-2.36146E+03 1.11618E+04 1.46373E+03
 -1      1607-2.36146E+03 1.11618E+04 1.46373E+03
 -1      1608-2.19389E+03 1.48359E+04 1.78701E+03
 -1      1610-2.19389E+03 1.48359E+04 1.78701E+03
 -1      1611-1.77657E+03 1.80264E+04 2.07120E+03
 -1      1613-1.77657E+03 1.80264E+04 2.07120E+03
 -1      1614-1.16071E+03 2.03901E+04 2.31162E+03
 -1      1616-1.16071E+03 2.03901E+04 2.31162E+03
 -1      1617-4.05463E+02 2.16691E+04 2.50307E+03
 -1      1619-4.05463E+02 2.16691E+04 2.50307E+03
 -1      1620 4.24203E+02 2.17007E+04 2.64359E+03
 -1      1622 4.24203E+02 2.17007E+04 2.64359E+03
 -1      1623 1.26136E+03 2.04240E+04 2.73311E+03
 -1      1625 1.26136E+03 2.04240E+04 2.73311E+03
 -1      1626 2.04073E+03 1.78803E+04 2.77427E+03
 -1      1628 2.04073E+03 1.78803E+04 2.77427E+03
 -1      1629 2.70268E+03 1.42076E+04 2.77201E+03
 -1      1631 2.70268E+03 1.42076E+04 2.77201E+03
 -1      1632 3.19668E+03 9.62923E+03 2.73340E+03
 -1      1634 3.19668E+03 9.62923E+03 2.73340E+03
 -1      1635 3.48443E+03 4.43714E+03 2.66718E+03
 -1      1637 3.48443E+03 4.43714E+03 2.66718E+03
 -1      1638 3.54205E+03-1.02854E+03 2.58320E+03
 -1      1640 3.54205E+03-1.02854E+03 2.58320E+03
 -1      1641 3.36149E+03-6.40318E+03 2.49182E+03
 -1      1643 3.36149E+03-6.40318E+03 2.49182E+03
 -1      1644 2.95076E+03-1.13224E+04 2.40317E+03
 -1      1646 2.95076E+03-1.13224E+04 2.40317E+03
 -1      1647 2.33313E+03-1.54464E+04 2.32652E+03
 -1      1649 2.33313E+03-1.54464E+04 2.32652E+03
 -1      1650 1.54529E+03-1.84825E+04 2.26961E+03
 -1      1652 1.54529E+03-1.84825E+04 2.26961E+03
 -1      1653 6.34533E+02-2.02038E+04 2.23816E+03
 -1      1655 6.34533E+02-2.02038E+04 2.23816E+03
 -1      1656-3.44765E+02-2.04627E+04 2.23542E+03
 -1      1658-3.44765E+02-2.04627E+04 2.23542E+03
 -1      1659-1.33531E+03-1.91995E+04 2.26197E+03
 -1      1661-1.33531E+03-1.91995E+04 2.26197E+03
 -1      1662-2.28129E+03-1.64429E+04 2.31562E+03
 -1      1664-2.28129E+03-1.64429E+04 2.31562E+03
 -1      1665-3.13287E+03-1.23048E+04 2.39151E+03
 -1      1667-3.13287E+03-1.23048E+04 2.39151E+03
 -1      1668-3.85043E+03-6.96804E+03 2.48248E+03
 -1      1670-3.85043E+03-6.96804E+03 2.48248E+03
 -1      1671-4.40835E+03-6.67442E+02 2.57941E+03
 -1      1673-4.40835E+03-6.67442E+02 2.57941E+03
 -1      1674-4.79827E+03 6.33387E+03 2.67198E+03
 -1      1676-4.79827E+03 6.33387E+03 2.67198E+03
 -1      1677-5.03142E+03 1.37723E+04 2.74919E+03
 -1      1679-5.03142E+03 1.37723E+04 2.74919E+03
 -1      1680-5.14040E+03 2.14161E+04 2.80098E+03
 -1      1682-5.14040E+03 2.14161E+04 2.80098E+03
 -1      1683 2.29145E+06-1.17433E+05-1.88398E+04
 -1      1685 2.07961E+06-1.39927E+05-1.88398E+04
 -1      1686-1.34332E+03 3.09904E+03-4.65284E+02
 -1      1688-1.34332E+03 3.09904E+03-4.65284E+02
 -1      1689-2.37860E+03 8.06331E+03-9.87667E+02
 -1      1691-2.37860E+03 8.06331E+03-9.87667E+02
 -1      1692-2.97012E+03 1.48055E+04-1.49972E+03
 -1      1694-2.97012E+03 1.48055E+04-1.49972E+03
 -1      1695-3.13340E+03 2.23262E+04-1.97443E+03
 -1      1697-3.13340E+03 2.23262E+04-1.97443E+03
 -1      1698-2.91241E+03 2.97001E+04-2.41035E+03
 -1      1700-2.91241E+03 2.97001E+04-2.41035E+03
 -1      1701-2.35845E+03 3.61012E+04-2.79288E+03
 -1      1703-2.35845E+03 3.61012E+04-2.79288E+03
 -1      1704-1.54043E+03 4.08443E+04-3.11554E+03
 -1      1706-1.54043E+03 4.08443E+04-3.11554E+03
 -1      1707-5.36763E+02 4.34120E+04-3.37103E+03
 -1      1709-5.36763E+02 4.34120E+04-3.37103E+03
 -1      1710 5.65995E+02 4.34789E+04-3.55657E+03
 -1      1712 5.65995E+02 4.34789E+04-3.55657E+03
 -1      1713 1.67883E+03 4.09231E+04-3.67201E+03
 -1      1715 1.67883E+03 4.09231E+04-3.67201E+03
 -1      1716 2.71492E+03 3.58276E+04-3.72099E+03
 -1      1718 2.71492E+03 3.58276E+04-3.72099E+03
 -1      1719 3.59491E+03 2.84690E+04-3.71031E+03
 -1      1721 3.59491E+03 2.84690E+04-3.71031E+03
 -1      1722 4.25160E+03 1.92949E+04-3.64983E+03
 -1      1724 4.25160E+03 1.92949E+04-3.64983E+03
 -1      1725 4.63403E+03 8.89052E+03-3.55166E+03
 -1      1727 4.63403E+03 8.89052E+03-3.55166E+03
 -1      1728 4.71044E+03-2.06249E+03-3.42954E+03
 -1      1730 4.71044E+03-2.06249E+03-3.42954E+03
 -1      1731 4.47011E+03-1.28334E+04-3.29788E+03
 -1      1733 4.47011E+03-1.28334E+04-3.29788E+03
 -1      1734 3.92367E+03-2.26920E+04-3.17079E+03
 -1      1736 3.92367E+03-2.26920E+04-3.17079E+03
 -1      1737 3.10206E+03-3.09575E+04-3.06118E+03
 -1      1739 3.10206E+03-3.09575E+04-3.06118E+03
 -1      1740 2.05404E+03-3.70432E+04-2.97987E+03
 -1      1742 2.05404E+03-3.70432E+04-2.97987E+03
 -1      1743 8.42503E+02-4.04945E+04-2.93481E+03
 -1      1745 8.42503E+02-4.04945E+04-2.93481E+03
 -1      1746-4.60272E+02-4.10160E+04-2.93055E+03
 -1      1748-4.60272E+02-4.10160E+04-2.93055E+03
 -1      1749-1.77812E+03-3.84879E+04-2.96787E+03
 -1      1751-1.77812E+03-3.84879E+04-2.96787E+03
 -1      1752-3.03686E+03-3.29682E+04-3.04370E+03
 -1      1754-3.03686E+03-3.29682E+04-3.04370E+03
 -1      1755-4.17026E+03-2.46814E+04-3.15124E+03
 -1      1757-4.17026E+03-2.46814E+04-3.15124E+03
 -1      1758-5.12568E+03-1.39940E+04-3.28038E+03
 -1      1760-5.12568E+03-1.39940E+04-3.28038E+03
 -1      1761-5.86915E+03-1.37738E+03-3.41826E+03
 -1      1763-5.86915E+03-1.37738E+03-3.41826E+03
 -1      1764-6.38962E+03 1.26405E+04-3.55025E+03
 -1      1766-6.38962E+03 1.26405E+04-3.55025E+03
 -1      1767-6.70226E+03 2.75309E+04-3.66061E+03
 -1      1769-6.70226E+03 2.75309E+04-3.66061E+03
 -1      1770-6.85011E+03 4.28281E+04-3.73480E+03
 -1      1772-6.85011E+03 4.28281E+04-3.73480E+03
 -1      1773 1.34332E+03 3.09904E+03 4.65284E+02
 -1      1775 1.34332E+03 3.09904E+03 4.65284E+02
 -1      1776 2.37860E+03 8.06331E+03 9.87667E+02
 -1      1778 2.37860E+03 8.06331E+03 9.87667E+02
 -1      1779 2.97012E+03 1.48055E+04 1.49972E+03
 -1      1781 2.97012E+03 1.48055E+04 1.49972E+03
 -1      1782 3.13340E+03 2.23262E+04 1.97443E+03
 -1      1784 3.13340E+03 2.23262E+04 1.97443E+03
 -1      1785 2.91241E+03 2.97001E+04 2.41035E+03
 -1      1787 2.91241E+03 2.97001E+04 2.41035E+03
 -1      1788 2.35845E+03 3.61012E+04 2.79288E+03
 -1      1790 2.35845E+03 3.61012E+04 2.79288E+03
 -1      1791 1.54043E+03 4.08443E+04 3.11554E+03
 -1      1793 1.54043E+03 4.08443E+04 3.11554E+03
 -1      1794 5.36763E+02 4.34120E+04 3.37103E+03
 -1      1796 5.36763E+02 4.34120E+04 3.37103E+03
 -1      1797-5.65995E+02 4.34789E+04 3.55657E+03
 -1      1799-5.65995E+02 4.34789E+04 3.55657E+03
 -1      1800-1.67883E+03 4.09231E+04 3.67201E+03
 -1      1802-1.67883E+03 4.09231E+04 3.67201E+03
 -1      1803-2.71492E+03 3.58276E+04 3.72099E+03
 -1      1805-2.71492E+03 3.58276E+04 3.72099E+03
 -1      1806-3.59491E+03 2.84690E+04 3.71031E+03
 -1      1808-3.59491E+03 2.84690E+04 3.71031E+03
 -1      1809-4.25160E+03 1.92949E+04 3.64983E+03
 -1      1811-4.25160E+03 1.92949E+04 3.64983E+03
 -1      1812-4.63403E+03 8.89052E+03 3.55166E+03
 -1      1814-4.63403E+03 8.89052E+03 3.55166E+03
 -1      1815-4.71044E+03-2.06249E+03 3.42954E+03
 -1      1817-4.71044E+03-2.06249E+03 3.42954E+03
 -1      1818-4.47011E+03-1.28334E+04 3.29788E+03
 -1      1820-4.47011E+03-1.28334E+04 3.29788E+03
 -1      1821-3.92367E+03-2.26920E+04 3.17079E+03
 -1      1823-3.92367E+03-2.26920E+04 3.17079E+03
 -1      1824-3.10206E+03-3.09575E+04 3.06118E+03
 -1      1826-3.10206E+03-3.09575E+04 3.06118E+03
 -1      1827-2.05404E+03-3.70432E+04 2.97987E+03
 -1      1829-2.05404E+03-3.70432E+04 2.97987E+03
 -1      1830-8.42503E+02-4.04945E+04 2.93481E+03
 -1      1832-8.42503E+02-4.04945E+04 2.93481E+03
 -1      1833 4.60272E+02-4.10160E+04 2.93055E+03
 -1      1835 4.60272E+02-4.10160E+04 2.93055E+03
 -1      1836 1.77812E+03-3.84879E+04 2.96787E+03
 -1      1838 1.77812E+03-3.84879E+04 2.96787E+03
 -1      1839 3.03686E+03-3.29682E+04 3.04370E+03
 -1      1841 3.03686E+03-3.29682E+04 3.04370E+03
 -1      1842 4.17026E+03-2.46814E+04 3.15124E+03
 -1      1844 4.17026E+03-2.46814E+04 3.15124E+03
 -1      1845 5.12568E+03-1.39940E+04 3.28038E+03
 -1      1847 5.12568E+03-1.39940E+04 3.28038E+03
 -1      1848 5.86915E+03-1.37738E+03 3.41826E+03
 -1      1850 5.86915E+03-1.37738E+03 3.41826E+03
 -1      1851 6.38962E+03 1.26405E+04 3.55025E+03
 -1      1853 6.38962E+03 1.26405E+04 3.55025E+03
 -1      1854 6.70226E+03 2.75309E+04 3.66061E+03
 -1      1856 6.70226E+03 2.75309E+04 3.66061E+03
 -1      1857 6.85011E+03 4.28281E+04 3.73480E+03
 -1      1859 6.85011E+03 4.28281E+04 3.73480E+03
 -1      1860 4.54876E-07 5.54148E+03-7.18803E-07
 -1      1862 4.84573E-07 5.54148E+03-7.35781E-07
 -1      1863 9.87486E-07 1.40359E+04-4.36376E-09
 -1      1865 1.11673E-06 1.40359E+04 1.68062E-07
 -1      1866 9.17961E-07 2.50659E+04 5.87006E-08
 -1      1868 1.04719E-06 2.50659E+04 2.04260E-07
 -1      1869-1.15851E-06 3.70779E+04 3.62785E-07
 -1      1871-1.05557E-06 3.70779E+04 2.27823E-07
 -1      1872-2.69681E-06 4.87606E+04 3.94873E-07
 -1      1874-2.60031E-06 4.87606E+04-3.51094E-07
 -1      1875-2.34807E-06 5.88814E+04-6.18793E-07
 -1      1877-2.36101E-06 5.88814E+04-1.16446E-06
 -1      1878-3.87977E-08 6.64390E+04-1.19747E-06
 -1      1880 3.03099E-07 6.64390E+04-1.40134E-06
 -1      1881 1.51748E-06 7.06687E+04-7.81089E-07
 -1      1883 1.44091E-06 7.06687E+04-1.27691E-06
 -1      1884 1.52655E-07 7.10943E+04 7.92031E-07
 -1      1886 1.31795E-07 7.10943E+04 1.57899E-06
 -1      1887-1.40639E-06 6.75409E+04 1.76815E-06
 -1      1889-1.45888E-06 6.75409E+04 2.10817E-06
 -1      1890-5.54781E-07 6.01399E+04-5.62312E-07
 -1      1892-9.11001E-07 6.01399E+04-8.03223E-07
 -1      1893-4.87437E-07 4.93112E+04-2.42478E-06
 -1      1895-4.47234E-07 4.93112E+04-1.88624E-06
 -1      1896-8.84172E-07 3.57306E+04-2.93699E-06
 -1      1898-5.40016E-07 3.57306E+04-3.74342E-06
 -1      1899 1.05674E-06 2.02791E+04-2.52269E-06
 -1      1901 7.91882E-07 2.02791E+04-3.37281E-06
 -1      1902 2.41046E-06 3.98184E+03-2.53939E-06
 -1      1904 2.72661E-06 3.98184E+03-8.52511E-07
 -1      1905 1.72119E-06-1.20634E+04-7.65102E-07
 -1      1907 2.09430E-06-1.20634E+04-8.27107E-07
 -1      1908 1.67126E-06-2.67604E+04-2.03000E-06
 -1      1910 7.36865E-07-2.67604E+04-1.57154E-06
 -1      1911 2.84715E-06-3.90882E+04 1.71868E-07
 -1      1913 2.38882E-06-3.90882E+04-1.74283E-06
 -1      1914 4.02509E-06-4.81684E+04 1.68421E-06
 -1      1916 4.14060E-06-4.81684E+04-6.10375E-07
 -1      1917 3.80354E-06-5.33219E+04 1.30240E-06
 -1      1919 3.36365E-06-5.33219E+04 3.68521E-06
 -1      1920 1.68876E-06-5.41107E+04-2.27084E-06
 -1      1922 1.51085E-06-5.41107E+04 6.89860E-06
 -1      1923-2.19042E-07-5.03624E+04 1.10985E-06
 -1      1925 2.58394E-07-5.03624E+04 5.50457E-07
 -1      1926-6.88591E-07-4.21739E+04 4.34330E-06
 -1      1928-8.54924E-07-4.21739E+04-1.00628E-06
 -1      1929-1.80856E-06-2.98960E+04 5.79599E-06
 -1      1931-1.58844E-06-2.98960E+04-2.21689E-06
 -1      1932-1.54778E-06-1.40963E+04-8.97362E-08
 -1      1934-1.18501E-06-1.40963E+04-1.95578E-06
 -1      1935-1.45128E-06 4.49450E+03 1.67340E-06
 -1      1937-1.03381E-06 4.49450E+03-4.40263E-07
 -1      1938-1.41693E-06 2.50541E+04-6.36711E-07
 -1      1940-9.48228E-07 2.50541E+04-2.59443E-06
 -1      1941 3.03102E-07 4.67494E+04-3.03202E-07
 -1      1943-7.45331E-07 4.67494E+04-8.21192E-07
 -1      1944 7.19278E-08 6.88318E+04-7.29314E-07
 -1      1946-5.54532E-07 6.88318E+04 1.96813E-06
 -1      1947 1.22288E-06 6.09344E+03 1.51178E-06
 -1      1949 1.20652E-06 6.09344E+03 1.42311E-06
 -1      1950 2.40510E-07 1.51869E+04 2.84930E-06
 -1      1952 2.81952E-07 1.51869E+04 2.72400E-06
 -1      1953 1.05599E-07 2.68057E+04 3.93367E-07
 -1      1955 2.81664E-07 2.68057E+04 5.24997E-07
 -1      1956-1.77138E-07 3.93659E+04-1.01002E-06
 -1      1958 9.87400E-08 3.93659E+04-1.25628E-06
 -1      1959-8.54897E-07 5.15447E+04 5.11360E-07
 -1      1961-9.80856E-07 5.15447E+04 3.56418E-07
 -1      1962-1.16394E-06 6.20886E+04 1.56279E-06
 -1      1964-9.83262E-07 6.20886E+04 6.88093E-07
 -1      1965-1.48681E-06 6.99820E+04 2.45551E-06
 -1      1967-1.42345E-06 6.99820E+04 1.49743E-06
 -1      1968-2.01295E-06 7.44475E+04 8.62448E-07
 -1      1970-1.75537E-06 7.44475E+04 9.00772E-07
 -1      1971-1.81410E-06 7.50026E+04-4.73709E-07
 -1      1973-1.30387E-06 7.50026E+04-1.08453E-06
 -1      1974-1.74947E-06 7.14713E+04 2.28355E-07
 -1      1976-2.29906E-06 7.14713E+04-1.05451E-08
 -1      1977-2.11998E-06 6.39908E+04 2.17578E-07
 -1      1979-2.08412E-06 6.39908E+04-1.60397E-06
 -1      1980-1.07143E-06 5.29925E+04-2.31767E-08
 -1      1982-9.73504E-07 5.29925E+04-6.37458E-07
 -1      1983 3.37447E-07 3.91690E+04-3.38601E-07
 -1      1985 3.55661E-07 3.91690E+04-2.04209E-06
 -1      1986 1.53594E-06 2.34228E+04-4.13950E-06
 -1      1988 1.34432E-06 2.34228E+04-4.20271E-06
 -1      1989 2.96891E-06 6.80340E+03-1.52821E-06
 -1      1991 3.09260E-06 6.80340E+03-2.45526E-06
 -1      1992 2.63592E-06-9.56583E+03 1.75014E-06
 -1      1994 2.86782E-06-9.56583E+03-5.79093E-08
 -1      1995 1.22843E-06-2.45634E+04-1.47475E-08
 -1      1997 1.26554E-06-2.45634E+04 7.24795E-07
 -1      1998-2.97701E-07-3.71451E+04 1.91821E-06
 -1      2000-8.35448E-07-3.71451E+04 1.46151E-06
 -1      2001 7.58074E-07-4.64131E+04 9.71866E-07
 -1      2003 3.43683E-07-4.64131E+04 1.96988E-07
 -1      2004 1.48213E-06-5.16740E+04-2.14872E-06
 -1      2006 1.20263E-06-5.16740E+04 1.81651E-06
 -1      2007 4.50977E-07-5.24819E+04 2.84900E-06
 -1      2009 4.86897E-07-5.24819E+04 1.90175E-06
 -1      2010-3.53042E-07-4.86631E+04 3.15402E-06
 -1      2012-7.43170E-07-4.86631E+04-1.85492E-06
 -1      2013-5.17927E-07-4.03208E+04-3.75568E-07
 -1      2015-5.72971E-07-4.03208E+04-2.03271E-06
 -1      2016-1.44040E-06-2.78192E+04 4.24992E-06
 -1      2018-1.15251E-06-2.78192E+04 5.74833E-07
 -1      2019-1.48796E-06-1.17458E+04 1.07676E-06
 -1      2021-1.97257E-06-1.17458E+04 1.19328E-07
 -1      2022-2.14836E-06 7.14269E+03 4.56222E-06
 -1      2024-1.91033E-06 7.14269E+03 3.50682E-06
 -1      2025-9.17079E-07 2.79936E+04 1.10132E-06
 -1      2027-1.03711E-06 2.79936E+04 5.26075E-06
 -1      2028 3.77151E-07 4.99391E+04 1.23496E-06
 -1      2030-3.67568E-07 4.99391E+04 4.09100E-06
 -1      2031-1.66092E-07 7.21945E+04-2.19517E-06
 -1      2033-1.39037E-06 7.21945E+04 6.03727E-06
 -1      2034-2.51370E-06 5.54148E+03 2.53359E-06
 -1      2036-2.60174E-06 5.54148E+03 2.47390E-06
 -1      2037-2.30577E-06 1.40359E+04 2.65407E-06
 -1      2039-2.36588E-06 1.40359E+04 2.50259E-06
 -1      2040 3.07261E-07 2.50659E+04-8.91499E-07
 -1      2042 5.84428E-07 2.50659E+04-7.80296E-07
 -1      2043 9.96421E-07 3.70779E+04-2.67836E-06
 -1      2045 1.11972E-06 3.70779E+04-2.38153E-06
 -1      2046 5.10834E-07 4.87606E+04-7.53854E-07
 -1      2048 3.72705E-07 4.87606E+04-7.44963E-07
 -1      2049-3.54594E-07 5.88814E+04 1.39224E-07
 -1      2051-8.28788E-08 5.88814E+04-3.84728E-07
 -1      2052-1.27104E-06 6.64390E+04 1.92425E-06
 -1      2054-1.27014E-06 6.64390E+04 7.69472E-07
 -1      2055-1.71145E-06 7.06687E+04 3.21700E-06
 -1      2057-1.43637E-06 7.06687E+04 2.61720E-06
 -1      2058-1.35348E-06 7.10943E+04 1.26413E-06
 -1      2060-6.01628E-07 7.10943E+04 1.11448E-06
 -1      2061-2.36958E-06 6.75409E+04-1.76361E-06
 -1      2063-3.11920E-06 6.75409E+04-1.52638E-07
 -1      2064-3.12371E-06 6.01399E+04-2.47542E-06
 -1      2066-3.45870E-06 6.01399E+04-9.38421E-07
 -1      2067-3.54503E-07 4.93112E+04 4.84835E-07
 -1      2069 2.82954E-07 4.93112E+04-4.79556E-07
 -1      2070 1.24022E-06 3.57306E+04 1.12156E-06
 -1      2072 1.35467E-06 3.57306E+04-2.43456E-06
 -1      2073 3.39222E-07 2.02791E+04-2.66792E-06
 -1      2075-3.42936E-08 2.02791E+04-3.56932E-06
 -1      2076-7.23838E-07 3.98184E+03-1.08675E-06
 -1      2078-1.31782E-06 3.98184E+03-1.79465E-06
 -1      2079-1.99995E-06-1.20634E+04 2.05727E-06
 -1      2081-1.71915E-06-1.20634E+04-2.87166E-07
 -1      2082-2.64652E-06-2.67604E+04 9.05856E-07
 -1      2084-2.26043E-06-2.67604E+04 9.38925E-07
 -1      2085-2.52293E-06-3.90882E+04 2.99856E-06
 -1      2087-2.85281E-06-3.90882E+04 3.30360E-06
 -1      2088-1.93400E-07-4.81684E+04-1.11605E-06
 -1      2090-5.68200E-07-4.81684E+04-1.77898E-07
 -1      2091 1.15406E-06-5.33219E+04-9.27673E-09
 -1      2093 1.17271E-06-5.33219E+04-2.24829E-06
 -1      2094 1.52592E-06-5.41107E+04-1.07715E-06
 -1      2096 1.34699E-06-5.41107E+04-2.12442E-06
 -1      2097 2.86509E-06-5.03624E+04 1.58842E-06
 -1      2099 2.52268E-06-5.03624E+04-1.22111E-07
 -1      2100 2.44166E-06-4.21739E+04-6.42815E-07
 -1      2102 2.25770E-06-4.21739E+04-2.26273E-06
 -1      2103 1.51517E-07-2.98960E+04 5.05740E-06
 -1      2105 1.28148E-07-2.98960E+04-8.91032E-08
 -1      2106-8.79910E-07-1.40963E+04 4.01174E-06
 -1      2108-1.23542E-06-1.40963E+04 1.05260E-06
 -1      2109-5.54249E-07 4.49450E+03 2.05919E-06
 -1      2111-7.54997E-07 4.49450E+03 1.04703E-06
 -1      2112 7.43071E-08 2.50541E+04-2.42634E-08
 -1      2114 1.57456E-07 2.50541E+04 4.19715E-06
 -1      2115 2.03219E-06 4.67494E+04 8.07473E-07
 -1      2117 1.39966E-06 4.67494E+04 4.35299E-06
 -1      2118 2.34752E-06 6.88318E+04-4.24720E-08
 -1      2120 1.57064E-06 6.88318E+04 3.09445E-06
 -1      2121 1.34332E+03 3.09904E+03-4.65284E+02
 -1      2123 1.34332E+03 3.09904E+03-4.65284E+02
 -1      2124 2.37860E+03 8.06331E+03-9.87667E+02
 -1      2126 2.37860E+03 8.06331E+03-9.87667E+02
 -1      2127 2.97012E+03 1.48055E+04-1.49972E+03
 -1      2129 2.97012E+03 1.48055E+04-1.49972E+03
 -1      2130 3.13340E+03 2.23262E+04-1.97443E+03
 -1      2132 3.13340E+03 2.23262E+04-1.97443E+03
 -1      2133 2.91241E+03 2.97001E+04-2.41035E+03
 -1      2135 2.91241E+03 2.97001E+04-2.41035E+03
 -1      2136 2.35845E+03 3.61012E+04-2.79288E+03
 -1      2138 2.35845E+03 3.61012E+04-2.79288E+03
 -1      2139 1.54043E+03 4.08443E+04-3.11554E+03
 -1      2141 1.54043E+03 4.08443E+04-3.11554E+03
 -1      2142 5.36763E+02 4.34120E+04-3.37103E+03
 -1      2144 5.36763E+02 4.34120E+04-3.37103E+03
 -1      2145-5.65995E+02 4.34789E+04-3.55657E+03
 -1      2147-5.65995E+02 4.34789E+04-3.55657E+03
 -1      2148-1.67883E+03 4.09231E+04-3.67201E+03
 -1      2150-1.67883E+03 4.09231E+04-3.67201E+03
 -1      2151-2.71492E+03 3.58276E+04-3.72099E+03
 -1      2153-2.71492E+03 3.58276E+04-3.72099E+03
 -1      2154-3.59491E+03 2.84690E+04-3.71031E+03
 -1      2156-3.59491E+03 2.84690E+04-3.71031E+03
 -1      2157-4.25160E+03 1.92949E+04-3.64983E+03
 -1      2159-4.25160E+03 1.92949E+04-3.64983E+03
 -1      2160-4.63403E+03 8.89052E+03-3.55166E+03
 -1      2162-4.63403E+03 8.89052E+03-3.55166E+03
 -1      2163-4.71044E+03-2.06249E+03-3.42954E+03
 -1      2165-4.71044E+03-2.06249E+03-3.42954E+03
 -1      2166-4.47011E+03-1.28334E+04-3.29788E+03
 -1      2168-4.47011E+03-1.28334E+04-3.29788E+03
 -1      2169-3.92367E+03-2.26920E+04-3.17079E+03
 -1      2171-3.92367E+03-2.26920E+04-3.17079E+03
 -1      2172-3.10206E+03-3.09575E+04-3.06118E+03
 -1      2174-3.10206E+03-3.09575E+04-3.06118E+03
 -1      2175-2.05404E+03-3.70432E+04-2.97987E+03
 -1      2177-2.05404E+03-3.70432E+04-2.97987E+03
 -1      2178-8.42503E+02-4.04945E+04-2.93481E+03
 -1      2180-8.42503E+02-4.04945E+04-2.93481E+03
 -1      2181 4.60272E+02-4.10160E+04-2.93055E+03
 -1      2183 4.60272E+02-4.10160E+04-2.93055E+03
 -1      2184 1.77812E+03-3.84879E+04-2.96787E+03
 -1      2186 1.77812E+03-3.84879E+04-2.96787E+03
 -1      2187 3.03686E+03-3.29682E+04-3.04370E+03
 -1      2189 3.03686E+03-3.29682E+04-3.04370E+03
 -1      2190 4.17026E+03-2.46814E+04-3.15124E+03
 -1      2192 4.17026E+03-2.46814E+04-3.15124E+03
 -1      2193 5.12568E+03-1.39940E+04-3.28038E+03
 -1      2195 5.12568E+03-1.39940E+04-3.28038E+03
 -1      2196 5.86915E+03-1.37738E+03-3.41826E+03
 -1      2198 5.86915E+03-1.37738E+03-3.41826E+03
 -1      2199 6.38962E+03 1.26405E+04-3.55025E+03
 -1      2201 6.38962E+03 1.26405E+04-3.55025E+03
 -1      2202 6.70226E+03 2.75309E+04-3.66061E+03
 -1      2204 6.70226E+03 2.75309E+04-3.66061E+03
 -1      2205 6.85011E+03 4.28281E+04-3.73480E+03
 -1      2207 6.85011E+03 4.28281E+04-3.73480E+03
 -1      2208-1.34332E+03 3.09904E+03 4.65284E+02
 -1      2210-1.34332E+03 3.09904E+03 4.65284E+02
 -1      2211-2.37860E+03 8.06331E+03 9.87667E+02
 -1      2213-2.37860E+03 8.06331E+03 9.87667E+02
 -1      2214-2.97012E+03 1.48055E+04 1.49972E+03
 -1      2216-2.97012E+03 1.48055E+04 1.49972E+03
 -1      2217-3.13340E+03 2.23262E+04 1.97443E+03
 -1      2219-3.13340E+03 2.23262E+04 1.97443E+03
 -1      2220-2.91241E+03 2.97001E+04 2.41035E+03
 -1      2222-2.91241E+03 2.97001E+04 2.41035E+03
 -1      2223-2.35845E+03 3.61012E+04 2.79288E+03
 -1      2225-2.35845E+03 3.61012E+04 2.79288E+03
 -1      2226-1.54043E+03 4.08443E+04 3.11554E+03
 -1      2228-1.54043E+03 4.08443E+04 3.11554E+03
 -1      2229-5.36763E+02 4.34120E+04 3.37103E+03
 -1      2231-5.36763E+02 4.34120E+04 3.37103E+03
 -1      2232 5.65995E+02 4.34789E+04 3.55657E+03
 -1      2234 5.65995E+02 4.34789E+04 3.55657E+03
 -1      2235 1.67883E+03 4.09231E+04 3.67201E+03
 -1      2237 1.67883E+03 4.09231E+04 3.67201E+03
 -1      2238 2.71492E+03 3.58276E+04 3.72099E+03
 -1      2240 2.71492E+03 3.58276E+04 3.72099E+03
 -1      2241 3.59491E+03 2.84690E+04 3.71031E+03
 -1      2243 3.59491E+03 2.84690E+04 3.71031E+03
 -1      2244 4.25160E+03 1.92949E+04 3.64983E+03
 -1      2246 4.25160E+03 1.92949E+04 3.64983E+03
 -1      2247 4.63403E+03 8.89052E+03 3.55166E+03
 -1      2249 4.63403E+03 8.89052E+03 3.55166E+03
 -1      2250 4.71044E+03-2.06249E+03 3.42954E+03
 -1      2252 4.71044E+03-2.06249E+03 3.42954E+03
 -1      2253 4.47011E+03-1.28334E+04 3.29788E+03
 -1      2255 4.47011E+03-1.28334E+04 3.29788E+03
 -1      2256 3.92367E+03-2.26920E+04 3.17079E+03
 -1      2258 3.92367E+03-2.26920E+04 3.17079E+03
 -1      2259 3.10206E+03-3.09575E+04 3.06118E+03
 -1      2261 3.10206E+03-3.09575E+04 3.06118E+03
 -1      2262 2.05404E+03-3.70432E+04 2.97987E+03
 -1      2264 2.05404E+03-3.70432E+04 2.97987E+03
 -1      2265 8.42503E+02-4.04945E+04 2.93481E+03
 -1      2267 8.42503E+02-4.04945E+04 2.93481E+03
 -1      2268-4.60272E+02-4.10160E+04 2.93055E+03
 -1      2270-4.60272E+02-4.10160E+04 2.93055E+03
 -1      2271-1.77812E+03-3.84879E+04 2.96787E+03
 -1      2273-1.77812E+03-3.84879E+04 2.96787E+03
 -1      2274-3.03686E+03-3.29682E+04 3.04370E+03
 -1      2276-3.03686E+03-3.29682E+04 3.04370E+03
 -1      2277-4.17026E+03-2.46814E+04 3.15124E+03
 -1      2279-4.17026E+03-2.46814E+04 3.15124E+03
 -1      2280-5.12568E+03-1.39940E+04 3.28038E+03
 -1      2282-5.12568E+03-1.39940E+04 3.28038E+03
 -1      2283-5.86915E+03-1.37738E+03 3.41826E+03
 -1      2285-5.86915E+03-1.37738E+03 3.41826E+03
 -1      2286-6.38962E+03 1.26405E+04 3.55025E+03
 -1      2288-6.38962E+03 1.26405E+04 3.55025E+03
 -1      2289-6.70226E+03 2.75309E+04 3.66061E+03
 -1      2291-6.70226E+03 2.75309E+04 3.66061E+03
 -1      2292-6.85011E+03 4.28281E+04 3.73480E+03
 -1      2294-6.85011E+03 4.28281E+04 3.73480E+03
 -3
    1PSTEP                        20           1           1          
    1PGM                1.000000E+00                                  
    1PGK                1.832614E+06                                  
    1PHID                         -1                                  
    1PSUBC                         0                                  
    1PMODE                         5                                  
  100CL  105 215.4545135         930                     2    5MODAL      1
 -4  ERROR       1    1
 -5  STR(%)      1    1    0    0
 -1       404 0.00000E+00
 -1       406 0.00000E+00
 -1       407 0.00000E+00
 -1       409 0.00000E+00
 -1       410 0.00000E+00
 -1       412 0.00000E+00
 -1       413 0.00000E+00
 -1       415 0.00000E+00
 -1       424 0.00000E+00
 -1       426 0.00000E+00
 -1       427 0.00000E+00
 -1       429 0.00000E+00
 -1       438 0.00000E+00
 -1       440 0.00000E+00
 -1       441 0.00000E+00
 -1       443 0.00000E+00
 -1       444 0.00000E+00
 -1       446 0.00000E+00
 -1       447 0.00000E+00
 -1       449 0.00000E+00
 -1       458 0.00000E+00
 -1       460 0.00000E+00
 -1       461 0.00000E+00
 -1       463 0.00000E+00
 -1       472 0.00000E+00
 -1       474 0.00000E+00
 -1       475 0.00000E+00
 -1       477 0.00000E+00
 -1       478 0.00000E+00
 -1       480 0.00000E+00
 -1       481 0.00000E+00
 -1       483 0.00000E+00
 -1       484 0.00000E+00
 -1       486 0.00000E+00
 -1       487 0.00000E+00
 -1       489 0.00000E+00
 -1       490 0.00000E+00
 -1       492 0.00000E+00
 -1       493 0.00000E+00
 -1       495 0.00000E+00
 -1       496 0.00000E+00
 -1       498 0.00000E+00
 -1       499 0.00000E+00
 -1       501 0.00000E+00
 -1       502 0.00000E+00
 -1       504 0.00000E+00
 -1       505 0.00000E+00
 -1       507 0.00000E+00
 -1       508 0.00000E+00
 -1       510 0.00000E+00
 -1       511 0.00000E+00
 -1       513 0.00000E+00
 -1       514 0.00000E+00
 -1       516 0.00000E+00
 -1       517 0.00000E+00
 -1       519 0.00000E+00
 -1       520 0.00000E+00
 -1       522 0.00000E+00
 -1       523 0.00000E+00
 -1       525 0.00000E+00
 -1       526 0.00000E+00
 -1       528 0.00000E+00
 -1       529 0.00000E+00
 -1       531 0.00000E+00
 -1       532 0.00000E+00
 -1       534 0.00000E+00
 -1       535 0.00000E+00
 -1       537 0.00000E+00
 -1       538 0.00000E+00
 -1       540 0.00000E+00
 -1       541 0.00000E+00
 -1       543 0.00000E+00
 -1       544 0.00000E+00
 -1       546 0.00000E+00
 -1       547 0.00000E+00
 -1       549 0.00000E+00
 -1       550 0.00000E+00
 -1       552 0.00000E+00
 -1       553 0.00000E+00
 -1       555 0.00000E+00
 -1       556 0.00000E+00
 -1       558 0.00000E+00
 -1       559 0.00000E+00
 -1       561 0.00000E+00
 -1       562 0.00000E+00
 -1       564 0.00000E+00
 -1       565 0.00000E+00
 -1       567 0.00000E+00
 -1       568 0.00000E+00
 -1       570 0.00000E+00
 -1       571 0.00000E+00
 -1       573 0.00000E+00
 -1       574 0.00000E+00
 -1       576 0.00000E+00
 -1       577 0.00000E+00
 -1       579 0.00000E+00
 -1       588 0.00000E+00
 -1       590 0.00000E+00
 -1       591 0.00000E+00
 -1       593 0.00000E+00
 -1       602 0.00000E+00
 -1       604 0.00000E+00
 -1       605 0.00000E+00
 -1       607 0.00000E+00
 -1       616 0.00000E+00
 -1       618 0.00000E+00
 -1       619 0.00000E+00
 -1       621 0.00000E+00
 -1       630 0.00000E+00
 -1       632 0.00000E+00
 -1       633 0.00000E+00
 -1       635 0.00000E+00
 -1       644 0.00000E+00
 -1       646 0.00000E+00
 -1       647 0.00000E+00
 -1       649 0.00000E+00
 -1       658 0.00000E+00
 -1       660 0.00000E+00
 -1       661 0.00000E+00
 -1       663 0.00000E+00
 -1       672 0.00000E+00
 -1       674 0.00000E+00
 -1       675 0.00000E+00
 -1       677 0.00000E+00
 -1       686 0.00000E+00
 -1       688 0.00000E+00
 -1       689 0.00000E+00
 -1       691 0.00000E+00
 -1       700 0.00000E+00
 -1       702 0.00000E+00
 -1       703 0.00000E+00
 -1       705 0.00000E+00
 -1       714 0.00000E+00
 -1       716 0.00000E+00
 -1       717 0.00000E+00
 -1       719 0.00000E+00
 -1       728 0.00000E+00
 -1       730 0.00000E+00
 -1       731 0.00000E+00
 -1       733 0.00000E+00
 -1       742 0.00000E+00
 -1       744 0.00000E+00
 -1       745 0.00000E+00
 -1       747 0.00000E+00
 -1       756 0.00000E+00
 -1       758 0.00000E+00
 -1       759 0.00000E+00
 -1       761 0.00000E+00
 -1       770 0.00000E+00
 -1       772 0.00000E+00
 -1       773 0.00000E+00
 -1       775 0.00000E+00
 -1       784 0.00000E+00
 -1       786 0.00000E+00
 -1       787 0.00000E+00
 -1       789 0.00000E+00
 -1       798 0.00000E+00
 -1       800 0.00000E+00
 -1       801 0.00000E+00
 -1       803 0.00000E+00
 -1       812 0.00000E+00
 -1       814 0.00000E+00
 -1       815 0.00000E+00
 -1       817 0.00000E+00
 -1       826 0.00000E+00
 -1       828 0.00000E+00
 -1       829 0.00000E+00
 -1       831 0.00000E+00
 -1       840 0.00000E+00
 -1       842 0.00000E+00
 -1       843 0.00000E+00
 -1       845 0.00000E+00
 -1       854 0.00000E+00
 -1       856 0.00000E+00
 -1       857 0.00000E+00
 -1       859 0.00000E+00
 -1       868 0.00000E+00
 -1       870 0.00000E+00
 -1       871 0.00000E+00
 -1       873 0.00000E+00
 -1       882 0.00000E+00
 -1       884 0.00000E+00
 -1       885 0.00000E+00
 -1       887 0.00000E+00
 -1       896 0.00000E+00
 -1       898 0.00000E+00
 -1       899 0.00000E+00
 -1       901 0.00000E+00
 -1       910 0.00000E+00
 -1       912 0.00000E+00
 -1       913 0.00000E+00
 -1       915 0.00000E+00
 -1       924 0.00000E+00
 -1       926 0.00000E+00
 -1       927 0.00000E+00
 -1       929 0.00000E+00
 -1       938 0.00000E+00
 -1       940 0.00000E+00
 -1       941 0.00000E+00
 -1       943 0.00000E+00
 -1       952 0.00000E+00
 -1       954 0.00000E+00
 -1       955 0.00000E+00
 -1       957 0.00000E+00
 -1       966 0.00000E+00
 -1       968 0.00000E+00
 -1       969 0.00000E+00
 -1       971 0.00000E+00
 -1       980 0.00000E+00
 -1       982 0.00000E+00
 -1       983 0.00000E+00
 -1       985 0.00000E+00
 -1       986 0.00000E+00
 -1       988 0.00000E+00
 -1       989 0.00000E+00
 -1       991 0.00000E+00
 -1       992 0.00000E+00
 -1       994 0.00000E+00
 -1       995 0.00000E+00
 -1       997 0.00000E+00
 -1       998 0.00000E+00
 -1      1000 0.00000E+00
 -1      1001 0.00000E+00
 -1      1003 0.00000E+00
 -1      1004 0.00000E+00
 -1      1006 0.00000E+00
 -1      1007 0.00000E+00
 -1      1009 0.00000E+00
 -1      1010 0.00000E+00
 -1      1012 0.00000E+00
 -1      1013 0.00000E+00
 -1      1015 0.00000E+00
 -1      1016 0.00000E+00
 -1      1018 0.00000E+00
 -1      1019 0.00000E+00
 -1      1021 0.00000E+00
 -1      1022 0.00000E+00
 -1      1024 0.00000E+00
 -1      1025 0.00000E+00
 -1      1027 0.00000E+00
 -1      1028 0.00000E+00
 -1      1030 0.00000E+00
 -1      1031 0.00000E+00
 -1      1033 0.00000E+00
 -1      1034 0.00000E+00
 -1      1036 0.00000E+00
 -1      1037 0.00000E+00
 -1      1039 0.00000E+00
 -1      1040 0.00000E+00
 -1      1042 0.00000E+00
 -1      1043 0.00000E+00
 -1      1045 0.00000E+00
 -1      1046 0.00000E+00
 -1      1048 0.00000E+00
 -1      1049 0.00000E+00
 -1      1051 0.00000E+00
 -1      1052 0.00000E+00
 -1      1054 0.00000E+00
 -1      1055 0.00000E+00
 -1      1057 0.00000E+00
 -1      1058 0.00000E+00
 -1      1060 0.00000E+00
 -1      1061 0.00000E+00
 -1      1063 0.00000E+00
 -1      1064 0.00000E+00
 -1      1066 0.00000E+00
 -1      1067 0.00000E+00
 -1      1069 0.00000E+00
 -1      1070 0.00000E+00
 -1      1072 0.00000E+00
 -1      1073 0.00000E+00
 -1      1075 0.00000E+00
 -1      1076 0.00000E+00
 -1      1078 0.00000E+00
 -1      1079 0.00000E+00
 -1      1081 0.00000E+00
 -1      1082 0.00000E+00
 -1      1084 0.00000E+00
 -1      1085 0.00000E+00
 -1      1087 0.00000E+00
 -1      1088 0.00000E+00
 -1      1090 0.00000E+00
 -1      1099 0.00000E+00
 -1      1101 0.00000E+00
 -1      1102 0.00000E+00
 -1      1104 0.00000E+00
 -1      1113 0.00000E+00
 -1      1115 0.00000E+00
 -1      1116 0.00000E+00
 -1      1118 0.00000E+00
 -1      1127 0.00000E+00
 -1      1129 0.00000E+00
 -1      1130 0.00000E+00
 -1      1132 0.00000E+00
 -1      1141 0.00000E+00
 -1      1143 0.00000E+00
 -1      1144 0.00000E+00
 -1      1146 0.00000E+00
 -1      1155 0.00000E+00
 -1      1157 0.00000E+00
 -1      1158 0.00000E+00
 -1      1160 0.00000E+00
 -1      1169 0.00000E+00
 -1      1171 0.00000E+00
 -1      1172 0.00000E+00
 -1      1174 0.00000E+00
 -1      1183 0.00000E+00
 -1      1185 0.00000E+00
 -1      1186 0.00000E+00
 -1      1188 0.00000E+00
 -1      1197 0.00000E+00
 -1      1199 0.00000E+00
 -1      1200 0.00000E+00
 -1      1202 0.00000E+00
 -1      1211 0.00000E+00
 -1      1213 0.00000E+00
 -1      1214 0.00000E+00
 -1      1216 0.00000E+00
 -1      1225 0.00000E+00
 -1      1227 0.00000E+00
 -1      1228 0.00000E+00
 -1      1230 0.00000E+00
 -1      1239 0.00000E+00
 -1      1241 0.00000E+00
 -1      1242 0.00000E+00
 -1      1244 0.00000E+00
 -1      1253 0.00000E+00
 -1      1255 0.00000E+00
 -1      1256 0.00000E+00
 -1      1258 0.00000E+00
 -1      1267 0.00000E+00
 -1      1269 0.00000E+00
 -1      1270 0.00000E+00
 -1      1272 0.00000E+00
 -1      1281 0.00000E+00
 -1      1283 0.00000E+00
 -1      1284 0.00000E+00
 -1      1286 0.00000E+00
 -1      1295 0.00000E+00
 -1      1297 0.00000E+00
 -1      1298 0.00000E+00
 -1      1300 0.00000E+00
 -1      1309 0.00000E+00
 -1      1311 0.00000E+00
 -1      1312 0.00000E+00
 -1      1314 0.00000E+00
 -1      1323 0.00000E+00
 -1      1325 0.00000E+00
 -1      1326 0.00000E+00
 -1      1328 0.00000E+00
 -1      1337 0.00000E+00
 -1      1339 0.00000E+00
 -1      1340 0.00000E+00
 -1      1342 0.00000E+00
 -1      1351 0.00000E+00
 -1      1353 0.00000E+00
 -1      1354 0.00000E+00
 -1      1356 0.00000E+00
 -1      1365 0.00000E+00
 -1      1367 0.00000E+00
 -1      1368 0.00000E+00
 -1      1370 0.00000E+00
 -1      1379 0.00000E+00
 -1      1381 0.00000E+00
 -1      1382 0.00000E+00
 -1      1384 0.00000E+00
 -1      1393 0.00000E+00
 -1      1395 0.00000E+00
 -1      1396 0.00000E+00
 -1      1398 0.00000E+00
 -1      1407 0.00000E+00
 -1      1409 0.00000E+00
 -1      1410 0.00000E+00
 -1      1412 0.00000E+00
 -1      1421 0.00000E+00
 -1      1423 0.00000E+00
 -1      1424 0.00000E+00
 -1      1426 0.00000E+00
 -1      1435 0.00000E+00
 -1      1437 0.00000E+00
 -1      1438 0.00000E+00
 -1      1440 0.00000E+00
 -1      1449 0.00000E+00
 -1      1451 0.00000E+00
 -1      1452 0.00000E+00
 -1      1454 0.00000E+00
 -1      1463 0.00000E+00
 -1      1465 0.00000E+00
 -1      1466 0.00000E+00
 -1      1468 0.00000E+00
 -1      1477 0.00000E+00
 -1      1479 0.00000E+00
 -1      1480 0.00000E+00
 -1      1482 0.00000E+00
 -1      1491 0.00000E+00
 -1      1493 0.00000E+00
 -1      1494 0.00000E+00
 -1      1496 0.00000E+00
 -1      1497 0.00000E+00
 -1      1499 0.00000E+00
 -1      1500 0.00000E+00
 -1      1502 0.00000E+00
 -1      1503 0.00000E+00
 -1      1505 0.00000E+00
 -1      1506 0.00000E+00
 -1      1508 0.00000E+00
 -1      1509 0.00000E+00
 -1      1511 0.00000E+00
 -1      1512 0.00000E+00
 -1      1514 0.00000E+00
 -1      1515 0.00000E+00
 -1      1517 0.00000E+00
 -1      1518 0.00000E+00
 -1      1520 0.00000E+00
 -1      1521 0.00000E+00
 -1      1523 0.00000E+00
 -1      1524 0.00000E+00
 -1      1526 0.00000E+00
 -1      1527 0.00000E+00
 -1      1529 0.00000E+00
 -1      1530 0.00000E+00
 -1      1532 0.00000E+00
 -1      1533 0.00000E+00
 -1      1535 0.00000E+00
 -1      1536 0.00000E+00
 -1      1538 0.00000E+00
 -1      1539 0.00000E+00
 -1      1541 0.00000E+00
 -1      1542 0.00000E+00
 -1      1544 0.00000E+00
 -1      1545 0.00000E+00
 -1      1547 0.00000E+00
 -1      1548 0.00000E+00
 -1      1550 0.00000E+00
 -1      1551 0.00000E+00
 -1      1553 0.00000E+00
 -1      1554 0.00000E+00
 -1      1556 0.00000E+00
 -1      1557 0.00000E+00
 -1      1559 0.00000E+00
 -1      1560 0.00000E+00
 -1      1562 0.00000E+00
 -1      1563 0.00000E+00
 -1      1565 0.00000E+00
 -1      1566 0.00000E+00
 -1      1568 0.00000E+00
 -1      1569 0.00000E+00
 -1      1571 0.00000E+00
 -1      1572 0.00000E+00
 -1      1574 0.00000E+00
 -1      1575 0.00000E+00
 -1      1577 0.00000E+00
 -1      1578 0.00000E+00
 -1      1580 0.00000E+00
 -1      1581 0.00000E+00
 -1      1583 0.00000E+00
 -1      1584 0.00000E+00
 -1      1586 0.00000E+00
 -1      1587 0.00000E+00
 -1      1589 0.00000E+00
 -1      1590 0.00000E+00
 -1      1592 0.00000E+00
 -1      1593 0.00000E+00
 -1      1595 0.00000E+00
 -1      1596 0.00000E+00
 -1      1598 0.00000E+00
 -1      1599 0.00000E+00
 -1      1601 0.00000E+00
 -1      1602 0.00000E+00
 -1      1604 0.00000E+00
 -1      1605 0.00000E+00
 -1      1607 0.00000E+00
 -1      1608 0.00000E+00
 -1      1610 0.00000E+00
 -1      1611 0.00000E+00
 -1      1613 0.00000E+00
 -1      1614 0.00000E+00
 -1      1616 0.00000E+00
 -1      1617 0.00000E+00
 -1      1619 0.00000E+00
 -1      1620 0.00000E+00
 -1      1622 0.00000E+00
 -1      1623 0.00000E+00
 -1      1625 0.00000E+00
 -1      1626 0.00000E+00
 -1      1628 0.00000E+00
 -1      1629 0.00000E+00
 -1      1631 0.00000E+00
 -1      1632 0.00000E+00
 -1      1634 0.00000E+00
 -1      1635 0.00000E+00
 -1      1637 0.00000E+00
 -1      1638 0.00000E+00
 -1      1640 0.00000E+00
 -1      1641 0.00000E+00
 -1      1643 0.00000E+00
 -1      1644 0.00000E+00
 -1      1646 0.00000E+00
 -1      1647 0.00000E+00
 -1      1649 0.00000E+00
 -1      1650 0.00000E+00
 -1      1652 0.00000E+00
 -1      1653 0.00000E+00
 -1      1655 0.00000E+00
 -1      1656 0.00000E+00
 -1      1658 0.00000E+00
 -1      1659 0.00000E+00
 -1      1661 0.00000E+00
 -1      1662 0.00000E+00
 -1      1664 0.00000E+00
 -1      1665 0.00000E+00
 -1      1667 0.00000E+00
 -1      1668 0.00000E+00
 -1      1670 0.00000E+00
 -1      1671 0.00000E+00
 -1      1673 0.00000E+00
 -1      1674 0.00000E+00
 -1      1676 0.00000E+00
 -1      1677 0.00000E+00
 -1      1679 0.00000E+00
 -1      1680 0.00000E+00
 -1      1682 0.00000E+00
 -1      1683 0.00000E+00
 -1      1685 0.00000E+00
 -1      1686 0.00000E+00
 -1      1688 0.00000E+00
 -1      1689 0.00000E+00
 -1      1691 0.00000E+00
 -1      1692 0.00000E+00
 -1      1694 0.00000E+00
 -1      1695 0.00000E+00
 -1      1697 0.00000E+00
 -1      1698 0.00000E+00
 -1      1700 0.00000E+00
 -1      1701 0.00000E+00
 -1      1703 0.00000E+00
 -1      1704 0.00000E+00
 -1      1706 0.00000E+00
 -1      1707 0.00000E+00
 -1      1709 0.00000E+00
 -1      1710 0.00000E+00
 -1      1712 0.00000E+00
 -1      1713 0.00000E+00
 -1      1715 0.00000E+00
 -1      1716 0.00000E+00
 -1      1718 0.00000E+00
 -1      1719 0.00000E+00
 -1      1721 0.00000E+00
 -1      1722 0.00000E+00
 -1      1724 0.00000E+00
 -1      1725 0.00000E+00
 -1      1727 0.00000E+00
 -1      1728 0.00000E+00
 -1      1730 0.00000E+00
 -1      1731 0.00000E+00
 -1      1733 0.00000E+00
 -1      1734 0.00000E+00
 -1      1736 0.00000E+00
 -1      1737 0.00000E+00
 -1      1739 0.00000E+00
 -1      1740 0.00000E+00
 -1      1742 0.00000E+00
 -1      1743 0.00000E+00
 -1      1745 0.00000E+00
 -1      1746 0.00000E+00
 -1      1748 0.00000E+00
 -1      1749 0.00000E+00
 -1      1751 0.00000E+00
 -1      1752 0.00000E+00
 -1      1754 0.00000E+00
 -1      1755 0.00000E+00
 -1      1757 0.00000E+00
 -1      1758 0.00000E+00
 -1      1760 0.00000E+00
 -1      1761 0.00000E+00
 -1      1763 0.00000E+00
 -1      1764 0.00000E+00
 -1      1766 0.00000E+00
 -1      1767 0.00000E+00
 -1      1769 0.00000E+00
 -1      1770 0.00000E+00
 -1      1772 0.00000E+00
 -1      1773 0.00000E+00
 -1      1775 0.00000E+00
 -1      1776 0.00000E+00
 -1      1778 0.00000E+00
 -1      1779 0.00000E+00
 -1      1781 0.00000E+00
 -1      1782 0.00000E+00
 -1      1784 0.00000E+00
 -1      1785 0.00000E+00
 -1      1787 0.00000E+00
 -1      1788 0.00000E+00
 -1      1790 0.00000E+00
 -1      1791 0.00000E+00
 -1      1793 0.00000E+00
 -1      1794 0.00000E+00
 -1      1796 0.00000E+00
 -1      1797 0.00000E+00
 -1      1799 0.00000E+00
 -1      1800 0.00000E+00
 -1      1802 0.00000E+00
 -1      1803 0.00000E+00
 -1      1805 0.00000E+00
 -1      1806 0.00000E+00
 -1      1808 0.00000E+00
 -1      1809 0.00000E+00
 -1      1811 0.00000E+00
 -1      1812 0.00000E+00
 -1      1814 0.00000E+00
 -1      1815 0.00000E+00
 -1      1817 0.00000E+00
 -1      1818 0.00000E+00
 -1      1820 0.00000E+00
 -1      1821 0.00000E+00
 -1      1823 0.00000E+00
 -1      1824 0.00000E+00
 -1      1826 0.00000E+00
 -1      1827 0.00000E+00
 -1      1829 0.00000E+00
 -1      1830 0.00000E+00
 -1      1832 0.00000E+00
 -1      1833 0.00000E+00
 -1      1835 0.00000E+00
 -1      1836 0.00000E+00
 -1      1838 0.00000E+00
 -1      1839 0.00000E+00
 -1      1841 0.00000E+00
 -1      1842 0.00000E+00
 -1      1844 0.00000E+00
 -1      1845 0.00000E+00
 -1      1847 0.00000E+00
 -1      1848 0.00000E+00
 -1      1850 0.00000E+00
 -1      1851 0.00000E+00
 -1      1853 0.00000E+00
 -1      1854 0.00000E+00
 -1      1856 0.00000E+00
 -1      1857 0.00000E+00
 -1      1859 0.00000E+00
 -1      1860 0.00000E+00
 -1      1862 0.00000E+00
 -1      1863 0.00000E+00
 -1      1865 0.00000E+00
 -1      1866 0.00000E+00
 -1      1868 0.00000E+00
 -1      1869 0.00000E+00
 -1      1871 0.00000E+00
 -1      1872 0.00000E+00
 -1      1874 0.00000E+00
 -1      1875 0.00000E+00
 -1      1877 0.00000E+00
 -1      1878 0.00000E+00
 -1      1880 0.00000E+00
 -1      1881 0.00000E+00
 -1      1883 0.00000E+00
 -1      1884 0.00000E+00
 -1      1886 0.00000E+00
 -1      1887 0.00000E+00
 -1      1889 0.00000E+00
 -1      1890 0.00000E+00
 -1      1892 0.00000E+00
 -1      1893 0.00000E+00
 -1      1895 0.00000E+00
 -1      1896 0.00000E+00
 -1      1898 0.00000E+00
 -1      1899 0.00000E+00
 -1      1901 0.00000E+00
 -1      1902 0.00000E+00
 -1      1904 0.00000E+00
 -1      1905 0.00000E+00
 -1      1907 0.00000E+00
 -1      1908 0.00000E+00
 -1      1910 0.00000E+00
 -1      1911 0.00000E+00
 -1      1913 0.00000E+00
 -1      1914 0.00000E+00
 -1      1916 0.00000E+00
 -1      1917 0.00000E+00
 -1      1919 0.00000E+00
 -1      1920 0.00000E+00
 -1      1922 0.00000E+00
 -1      1923 0.00000E+00
 -1      1925 0.00000E+00
 -1      1926 0.00000E+00
 -1      1928 0.00000E+00
 -1      1929 0.00000E+00
 -1      1931 0.00000E+00
 -1      1932 0.00000E+00
 -1      1934 0.00000E+00
 -1      1935 0.00000E+00
 -1      1937 0.00000E+00
 -1      1938 0.00000E+00
 -1      1940 0.00000E+00
 -1      1941 0.00000E+00
 -1      1943 0.00000E+00
 -1      1944 0.00000E+00
 -1      1946 0.00000E+00
 -1      1947 0.00000E+00
 -1      1949 0.00000E+00
 -1      1950 0.00000E+00
 -1      1952 0.00000E+00
 -1      1953 0.00000E+00
 -1      1955 0.00000E+00
 -1      1956 0.00000E+00
 -1      1958 0.00000E+00
 -1      1959 0.00000E+00
 -1      1961 0.00000E+00
 -1      1962 0.00000E+00
 -1      1964 0.00000E+00
 -1      1965 0.00000E+00
 -1      1967 0.00000E+00
 -1      1968 0.00000E+00
 -1      1970 0.00000E+00
 -1      1971 0.00000E+00
 -1      1973 0.00000E+00
 -1      1974 0.00000E+00
 -1      1976 0.00000E+00
 -1      1977 0.00000E+00
 -1      1979 0.00000E+00
 -1      1980 0.00000E+00
 -1      1982 0.00000E+00
 -1      1983 0.00000E+00
 -1      1985 0.00000E+00
 -1      1986 0.00000E+00
 -1      1988 0.00000E+00
 -1      1989 0.00000E+00
 -1      1991 0.00000E+00
 -1      1992 0.00000E+00
 -1      1994 0.00000E+00
 -1      1995 0.00000E+00
 -1      1997 0.00000E+00
 -1      1998 0.00000E+00
 -1      2000 0.00000E+00
 -1      2001 0.00000E+00
 -1      2003 0.00000E+00
 -1      2004 0.00000E+00
 -1      2006 0.00000E+00
 -1      2007 0.00000E+00
 -1      2009 0.00000E+00
 -1      2010 0.00000E+00
 -1      2012 0.00000E+00
 -1      2013 0.00000E+00
 -1      2015 0.00000E+00
 -1      2016 0.00000E+00
 -1      2018 0.00000E+00
 -1      2019 0.00000E+00
 -1      2021 0.00000E+00
 -1      2022 0.00000E+00
 -1      2024 0.00000E+00
 -1      2025 0.00000E+00
 -1      2027 0.00000E+00
 -1      2028 0.00000E+00
 -1      2030 0.00000E+00
 -1      2031 0.00000E+00
 -1      2033 0.00000E+00
 -1      2034 0.00000E+00
 -1      2036 0.00000E+00
 -1      2037 0.00000E+00
 -1      2039 0.00000E+00
 -1      2040 0.00000E+00
 -1      2042 0.00000E+00
 -1      2043 0.00000E+00
 -1      2045 0.00000E+00
 -1      2046 0.00000E+00
 -1      2048 0.00000E+00
 -1      2049 0.00000E+00
 -1      2051 0.00000E+00
 -1      2052 0.00000E+00
 -1      2054 0.00000E+00
 -1      2055 0.00000E+00
 -1      2057 0.00000E+00
 -1      2058 0.00000E+00
 -1      2060 0.00000E+00
 -1      2061 0.00000E+00
 -1      2063 0.00000E+00
 -1      2064 0.00000E+00
 -1      2066 0.00000E+00
 -1      2067 0.00000E+00
 -1      2069 0.00000E+00
 -1      2070 0.00000E+00
 -1      2072 0.00000E+00
 -1      2073 0.00000E+00
 -1      2075 0.00000E+00
 -1      2076 0.00000E+00
 -1      2078 0.00000E+00
 -1      2079 0.00000E+00
 -1      2081 0.00000E+00
 -1      2082 0.00000E+00
 -1      2084 0.00000E+00
 -1      2085 0.00000E+00
 -1      2087 0.00000E+00
 -1      2088 0.00000E+00
 -1      2090 0.00000E+00
 -1      2091 0.00000E+00
 -1      2093 0.00000E+00
 -1      2094 0.00000E+00
 -1      2096 0.00000E+00
 -1      2097 0.00000E+00
 -1      2099 0.00000E+00
 -1      2100 0.00000E+00
 -1      2102 0.00000E+00
 -1      2103 0.00000E+00
 -1      2105 0.00000E+00
 -1      2106 0.00000E+00
 -1      2108 0.00000E+00
 -1      2109 0.00000E+00
 -1      2111 0.00000E+00
 -1      2112 0.00000E+00
 -1      2114 0.00000E+00
 -1      2115 0.00000E+00
 -1      2117 0.00000E+00
 -1      2118 0.00000E+00
 -1      2120 0.00000E+00
 -1      2121 0.00000E+00
 -1      2123 0.00000E+00
 -1      2124 0.00000E+00
 -1      2126 0.00000E+00
 -1      2127 0.00000E+00
 -1      2129 0.00000E+00
 -1      2130 0.00000E+00
 -1      2132 0.00000E+00
 -1      2133 0.00000E+00
 -1      2135 0.00000E+00
 -1      2136 0.00000E+00
 -1      2138 0.00000E+00
 -1      2139 0.00000E+00
 -1      2141 0.00000E+00
 -1      2142 0.00000E+00
 -1      2144 0.00000E+00
 -1      2145 0.00000E+00
 -1      2147 0.00000E+00
 -1      2148 0.00000E+00
 -1      2150 0.00000E+00
 -1      2151 0.00000E+00
 -1      2153 0.00000E+00
 -1      2154 0.00000E+00
 -1      2156 0.00000E+00
 -1      2157 0.00000E+00
 -1      2159 0.00000E+00
 -1      2160 0.00000E+00
 -1      2162 0.00000E+00
 -1      2163 0.00000E+00
 -1      2165 0.00000E+00
 -1      2166 0.00000E+00
 -1      2168 0.00000E+00
 -1      2169 0.00000E+00
 -1      2171 0.00000E+00
 -1      2172 0.00000E+00
 -1      2174 0.00000E+00
 -1      2175 0.00000E+00
 -1      2177 0.00000E+00
 -1      2178 0.00000E+00
 -1      2180 0.00000E+00
 -1      2181 0.00000E+00
 -1      2183 0.00000E+00
 -1      2184 0.00000E+00
 -1      2186 0.00000E+00
 -1      2187 0.00000E+00
 -1      2189 0.00000E+00
 -1      2190 0.00000E+00
 -1      2192 0.00000E+00
 -1      2193 0.00000E+00
 -1      2195 0.00000E+00
 -1      2196 0.00000E+00
 -1      2198 0.00000E+00
 -1      2199 0.00000E+00
 -1      2201 0.00000E+00
 -1      2202 0.00000E+00
 -1      2204 0.00000E+00
 -1      2205 0.00000E+00
 -1      2207 0.00000E+00
 -1      2208 0.00000E+00
 -1      2210 0.00000E+00
 -1      2211 0.00000E+00
 -1      2213 0.00000E+00
 -1      2214 0.00000E+00
 -1      2216 0.00000E+00
 -1      2217 0.00000E+00
 -1      2219 0.00000E+00
 -1      2220 0.00000E+00
 -1      2222 0.00000E+00
 -1      2223 0.00000E+00
 -1      2225 0.00000E+00
 -1      2226 0.00000E+00
 -1      2228 0.00000E+00
 -1      2229 0.00000E+00
 -1      2231 0.00000E+00
 -1      2232 0.00000E+00
 -1      2234 0.00000E+00
 -1      2235 0.00000E+00
 -1      2237 0.00000E+00
 -1      2238 0.00000E+00
 -1      2240 0.00000E+00
 -1      2241 0.00000E+00
 -1      2243 0.00000E+00
 -1      2244 0.00000E+00
 -1      2246 0.00000E+00
 -1      2247 0.00000E+00
 -1      2249 0.00000E+00
 -1      2250 0.00000E+00
 -1      2252 0.00000E+00
 -1      2253 0.00000E+00
 -1      2255 0.00000E+00
 -1      2256 0.00000E+00
 -1      2258 0.00000E+00
 -1      2259 0.00000E+00
 -1      2261 0.00000E+00
 -1      2262 0.00000E+00
 -1      2264 0.00000E+00
 -1      2265 0.00000E+00
 -1      2267 0.00000E+00
 -1      2268 0.00000E+00
 -1      2270 0.00000E+00
 -1      2271 0.00000E+00
 -1      2273 0.00000E+00
 -1      2274 0.00000E+00
 -1      2276 0.00000E+00
 -1      2277 0.00000E+00
 -1      2279 0.00000E+00
 -1      2280 0.00000E+00
 -1      2282 0.00000E+00
 -1      2283 0.00000E+00
 -1      2285 0.00000E+00
 -1      2286 0.00000E+00
 -1      2288 0.00000E+00
 -1      2289 0.00000E+00
 -1      2291 0.00000E+00
 -1      2292 0.00000E+00
 -1      2294 0.00000E+00
 -3
    1PSTEP                        21           1           1          
    1PGM                1.000000E+00                                  
    1PGK                2.271357E+06                                  
    1PHID                         -1                                  
    1PSUBC                         0                                  
    1PMODE                         6                                  
  100CL  106 239.8627768         930                     2    6MODAL      1
 -4  DISP        4    1
 -5  D1          1    2    1    0
 -5  D2          1    2    2    0
 -5  D3          1    2    3    0
 -5  ALL         1    2    0    0    1ALL
 -1       404 0.00000E+00 0.00000E+00 3.90231E-05
 -1       406 0.00000E+00-0.00000E+00-3.90231E-05
 -1       407 4.48285E-03-8.00228E-02-1.81859E-01
 -1       409 4.49441E-03-5.13338E-02-1.81860E-01
 -1       410 2.50375E-13-7.78418E-02 1.01387E-12
 -1       412 2.30365E-13-5.34829E-02 1.01283E-12
 -1       413-2.14227E-04-6.56624E-02 7.75875E-03
 -1       415 2.14227E-04-6.56624E-02-7.75875E-03
 -1       424 0.00000E+00 0.00000E+00-1.34762E-15
 -1       426 0.00000E+00 0.00000E+00 1.34762E-15
 -1       427 0.00000E+00-8.58485E-16 0.00000E+00
 -1       429 0.00000E+00 8.58485E-16 0.00000E+00
 -1       438-4.48285E-03-8.00228E-02 1.81859E-01
 -1       440-4.49441E-03-5.13338E-02 1.81860E-01
 -1       441 0.00000E+00 0.00000E+00-3.90231E-05
 -1       443 0.00000E+00-0.00000E+00 3.90231E-05
 -1       444 0.00000E+00 7.76182E-16 0.00000E+00
 -1       446 0.00000E+00-7.76182E-16 0.00000E+00
 -1       447 0.00000E+00 0.00000E+00-1.21843E-15
 -1       449 0.00000E+00 0.00000E+00 1.21843E-15
 -1       458-2.14227E-04-6.56624E-02-7.75875E-03
 -1       460 2.14227E-04-6.56624E-02 7.75875E-03
 -1       461-3.45528E-13-7.78418E-02 1.01332E-12
 -1       463-3.26853E-13-5.34829E-02 1.01322E-12
 -1       472 0.00000E+00 0.00000E+00 3.90231E-05
 -1       474 0.00000E+00 0.00000E+00-3.90231E-05
 -1       475-4.48285E-03-8.00228E-02-1.81859E-01
 -1       477-4.49441E-03-5.13338E-02-1.81860E-01
 -1       478 4.48285E-03-8.00228E-02 1.81859E-01
 -1       480 4.49441E-03-5.13338E-02 1.81860E-01
 -1       481 0.00000E+00 0.00000E+00-3.90231E-05
 -1       483 0.00000E+00 0.00000E+00 3.90231E-05
 -1       484 5.33583E-04-2.00553E-03-7.56640E-03
 -1       486 2.39466E-03-6.49580E-04-7.60184E-03
 -1       487 2.07272E-03-5.05658E-03-1.78446E-02
 -1       489 3.02085E-03-2.24372E-03-1.78929E-02
 -1       490 2.73864E-03-9.31687E-03-2.67046E-02
 -1       492 4.10655E-03-5.07373E-03-2.67322E-02
 -1       493 3.39637E-03-1.43596E-02-3.61392E-02
 -1       495 4.55162E-03-8.64397E-03-3.61530E-02
 -1       496 3.61599E-03-1.98351E-02-4.51714E-02
 -1       498 4.85242E-03-1.26820E-02-4.51813E-02
 -1       499 3.64448E-03-2.54330E-02-5.42488E-02
 -1       501 4.82195E-03-1.68491E-02-5.42385E-02
 -1       502 3.37948E-03-3.08564E-02-6.31231E-02
 -1       504 4.55879E-03-2.08637E-02-6.31130E-02
 -1       505 2.93125E-03-3.58256E-02-7.18921E-02
 -1       507 4.08135E-03-2.44503E-02-7.18660E-02
 -1       508 2.30818E-03-4.01443E-02-8.04735E-02
 -1       510 3.43880E-03-2.74103E-02-8.04490E-02
 -1       511 1.58923E-03-4.36404E-02-8.88813E-02
 -1       513 2.69242E-03-2.95832E-02-8.88482E-02
 -1       514 8.23498E-04-4.62418E-02-9.70718E-02
 -1       516 1.89796E-03-3.08923E-02-9.70428E-02
 -1       517 7.97868E-05-4.79217E-02-1.05035E-01
 -1       519 1.12182E-03-3.13224E-02-1.05004E-01
 -1       520-5.86807E-04-4.87431E-02-1.12735E-01
 -1       522 4.19131E-04-3.09334E-02-1.12712E-01
 -1       523-1.12278E-03-4.88176E-02-1.20153E-01
 -1       525-1.56246E-04-2.98468E-02-1.20134E-01
 -1       526-1.48864E-03-4.83213E-02-1.27256E-01
 -1       528-5.65605E-04-2.82375E-02-1.27246E-01
 -1       529-1.65660E-03-4.74613E-02-1.34020E-01
 -1       531-7.80466E-04-2.63205E-02-1.34017E-01
 -1       532-1.61524E-03-4.64733E-02-1.40415E-01
 -1       534-7.89921E-04-2.43319E-02-1.40422E-01
 -1       535-1.36837E-03-4.55927E-02-1.46417E-01
 -1       537-5.97096E-04-2.25134E-02-1.46431E-01
 -1       538-9.35532E-04-4.50453E-02-1.52000E-01
 -1       540-2.21623E-04-2.10917E-02-1.52021E-01
 -1       541-3.49449E-04-4.50233E-02-1.57142E-01
 -1       543 3.04436E-04-2.02639E-02-1.57169E-01
 -1       544 3.46283E-04-4.56772E-02-1.61825E-01
 -1       546 9.37699E-04-2.01817E-02-1.61856E-01
 -1       547 1.10129E-03-4.71009E-02-1.66033E-01
 -1       549 1.62848E-03-2.09425E-02-1.66064E-01
 -1       550 1.86266E-03-4.93299E-02-1.69753E-01
 -1       552 2.32415E-03-2.25826E-02-1.69784E-01
 -1       553 2.57942E-03-5.23378E-02-1.72978E-01
 -1       555 2.97462E-03-2.50782E-02-1.73006E-01
 -1       556 3.20813E-03-5.60442E-02-1.75702E-01
 -1       558 3.53615E-03-2.83490E-02-1.75726E-01
 -1       559 3.71528E-03-6.03225E-02-1.77926E-01
 -1       561 3.97737E-03-3.22703E-02-1.77944E-01
 -1       562 4.08587E-03-6.50171E-02-1.79646E-01
 -1       564 4.27982E-03-3.66866E-02-1.79658E-01
 -1       565 4.31704E-03-6.99622E-02-1.80875E-01
 -1       567 4.44910E-03-4.14325E-02-1.80882E-01
 -1       568 4.43994E-03-7.50024E-02-1.81598E-01
 -1       570 4.49885E-03-4.63536E-02-1.81602E-01
 -1       571 2.24098E-03-7.96783E-02-8.73442E-02
 -1       573 2.24661E-03-5.16690E-02-8.73419E-02
 -1       574-5.37708E-14-1.67514E-03-9.68731E-14
 -1       576-2.99140E-14-6.55827E-04-9.52684E-14
 -1       577 4.23571E-06-1.16549E-03 3.24672E-04
 -1       579-4.23571E-06-1.16549E-03-3.24672E-04
 -1       588-7.55335E-14-4.63888E-03-2.15783E-13
 -1       590-6.55828E-14-2.24588E-03-2.15317E-13
 -1       591-9.88129E-05-3.44238E-03 7.62215E-04
 -1       593 9.88129E-05-3.44238E-03-7.62215E-04
 -1       602-1.00931E-13-8.94726E-03-3.21703E-13
 -1       604-8.37650E-14-5.38036E-03-3.20846E-13
 -1       605-1.13952E-04-7.16381E-03 1.13613E-03
 -1       607 1.13952E-04-7.16381E-03-1.13613E-03
 -1       616-1.16023E-13-1.38059E-02-4.36322E-13
 -1       618-1.02166E-13-8.99464E-03-4.35703E-13
 -1       619-1.50035E-04-1.14003E-02 1.53246E-03
 -1       621 1.50035E-04-1.14003E-02-1.53246E-03
 -1       630-1.27083E-13-1.92737E-02-5.59427E-13
 -1       632-1.08546E-13-1.32509E-02-5.59122E-13
 -1       633-1.63285E-04-1.62623E-02 1.91836E-03
 -1       635 1.63285E-04-1.62623E-02-1.91836E-03
 -1       644-1.24972E-13-2.47512E-02-6.93503E-13
 -1       646-1.07289E-13-1.75378E-02-6.94165E-13
 -1       647-1.57584E-04-2.11445E-02 2.29761E-03
 -1       649 1.57584E-04-2.11445E-02-2.29761E-03
 -1       658-1.14175E-13-3.01121E-02-8.21003E-13
 -1       660-9.80764E-14-2.17075E-02-8.21905E-13
 -1       661-1.50866E-04-2.59098E-02 2.67702E-03
 -1       663 1.50866E-04-2.59098E-02-2.67702E-03
 -1       672-9.71452E-14-3.49881E-02-9.21537E-13
 -1       674-8.71328E-14-2.54267E-02-9.22557E-13
 -1       675-1.21604E-04-3.02074E-02 3.04549E-03
 -1       677 1.21604E-04-3.02074E-02-3.04549E-03
 -1       686-8.21545E-14-3.92222E-02-9.98467E-13
 -1       688-7.28639E-14-2.85072E-02-9.99213E-13
 -1       689-9.52949E-05-3.38647E-02 3.41290E-03
 -1       691 9.52949E-05-3.38647E-02-3.41290E-03
 -1       700-6.61131E-14-4.26274E-02-1.07592E-12
 -1       702-5.52798E-14-3.07926E-02-1.07677E-12
 -1       703-5.50519E-05-3.67100E-02 3.76958E-03
 -1       705 5.50519E-05-3.67100E-02-3.76958E-03
 -1       714-4.21623E-14-4.51350E-02-1.14906E-12
 -1       716-3.36959E-14-3.21941E-02-1.15055E-12
 -1       717-1.95840E-05-3.86646E-02 4.12194E-03
 -1       719 1.95840E-05-3.86646E-02-4.12194E-03
 -1       728-1.15123E-14-4.67201E-02-1.19634E-12
 -1       730-7.59051E-15-3.27076E-02-1.19803E-12
 -1       731 1.97717E-05-3.97138E-02 4.46325E-03
 -1       733-1.97717E-05-3.97138E-02-4.46325E-03
 -1       742 2.18262E-14-4.74436E-02-1.20913E-12
 -1       744 2.07977E-14-3.23842E-02-1.21052E-12
 -1       745 5.14088E-05-3.99139E-02 4.79670E-03
 -1       747-5.14088E-05-3.99139E-02-4.79670E-03
 -1       756 5.64740E-14-4.74210E-02-1.18882E-12
 -1       758 5.16392E-14-3.13543E-02-1.19034E-12
 -1       759 7.89232E-05-3.93876E-02 5.11754E-03
 -1       761-7.89232E-05-3.93876E-02-5.11754E-03
 -1       770 9.04700E-14-4.68273E-02-1.14384E-12
 -1       772 8.33632E-14-2.97894E-02-1.14530E-12
 -1       773 9.58845E-05-3.83083E-02 5.42689E-03
 -1       775-9.58845E-05-3.83083E-02-5.42689E-03
 -1       784 1.24102E-13-4.58728E-02-1.07305E-12
 -1       786 1.12876E-13-2.79109E-02-1.07496E-12
 -1       787 1.03989E-04-3.68918E-02 5.72119E-03
 -1       789-1.03989E-04-3.68918E-02-5.72119E-03
 -1       798 1.57614E-13-4.47934E-02-9.76245E-13
 -1       800 1.43248E-13-2.59550E-02-9.77519E-13
 -1       801 1.00531E-04-3.53742E-02 6.00041E-03
 -1       803-1.00531E-04-3.53742E-02-6.00041E-03
 -1       812 1.90323E-13-4.38272E-02-8.57954E-13
 -1       814 1.73345E-13-2.41681E-02-8.59367E-13
 -1       815 8.71814E-05-3.39976E-02 6.26180E-03
 -1       817-8.71814E-05-3.39976E-02-6.26180E-03
 -1       826 2.15872E-13-4.32003E-02-7.28998E-13
 -1       828 1.98727E-13-2.27780E-02-7.29789E-13
 -1       829 6.39641E-05-3.29892E-02 6.50488E-03
 -1       831-6.39641E-05-3.29892E-02-6.50488E-03
 -1       840 2.34398E-13-4.31069E-02-5.94816E-13
 -1       842 2.16358E-13-2.19852E-02-5.95694E-13
 -1       843 3.32052E-05-3.25460E-02 6.72763E-03
 -1       845-3.32052E-05-3.25460E-02-6.72763E-03
 -1       854 2.48804E-13-4.36978E-02-4.44279E-13
 -1       856 2.26736E-13-2.19420E-02-4.44794E-13
 -1       857-3.25066E-06-3.28199E-02 6.92962E-03
 -1       859 3.25066E-06-3.28199E-02-6.92962E-03
 -1       868 2.55850E-13-4.50678E-02-2.83483E-13
 -1       870 2.35146E-13-2.27473E-02-2.84333E-13
 -1       871-4.26175E-05-3.39076E-02 7.10951E-03
 -1       873 4.26175E-05-3.39076E-02-7.10951E-03
 -1       882 2.59855E-13-4.72525E-02-1.26402E-13
 -1       884 2.39218E-13-2.44367E-02-1.26518E-13
 -1       885-8.22106E-05-3.58446E-02 7.26727E-03
 -1       887 8.22106E-05-3.58446E-02-7.26727E-03
 -1       896 2.61903E-13-5.02252E-02 3.38401E-14
 -1       898 2.39943E-13-2.69857E-02 3.36823E-14
 -1       899-1.19504E-04-3.86055E-02 7.40219E-03
 -1       901 1.19504E-04-3.86055E-02-7.40219E-03
 -1       910 2.63132E-13-5.39051E-02 2.00301E-13
 -1       912 2.40576E-13-3.03121E-02 1.99653E-13
 -1       913-1.51994E-04-4.21086E-02 7.51482E-03
 -1       915 1.51994E-04-4.21086E-02-7.51482E-03
 -1       924 2.63673E-13-5.81642E-02 3.68052E-13
 -1       926 2.40993E-13-3.42881E-02 3.67432E-13
 -1       927-1.78287E-04-4.62261E-02 7.60498E-03
 -1       929 1.78287E-04-4.62261E-02-7.60498E-03
 -1       938 2.61090E-13-6.28473E-02 5.32218E-13
 -1       940 2.39524E-13-3.87554E-02 5.32341E-13
 -1       941-1.97038E-04-5.08014E-02 7.67372E-03
 -1       943 1.97038E-04-5.08014E-02-7.67372E-03
 -1       952 2.58157E-13-6.77842E-02 6.95283E-13
 -1       954 2.35649E-13-4.35425E-02 6.94807E-13
 -1       955-2.08559E-04-5.56634E-02 7.72146E-03
 -1       957 2.08559E-04-5.56634E-02-7.72146E-03
 -1       966 2.53494E-13-7.28236E-02 8.58182E-13
 -1       968 2.31618E-13-4.84948E-02 8.59224E-13
 -1       969-2.13712E-04-6.06592E-02 7.74919E-03
 -1       971 2.13712E-04-6.06592E-02-7.74919E-03
 -1       980 0.00000E+00 0.00000E+00 2.40219E-05
 -1       982 0.00000E+00-0.00000E+00-2.40219E-05
 -1       983-2.24098E-03-7.96783E-02 8.73442E-02
 -1       985-2.24661E-03-5.16690E-02 8.73419E-02
 -1       986-5.33583E-04-2.00553E-03 7.56640E-03
 -1       988-2.39466E-03-6.49580E-04 7.60184E-03
 -1       989-2.07272E-03-5.05658E-03 1.78446E-02
 -1       991-3.02085E-03-2.24372E-03 1.78929E-02
 -1       992-2.73864E-03-9.31687E-03 2.67046E-02
 -1       994-4.10655E-03-5.07373E-03 2.67322E-02
 -1       995-3.39637E-03-1.43596E-02 3.61392E-02
 -1       997-4.55162E-03-8.64397E-03 3.61530E-02
 -1       998-3.61599E-03-1.98351E-02 4.51714E-02
 -1      1000-4.85242E-03-1.26820E-02 4.51813E-02
 -1      1001-3.64448E-03-2.54330E-02 5.42488E-02
 -1      1003-4.82195E-03-1.68491E-02 5.42385E-02
 -1      1004-3.37948E-03-3.08564E-02 6.31231E-02
 -1      1006-4.55879E-03-2.08637E-02 6.31130E-02
 -1      1007-2.93125E-03-3.58256E-02 7.18921E-02
 -1      1009-4.08135E-03-2.44503E-02 7.18660E-02
 -1      1010-2.30818E-03-4.01443E-02 8.04735E-02
 -1      1012-3.43880E-03-2.74103E-02 8.04490E-02
 -1      1013-1.58923E-03-4.36404E-02 8.88813E-02
 -1      1015-2.69242E-03-2.95832E-02 8.88482E-02
 -1      1016-8.23498E-04-4.62418E-02 9.70718E-02
 -1      1018-1.89796E-03-3.08923E-02 9.70428E-02
 -1      1019-7.97868E-05-4.79217E-02 1.05035E-01
 -1      1021-1.12182E-03-3.13224E-02 1.05004E-01
 -1      1022 5.86807E-04-4.87431E-02 1.12735E-01
 -1      1024-4.19131E-04-3.09334E-02 1.12712E-01
 -1      1025 1.12278E-03-4.88176E-02 1.20153E-01
 -1      1027 1.56246E-04-2.98468E-02 1.20134E-01
 -1      1028 1.48864E-03-4.83213E-02 1.27256E-01
 -1      1030 5.65605E-04-2.82375E-02 1.27246E-01
 -1      1031 1.65660E-03-4.74613E-02 1.34020E-01
 -1      1033 7.80466E-04-2.63205E-02 1.34017E-01
 -1      1034 1.61524E-03-4.64733E-02 1.40415E-01
 -1      1036 7.89921E-04-2.43319E-02 1.40422E-01
 -1      1037 1.36837E-03-4.55927E-02 1.46417E-01
 -1      1039 5.97096E-04-2.25134E-02 1.46431E-01
 -1      1040 9.35532E-04-4.50453E-02 1.52000E-01
 -1      1042 2.21623E-04-2.10917E-02 1.52021E-01
 -1      1043 3.49449E-04-4.50233E-02 1.57142E-01
 -1      1045-3.04436E-04-2.02639E-02 1.57169E-01
 -1      1046-3.46283E-04-4.56772E-02 1.61825E-01
 -1      1048-9.37699E-04-2.01817E-02 1.61856E-01
 -1      1049-1.10129E-03-4.71009E-02 1.66033E-01
 -1      1051-1.62848E-03-2.09425E-02 1.66064E-01
 -1      1052-1.86266E-03-4.93299E-02 1.69753E-01
 -1      1054-2.32415E-03-2.25826E-02 1.69784E-01
 -1      1055-2.57942E-03-5.23378E-02 1.72978E-01
 -1      1057-2.97462E-03-2.50782E-02 1.73006E-01
 -1      1058-3.20813E-03-5.60442E-02 1.75702E-01
 -1      1060-3.53615E-03-2.83490E-02 1.75726E-01
 -1      1061-3.71528E-03-6.03225E-02 1.77926E-01
 -1      1063-3.97737E-03-3.22703E-02 1.77944E-01
 -1      1064-4.08587E-03-6.50171E-02 1.79646E-01
 -1      1066-4.27982E-03-3.66866E-02 1.79658E-01
 -1      1067-4.31704E-03-6.99622E-02 1.80875E-01
 -1      1069-4.44910E-03-4.14325E-02 1.80882E-01
 -1      1070-4.43994E-03-7.50024E-02 1.81598E-01
 -1      1072-4.49885E-03-4.63536E-02 1.81602E-01
 -1      1073 0.00000E+00 0.00000E+00-2.40219E-05
 -1      1075 0.00000E+00-0.00000E+00 2.40219E-05
 -1      1076 0.00000E+00-2.39352E-16 0.00000E+00
 -1      1078 0.00000E+00 2.39352E-16 0.00000E+00
 -1      1079 0.00000E+00 2.78674E-17 0.00000E+00
 -1      1081 0.00000E+00-2.78674E-17 0.00000E+00
 -1      1082 0.00000E+00 2.25424E-16 0.00000E+00
 -1      1084 0.00000E+00-2.25424E-16 0.00000E+00
 -1      1085 4.23571E-06-1.16549E-03-3.24672E-04
 -1      1087-4.23571E-06-1.16549E-03 3.24672E-04
 -1      1088 4.77416E-14-1.67514E-03-8.07693E-14
 -1      1090 2.84685E-14-6.55827E-04-7.91817E-14
 -1      1099-9.88129E-05-3.44238E-03-7.62215E-04
 -1      1101 9.88129E-05-3.44238E-03 7.62215E-04
 -1      1102 7.39901E-14-4.63888E-03-1.96534E-13
 -1      1104 6.13205E-14-2.24588E-03-1.95718E-13
 -1      1113-1.13952E-04-7.16381E-03-1.13613E-03
 -1      1115 1.13952E-04-7.16381E-03 1.13613E-03
 -1      1116 9.81290E-14-8.94726E-03-3.20641E-13
 -1      1118 7.86809E-14-5.38036E-03-3.20041E-13
 -1      1127-1.50035E-04-1.14003E-02-1.53246E-03
 -1      1129 1.50035E-04-1.14003E-02 1.53246E-03
 -1      1130 1.07531E-13-1.38059E-02-4.53595E-13
 -1      1132 9.13088E-14-8.99464E-03-4.53437E-13
 -1      1141-1.63285E-04-1.62623E-02-1.91836E-03
 -1      1143 1.63285E-04-1.62623E-02 1.91836E-03
 -1      1144 1.11974E-13-1.92737E-02-5.85258E-13
 -1      1146 9.33463E-14-1.32509E-02-5.85403E-13
 -1      1155-1.57584E-04-2.11445E-02-2.29761E-03
 -1      1157 1.57584E-04-2.11445E-02 2.29761E-03
 -1      1158 1.06331E-13-2.47512E-02-7.11554E-13
 -1      1160 9.09568E-14-1.75378E-02-7.11974E-13
 -1      1169-1.50866E-04-2.59098E-02-2.67702E-03
 -1      1171 1.50866E-04-2.59098E-02 2.67702E-03
 -1      1172 9.66640E-14-3.01121E-02-8.15525E-13
 -1      1174 8.46336E-14-2.17075E-02-8.16336E-13
 -1      1183-1.21604E-04-3.02074E-02-3.04549E-03
 -1      1185 1.21604E-04-3.02074E-02 3.04549E-03
 -1      1186 8.64095E-14-3.49881E-02-9.04751E-13
 -1      1188 7.46387E-14-2.54267E-02-9.05176E-13
 -1      1197-9.52949E-05-3.38647E-02-3.41290E-03
 -1      1199 9.52949E-05-3.38647E-02 3.41290E-03
 -1      1200 7.18107E-14-3.92222E-02-9.98074E-13
 -1      1202 5.77974E-14-2.85072E-02-9.98912E-13
 -1      1211-5.50519E-05-3.67100E-02-3.76958E-03
 -1      1213 5.50519E-05-3.67100E-02 3.76958E-03
 -1      1214 4.72131E-14-4.26274E-02-1.08560E-12
 -1      1216 3.62722E-14-3.07926E-02-1.08698E-12
 -1      1225-1.95840E-05-3.86646E-02-4.12194E-03
 -1      1227 1.95840E-05-3.86646E-02 4.12194E-03
 -1      1228 1.84020E-14-4.51350E-02-1.14524E-12
 -1      1230 1.19730E-14-3.21941E-02-1.14647E-12
 -1      1239 1.97717E-05-3.97138E-02-4.46325E-03
 -1      1241-1.97717E-05-3.97138E-02 4.46325E-03
 -1      1242-1.23502E-14-4.67201E-02-1.17302E-12
 -1      1244-1.46039E-14-3.27076E-02-1.17436E-12
 -1      1253 5.14088E-05-3.99139E-02-4.79670E-03
 -1      1255-5.14088E-05-3.99139E-02 4.79670E-03
 -1      1256-4.67056E-14-4.74436E-02-1.17489E-12
 -1      1258-4.59634E-14-3.23842E-02-1.17624E-12
 -1      1267 7.89232E-05-3.93876E-02-5.11754E-03
 -1      1269-7.89232E-05-3.93876E-02 5.11754E-03
 -1      1270-8.47982E-14-4.74210E-02-1.15769E-12
 -1      1272-8.20822E-14-3.13543E-02-1.15934E-12
 -1      1281 9.58845E-05-3.83083E-02-5.42689E-03
 -1      1283-9.58845E-05-3.83083E-02 5.42689E-03
 -1      1284-1.25865E-13-4.68273E-02-1.11444E-12
 -1      1286-1.17850E-13-2.97894E-02-1.11577E-12
 -1      1295 1.03989E-04-3.68918E-02-5.72119E-03
 -1      1297-1.03989E-04-3.68918E-02 5.72119E-03
 -1      1298-1.63712E-13-4.58728E-02-1.03701E-12
 -1      1300-1.51252E-13-2.79109E-02-1.03836E-12
 -1      1309 1.00531E-04-3.53742E-02-6.00041E-03
 -1      1311-1.00531E-04-3.53742E-02 6.00041E-03
 -1      1312-1.94614E-13-4.47934E-02-9.42945E-13
 -1      1314-1.82098E-13-2.59550E-02-9.43688E-13
 -1      1323 8.71814E-05-3.39976E-02-6.26180E-03
 -1      1325-8.71814E-05-3.39976E-02 6.26180E-03
 -1      1326-2.21478E-13-4.38272E-02-8.42266E-13
 -1      1328-2.07526E-13-2.41681E-02-8.43441E-13
 -1      1337 6.39641E-05-3.29892E-02-6.50488E-03
 -1      1339-6.39641E-05-3.29892E-02 6.50488E-03
 -1      1340-2.44122E-13-4.32003E-02-7.28501E-13
 -1      1342-2.27667E-13-2.27780E-02-7.29030E-13
 -1      1351 3.32052E-05-3.25460E-02-6.72763E-03
 -1      1353-3.32052E-05-3.25460E-02 6.72763E-03
 -1      1354-2.64142E-13-4.31069E-02-5.97900E-13
 -1      1356-2.45641E-13-2.19852E-02-5.99110E-13
 -1      1365-3.25066E-06-3.28199E-02-6.92962E-03
 -1      1367 3.25066E-06-3.28199E-02 6.92962E-03
 -1      1368-2.83197E-13-4.36978E-02-4.52319E-13
 -1      1370-2.62751E-13-2.19420E-02-4.52752E-13
 -1      1379-4.26175E-05-3.39076E-02-7.10951E-03
 -1      1381 4.26175E-05-3.39076E-02 7.10951E-03
 -1      1382-3.01563E-13-4.50678E-02-2.84550E-13
 -1      1384-2.77102E-13-2.27473E-02-2.84953E-13
 -1      1393-8.22106E-05-3.58446E-02-7.26727E-03
 -1      1395 8.22106E-05-3.58446E-02 7.26727E-03
 -1      1396-3.16094E-13-4.72525E-02-1.01082E-13
 -1      1398-2.91017E-13-2.44367E-02-1.00777E-13
 -1      1407-1.19504E-04-3.86055E-02-7.40219E-03
 -1      1409 1.19504E-04-3.86055E-02 7.40219E-03
 -1      1410-3.27171E-13-5.02252E-02 7.34662E-14
 -1      1412-3.05802E-13-2.69857E-02 7.28265E-14
 -1      1421-1.51994E-04-4.21086E-02-7.51482E-03
 -1      1423 1.51994E-04-4.21086E-02 7.51482E-03
 -1      1424-3.37257E-13-5.39051E-02 2.30000E-13
 -1      1426-3.17261E-13-3.03121E-02 2.30514E-13
 -1      1435-1.78287E-04-4.62261E-02-7.60498E-03
 -1      1437 1.78287E-04-4.62261E-02 7.60498E-03
 -1      1438-3.46222E-13-5.81642E-02 3.91703E-13
 -1      1440-3.23215E-13-3.42881E-02 3.91566E-13
 -1      1449-1.97038E-04-5.08014E-02-7.67372E-03
 -1      1451 1.97038E-04-5.08014E-02 7.67372E-03
 -1      1452-3.50207E-13-6.28473E-02 5.64451E-13
 -1      1454-3.26321E-13-3.87554E-02 5.65076E-13
 -1      1463-2.08559E-04-5.56634E-02-7.72146E-03
 -1      1465 2.08559E-04-5.56634E-02 7.72146E-03
 -1      1466-3.48084E-13-6.77842E-02 7.26777E-13
 -1      1468-3.28141E-13-4.35425E-02 7.27109E-13
 -1      1477-2.13712E-04-6.06592E-02-7.74919E-03
 -1      1479 2.13712E-04-6.06592E-02 7.74919E-03
 -1      1480-3.46036E-13-7.28236E-02 8.72685E-13
 -1      1482-3.27071E-13-4.84948E-02 8.73067E-13
 -1      1491-2.13162E-04 7.49727E-02 4.32857E-03
 -1      1493 2.13162E-04 7.49727E-02-4.32857E-03
 -1      1494-2.12097E-04 1.25371E-01 1.06428E-12
 -1      1496 2.12097E-04 1.25371E-01 9.57365E-13
 -1      1497-2.13162E-04 7.49727E-02-4.32857E-03
 -1      1499 2.13162E-04 7.49727E-02 4.32857E-03
 -1      1500-5.33583E-04-2.00553E-03-7.56640E-03
 -1      1502-2.39466E-03-6.49580E-04-7.60184E-03
 -1      1503-2.07272E-03-5.05658E-03-1.78446E-02
 -1      1505-3.02085E-03-2.24372E-03-1.78929E-02
 -1      1506-2.73864E-03-9.31687E-03-2.67046E-02
 -1      1508-4.10655E-03-5.07373E-03-2.67322E-02
 -1      1509-3.39637E-03-1.43596E-02-3.61392E-02
 -1      1511-4.55162E-03-8.64397E-03-3.61530E-02
 -1      1512-3.61599E-03-1.98351E-02-4.51714E-02
 -1      1514-4.85242E-03-1.26820E-02-4.51813E-02
 -1      1515-3.64448E-03-2.54330E-02-5.42488E-02
 -1      1517-4.82195E-03-1.68491E-02-5.42385E-02
 -1      1518-3.37948E-03-3.08564E-02-6.31231E-02
 -1      1520-4.55879E-03-2.08637E-02-6.31130E-02
 -1      1521-2.93125E-03-3.58256E-02-7.18921E-02
 -1      1523-4.08135E-03-2.44503E-02-7.18660E-02
 -1      1524-2.30818E-03-4.01443E-02-8.04735E-02
 -1      1526-3.43880E-03-2.74103E-02-8.04490E-02
 -1      1527-1.58923E-03-4.36404E-02-8.88813E-02
 -1      1529-2.69242E-03-2.95832E-02-8.88482E-02
 -1      1530-8.23498E-04-4.62418E-02-9.70718E-02
 -1      1532-1.89796E-03-3.08923E-02-9.70428E-02
 -1      1533-7.97868E-05-4.79217E-02-1.05035E-01
 -1      1535-1.12182E-03-3.13224E-02-1.05004E-01
 -1      1536 5.86807E-04-4.87431E-02-1.12735E-01
 -1      1538-4.19131E-04-3.09334E-02-1.12712E-01
 -1      1539 1.12278E-03-4.88176E-02-1.20153E-01
 -1      1541 1.56246E-04-2.98468E-02-1.20134E-01
 -1      1542 1.48864E-03-4.83213E-02-1.27256E-01
 -1      1544 5.65605E-04-2.82375E-02-1.27246E-01
 -1      1545 1.65660E-03-4.74613E-02-1.34020E-01
 -1      1547 7.80466E-04-2.63205E-02-1.34017E-01
 -1      1548 1.61524E-03-4.64733E-02-1.40415E-01
 -1      1550 7.89921E-04-2.43319E-02-1.40422E-01
 -1      1551 1.36837E-03-4.55927E-02-1.46417E-01
 -1      1553 5.97096E-04-2.25134E-02-1.46431E-01
 -1      1554 9.35532E-04-4.50453E-02-1.52000E-01
 -1      1556 2.21623E-04-2.10917E-02-1.52021E-01
 -1      1557 3.49449E-04-4.50233E-02-1.57142E-01
 -1      1559-3.04436E-04-2.02639E-02-1.57169E-01
 -1      1560-3.46283E-04-4.56772E-02-1.61825E-01
 -1      1562-9.37699E-04-2.01817E-02-1.61856E-01
 -1      1563-1.10129E-03-4.71009E-02-1.66033E-01
 -1      1565-1.62848E-03-2.09425E-02-1.66064E-01
 -1      1566-1.86266E-03-4.93299E-02-1.69753E-01
 -1      1568-2.32415E-03-2.25826E-02-1.69784E-01
 -1      1569-2.57942E-03-5.23378E-02-1.72978E-01
 -1      1571-2.97462E-03-2.50782E-02-1.73006E-01
 -1      1572-3.20813E-03-5.60442E-02-1.75702E-01
 -1      1574-3.53615E-03-2.83490E-02-1.75726E-01
 -1      1575-3.71528E-03-6.03225E-02-1.77926E-01
 -1      1577-3.97737E-03-3.22703E-02-1.77944E-01
 -1      1578-4.08587E-03-6.50171E-02-1.79646E-01
 -1      1580-4.27982E-03-3.66866E-02-1.79658E-01
 -1      1581-4.31704E-03-6.99622E-02-1.80875E-01
 -1      1583-4.44910E-03-4.14325E-02-1.80882E-01
 -1      1584-4.43994E-03-7.50024E-02-1.81598E-01
 -1      1586-4.49885E-03-4.63536E-02-1.81602E-01
 -1      1587-2.24098E-03-7.96783E-02-8.73442E-02
 -1      1589-2.24661E-03-5.16690E-02-8.73419E-02
 -1      1590 0.00000E+00 0.00000E+00 2.40219E-05
 -1      1592 0.00000E+00 0.00000E+00-2.40219E-05
 -1      1593 2.24098E-03-7.96783E-02 8.73442E-02
 -1      1595 2.24661E-03-5.16690E-02 8.73419E-02
 -1      1596 5.33583E-04-2.00553E-03 7.56640E-03
 -1      1598 2.39466E-03-6.49580E-04 7.60184E-03
 -1      1599 2.07272E-03-5.05658E-03 1.78446E-02
 -1      1601 3.02085E-03-2.24372E-03 1.78929E-02
 -1      1602 2.73864E-03-9.31687E-03 2.67046E-02
 -1      1604 4.10655E-03-5.07373E-03 2.67322E-02
 -1      1605 3.39637E-03-1.43596E-02 3.61392E-02
 -1      1607 4.55162E-03-8.64397E-03 3.61530E-02
 -1      1608 3.61599E-03-1.98351E-02 4.51714E-02
 -1      1610 4.85242E-03-1.26820E-02 4.51813E-02
 -1      1611 3.64448E-03-2.54330E-02 5.42488E-02
 -1      1613 4.82195E-03-1.68491E-02 5.42385E-02
 -1      1614 3.37948E-03-3.08564E-02 6.31231E-02
 -1      1616 4.55879E-03-2.08637E-02 6.31130E-02
 -1      1617 2.93125E-03-3.58256E-02 7.18921E-02
 -1      1619 4.08135E-03-2.44503E-02 7.18660E-02
 -1      1620 2.30818E-03-4.01443E-02 8.04735E-02
 -1      1622 3.43880E-03-2.74103E-02 8.04490E-02
 -1      1623 1.58923E-03-4.36404E-02 8.88813E-02
 -1      1625 2.69242E-03-2.95832E-02 8.88482E-02
 -1      1626 8.23498E-04-4.62418E-02 9.70718E-02
 -1      1628 1.89796E-03-3.08923E-02 9.70428E-02
 -1      1629 7.97868E-05-4.79217E-02 1.05035E-01
 -1      1631 1.12182E-03-3.13224E-02 1.05004E-01
 -1      1632-5.86807E-04-4.87431E-02 1.12735E-01
 -1      1634 4.19131E-04-3.09334E-02 1.12712E-01
 -1      1635-1.12278E-03-4.88176E-02 1.20153E-01
 -1      1637-1.56246E-04-2.98468E-02 1.20134E-01
 -1      1638-1.48864E-03-4.83213E-02 1.27256E-01
 -1      1640-5.65605E-04-2.82375E-02 1.27246E-01
 -1      1641-1.65660E-03-4.74613E-02 1.34020E-01
 -1      1643-7.80466E-04-2.63205E-02 1.34017E-01
 -1      1644-1.61524E-03-4.64733E-02 1.40415E-01
 -1      1646-7.89921E-04-2.43319E-02 1.40422E-01
 -1      1647-1.36837E-03-4.55927E-02 1.46417E-01
 -1      1649-5.97096E-04-2.25134E-02 1.46431E-01
 -1      1650-9.35532E-04-4.50453E-02 1.52000E-01
 -1      1652-2.21623E-04-2.10917E-02 1.52021E-01
 -1      1653-3.49449E-04-4.50233E-02 1.57142E-01
 -1      1655 3.04436E-04-2.02639E-02 1.57169E-01
 -1      1656 3.46283E-04-4.56772E-02 1.61825E-01
 -1      1658 9.37699E-04-2.01817E-02 1.61856E-01
 -1      1659 1.10129E-03-4.71009E-02 1.66033E-01
 -1      1661 1.62848E-03-2.09425E-02 1.66064E-01
 -1      1662 1.86266E-03-4.93299E-02 1.69753E-01
 -1      1664 2.32415E-03-2.25826E-02 1.69784E-01
 -1      1665 2.57942E-03-5.23378E-02 1.72978E-01
 -1      1667 2.97462E-03-2.50782E-02 1.73006E-01
 -1      1668 3.20813E-03-5.60442E-02 1.75702E-01
 -1      1670 3.53615E-03-2.83490E-02 1.75726E-01
 -1      1671 3.71528E-03-6.03225E-02 1.77926E-01
 -1      1673 3.97737E-03-3.22703E-02 1.77944E-01
 -1      1674 4.08587E-03-6.50171E-02 1.79646E-01
 -1      1676 4.27982E-03-3.66866E-02 1.79658E-01
 -1      1677 4.31704E-03-6.99622E-02 1.80875E-01
 -1      1679 4.44910E-03-4.14325E-02 1.80882E-01
 -1      1680 4.43994E-03-7.50024E-02 1.81598E-01
 -1      1682 4.49885E-03-4.63536E-02 1.81602E-01
 -1      1683 0.00000E+00 0.00000E+00-2.40219E-05
 -1      1685 0.00000E+00 0.00000E+00 2.40219E-05
 -1      1686 1.71135E-04-1.69340E-03-3.46156E-03
 -1      1688 1.11887E-03-5.84311E-04-3.49504E-03
 -1      1689 1.03254E-03-4.93622E-03-8.60832E-03
 -1      1691 1.49518E-03-2.20513E-03-8.61971E-03
 -1      1692 1.33443E-03-9.17651E-03-1.27678E-02
 -1      1694 2.01450E-03-5.04747E-03-1.27861E-02
 -1      1695 1.66224E-03-1.42477E-02-1.73348E-02
 -1      1697 2.23316E-03-8.69034E-03-1.73419E-02
 -1      1698 1.78710E-03-1.97231E-02-2.16406E-02
 -1      1700 2.39790E-03-1.27496E-02-2.16413E-02
 -1      1701 1.79072E-03-2.53391E-02-2.59934E-02
 -1      1703 2.37358E-03-1.69835E-02-2.59921E-02
 -1      1704 1.67281E-03-3.07590E-02-3.02433E-02
 -1      1706 2.25560E-03-2.10218E-02-3.02330E-02
 -1      1707 1.44719E-03-3.57366E-02-3.44443E-02
 -1      1709 2.01698E-03-2.46579E-02-3.44342E-02
 -1      1710 1.14607E-03-4.00470E-02-3.85634E-02
 -1      1712 1.70602E-03-2.76385E-02-3.85470E-02
 -1      1713 7.90814E-04-4.35384E-02-4.25995E-02
 -1      1715 1.33835E-03-2.98410E-02-4.25841E-02
 -1      1716 4.16121E-04-4.61239E-02-4.65406E-02
 -1      1718 9.49735E-04-3.11616E-02-4.65230E-02
 -1      1719 4.98432E-05-4.77866E-02-5.03744E-02
 -1      1721 5.68269E-04-3.16031E-02-5.03589E-02
 -1      1722-2.77419E-04-4.85838E-02-5.40895E-02
 -1      1724 2.23517E-04-3.12142E-02-5.40750E-02
 -1      1725-5.41282E-04-4.86319E-02-5.76709E-02
 -1      1727-5.93478E-05-3.01249E-02-5.76598E-02
 -1      1728-7.21148E-04-4.81057E-02-6.11053E-02
 -1      1730-2.60586E-04-2.85066E-02-6.10974E-02
 -1      1731-8.03978E-04-4.72152E-02-6.43772E-02
 -1      1733-3.66566E-04-2.65792E-02-6.43734E-02
 -1      1734-7.83738E-04-4.61965E-02-6.74723E-02
 -1      1736-3.71685E-04-2.45782E-02-6.74724E-02
 -1      1737-6.62497E-04-4.52873E-02-7.03762E-02
 -1      1739-2.77561E-04-2.27486E-02-7.03800E-02
 -1      1740-4.49692E-04-4.47141E-02-7.30757E-02
 -1      1742-9.37191E-05-2.13177E-02-7.30828E-02
 -1      1743-1.61447E-04-4.46706E-02-7.55589E-02
 -1      1745 1.64113E-04-2.04847E-02-7.55686E-02
 -1      1746 1.80870E-04-4.53079E-02-7.78159E-02
 -1      1748 4.74719E-04-2.04016E-02-7.78272E-02
 -1      1749 5.52573E-04-4.67206E-02-7.98386E-02
 -1      1751 8.13790E-04-2.11669E-02-7.98504E-02
 -1      1752 9.27633E-04-4.89442E-02-8.16210E-02
 -1      1754 1.15555E-03-2.28163E-02-8.16324E-02
 -1      1755 1.28124E-03-5.19518E-02-8.31601E-02
 -1      1757 1.47561E-03-2.53261E-02-8.31701E-02
 -1      1758 1.59188E-03-5.56623E-02-8.44539E-02
 -1      1760 1.75250E-03-2.86141E-02-8.44619E-02
 -1      1761 1.84368E-03-5.99479E-02-8.55047E-02
 -1      1763 1.97130E-03-3.25550E-02-8.55101E-02
 -1      1764 2.02880E-03-6.46520E-02-8.63123E-02
 -1      1766 2.12276E-03-3.69901E-02-8.63150E-02
 -1      1767 2.14692E-03-6.96063E-02-8.68867E-02
 -1      1769 2.21047E-03-4.17527E-02-8.68869E-02
 -1      1770 2.21322E-03-7.46543E-02-8.72207E-02
 -1      1772 2.24136E-03-4.66857E-02-8.72193E-02
 -1      1773-1.71135E-04-1.69340E-03 3.46156E-03
 -1      1775-1.11887E-03-5.84311E-04 3.49504E-03
 -1      1776-1.03254E-03-4.93622E-03 8.60832E-03
 -1      1778-1.49518E-03-2.20513E-03 8.61971E-03
 -1      1779-1.33443E-03-9.17651E-03 1.27678E-02
 -1      1781-2.01450E-03-5.04747E-03 1.27861E-02
 -1      1782-1.66224E-03-1.42477E-02 1.73348E-02
 -1      1784-2.23316E-03-8.69034E-03 1.73419E-02
 -1      1785-1.78710E-03-1.97231E-02 2.16406E-02
 -1      1787-2.39790E-03-1.27496E-02 2.16413E-02
 -1      1788-1.79072E-03-2.53391E-02 2.59934E-02
 -1      1790-2.37358E-03-1.69835E-02 2.59921E-02
 -1      1791-1.67281E-03-3.07590E-02 3.02433E-02
 -1      1793-2.25560E-03-2.10218E-02 3.02330E-02
 -1      1794-1.44719E-03-3.57366E-02 3.44443E-02
 -1      1796-2.01698E-03-2.46579E-02 3.44342E-02
 -1      1797-1.14607E-03-4.00470E-02 3.85634E-02
 -1      1799-1.70602E-03-2.76385E-02 3.85470E-02
 -1      1800-7.90814E-04-4.35384E-02 4.25995E-02
 -1      1802-1.33835E-03-2.98410E-02 4.25841E-02
 -1      1803-4.16121E-04-4.61239E-02 4.65406E-02
 -1      1805-9.49735E-04-3.11616E-02 4.65230E-02
 -1      1806-4.98432E-05-4.77866E-02 5.03744E-02
 -1      1808-5.68269E-04-3.16031E-02 5.03589E-02
 -1      1809 2.77419E-04-4.85838E-02 5.40895E-02
 -1      1811-2.23517E-04-3.12142E-02 5.40750E-02
 -1      1812 5.41282E-04-4.86319E-02 5.76709E-02
 -1      1814 5.93478E-05-3.01249E-02 5.76598E-02
 -1      1815 7.21148E-04-4.81057E-02 6.11053E-02
 -1      1817 2.60586E-04-2.85066E-02 6.10974E-02
 -1      1818 8.03978E-04-4.72152E-02 6.43772E-02
 -1      1820 3.66566E-04-2.65792E-02 6.43734E-02
 -1      1821 7.83738E-04-4.61965E-02 6.74723E-02
 -1      1823 3.71685E-04-2.45782E-02 6.74724E-02
 -1      1824 6.62497E-04-4.52873E-02 7.03762E-02
 -1      1826 2.77561E-04-2.27486E-02 7.03800E-02
 -1      1827 4.49692E-04-4.47141E-02 7.30757E-02
 -1      1829 9.37191E-05-2.13177E-02 7.30828E-02
 -1      1830 1.61447E-04-4.46706E-02 7.55589E-02
 -1      1832-1.64113E-04-2.04847E-02 7.55686E-02
 -1      1833-1.80870E-04-4.53079E-02 7.78159E-02
 -1      1835-4.74719E-04-2.04016E-02 7.78272E-02
 -1      1836-5.52573E-04-4.67206E-02 7.98386E-02
 -1      1838-8.13790E-04-2.11669E-02 7.98504E-02
 -1      1839-9.27633E-04-4.89442E-02 8.16210E-02
 -1      1841-1.15555E-03-2.28163E-02 8.16324E-02
 -1      1842-1.28124E-03-5.19518E-02 8.31601E-02
 -1      1844-1.47561E-03-2.53261E-02 8.31701E-02
 -1      1845-1.59188E-03-5.56623E-02 8.44539E-02
 -1      1847-1.75250E-03-2.86141E-02 8.44619E-02
 -1      1848-1.84368E-03-5.99479E-02 8.55047E-02
 -1      1850-1.97130E-03-3.25550E-02 8.55101E-02
 -1      1851-2.02880E-03-6.46520E-02 8.63123E-02
 -1      1853-2.12276E-03-3.69901E-02 8.63150E-02
 -1      1854-2.14692E-03-6.96063E-02 8.68867E-02
 -1      1856-2.21047E-03-4.17527E-02 8.68869E-02
 -1      1857-2.21322E-03-7.46543E-02 8.72207E-02
 -1      1859-2.24136E-03-4.66857E-02 8.72193E-02
 -1      1860 3.24759E-04 4.99075E-03 1.97344E-04
 -1      1862-3.24759E-04 4.99075E-03-1.97344E-04
 -1      1863 3.98233E-05 1.03141E-02 4.21663E-04
 -1      1865-3.98233E-05 1.03141E-02-4.21663E-04
 -1      1866 1.25632E-04 1.34112E-02 6.32985E-04
 -1      1868-1.25632E-04 1.34112E-02-6.32985E-04
 -1      1869 2.89200E-05 1.63247E-02 8.48554E-04
 -1      1871-2.89200E-05 1.63247E-02-8.48554E-04
 -1      1872 4.80478E-05 1.83477E-02 1.05884E-03
 -1      1874-4.80478E-05 1.83477E-02-1.05884E-03
 -1      1875 3.07751E-05 2.03694E-02 1.26857E-03
 -1      1877-3.07751E-05 2.03694E-02-1.26857E-03
 -1      1878 4.80454E-05 2.23803E-02 1.47577E-03
 -1      1880-4.80454E-05 2.23803E-02-1.47577E-03
 -1      1881 6.65377E-05 2.47909E-02 1.68042E-03
 -1      1883-6.65377E-05 2.47909E-02-1.68042E-03
 -1      1884 9.55052E-05 2.77359E-02 1.88338E-03
 -1      1886-9.55052E-05 2.77359E-02-1.88338E-03
 -1      1887 1.29004E-04 3.13889E-02 2.08289E-03
 -1      1889-1.29004E-04 3.13889E-02-2.08289E-03
 -1      1890 1.63335E-04 3.58086E-02 2.28018E-03
 -1      1892-1.63335E-04 3.58086E-02-2.28018E-03
 -1      1893 1.96781E-04 4.09924E-02 2.47304E-03
 -1      1895-1.96781E-04 4.09924E-02-2.47304E-03
 -1      1896 2.24610E-04 4.68603E-02 2.66214E-03
 -1      1898-2.24610E-04 4.68603E-02-2.66214E-03
 -1      1899 2.45489E-04 5.32629E-02 2.84525E-03
 -1      1901-2.45489E-04 5.32629E-02-2.84525E-03
 -1      1902 2.56229E-04 5.99964E-02 3.02239E-03
 -1      1904-2.56229E-04 5.99964E-02-3.02239E-03
 -1      1905 2.56191E-04 6.68135E-02 3.19147E-03
 -1      1907-2.56191E-04 6.68135E-02-3.19147E-03
 -1      1908 2.44243E-04 7.34452E-02 3.35204E-03
 -1      1910-2.44243E-04 7.34452E-02-3.35204E-03
 -1      1911 2.21028E-04 7.96178E-02 3.50230E-03
 -1      1913-2.21028E-04 7.96178E-02-3.50230E-03
 -1      1914 1.87383E-04 8.50744E-02 3.64165E-03
 -1      1916-1.87383E-04 8.50744E-02-3.64165E-03
 -1      1917 1.45292E-04 8.95919E-02 3.76873E-03
 -1      1919-1.45292E-04 8.95919E-02-3.76873E-03
 -1      1920 9.70491E-05 9.29974E-02 3.88310E-03
 -1      1922-9.70491E-05 9.29974E-02-3.88310E-03
 -1      1923 4.54948E-05 9.51786E-02 3.98396E-03
 -1      1925-4.54948E-05 9.51786E-02-3.98396E-03
 -1      1926-6.48116E-06 9.60903E-02 4.07125E-03
 -1      1928 6.48116E-06 9.60903E-02-4.07125E-03
 -1      1929-5.60145E-05 9.57556E-02 4.14479E-03
 -1      1931 5.60145E-05 9.57556E-02-4.14479E-03
 -1      1932-1.00698E-04 9.42594E-02 4.20495E-03
 -1      1934 1.00698E-04 9.42594E-02-4.20495E-03
 -1      1935-1.38440E-04 9.17398E-02 4.25216E-03
 -1      1937 1.38440E-04 9.17398E-02-4.25216E-03
 -1      1938-1.68600E-04 8.83677E-02 4.28716E-03
 -1      1940 1.68600E-04 8.83677E-02-4.28716E-03
 -1      1941-1.89937E-04 8.43358E-02 4.31087E-03
 -1      1943 1.89937E-04 8.43358E-02-4.31087E-03
 -1      1944-2.05599E-04 7.98165E-02 4.32431E-03
 -1      1946 2.05599E-04 7.98165E-02-4.32431E-03
 -1      1947 6.45282E-04 7.18219E-03-8.57292E-14
 -1      1949-6.45282E-04 7.18219E-03-8.14218E-14
 -1      1950 1.78459E-04 1.52794E-02-1.96582E-13
 -1      1952-1.78459E-04 1.52794E-02-1.84261E-13
 -1      1953 3.65217E-04 2.07476E-02-3.24286E-13
 -1      1955-3.65217E-04 2.07476E-02-3.01884E-13
 -1      1956 2.07875E-04 2.62208E-02-4.59386E-13
 -1      1958-2.07875E-04 2.62208E-02-4.24386E-13
 -1      1959 2.59381E-04 3.06648E-02-5.95649E-13
 -1      1961-2.59381E-04 3.06648E-02-5.46320E-13
 -1      1962 2.19134E-04 3.51457E-02-7.29278E-13
 -1      1964-2.19134E-04 3.51457E-02-6.65197E-13
 -1      1965 2.46957E-04 3.95566E-02-8.51028E-13
 -1      1967-2.46957E-04 3.95566E-02-7.73263E-13
 -1      1968 2.54679E-04 4.43603E-02-9.58483E-13
 -1      1970-2.54679E-04 4.43603E-02-8.69423E-13
 -1      1971 2.86305E-04 4.96597E-02-1.05348E-12
 -1      1973-2.86305E-04 4.96597E-02-9.56145E-13
 -1      1974 3.13060E-04 5.56431E-02-1.13651E-12
 -1      1976-3.13060E-04 5.56431E-02-1.03299E-12
 -1      1977 3.46254E-04 6.23531E-02-1.20239E-12
 -1      1979-3.46254E-04 6.23531E-02-1.09442E-12
 -1      1980 3.73791E-04 6.97873E-02-1.24199E-12
 -1      1982-3.73791E-04 6.97873E-02-1.13211E-12
 -1      1983 3.97811E-04 7.78519E-02-1.25385E-12
 -1      1985-3.97811E-04 7.78519E-02-1.14538E-12
 -1      1986 4.12055E-04 8.63894E-02-1.23632E-12
 -1      1988-4.12055E-04 8.63894E-02-1.13248E-12
 -1      1989 4.16574E-04 9.51816E-02-1.18552E-12
 -1      1991-4.16574E-04 9.51816E-02-1.08968E-12
 -1      1992 4.08392E-04 1.03969E-01-1.10540E-12
 -1      1994-4.08392E-04 1.03969E-01-1.02059E-12
 -1      1995 3.87956E-04 1.12467E-01-1.00407E-12
 -1      1997-3.87956E-04 1.12467E-01-9.32570E-13
 -1      1998 3.54875E-04 1.20390E-01-8.85547E-13
 -1      2000-3.54875E-04 1.20390E-01-8.28252E-13
 -1      2001 3.10801E-04 1.27467E-01-7.53852E-13
 -1      2003-3.10801E-04 1.27467E-01-7.12333E-13
 -1      2004 2.57379E-04 1.33465E-01-6.09133E-13
 -1      2006-2.57379E-04 1.33465E-01-5.85590E-13
 -1      2007 1.97349E-04 1.38201E-01-4.49103E-13
 -1      2009-1.97349E-04 1.38201E-01-4.45435E-13
 -1      2010 1.33607E-04 1.41557E-01-2.78930E-13
 -1      2012-1.33607E-04 1.41557E-01-2.94190E-13
 -1      2013 6.92483E-05 1.43485E-01-1.03327E-13
 -1      2015-6.92483E-05 1.43485E-01-1.35877E-13
 -1      2016 7.47550E-06 1.44007E-01 7.39339E-14
 -1      2018-7.47550E-06 1.44007E-01 2.49800E-14
 -1      2019-4.94028E-05 1.43211E-01 2.47871E-13
 -1      2021 4.94028E-05 1.43211E-01 1.83473E-13
 -1      2022-9.85920E-05 1.41243E-01 4.21291E-13
 -1      2024 9.85920E-05 1.41243E-01 3.44480E-13
 -1      2025-1.40162E-04 1.38279E-01 5.93230E-13
 -1      2027 1.40162E-04 1.38279E-01 5.06871E-13
 -1      2028-1.71314E-04 1.34525E-01 7.58848E-13
 -1      2030 1.71314E-04 1.34525E-01 6.63955E-13
 -1      2031-1.97486E-04 1.30162E-01 9.15542E-13
 -1      2033 1.97486E-04 1.30162E-01 8.13427E-13
 -1      2034 3.24759E-04 4.99075E-03-1.97344E-04
 -1      2036-3.24759E-04 4.99075E-03 1.97344E-04
 -1      2037 3.98233E-05 1.03141E-02-4.21663E-04
 -1      2039-3.98233E-05 1.03141E-02 4.21663E-04
 -1      2040 1.25632E-04 1.34112E-02-6.32985E-04
 -1      2042-1.25632E-04 1.34112E-02 6.32985E-04
 -1      2043 2.89200E-05 1.63247E-02-8.48554E-04
 -1      2045-2.89200E-05 1.63247E-02 8.48554E-04
 -1      2046 4.80478E-05 1.83477E-02-1.05884E-03
 -1      2048-4.80478E-05 1.83477E-02 1.05884E-03
 -1      2049 3.07751E-05 2.03694E-02-1.26857E-03
 -1      2051-3.07751E-05 2.03694E-02 1.26857E-03
 -1      2052 4.80454E-05 2.23803E-02-1.47577E-03
 -1      2054-4.80454E-05 2.23803E-02 1.47577E-03
 -1      2055 6.65377E-05 2.47909E-02-1.68042E-03
 -1      2057-6.65377E-05 2.47909E-02 1.68042E-03
 -1      2058 9.55052E-05 2.77359E-02-1.88338E-03
 -1      2060-9.55052E-05 2.77359E-02 1.88338E-03
 -1      2061 1.29004E-04 3.13889E-02-2.08289E-03
 -1      2063-1.29004E-04 3.13889E-02 2.08289E-03
 -1      2064 1.63335E-04 3.58086E-02-2.28018E-03
 -1      2066-1.63335E-04 3.58086E-02 2.28018E-03
 -1      2067 1.96781E-04 4.09924E-02-2.47304E-03
 -1      2069-1.96781E-04 4.09924E-02 2.47304E-03
 -1      2070 2.24610E-04 4.68603E-02-2.66214E-03
 -1      2072-2.24610E-04 4.68603E-02 2.66214E-03
 -1      2073 2.45489E-04 5.32629E-02-2.84525E-03
 -1      2075-2.45489E-04 5.32629E-02 2.84525E-03
 -1      2076 2.56229E-04 5.99964E-02-3.02239E-03
 -1      2078-2.56229E-04 5.99964E-02 3.02239E-03
 -1      2079 2.56191E-04 6.68135E-02-3.19147E-03
 -1      2081-2.56191E-04 6.68135E-02 3.19147E-03
 -1      2082 2.44243E-04 7.34452E-02-3.35204E-03
 -1      2084-2.44243E-04 7.34452E-02 3.35204E-03
 -1      2085 2.21028E-04 7.96178E-02-3.50230E-03
 -1      2087-2.21028E-04 7.96178E-02 3.50230E-03
 -1      2088 1.87383E-04 8.50744E-02-3.64165E-03
 -1      2090-1.87383E-04 8.50744E-02 3.64165E-03
 -1      2091 1.45292E-04 8.95919E-02-3.76873E-03
 -1      2093-1.45292E-04 8.95919E-02 3.76873E-03
 -1      2094 9.70491E-05 9.29974E-02-3.88310E-03
 -1      2096-9.70491E-05 9.29974E-02 3.88310E-03
 -1      2097 4.54948E-05 9.51786E-02-3.98396E-03
 -1      2099-4.54948E-05 9.51786E-02 3.98396E-03
 -1      2100-6.48116E-06 9.60903E-02-4.07125E-03
 -1      2102 6.48116E-06 9.60903E-02 4.07125E-03
 -1      2103-5.60145E-05 9.57556E-02-4.14479E-03
 -1      2105 5.60145E-05 9.57556E-02 4.14479E-03
 -1      2106-1.00698E-04 9.42594E-02-4.20495E-03
 -1      2108 1.00698E-04 9.42594E-02 4.20495E-03
 -1      2109-1.38440E-04 9.17398E-02-4.25216E-03
 -1      2111 1.38440E-04 9.17398E-02 4.25216E-03
 -1      2112-1.68600E-04 8.83677E-02-4.28716E-03
 -1      2114 1.68600E-04 8.83677E-02 4.28716E-03
 -1      2115-1.89937E-04 8.43358E-02-4.31087E-03
 -1      2117 1.89937E-04 8.43358E-02 4.31087E-03
 -1      2118-2.05599E-04 7.98165E-02-4.32431E-03
 -1      2120 2.05599E-04 7.98165E-02 4.32431E-03
 -1      2121-1.71135E-04-1.69340E-03-3.46156E-03
 -1      2123-1.11887E-03-5.84311E-04-3.49504E-03
 -1      2124-1.03254E-03-4.93622E-03-8.60832E-03
 -1      2126-1.49518E-03-2.20513E-03-8.61971E-03
 -1      2127-1.33443E-03-9.17651E-03-1.27678E-02
 -1      2129-2.01450E-03-5.04747E-03-1.27861E-02
 -1      2130-1.66224E-03-1.42477E-02-1.73348E-02
 -1      2132-2.23316E-03-8.69034E-03-1.73419E-02
 -1      2133-1.78710E-03-1.97231E-02-2.16406E-02
 -1      2135-2.39790E-03-1.27496E-02-2.16413E-02
 -1      2136-1.79072E-03-2.53391E-02-2.59934E-02
 -1      2138-2.37358E-03-1.69835E-02-2.59921E-02
 -1      2139-1.67281E-03-3.07590E-02-3.02433E-02
 -1      2141-2.25560E-03-2.10218E-02-3.02330E-02
 -1      2142-1.44719E-03-3.57366E-02-3.44443E-02
 -1      2144-2.01698E-03-2.46579E-02-3.44342E-02
 -1      2145-1.14607E-03-4.00470E-02-3.85634E-02
 -1      2147-1.70602E-03-2.76385E-02-3.85470E-02
 -1      2148-7.90814E-04-4.35384E-02-4.25995E-02
 -1      2150-1.33835E-03-2.98410E-02-4.25841E-02
 -1      2151-4.16121E-04-4.61239E-02-4.65406E-02
 -1      2153-9.49735E-04-3.11616E-02-4.65230E-02
 -1      2154-4.98432E-05-4.77866E-02-5.03744E-02
 -1      2156-5.68269E-04-3.16031E-02-5.03589E-02
 -1      2157 2.77419E-04-4.85838E-02-5.40895E-02
 -1      2159-2.23517E-04-3.12142E-02-5.40750E-02
 -1      2160 5.41282E-04-4.86319E-02-5.76709E-02
 -1      2162 5.93478E-05-3.01249E-02-5.76598E-02
 -1      2163 7.21148E-04-4.81057E-02-6.11053E-02
 -1      2165 2.60586E-04-2.85066E-02-6.10974E-02
 -1      2166 8.03978E-04-4.72152E-02-6.43772E-02
 -1      2168 3.66566E-04-2.65792E-02-6.43734E-02
 -1      2169 7.83738E-04-4.61965E-02-6.74723E-02
 -1      2171 3.71685E-04-2.45782E-02-6.74724E-02
 -1      2172 6.62497E-04-4.52873E-02-7.03762E-02
 -1      2174 2.77561E-04-2.27486E-02-7.03800E-02
 -1      2175 4.49692E-04-4.47141E-02-7.30757E-02
 -1      2177 9.37191E-05-2.13177E-02-7.30828E-02
 -1      2178 1.61447E-04-4.46706E-02-7.55589E-02
 -1      2180-1.64113E-04-2.04847E-02-7.55686E-02
 -1      2181-1.80870E-04-4.53079E-02-7.78159E-02
 -1      2183-4.74719E-04-2.04016E-02-7.78272E-02
 -1      2184-5.52573E-04-4.67206E-02-7.98386E-02
 -1      2186-8.13790E-04-2.11669E-02-7.98504E-02
 -1      2187-9.27633E-04-4.89442E-02-8.16210E-02
 -1      2189-1.15555E-03-2.28163E-02-8.16324E-02
 -1      2190-1.28124E-03-5.19518E-02-8.31601E-02
 -1      2192-1.47561E-03-2.53261E-02-8.31701E-02
 -1      2193-1.59188E-03-5.56623E-02-8.44539E-02
 -1      2195-1.75250E-03-2.86141E-02-8.44619E-02
 -1      2196-1.84368E-03-5.99479E-02-8.55047E-02
 -1      2198-1.97130E-03-3.25550E-02-8.55101E-02
 -1      2199-2.02880E-03-6.46520E-02-8.63123E-02
 -1      2201-2.12276E-03-3.69901E-02-8.63150E-02
 -1      2202-2.14692E-03-6.96063E-02-8.68867E-02
 -1      2204-2.21047E-03-4.17527E-02-8.68869E-02
 -1      2205-2.21322E-03-7.46543E-02-8.72207E-02
 -1      2207-2.24136E-03-4.66857E-02-8.72193E-02
 -1      2208 1.71135E-04-1.69340E-03 3.46156E-03
 -1      2210 1.11887E-03-5.84311E-04 3.49504E-03
 -1      2211 1.03254E-03-4.93622E-03 8.60832E-03
 -1      2213 1.49518E-03-2.20513E-03 8.61971E-03
 -1      2214 1.33443E-03-9.17651E-03 1.27678E-02
 -1      2216 2.01450E-03-5.04747E-03 1.27861E-02
 -1      2217 1.66224E-03-1.42477E-02 1.73348E-02
 -1      2219 2.23316E-03-8.69034E-03 1.73419E-02
 -1      2220 1.78710E-03-1.97231E-02 2.16406E-02
 -1      2222 2.39790E-03-1.27496E-02 2.16413E-02
 -1      2223 1.79072E-03-2.53391E-02 2.59934E-02
 -1      2225 2.37358E-03-1.69835E-02 2.59921E-02
 -1      2226 1.67281E-03-3.07590E-02 3.02433E-02
 -1      2228 2.25560E-03-2.10218E-02 3.02330E-02
 -1      2229 1.44719E-03-3.57366E-02 3.44443E-02
 -1      2231 2.01698E-03-2.46579E-02 3.44342E-02
 -1      2232 1.14607E-03-4.00470E-02 3.85634E-02
 -1      2234 1.70602E-03-2.76385E-02 3.85470E-02
 -1      2235 7.90814E-04-4.35384E-02 4.25995E-02
 -1      2237 1.33835E-03-2.98410E-02 4.25841E-02
 -1      2238 4.16121E-04-4.61239E-02 4.65406E-02
 -1      2240 9.49735E-04-3.11616E-02 4.65230E-02
 -1      2241 4.98432E-05-4.77866E-02 5.03744E-02
 -1      2243 5.68269E-04-3.16031E-02 5.03589E-02
 -1      2244-2.77419E-04-4.85838E-02 5.40895E-02
 -1      2246 2.23517E-04-3.12142E-02 5.40750E-02
 -1      2247-5.41282E-04-4.86319E-02 5.76709E-02
 -1      2249-5.93478E-05-3.01249E-02 5.76598E-02
 -1      2250-7.21148E-04-4.81057E-02 6.11053E-02
 -1      2252-2.60586E-04-2.85066E-02 6.10974E-02
 -1      2253-8.03978E-04-4.72152E-02 6.43772E-02
 -1      2255-3.66566E-04-2.65792E-02 6.43734E-02
 -1      2256-7.83738E-04-4.61965E-02 6.74723E-02
 -1      2258-3.71685E-04-2.45782E-02 6.74724E-02
 -1      2259-6.62497E-04-4.52873E-02 7.03762E-02
 -1      2261-2.77561E-04-2.27486E-02 7.03800E-02
 -1      2262-4.49692E-04-4.47141E-02 7.30757E-02
 -1      2264-9.37191E-05-2.13177E-02 7.30828E-02
 -1      2265-1.61447E-04-4.46706E-02 7.55589E-02
 -1      2267 1.64113E-04-2.04847E-02 7.55686E-02
 -1      2268 1.80870E-04-4.53079E-02 7.78159E-02
 -1      2270 4.74719E-04-2.04016E-02 7.78272E-02
 -1      2271 5.52573E-04-4.67206E-02 7.98386E-02
 -1      2273 8.13790E-04-2.11669E-02 7.98504E-02
 -1      2274 9.27633E-04-4.89442E-02 8.16210E-02
 -1      2276 1.15555E-03-2.28163E-02 8.16324E-02
 -1      2277 1.28124E-03-5.19518E-02 8.31601E-02
 -1      2279 1.47561E-03-2.53261E-02 8.31701E-02
 -1      2280 1.59188E-03-5.56623E-02 8.44539E-02
 -1      2282 1.75250E-03-2.86141E-02 8.44619E-02
 -1      2283 1.84368E-03-5.99479E-02 8.55047E-02
 -1      2285 1.97130E-03-3.25550E-02 8.55101E-02
 -1      2286 2.02880E-03-6.46520E-02 8.63123E-02
 -1      2288 2.12276E-03-3.69901E-02 8.63150E-02
 -1      2289 2.14692E-03-6.96063E-02 8.68867E-02
 -1      2291 2.21047E-03-4.17527E-02 8.68869E-02
 -1      2292 2.21322E-03-7.46543E-02 8.72207E-02
 -1      2294 2.24136E-03-4.66857E-02 8.72193E-02
 -3
    1PSTEP                        22           1           1          
    1PGM                1.000000E+00                                  
    1PGK                2.271357E+06                                  
    1PHID                         -1                                  
    1PSUBC                         0                                  
    1PMODE                         6                                  
  100CL  106 239.8627768         930                     2    6MODAL      1
 -4  STRESS      6    1
 -5  SXX         1    4    1    1
 -5  SYY         1    4    2    2
 -5  SZZ         1    4    3    3
 -5  SXY         1    4    1    2
 -5  SYZ         1    4    2    3
 -5  SZX         1    4    3    1
 -1       404 2.28961E+09 2.47391E+08 2.71915E+06-2.60941E+08 2.31757E+06-2.66297E+08
 -1       406 2.28961E+09 2.47391E+08 2.71915E+06-2.60941E+08 2.31757E+06-2.66297E+08
 -1       407 3.15999E+07-1.98744E+07 1.17418E+05-1.32957E+07-3.34243E+07 1.34520E+06
 -1       409 3.15999E+07-1.98744E+07 1.17418E+05-1.32957E+07-3.34243E+07 1.34520E+06
 -1       410-4.84044E-03-1.08040E-03-2.18069E-04-2.86880E+07-1.07973E+08-7.70661E-05
 -1       412-4.84044E-03-1.08040E-03-2.18069E-04-2.86880E+07-1.07973E+08-7.70661E-05
 -1       413-4.06532E-03-3.40836E-04-2.04460E-03-6.80902E+05 6.90236E+07 3.04895E-03
 -1       415-4.06532E-03-3.40836E-04-2.04460E-03-6.80902E+05 6.90236E+07 3.04895E-03
 -1       424-8.20866E-02-1.10775E-02 4.71324E-05-3.51751E+08 6.19558E+07-4.05513E-03
 -1       426-8.20866E-02-1.10775E-02 4.71324E-05-3.51751E+08 6.19558E+07-4.05513E-03
 -1       427-6.34823E-02-3.25158E-04-1.17229E-02-1.02032E+05 3.48461E+07-6.39706E-02
 -1       429-6.34823E-02-3.25158E-04-1.17229E-02-1.02032E+05 3.48461E+07-6.39706E-02
 -1       438-3.15999E+07 1.98744E+07-1.17418E+05-1.32957E+07-3.34243E+07-1.34520E+06
 -1       440-3.15999E+07 1.98744E+07-1.17418E+05-1.32957E+07-3.34243E+07-1.34520E+06
 -1       441-2.28961E+09-2.47391E+08-2.71915E+06-2.60941E+08 2.31757E+06 2.66297E+08
 -1       443-2.28961E+09-2.47391E+08-2.71915E+06-2.60941E+08 2.31757E+06 2.66297E+08
 -1       444 5.66288E-02 3.00081E-04 1.67636E-02-1.02032E+05-3.48461E+07-5.35104E-02
 -1       446 5.66288E-02 3.00081E-04 1.67636E-02-1.02032E+05-3.48461E+07-5.35104E-02
 -1       447 7.63626E-02 9.26623E-03-5.49704E-05-3.51751E+08-6.19558E+07-2.84526E-03
 -1       449 7.63626E-02 9.26623E-03-5.49704E-05-3.51751E+08-6.19558E+07-2.84526E-03
 -1       458 6.86099E-04-8.56217E-05 4.93488E-03-6.80902E+05-6.90236E+07-3.94302E-04
 -1       460 6.86099E-04-8.56217E-05 4.93488E-03-6.80902E+05-6.90236E+07-3.94302E-04
 -1       461 1.46786E-03 3.09039E-03 3.43001E-04-2.86880E+07 1.07973E+08 1.05741E-05
 -1       463 1.46786E-03 3.09039E-03 3.43001E-04-2.86880E+07 1.07973E+08 1.05741E-05
 -1       472-2.28961E+09-2.47391E+08-2.71915E+06-2.60941E+08-2.31757E+06-2.66297E+08
 -1       474-2.28961E+09-2.47391E+08-2.71915E+06-2.60941E+08-2.31757E+06-2.66297E+08
 -1       475-3.15999E+07 1.98744E+07-1.17418E+05-1.32957E+07 3.34243E+07 1.34520E+06
 -1       477-3.15999E+07 1.98744E+07-1.17418E+05-1.32957E+07 3.34243E+07 1.34520E+06
 -1       478 3.15999E+07-1.98744E+07 1.17418E+05-1.32957E+07 3.34243E+07-1.34520E+06
 -1       480 3.15999E+07-1.98744E+07 1.17418E+05-1.32957E+07 3.34243E+07-1.34520E+06
 -1       481 2.28961E+09 2.47391E+08 2.71915E+06-2.60941E+08-2.31757E+06 2.66297E+08
 -1       483 2.28961E+09 2.47391E+08 2.71915E+06-2.60941E+08-2.31757E+06 2.66297E+08
 -1       484 2.02253E+09 7.35882E+07-4.65465E+05-1.47272E+08-4.33507E+06-9.12042E+07
 -1       486 2.02253E+09 7.35882E+07-4.65465E+05-1.47272E+08-4.33507E+06-9.12042E+07
 -1       487 1.55881E+09-3.46258E+07 1.76685E+06-8.76340E+07-6.70356E+06 1.08243E+06
 -1       489 1.55881E+09-3.46258E+07 1.76685E+06-8.76340E+07-6.70356E+06 1.08243E+06
 -1       490 1.11089E+09 8.05958E+06 5.64388E+05-1.26547E+08-4.45304E+06-4.30529E+07
 -1       492 1.11089E+09 8.05958E+06 5.64388E+05-1.26547E+08-4.45304E+06-4.30529E+07
 -1       493 6.43668E+08-6.46436E+06 1.36376E+05-1.08594E+08-7.89601E+06-2.19817E+07
 -1       495 6.43668E+08-6.46436E+06 1.36376E+05-1.08594E+08-7.89601E+06-2.19817E+07
 -1       496 2.05460E+08-4.61659E+06 5.70934E+05-1.06978E+08-8.80462E+06-3.14504E+07
 -1       498 2.05460E+08-4.61659E+06 5.70934E+05-1.06978E+08-8.80462E+06-3.14504E+07
 -1       499-2.08470E+08-5.94103E+06-5.71550E+05-9.70247E+07-1.08596E+07-2.65687E+07
 -1       501-2.08470E+08-5.94103E+06-5.71550E+05-9.70247E+07-1.08596E+07-2.65687E+07
 -1       502-5.67343E+08-6.52494E+06 8.86154E+04-8.06166E+07-1.26302E+07-2.81963E+07
 -1       504-5.67343E+08-6.52494E+06 8.86154E+04-8.06166E+07-1.26302E+07-2.81963E+07
 -1       505-8.60487E+08-8.25452E+06-8.70930E+05-6.30578E+07-1.41725E+07-2.67843E+07
 -1       507-8.60487E+08-8.25452E+06-8.70930E+05-6.30578E+07-1.41725E+07-2.67843E+07
 -1       508-1.06988E+09-8.22862E+06-3.40414E+05-4.01455E+07-1.59980E+07-2.66084E+07
 -1       510-1.06988E+09-8.22862E+06-3.40414E+05-4.01455E+07-1.59980E+07-2.66084E+07
 -1       511-1.18763E+09-1.00561E+07-9.32737E+05-1.68922E+07-1.73341E+07-2.58218E+07
 -1       513-1.18763E+09-1.00561E+07-9.32737E+05-1.68922E+07-1.73341E+07-2.58218E+07
 -1       514-1.20837E+09-1.01825E+07-5.14865E+05 7.46206E+06-1.89732E+07-2.51598E+07
 -1       516-1.20837E+09-1.01825E+07-5.14865E+05 7.46206E+06-1.89732E+07-2.51598E+07
 -1       517-1.13480E+09-1.16173E+07-7.77562E+05 3.00972E+07-2.01602E+07-2.43712E+07
 -1       519-1.13480E+09-1.16173E+07-7.77562E+05 3.00972E+07-2.01602E+07-2.43712E+07
 -1       520-9.74817E+08-1.20313E+07-4.06623E+05 5.00967E+07-2.15602E+07-2.34946E+07
 -1       522-9.74817E+08-1.20313E+07-4.06623E+05 5.00967E+07-2.15602E+07-2.34946E+07
 -1       523-7.42844E+08-1.31125E+07-4.32619E+05 6.58274E+07-2.26073E+07-2.25667E+07
 -1       525-7.42844E+08-1.31125E+07-4.32619E+05 6.58274E+07-2.26073E+07-2.25667E+07
 -1       526-4.57714E+08-1.36775E+07-8.19787E+04 7.63501E+07-2.37873E+07-2.15250E+07
 -1       528-4.57714E+08-1.36775E+07-8.19787E+04 7.63501E+07-2.37873E+07-2.15250E+07
 -1       529-1.42060E+08-1.45299E+07 2.52355E+04 8.09505E+07-2.47126E+07-2.04330E+07
 -1       531-1.42060E+08-1.45299E+07 2.52355E+04 8.09505E+07-2.47126E+07-2.04330E+07
 -1       532 1.79861E+08-1.51235E+07 3.38879E+05 7.94057E+07-2.57220E+07-1.92387E+07
 -1       534 1.79861E+08-1.51235E+07 3.38879E+05 7.94057E+07-2.57220E+07-1.92387E+07
 -1       535 4.83652E+08-1.58240E+07 4.81246E+05 7.19541E+07-2.65568E+07-1.79910E+07
 -1       537 4.83652E+08-1.58240E+07 4.81246E+05 7.19541E+07-2.65568E+07-1.79910E+07
 -1       538 7.46886E+08-1.63776E+07 7.19134E+05 5.92817E+07-2.74505E+07-1.66605E+07
 -1       540 7.46886E+08-1.63776E+07 7.19134E+05 5.92817E+07-2.74505E+07-1.66605E+07
 -1       541 9.50693E+08-1.69605E+07 8.17124E+05 4.25026E+07-2.82253E+07-1.52819E+07
 -1       543 9.50693E+08-1.69605E+07 8.17124E+05 4.25026E+07-2.82253E+07-1.52819E+07
 -1       544 1.08140E+09-1.74403E+07 9.43942E+05 2.30552E+07-2.90441E+07-1.38420E+07
 -1       546 1.08140E+09-1.74403E+07 9.43942E+05 2.30552E+07-2.90441E+07-1.38420E+07
 -1       547 1.13165E+09-1.79174E+07 9.49250E+05 2.64436E+06-2.97720E+07-1.23695E+07
 -1       549 1.13165E+09-1.79174E+07 9.49250E+05 2.64436E+06-2.97720E+07-1.23695E+07
 -1       550 1.10116E+09-1.83107E+07 9.53394E+05-1.69286E+07-3.05254E+07-1.08503E+07
 -1       552 1.10116E+09-1.83107E+07 9.53394E+05-1.69286E+07-3.05254E+07-1.08503E+07
 -1       553 9.97056E+08-1.86768E+07 8.57576E+05-3.37851E+07-3.11888E+07-9.33398E+06
 -1       555 9.97056E+08-1.86768E+07 8.57576E+05-3.37851E+07-3.11888E+07-9.33398E+06
 -1       556 8.33675E+08-1.89974E+07 7.61251E+05-4.62524E+07-3.18425E+07-7.74633E+06
 -1       558 8.33675E+08-1.89974E+07 7.61251E+05-4.62524E+07-3.18425E+07-7.74633E+06
 -1       559 6.31915E+08-1.92199E+07 5.97298E+05-5.26913E+07-3.23877E+07-6.27420E+06
 -1       561 6.31915E+08-1.92199E+07 5.97298E+05-5.26913E+07-3.23877E+07-6.27420E+06
 -1       562 4.18456E+08-1.95101E+07 4.54114E+05-5.19278E+07-3.28515E+07-4.53132E+06
 -1       564 4.18456E+08-1.95101E+07 4.54114E+05-5.19278E+07-3.28515E+07-4.53132E+06
 -1       565 2.24193E+08-1.95921E+07 2.92262E+05-4.30320E+07-3.31974E+07-3.36821E+06
 -1       567 2.24193E+08-1.95921E+07 2.92262E+05-4.30320E+07-3.31974E+07-3.36821E+06
 -1       568 8.37501E+07-1.96603E+07 1.70798E+05-2.48369E+07-3.33497E+07-9.78701E+05
 -1       570 8.37501E+07-1.96603E+07 1.70798E+05-2.48369E+07-3.33497E+07-9.78701E+05
 -1       571 1.67299E+07-3.54799E+07-1.80841E+05-2.09919E+07-7.06984E+07 1.07910E+06
 -1       573 1.67299E+07-3.54799E+07-1.80841E+05-2.09919E+07-7.06984E+07 1.07910E+06
 -1       574-7.16523E-02-4.05271E-03 2.50787E-05-2.70132E+08 2.88129E+07-7.95208E-04
 -1       576-7.16523E-02-4.05271E-03 2.50787E-05-2.70132E+08 2.88129E+07-7.95208E-04
 -1       577-5.46707E-02-1.13194E-04-7.00142E-04-1.88507E+07 3.29274E+07-6.55165E-02
 -1       579-5.46707E-02-1.13194E-04-7.00142E-04-1.88507E+07 3.29274E+07-6.55165E-02
 -1       588-5.32804E-02 1.29985E-03-4.26173E-05-2.42290E+08-1.30200E+07 5.18906E-04
 -1       590-5.32804E-02 1.29985E-03-4.26173E-05-2.42290E+08-1.30200E+07 5.18906E-04
 -1       591-4.05744E-02 1.67470E-04 1.11927E-02-3.37977E+07 1.43800E+07-6.18553E-02
 -1       593-4.05744E-02 1.67470E-04 1.11927E-02-3.37977E+07 1.43800E+07-6.18553E-02
 -1       602-4.05266E-02-4.60505E-04-5.50635E-05-2.57925E+08-1.43294E+07-2.98650E-04
 -1       604-4.05266E-02-4.60505E-04-5.50635E-05-2.57925E+08-1.43294E+07-2.98650E-04
 -1       605-3.17656E-02 5.58150E-05 3.99350E-03-2.51806E+07 7.48781E+06-5.67874E-02
 -1       607-3.17656E-02 5.58150E-05 3.99350E-03-2.51806E+07 7.48781E+06-5.67874E-02
 -1       616-2.68808E-02-4.16249E-04-4.73112E-06-2.41376E+08-2.04557E+07 1.57345E-04
 -1       618-2.68808E-02-4.16249E-04-4.73112E-06-2.41376E+08-2.04557E+07 1.57345E-04
 -1       619-2.18595E-02-7.89533E-05-8.20760E-03-2.85036E+07 1.46887E+07-5.70021E-02
 -1       621-2.18595E-02-7.89533E-05-8.20760E-03-2.85036E+07 1.46887E+07-5.70021E-02
 -1       630-7.77232E-03-8.57308E-04 3.55416E-05-2.38532E+08-2.81014E+07-3.65004E-05
 -1       632-7.77232E-03-8.57308E-04 3.55416E-05-2.38532E+08-2.81014E+07-3.65004E-05
 -1       633-6.80912E-03-5.96944E-05-9.88500E-03-2.76161E+07 1.37822E+07-5.85248E-02
 -1       635-6.80912E-03-5.96944E-05-9.88500E-03-2.76161E+07 1.37822E+07-5.85248E-02
 -1       644 1.09653E-02-9.77669E-04-4.84358E-05-2.08520E+08-3.18169E+07 1.85088E-04
 -1       646 1.09653E-02-9.77669E-04-4.84358E-05-2.08520E+08-3.18169E+07 1.85088E-04
 -1       647 9.35303E-03 3.03441E-04 6.34596E-04-2.63188E+07 1.75361E+07-5.79001E-02
 -1       649 9.35303E-03 3.03441E-04 6.34596E-04-2.63188E+07 1.75361E+07-5.79001E-02
 -1       658 2.37381E-02 1.94380E-04-1.13102E-04-1.80305E+08-3.89928E+07 9.19150E-05
 -1       660 2.37381E-02 1.94380E-04-1.13102E-04-1.80305E+08-3.89928E+07 9.19150E-05
 -1       661 2.01823E-02 6.15976E-04 1.24909E-02-2.73334E+07 1.94845E+07-4.99639E-02
 -1       663 2.01823E-02 6.15976E-04 1.24909E-02-2.73334E+07 1.94845E+07-4.99639E-02
 -1       672 2.97030E-02 1.54306E-03 1.80714E-05-1.36339E+08-4.30770E+07 2.48911E-04
 -1       674 2.97030E-02 1.54306E-03 1.80714E-05-1.36339E+08-4.30770E+07 2.48911E-04
 -1       675 2.38762E-02 2.73795E-04 1.15810E-02-2.53545E+07 2.21279E+07-3.95191E-02
 -1       677 2.38762E-02 2.73795E-04 1.15810E-02-2.53545E+07 2.21279E+07-3.95191E-02
 -1       686 3.40474E-02 2.21154E-03 1.97291E-05-8.93164E+07-4.92455E+07 1.60289E-04
 -1       688 3.40474E-02 2.21154E-03 1.97291E-05-8.93164E+07-4.92455E+07 1.60289E-04
 -1       689 2.65376E-02-8.60399E-05 3.17381E-03-2.60744E+07 2.51573E+07-3.66387E-02
 -1       691 2.65376E-02-8.60399E-05 3.17381E-03-2.60744E+07 2.51573E+07-3.66387E-02
 -1       700 4.17797E-02 8.50819E-04 5.50300E-05-3.67030E+07-5.34918E+07 4.77787E-05
 -1       702 4.17797E-02 8.50819E-04 5.50300E-05-3.67030E+07-5.34918E+07 4.77787E-05
 -1       703 3.44280E-02-1.53290E-04 3.53026E-03-2.44270E+07 2.81783E+07-3.86901E-02
 -1       705 3.44280E-02-1.53290E-04 3.53026E-03-2.44270E+07 2.81783E+07-3.86901E-02
 -1       714 5.18984E-02-1.74476E-03-9.29311E-05 1.59027E+07-5.87754E+07 9.11439E-05
 -1       716 5.18984E-02-1.74476E-03-9.29311E-05 1.59027E+07-5.87754E+07 9.11439E-05
 -1       717 4.47584E-02 5.69150E-05 1.37180E-02-2.45070E+07 3.19718E+07-3.38086E-02
 -1       719 4.47584E-02 5.69150E-05 1.37180E-02-2.45070E+07 3.19718E+07-3.38086E-02
 -1       728 6.05248E-02-1.90027E-03-1.69381E-04 6.57710E+07-6.28648E+07 8.60998E-05
 -1       730 6.05248E-02-1.90027E-03-1.69381E-04 6.57710E+07-6.28648E+07 8.60998E-05
 -1       731 5.18150E-02 1.46789E-04 2.20378E-02-2.31735E+07 3.57512E+07-2.20318E-02
 -1       733 5.18150E-02 1.46789E-04 2.20378E-02-2.31735E+07 3.57512E+07-2.20318E-02
 -1       742 6.58795E-02-3.63039E-04-1.08503E-04 1.09519E+08-6.73997E+07 6.03888E-05
 -1       744 6.58795E-02-3.63039E-04-1.08503E-04 1.09519E+08-6.73997E+07 6.03888E-05
 -1       745 5.60556E-02-5.53378E-05 2.26413E-02-2.27409E+07 4.01754E+07-9.41752E-03
 -1       747 5.60556E-02-5.53378E-05 2.26413E-02-2.27409E+07 4.01754E+07-9.41752E-03
 -1       756 6.70678E-02-7.70809E-04-2.12837E-04 1.43959E+08-7.11599E+07 1.72351E-05
 -1       758 6.70678E-02-7.70809E-04-2.12837E-04 1.43959E+08-7.11599E+07 1.72351E-05
 -1       759 5.83677E-02 4.23659E-04 2.02938E-02-2.15346E+07 4.45598E+07 1.10987E-03
 -1       761 5.83677E-02 4.23659E-04 2.02938E-02-2.15346E+07 4.45598E+07 1.10987E-03
 -1       770 6.50682E-02-3.11355E-03-2.56823E-04 1.67067E+08-7.50656E+07-1.17553E-04
 -1       772 6.50682E-02-3.11355E-03-2.56823E-04 1.67067E+08-7.50656E+07-1.17553E-04
 -1       773 5.67460E-02 4.37643E-04 2.03301E-02-2.07398E+07 4.92887E+07 9.40705E-03
 -1       775 5.67460E-02 4.37643E-04 2.03301E-02-2.07398E+07 4.92887E+07 9.40705E-03
 -1       784 6.44137E-02-4.86644E-03-7.80821E-05 1.77114E+08-7.84467E+07-1.16748E-04
 -1       786 6.44137E-02-4.86644E-03-7.80821E-05 1.77114E+08-7.84467E+07-1.16748E-04
 -1       787 5.39180E-02-2.68654E-05 2.05995E-02-1.95252E+07 5.38232E+07 1.58560E-02
 -1       789 5.39180E-02-2.68654E-05 2.05995E-02-1.95252E+07 5.38232E+07 1.58560E-02
 -1       798 6.49938E-02-3.72867E-03 1.90936E-04 1.73796E+08-8.18378E+07-1.60569E-04
 -1       800 6.49938E-02-3.72867E-03 1.90936E-04 1.73796E+08-8.18378E+07-1.60569E-04
 -1       801 5.21390E-02 1.92465E-04 1.68145E-02-1.84698E+07 5.83422E+07 1.92891E-02
 -1       803 5.21390E-02 1.92465E-04 1.68145E-02-1.84698E+07 5.83422E+07 1.92891E-02
 -1       812 5.94461E-02-3.33330E-04 1.36252E-04 1.57480E+08-8.48599E+07-8.16872E-05
 -1       814 5.94461E-02-3.33330E-04 1.36252E-04 1.57480E+08-8.48599E+07-8.16872E-05
 -1       815 4.68604E-02 1.72530E-04 1.00196E-02-1.71820E+07 6.24358E+07 1.89711E-02
 -1       817 4.68604E-02 1.72530E-04 1.00196E-02-1.71820E+07 6.24358E+07 1.89711E-02
 -1       826 4.67312E-02 2.76471E-03-6.38757E-05 1.29790E+08-8.78408E+07-1.02072E-04
 -1       828 4.67312E-02 2.76471E-03-6.38757E-05 1.29790E+08-8.78408E+07-1.02072E-04
 -1       829 3.66774E-02 7.91574E-05 6.17460E-03-1.59344E+07 6.61759E+07 1.64783E-02
 -1       831 3.66774E-02 7.91574E-05 6.17460E-03-1.59344E+07 6.61759E+07 1.64783E-02
 -1       840 3.29828E-02 3.53412E-03-1.51193E-04 9.30763E+07-9.05437E+07-1.84177E-04
 -1       842 3.29828E-02 3.53412E-03-1.51193E-04 9.30763E+07-9.05437E+07-1.84177E-04
 -1       843 2.53822E-02 3.11630E-04 5.57705E-03-1.45604E+07 6.92728E+07 1.76609E-02
 -1       845 2.53822E-02 3.11630E-04 5.57705E-03-1.45604E+07 6.92728E+07 1.76609E-02
 -1       854 2.14441E-02 2.18018E-03 5.48940E-05 5.05610E+07-9.31895E+07-3.78303E-05
 -1       856 2.14441E-02 2.18018E-03 5.48940E-05 5.05610E+07-9.31895E+07-3.78303E-05
 -1       857 1.54498E-02 3.42183E-04 2.43854E-03-1.31754E+07 7.17745E+07 2.15782E-02
 -1       859 1.54498E-02 3.42183E-04 2.43854E-03-1.31754E+07 7.17745E+07 2.15782E-02
 -1       868 1.26016E-02 5.34546E-04 1.52618E-04 5.91115E+06-9.55922E+07-1.23509E-04
 -1       870 1.26016E-02 5.34546E-04 1.52618E-04 5.91115E+06-9.55922E+07-1.23509E-04
 -1       871 7.92060E-03-4.30539E-05 4.84609E-04-1.17352E+07 7.35119E+07 2.13170E-02
 -1       873 7.92060E-03-4.30539E-05 4.84609E-04-1.17352E+07 7.35119E+07 2.13170E-02
 -1       882 5.91448E-03-1.05260E-03 1.93045E-05-3.68378E+07-9.79323E+07-9.40328E-05
 -1       884 5.91448E-03-1.05260E-03 1.93045E-05-3.68378E+07-9.79323E+07-9.40328E-05
 -1       885 3.26205E-03-2.75480E-04 6.00043E-03-1.02627E+07 7.45594E+07 1.90435E-02
 -1       887 3.26205E-03-2.75480E-04 6.00043E-03-1.02627E+07 7.45594E+07 1.90435E-02
 -1       896 2.49073E-03-2.24009E-03 4.27086E-04-7.37141E+07-1.00008E+08-5.30500E-05
 -1       898 2.49073E-03-2.24009E-03 4.27086E-04-7.37141E+07-1.00008E+08-5.30500E-05
 -1       899 1.76268E-03-2.54536E-04 1.26988E-02-8.79347E+06 7.48744E+07 1.81093E-02
 -1       901 1.76268E-03-2.54536E-04 1.26988E-02-8.79347E+06 7.48744E+07 1.81093E-02
 -1       910 1.42524E-03-1.54732E-03 2.65745E-04-1.00801E+08-1.02020E+08-4.35575E-05
 -1       912 1.42524E-03-1.54732E-03 2.65745E-04-1.00801E+08-1.02020E+08-4.35575E-05
 -1       913 1.86822E-03-1.79438E-04 1.43202E-02-7.28264E+06 7.45592E+07 1.70212E-02
 -1       915 1.86822E-03-1.79438E-04 1.43202E-02-7.28264E+06 7.45592E+07 1.70212E-02
 -1       924-9.18262E-04 8.24904E-04 2.29021E-04-1.14901E+08-1.03693E+08 2.35564E-05
 -1       926-9.18262E-04 8.24904E-04 2.29021E-04-1.14901E+08-1.03693E+08 2.35564E-05
 -1       927 4.68626E-04 2.57796E-05 1.42278E-02-5.82132E+06 7.37317E+07 1.44799E-02
 -1       929 4.68626E-04 2.57796E-05 1.42278E-02-5.82132E+06 7.37317E+07 1.44799E-02
 -1       938-4.92853E-03 1.03707E-03 3.37001E-04-1.12913E+08-1.05293E+08-6.24985E-05
 -1       940-4.92853E-03 1.03707E-03 3.37001E-04-1.12913E+08-1.05293E+08-6.24985E-05
 -1       941-2.09423E-03 6.92067E-05 1.47594E-02-4.33001E+06 7.24455E+07 1.12313E-02
 -1       943-2.09423E-03 6.92067E-05 1.47594E-02-4.33001E+06 7.24455E+07 1.12313E-02
 -1       952-8.51271E-03-1.66050E-03-1.92003E-05-9.31583E+07-1.06484E+08-4.79864E-06
 -1       954-8.51271E-03-1.66050E-03-1.92003E-05-9.31583E+07-1.06484E+08-4.79864E-06
 -1       955-4.43822E-03 1.66204E-04 1.12872E-02-2.88640E+06 7.11010E+07 9.15086E-03
 -1       957-4.43822E-03 1.66204E-04 1.12872E-02-2.88640E+06 7.11010E+07 9.15086E-03
 -1       966-7.34043E-03-2.12441E-03-5.18000E-05-5.37808E+07-1.07312E+08-4.13711E-07
 -1       968-7.34043E-03-2.12441E-03-5.18000E-05-5.37808E+07-1.07312E+08-4.13711E-07
 -1       969-4.83012E-03 2.14240E-05 2.80321E-03-1.50748E+06 6.97759E+07 5.80414E-03
 -1       971-4.83012E-03 2.14240E-05 2.80321E-03-1.50748E+06 6.97759E+07 5.80414E-03
 -1       980 1.52712E+09 2.69428E+08 1.25097E+06-3.06346E+08 3.21367E+07-1.26724E+08
 -1       982 1.52712E+09 2.69428E+08 1.25097E+06-3.06346E+08 3.21367E+07-1.26724E+08
 -1       983-1.67299E+07 3.54799E+07 1.80841E+05-2.09919E+07-7.06984E+07-1.07910E+06
 -1       985-1.67299E+07 3.54799E+07 1.80841E+05-2.09919E+07-7.06984E+07-1.07910E+06
 -1       986-2.02253E+09-7.35882E+07 4.65465E+05-1.47272E+08-4.33507E+06 9.12042E+07
 -1       988-2.02253E+09-7.35882E+07 4.65465E+05-1.47272E+08-4.33507E+06 9.12042E+07
 -1       989-1.55881E+09 3.46258E+07-1.76685E+06-8.76340E+07-6.70356E+06-1.08243E+06
 -1       991-1.55881E+09 3.46258E+07-1.76685E+06-8.76340E+07-6.70356E+06-1.08243E+06
 -1       992-1.11089E+09-8.05958E+06-5.64388E+05-1.26547E+08-4.45304E+06 4.30529E+07
 -1       994-1.11089E+09-8.05958E+06-5.64388E+05-1.26547E+08-4.45304E+06 4.30529E+07
 -1       995-6.43668E+08 6.46436E+06-1.36376E+05-1.08594E+08-7.89601E+06 2.19817E+07
 -1       997-6.43668E+08 6.46436E+06-1.36376E+05-1.08594E+08-7.89601E+06 2.19817E+07
 -1       998-2.05460E+08 4.61659E+06-5.70934E+05-1.06978E+08-8.80462E+06 3.14504E+07
 -1      1000-2.05460E+08 4.61659E+06-5.70934E+05-1.06978E+08-8.80462E+06 3.14504E+07
 -1      1001 2.08470E+08 5.94103E+06 5.71550E+05-9.70247E+07-1.08596E+07 2.65687E+07
 -1      1003 2.08470E+08 5.94103E+06 5.71550E+05-9.70247E+07-1.08596E+07 2.65687E+07
 -1      1004 5.67343E+08 6.52494E+06-8.86154E+04-8.06166E+07-1.26302E+07 2.81963E+07
 -1      1006 5.67343E+08 6.52494E+06-8.86154E+04-8.06166E+07-1.26302E+07 2.81963E+07
 -1      1007 8.60487E+08 8.25452E+06 8.70930E+05-6.30578E+07-1.41725E+07 2.67843E+07
 -1      1009 8.60487E+08 8.25452E+06 8.70930E+05-6.30578E+07-1.41725E+07 2.67843E+07
 -1      1010 1.06988E+09 8.22862E+06 3.40414E+05-4.01455E+07-1.59980E+07 2.66084E+07
 -1      1012 1.06988E+09 8.22862E+06 3.40414E+05-4.01455E+07-1.59980E+07 2.66084E+07
 -1      1013 1.18763E+09 1.00561E+07 9.32737E+05-1.68922E+07-1.73341E+07 2.58218E+07
 -1      1015 1.18763E+09 1.00561E+07 9.32737E+05-1.68922E+07-1.73341E+07 2.58218E+07
 -1      1016 1.20837E+09 1.01825E+07 5.14865E+05 7.46206E+06-1.89732E+07 2.51598E+07
 -1      1018 1.20837E+09 1.01825E+07 5.14865E+05 7.46206E+06-1.89732E+07 2.51598E+07
 -1      1019 1.13480E+09 1.16173E+07 7.77562E+05 3.00972E+07-2.01602E+07 2.43712E+07
 -1      1021 1.13480E+09 1.16173E+07 7.77562E+05 3.00972E+07-2.01602E+07 2.43712E+07
 -1      1022 9.74817E+08 1.20313E+07 4.06623E+05 5.00967E+07-2.15602E+07 2.34946E+07
 -1      1024 9.74817E+08 1.20313E+07 4.06623E+05 5.00967E+07-2.15602E+07 2.34946E+07
 -1      1025 7.42844E+08 1.31125E+07 4.32619E+05 6.58274E+07-2.26073E+07 2.25667E+07
 -1      1027 7.42844E+08 1.31125E+07 4.32619E+05 6.58274E+07-2.26073E+07 2.25667E+07
 -1      1028 4.57714E+08 1.36775E+07 8.19787E+04 7.63501E+07-2.37873E+07 2.15250E+07
 -1      1030 4.57714E+08 1.36775E+07 8.19787E+04 7.63501E+07-2.37873E+07 2.15250E+07
 -1      1031 1.42060E+08 1.45299E+07-2.52355E+04 8.09505E+07-2.47126E+07 2.04330E+07
 -1      1033 1.42060E+08 1.45299E+07-2.52355E+04 8.09505E+07-2.47126E+07 2.04330E+07
 -1      1034-1.79861E+08 1.51235E+07-3.38879E+05 7.94057E+07-2.57220E+07 1.92387E+07
 -1      1036-1.79861E+08 1.51235E+07-3.38879E+05 7.94057E+07-2.57220E+07 1.92387E+07
 -1      1037-4.83652E+08 1.58240E+07-4.81246E+05 7.19541E+07-2.65568E+07 1.79910E+07
 -1      1039-4.83652E+08 1.58240E+07-4.81246E+05 7.19541E+07-2.65568E+07 1.79910E+07
 -1      1040-7.46886E+08 1.63776E+07-7.19134E+05 5.92817E+07-2.74505E+07 1.66605E+07
 -1      1042-7.46886E+08 1.63776E+07-7.19134E+05 5.92817E+07-2.74505E+07 1.66605E+07
 -1      1043-9.50693E+08 1.69605E+07-8.17124E+05 4.25026E+07-2.82253E+07 1.52819E+07
 -1      1045-9.50693E+08 1.69605E+07-8.17124E+05 4.25026E+07-2.82253E+07 1.52819E+07
 -1      1046-1.08140E+09 1.74403E+07-9.43942E+05 2.30552E+07-2.90441E+07 1.38420E+07
 -1      1048-1.08140E+09 1.74403E+07-9.43942E+05 2.30552E+07-2.90441E+07 1.38420E+07
 -1      1049-1.13165E+09 1.79174E+07-9.49250E+05 2.64436E+06-2.97720E+07 1.23695E+07
 -1      1051-1.13165E+09 1.79174E+07-9.49250E+05 2.64436E+06-2.97720E+07 1.23695E+07
 -1      1052-1.10116E+09 1.83107E+07-9.53394E+05-1.69286E+07-3.05254E+07 1.08503E+07
 -1      1054-1.10116E+09 1.83107E+07-9.53394E+05-1.69286E+07-3.05254E+07 1.08503E+07
 -1      1055-9.97056E+08 1.86768E+07-8.57576E+05-3.37851E+07-3.11888E+07 9.33398E+06
 -1      1057-9.97056E+08 1.86768E+07-8.57576E+05-3.37851E+07-3.11888E+07 9.33398E+06
 -1      1058-8.33675E+08 1.89974E+07-7.61251E+05-4.62524E+07-3.18425E+07 7.74633E+06
 -1      1060-8.33675E+08 1.89974E+07-7.61251E+05-4.62524E+07-3.18425E+07 7.74633E+06
 -1      1061-6.31915E+08 1.92199E+07-5.97298E+05-5.26913E+07-3.23877E+07 6.27420E+06
 -1      1063-6.31915E+08 1.92199E+07-5.97298E+05-5.26913E+07-3.23877E+07 6.27420E+06
 -1      1064-4.18456E+08 1.95101E+07-4.54114E+05-5.19278E+07-3.28515E+07 4.53132E+06
 -1      1066-4.18456E+08 1.95101E+07-4.54114E+05-5.19278E+07-3.28515E+07 4.53132E+06
 -1      1067-2.24193E+08 1.95921E+07-2.92262E+05-4.30320E+07-3.31974E+07 3.36821E+06
 -1      1069-2.24193E+08 1.95921E+07-2.92262E+05-4.30320E+07-3.31974E+07 3.36821E+06
 -1      1070-8.37501E+07 1.96603E+07-1.70798E+05-2.48369E+07-3.33497E+07 9.78701E+05
 -1      1072-8.37501E+07 1.96603E+07-1.70798E+05-2.48369E+07-3.33497E+07 9.78701E+05
 -1      1073-1.52712E+09-2.69428E+08-1.25097E+06-3.06346E+08 3.21367E+07 1.26724E+08
 -1      1075-1.52712E+09-2.69428E+08-1.25097E+06-3.06346E+08 3.21367E+07 1.26724E+08
 -1      1076-4.02297E-02-4.53022E-06-5.51136E-03 1.80346E+08-3.42778E+06-6.40280E-02
 -1      1078-4.02297E-02-4.53022E-06-5.51136E-03 1.80346E+08-3.42778E+06-6.40280E-02
 -1      1079-2.30326E-03 2.33156E-06 4.20535E-03 3.60795E+08 9.73791E-05-6.25366E-02
 -1      1081-2.30326E-03 2.33156E-06 4.20535E-03 3.60795E+08 9.73791E-05-6.25366E-02
 -1      1082 3.44997E-02-5.67674E-06 1.22371E-02 1.80346E+08 3.42778E+06-5.72490E-02
 -1      1084 3.44997E-02-5.67674E-06 1.22371E-02 1.80346E+08 3.42778E+06-5.72490E-02
 -1      1085 5.07552E-02 1.28898E-04 1.13806E-02-1.88507E+07-3.29274E+07-5.77400E-02
 -1      1087 5.07552E-02 1.28898E-04 1.13806E-02-1.88507E+07-3.29274E+07-5.77400E-02
 -1      1088 6.90980E-02 3.25602E-03-6.70254E-05-2.70132E+08-2.88129E+07-5.10359E-04
 -1      1090 6.90980E-02 3.25602E-03-6.70254E-05-2.70132E+08-2.88129E+07-5.10359E-04
 -1      1099 3.86357E-02-7.18987E-05 1.78937E-03-3.37977E+07-1.43800E+07-6.13037E-02
 -1      1101 3.86357E-02-7.18987E-05 1.78937E-03-3.37977E+07-1.43800E+07-6.13037E-02
 -1      1102 5.16461E-02-1.07274E-03-8.03545E-06-2.42290E+08 1.30200E+07 4.34490E-04
 -1      1104 5.16461E-02-1.07274E-03-8.03545E-06-2.42290E+08 1.30200E+07 4.34490E-04
 -1      1113 2.45766E-02 6.24592E-05-4.12352E-03-2.51806E+07-7.48781E+06-6.07398E-02
 -1      1115 2.45766E-02 6.24592E-05-4.12352E-03-2.51806E+07-7.48781E+06-6.07398E-02
 -1      1116 3.23705E-02-2.29703E-04-3.60347E-05-2.57925E+08 1.43294E+07-1.01372E-04
 -1      1118 3.23705E-02-2.29703E-04-3.60347E-05-2.57925E+08 1.43294E+07-1.01372E-04
 -1      1127 9.66954E-03 2.09912E-04-9.28070E-03-2.85036E+07-1.46887E+07-5.91802E-02
 -1      1129 9.66954E-03 2.09912E-04-9.28070E-03-2.85036E+07-1.46887E+07-5.91802E-02
 -1      1130 1.50978E-02-9.91935E-04-6.69789E-05-2.41376E+08 2.04557E+07 2.89053E-04
 -1      1132 1.50978E-02-9.91935E-04-6.69789E-05-2.41376E+08 2.04557E+07 2.89053E-04
 -1      1141-3.85889E-03-3.16145E-05-1.64914E-02-2.76161E+07-1.37822E+07-5.60313E-02
 -1      1143-3.85889E-03-3.16145E-05-1.64914E-02-2.76161E+07-1.37822E+07-5.60313E-02
 -1      1144 1.87287E-04 7.25443E-04 8.66316E-06-2.38532E+08 2.81014E+07 5.81425E-06
 -1      1146 1.87287E-04 7.25443E-04 8.66316E-06-2.38532E+08 2.81014E+07 5.81425E-06
 -1      1155-1.42478E-02-2.39737E-04-1.96193E-02-2.63188E+07-1.75361E+07-4.86375E-02
 -1      1157-1.42478E-02-2.39737E-04-1.96193E-02-2.63188E+07-1.75361E+07-4.86375E-02
 -1      1158-1.06355E-02 1.99779E-03 7.59847E-05-2.08520E+08 3.18169E+07 4.78476E-05
 -1      1160-1.06355E-02 1.99779E-03 7.59847E-05-2.08520E+08 3.18169E+07 4.78476E-05
 -1      1169-1.96868E-02-1.70354E-04-1.24724E-02-2.73334E+07-1.94845E+07-3.83748E-02
 -1      1171-1.96868E-02-1.70354E-04-1.24724E-02-2.73334E+07-1.94845E+07-3.83748E-02
 -1      1172-1.77417E-02 9.13015E-04 1.63727E-04-1.80305E+08 3.89928E+07 5.58337E-05
 -1      1174-1.77417E-02 9.13015E-04 1.63727E-04-1.80305E+08 3.89928E+07 5.58337E-05
 -1      1183-2.42328E-02-9.75975E-05-2.63244E-03-2.53545E+07-2.21279E+07-3.56728E-02
 -1      1185-2.42328E-02-9.75975E-05-2.63244E-03-2.53545E+07-2.21279E+07-3.56728E-02
 -1      1186-2.68969E-02 3.80080E-04 1.23102E-04-1.36339E+08 4.30770E+07 1.89841E-05
 -1      1188-2.68969E-02 3.80080E-04 1.23102E-04-1.36339E+08 4.30770E+07 1.89841E-05
 -1      1197-3.24406E-02-1.56022E-04-2.93494E-03-2.60744E+07-2.51573E+07-3.77336E-02
 -1      1199-3.24406E-02-1.56022E-04-2.93494E-03-2.60744E+07-2.51573E+07-3.77336E-02
 -1      1200-4.01184E-02 8.60054E-04 3.76180E-05-8.93164E+07 4.92455E+07-2.01342E-04
 -1      1202-4.01184E-02 8.60054E-04 3.76180E-05-8.93164E+07 4.92455E+07-2.01342E-04
 -1      1211-3.96676E-02-3.45418E-04-8.34632E-03-2.44270E+07-2.81783E+07-3.36849E-02
 -1      1213-3.96676E-02-3.45418E-04-8.34632E-03-2.44270E+07-2.81783E+07-3.36849E-02
 -1      1214-5.06627E-02 1.68972E-03 9.21153E-05-3.67030E+07 5.34918E+07-2.02392E-04
 -1      1216-5.06627E-02 1.68972E-03 9.21153E-05-3.67030E+07 5.34918E+07-2.02392E-04
 -1      1225-4.23550E-02-4.78148E-04-6.41218E-03-2.45070E+07-3.19718E+07-2.40021E-02
 -1      1227-4.23550E-02-4.78148E-04-6.41218E-03-2.45070E+07-3.19718E+07-2.40021E-02
 -1      1228-5.67351E-02 2.22974E-03 7.64802E-05 1.59027E+07 5.87754E+07-2.36228E-04
 -1      1230-5.67351E-02 2.22974E-03 7.64802E-05 1.59027E+07 5.87754E+07-2.36228E-04
 -1      1239-4.58483E-02-5.75864E-04 2.81724E-03-2.31735E+07-3.57512E+07-1.54193E-02
 -1      1241-4.58483E-02-5.75864E-04 2.81724E-03-2.31735E+07-3.57512E+07-1.54193E-02
 -1      1242-6.40450E-02 1.65205E-03-1.82316E-05 6.57710E+07 6.28648E+07-2.16753E-04
 -1      1244-6.40450E-02 1.65205E-03-1.82316E-05 6.57710E+07 6.28648E+07-2.16753E-04
 -1      1253-5.17467E-02-3.80733E-04 1.15421E-02-2.27409E+07-4.01754E+07-1.03970E-02
 -1      1255-5.17467E-02-3.80733E-04 1.15421E-02-2.27409E+07-4.01754E+07-1.03970E-02
 -1      1256-7.24823E-02 1.64920E-03 1.23143E-04 1.09519E+08 6.73997E+07-1.62531E-04
 -1      1258-7.24823E-02 1.64920E-03 1.23143E-04 1.09519E+08 6.73997E+07-1.62531E-04
 -1      1267-5.59805E-02-2.34060E-04 1.35447E-02-2.15346E+07-4.45598E+07-4.74460E-03
 -1      1269-5.59805E-02-2.34060E-04 1.35447E-02-2.15346E+07-4.45598E+07-4.74460E-03
 -1      1270-7.66475E-02 2.95981E-03 5.49629E-05 1.43959E+08 7.11599E+07-1.97209E-04
 -1      1272-7.66475E-02 2.95981E-03 5.49629E-05 1.43959E+08 7.11599E+07-1.97209E-04
 -1      1281-5.55125E-02-3.58554E-04 1.21177E-02-2.07398E+07-4.92887E+07 4.97356E-03
 -1      1283-5.55125E-02-3.58554E-04 1.21177E-02-2.07398E+07-4.92887E+07 4.97356E-03
 -1      1284-7.47913E-02 2.60383E-03 5.75855E-05 1.67067E+08 7.50656E+07-6.72536E-05
 -1      1286-7.47913E-02 2.60383E-03 5.75855E-05 1.67067E+08 7.50656E+07-6.72536E-05
 -1      1295-5.05337E-02-3.30074E-05 1.34311E-02-1.95252E+07-5.38232E+07 1.20417E-02
 -1      1297-5.05337E-02-3.30074E-05 1.34311E-02-1.95252E+07-5.38232E+07 1.20417E-02
 -1      1298-6.88772E-02 3.58064E-04-2.87658E-05 1.77114E+08 7.84467E+07 2.03867E-05
 -1      1300-6.88772E-02 3.58064E-04-2.87658E-05 1.77114E+08 7.84467E+07 2.03867E-05
 -1      1309-4.37306E-02-1.20372E-04 1.23985E-02-1.84698E+07-5.83422E+07 1.21959E-02
 -1      1311-4.37306E-02-1.20372E-04 1.23985E-02-1.84698E+07-5.83422E+07 1.21959E-02
 -1      1312-6.03600E-02-5.78456E-04-1.12329E-04 1.73796E+08 8.18378E+07-9.11085E-05
 -1      1314-6.03600E-02-5.78456E-04-1.12329E-04 1.73796E+08 8.18378E+07-9.11085E-05
 -1      1323-3.60932E-02-3.01689E-04 5.86647E-03-1.71820E+07-6.24358E+07 1.13811E-02
 -1      1325-3.60932E-02-3.01689E-04 5.86647E-03-1.71820E+07-6.24358E+07 1.13811E-02
 -1      1326-5.08939E-02-1.41510E-03-1.87720E-04 1.57480E+08 8.48599E+07-3.98969E-05
 -1      1328-5.08939E-02-1.41510E-03-1.87720E-04 1.57480E+08 8.48599E+07-3.98969E-05
 -1      1337-3.03695E-02-9.20943E-05-8.68316E-04-1.59344E+07-6.61759E+07 1.32133E-02
 -1      1339-3.03695E-02-9.20943E-05-8.68316E-04-1.59344E+07-6.61759E+07 1.32133E-02
 -1      1340-4.41376E-02-3.87647E-03-4.28773E-04 1.29790E+08 8.78408E+07 5.00903E-05
 -1      1342-4.41376E-02-3.87647E-03-4.28773E-04 1.29790E+08 8.78408E+07 5.00903E-05
 -1      1351-2.85498E-02-1.97602E-04-6.30370E-03-1.45604E+07-6.92728E+07 1.64019E-02
 -1      1353-2.85498E-02-1.97602E-04-6.30370E-03-1.45604E+07-6.92728E+07 1.64019E-02
 -1      1354-4.04455E-02-4.44001E-03-3.35813E-04 9.30763E+07 9.05437E+07 3.58336E-05
 -1      1356-4.04455E-02-4.44001E-03-3.35813E-04 9.30763E+07 9.05437E+07 3.58336E-05
 -1      1365-2.72872E-02-1.30890E-04-8.74289E-03-1.31754E+07-7.17745E+07 2.13779E-02
 -1      1367-2.72872E-02-1.30890E-04-8.74289E-03-1.31754E+07-7.17745E+07 2.13779E-02
 -1      1368-3.64451E-02-2.07905E-03 1.77296E-04 5.05610E+07 9.31895E+07-9.61875E-05
 -1      1370-3.64451E-02-2.07905E-03 1.77296E-04 5.05610E+07 9.31895E+07-9.61875E-05
 -1      1379-2.49362E-02-1.42709E-04-1.49647E-03-1.17352E+07-7.35119E+07 2.66650E-02
 -1      1381-2.49362E-02-1.42709E-04-1.49647E-03-1.17352E+07-7.35119E+07 2.66650E-02
 -1      1382-3.23956E-02-1.55934E-03 1.98904E-04 5.91115E+06 9.55922E+07-9.88147E-05
 -1      1384-3.23956E-02-1.55934E-03 1.98904E-04 5.91115E+06 9.55922E+07-9.88147E-05
 -1      1393-2.24276E-02 1.38520E-04 1.24754E-02-1.02627E+07-7.45594E+07 2.54516E-02
 -1      1395-2.24276E-02 1.38520E-04 1.24754E-02-1.02627E+07-7.45594E+07 2.54516E-02
 -1      1396-2.93567E-02-2.33908E-03 1.44275E-04-3.68378E+07 9.79323E+07-1.18325E-04
 -1      1398-2.93567E-02-2.33908E-03 1.44275E-04-3.68378E+07 9.79323E+07-1.18325E-04
 -1      1407-1.92799E-02 1.52264E-04 1.74560E-02-8.79347E+06-7.48744E+07 1.70759E-02
 -1      1409-1.92799E-02 1.52264E-04 1.74560E-02-8.79347E+06-7.48744E+07 1.70759E-02
 -1      1410-2.51177E-02-5.59332E-04 4.38828E-04-7.37141E+07 1.00008E+08-1.39359E-04
 -1      1412-2.51177E-02-5.59332E-04 4.38828E-04-7.37141E+07 1.00008E+08-1.39359E-04
 -1      1421-1.42608E-02-2.36538E-05 1.09179E-02-7.28264E+06-7.45592E+07 1.24043E-02
 -1      1423-1.42608E-02-2.36538E-05 1.09179E-02-7.28264E+06-7.45592E+07 1.24043E-02
 -1      1424-1.87997E-02 1.04437E-03 5.42346E-05-1.00801E+08 1.02020E+08-9.41381E-05
 -1      1426-1.87997E-02 1.04437E-03 5.42346E-05-1.00801E+08 1.02020E+08-9.41381E-05
 -1      1435-7.74331E-03-4.21366E-05 7.44743E-03-5.82132E+06-7.37317E+07 1.54484E-02
 -1      1437-7.74331E-03-4.21366E-05 7.44743E-03-5.82132E+06-7.37317E+07 1.54484E-02
 -1      1438-1.12823E-02 1.20788E-03 3.25721E-05-1.14901E+08 1.03693E+08 5.32081E-05
 -1      1440-1.12823E-02 1.20788E-03 3.25721E-05-1.14901E+08 1.03693E+08 5.32081E-05
 -1      1449-9.87844E-04 1.03858E-05 1.20581E-02-4.33001E+06-7.24455E+07 1.46811E-02
 -1      1451-9.87844E-04 1.03858E-05 1.20581E-02-4.33001E+06-7.24455E+07 1.46811E-02
 -1      1452-4.13568E-03 9.34433E-04-1.47089E-04-1.12913E+08 1.05293E+08 7.03190E-05
 -1      1454-4.13568E-03 9.34433E-04-1.47089E-04-1.12913E+08 1.05293E+08 7.03190E-05
 -1      1463 2.66476E-03-6.60684E-05 1.39016E-02-2.88640E+06-7.11010E+07 6.93558E-03
 -1      1465 2.66476E-03-6.60684E-05 1.39016E-02-2.88640E+06-7.11010E+07 6.93558E-03
 -1      1466 6.30263E-04 9.99402E-05-6.88393E-05-9.31583E+07 1.06484E+08-7.58006E-05
 -1      1468 6.30263E-04 9.99402E-05-6.88393E-05-9.31583E+07 1.06484E+08-7.58006E-05
 -1      1477 1.84619E-03-2.76209E-04 8.57959E-03-1.50748E+06-6.97759E+07 1.07537E-03
 -1      1479 1.84619E-03-2.76209E-04 8.57959E-03-1.50748E+06-6.97759E+07 1.07537E-03
 -1      1480 1.83732E-03 1.37185E-03 3.94331E-04-5.37808E+07 1.07312E+08 9.01753E-06
 -1      1482 1.83732E-03 1.37185E-03 3.94331E-04-5.37808E+07 1.07312E+08 9.01753E-06
 -1      1491-2.61272E-03 2.47817E-04 9.51881E-04-1.00910E+06 6.05399E+07 2.65370E-03
 -1      1493-2.61272E-03 2.47817E-04 9.51881E-04-1.00910E+06 6.05399E+07 2.65370E-03
 -1      1494-1.10271E-03 1.41559E-04 4.99406E-03-1.33730E+06 2.95918E-04 2.69108E-03
 -1      1496-1.10271E-03 1.41559E-04 4.99406E-03-1.33730E+06 2.95918E-04 2.69108E-03
 -1      1497-1.79593E-04-3.19487E-04 5.48732E-03-1.00910E+06-6.05399E+07 1.36471E-03
 -1      1499-1.79593E-04-3.19487E-04 5.48732E-03-1.00910E+06-6.05399E+07 1.36471E-03
 -1      1500-2.02253E+09-7.35882E+07 4.65465E+05-1.47272E+08 4.33507E+06-9.12042E+07
 -1      1502-2.02253E+09-7.35882E+07 4.65465E+05-1.47272E+08 4.33507E+06-9.12042E+07
 -1      1503-1.55881E+09 3.46258E+07-1.76685E+06-8.76340E+07 6.70356E+06 1.08243E+06
 -1      1505-1.55881E+09 3.46258E+07-1.76685E+06-8.76340E+07 6.70356E+06 1.08243E+06
 -1      1506-1.11089E+09-8.05958E+06-5.64388E+05-1.26547E+08 4.45304E+06-4.30529E+07
 -1      1508-1.11089E+09-8.05958E+06-5.64388E+05-1.26547E+08 4.45304E+06-4.30529E+07
 -1      1509-6.43668E+08 6.46436E+06-1.36376E+05-1.08594E+08 7.89601E+06-2.19817E+07
 -1      1511-6.43668E+08 6.46436E+06-1.36376E+05-1.08594E+08 7.89601E+06-2.19817E+07
 -1      1512-2.05460E+08 4.61659E+06-5.70934E+05-1.06978E+08 8.80462E+06-3.14504E+07
 -1      1514-2.05460E+08 4.61659E+06-5.70934E+05-1.06978E+08 8.80462E+06-3.14504E+07
 -1      1515 2.08470E+08 5.94103E+06 5.71550E+05-9.70247E+07 1.08596E+07-2.65687E+07
 -1      1517 2.08470E+08 5.94103E+06 5.71550E+05-9.70247E+07 1.08596E+07-2.65687E+07
 -1      1518 5.67343E+08 6.52494E+06-8.86154E+04-8.06166E+07 1.26302E+07-2.81963E+07
 -1      1520 5.67343E+08 6.52494E+06-8.86154E+04-8.06166E+07 1.26302E+07-2.81963E+07
 -1      1521 8.60487E+08 8.25452E+06 8.70930E+05-6.30578E+07 1.41725E+07-2.67843E+07
 -1      1523 8.60487E+08 8.25452E+06 8.70930E+05-6.30578E+07 1.41725E+07-2.67843E+07
 -1      1524 1.06988E+09 8.22862E+06 3.40414E+05-4.01455E+07 1.59980E+07-2.66084E+07
 -1      1526 1.06988E+09 8.22862E+06 3.40414E+05-4.01455E+07 1.59980E+07-2.66084E+07
 -1      1527 1.18763E+09 1.00561E+07 9.32737E+05-1.68922E+07 1.73341E+07-2.58218E+07
 -1      1529 1.18763E+09 1.00561E+07 9.32737E+05-1.68922E+07 1.73341E+07-2.58218E+07
 -1      1530 1.20837E+09 1.01825E+07 5.14865E+05 7.46206E+06 1.89732E+07-2.51598E+07
 -1      1532 1.20837E+09 1.01825E+07 5.14865E+05 7.46206E+06 1.89732E+07-2.51598E+07
 -1      1533 1.13480E+09 1.16173E+07 7.77562E+05 3.00972E+07 2.01602E+07-2.43712E+07
 -1      1535 1.13480E+09 1.16173E+07 7.77562E+05 3.00972E+07 2.01602E+07-2.43712E+07
 -1      1536 9.74817E+08 1.20313E+07 4.06623E+05 5.00967E+07 2.15602E+07-2.34946E+07
 -1      1538 9.74817E+08 1.20313E+07 4.06623E+05 5.00967E+07 2.15602E+07-2.34946E+07
 -1      1539 7.42844E+08 1.31125E+07 4.32619E+05 6.58274E+07 2.26073E+07-2.25667E+07
 -1      1541 7.42844E+08 1.31125E+07 4.32619E+05 6.58274E+07 2.26073E+07-2.25667E+07
 -1      1542 4.57714E+08 1.36775E+07 8.19787E+04 7.63501E+07 2.37873E+07-2.15250E+07
 -1      1544 4.57714E+08 1.36775E+07 8.19787E+04 7.63501E+07 2.37873E+07-2.15250E+07
 -1      1545 1.42060E+08 1.45299E+07-2.52355E+04 8.09505E+07 2.47126E+07-2.04330E+07
 -1      1547 1.42060E+08 1.45299E+07-2.52355E+04 8.09505E+07 2.47126E+07-2.04330E+07
 -1      1548-1.79861E+08 1.51235E+07-3.38879E+05 7.94057E+07 2.57220E+07-1.92387E+07
 -1      1550-1.79861E+08 1.51235E+07-3.38879E+05 7.94057E+07 2.57220E+07-1.92387E+07
 -1      1551-4.83652E+08 1.58240E+07-4.81246E+05 7.19541E+07 2.65568E+07-1.79910E+07
 -1      1553-4.83652E+08 1.58240E+07-4.81246E+05 7.19541E+07 2.65568E+07-1.79910E+07
 -1      1554-7.46886E+08 1.63776E+07-7.19134E+05 5.92817E+07 2.74505E+07-1.66605E+07
 -1      1556-7.46886E+08 1.63776E+07-7.19134E+05 5.92817E+07 2.74505E+07-1.66605E+07
 -1      1557-9.50693E+08 1.69605E+07-8.17124E+05 4.25026E+07 2.82253E+07-1.52819E+07
 -1      1559-9.50693E+08 1.69605E+07-8.17124E+05 4.25026E+07 2.82253E+07-1.52819E+07
 -1      1560-1.08140E+09 1.74403E+07-9.43942E+05 2.30552E+07 2.90441E+07-1.38420E+07
 -1      1562-1.08140E+09 1.74403E+07-9.43942E+05 2.30552E+07 2.90441E+07-1.38420E+07
 -1      1563-1.13165E+09 1.79174E+07-9.49250E+05 2.64436E+06 2.97720E+07-1.23695E+07
 -1      1565-1.13165E+09 1.79174E+07-9.49250E+05 2.64436E+06 2.97720E+07-1.23695E+07
 -1      1566-1.10116E+09 1.83107E+07-9.53394E+05-1.69286E+07 3.05254E+07-1.08503E+07
 -1      1568-1.10116E+09 1.83107E+07-9.53394E+05-1.69286E+07 3.05254E+07-1.08503E+07
 -1      1569-9.97056E+08 1.86768E+07-8.57576E+05-3.37851E+07 3.11888E+07-9.33398E+06
 -1      1571-9.97056E+08 1.86768E+07-8.57576E+05-3.37851E+07 3.11888E+07-9.33398E+06
 -1      1572-8.33675E+08 1.89974E+07-7.61251E+05-4.62524E+07 3.18425E+07-7.74633E+06
 -1      1574-8.33675E+08 1.89974E+07-7.61251E+05-4.62524E+07 3.18425E+07-7.74633E+06
 -1      1575-6.31915E+08 1.92199E+07-5.97298E+05-5.26913E+07 3.23877E+07-6.27420E+06
 -1      1577-6.31915E+08 1.92199E+07-5.97298E+05-5.26913E+07 3.23877E+07-6.27420E+06
 -1      1578-4.18456E+08 1.95101E+07-4.54114E+05-5.19278E+07 3.28515E+07-4.53132E+06
 -1      1580-4.18456E+08 1.95101E+07-4.54114E+05-5.19278E+07 3.28515E+07-4.53132E+06
 -1      1581-2.24193E+08 1.95921E+07-2.92262E+05-4.30320E+07 3.31974E+07-3.36821E+06
 -1      1583-2.24193E+08 1.95921E+07-2.92262E+05-4.30320E+07 3.31974E+07-3.36821E+06
 -1      1584-8.37501E+07 1.96603E+07-1.70798E+05-2.48369E+07 3.33497E+07-9.78701E+05
 -1      1586-8.37501E+07 1.96603E+07-1.70798E+05-2.48369E+07 3.33497E+07-9.78701E+05
 -1      1587-1.67299E+07 3.54799E+07 1.80841E+05-2.09919E+07 7.06984E+07 1.07910E+06
 -1      1589-1.67299E+07 3.54799E+07 1.80841E+05-2.09919E+07 7.06984E+07 1.07910E+06
 -1      1590-1.52712E+09-2.69428E+08-1.25097E+06-3.06346E+08-3.21367E+07-1.26724E+08
 -1      1592-1.52712E+09-2.69428E+08-1.25097E+06-3.06346E+08-3.21367E+07-1.26724E+08
 -1      1593 1.67299E+07-3.54799E+07-1.80841E+05-2.09919E+07 7.06984E+07-1.07910E+06
 -1      1595 1.67299E+07-3.54799E+07-1.80841E+05-2.09919E+07 7.06984E+07-1.07910E+06
 -1      1596 2.02253E+09 7.35882E+07-4.65465E+05-1.47272E+08 4.33507E+06 9.12042E+07
 -1      1598 2.02253E+09 7.35882E+07-4.65465E+05-1.47272E+08 4.33507E+06 9.12042E+07
 -1      1599 1.55881E+09-3.46258E+07 1.76685E+06-8.76340E+07 6.70356E+06-1.08243E+06
 -1      1601 1.55881E+09-3.46258E+07 1.76685E+06-8.76340E+07 6.70356E+06-1.08243E+06
 -1      1602 1.11089E+09 8.05958E+06 5.64388E+05-1.26547E+08 4.45304E+06 4.30529E+07
 -1      1604 1.11089E+09 8.05958E+06 5.64388E+05-1.26547E+08 4.45304E+06 4.30529E+07
 -1      1605 6.43668E+08-6.46436E+06 1.36376E+05-1.08594E+08 7.89601E+06 2.19817E+07
 -1      1607 6.43668E+08-6.46436E+06 1.36376E+05-1.08594E+08 7.89601E+06 2.19817E+07
 -1      1608 2.05460E+08-4.61659E+06 5.70934E+05-1.06978E+08 8.80462E+06 3.14504E+07
 -1      1610 2.05460E+08-4.61659E+06 5.70934E+05-1.06978E+08 8.80462E+06 3.14504E+07
 -1      1611-2.08470E+08-5.94103E+06-5.71550E+05-9.70247E+07 1.08596E+07 2.65687E+07
 -1      1613-2.08470E+08-5.94103E+06-5.71550E+05-9.70247E+07 1.08596E+07 2.65687E+07
 -1      1614-5.67343E+08-6.52494E+06 8.86154E+04-8.06166E+07 1.26302E+07 2.81963E+07
 -1      1616-5.67343E+08-6.52494E+06 8.86154E+04-8.06166E+07 1.26302E+07 2.81963E+07
 -1      1617-8.60487E+08-8.25452E+06-8.70930E+05-6.30578E+07 1.41725E+07 2.67843E+07
 -1      1619-8.60487E+08-8.25452E+06-8.70930E+05-6.30578E+07 1.41725E+07 2.67843E+07
 -1      1620-1.06988E+09-8.22862E+06-3.40414E+05-4.01455E+07 1.59980E+07 2.66084E+07
 -1      1622-1.06988E+09-8.22862E+06-3.40414E+05-4.01455E+07 1.59980E+07 2.66084E+07
 -1      1623-1.18763E+09-1.00561E+07-9.32737E+05-1.68922E+07 1.73341E+07 2.58218E+07
 -1      1625-1.18763E+09-1.00561E+07-9.32737E+05-1.68922E+07 1.73341E+07 2.58218E+07
 -1      1626-1.20837E+09-1.01825E+07-5.14865E+05 7.46206E+06 1.89732E+07 2.51598E+07
 -1      1628-1.20837E+09-1.01825E+07-5.14865E+05 7.46206E+06 1.89732E+07 2.51598E+07
 -1      1629-1.13480E+09-1.16173E+07-7.77562E+05 3.00972E+07 2.01602E+07 2.43712E+07
 -1      1631-1.13480E+09-1.16173E+07-7.77562E+05 3.00972E+07 2.01602E+07 2.43712E+07
 -1      1632-9.74817E+08-1.20313E+07-4.06623E+05 5.00967E+07 2.15602E+07 2.34946E+07
 -1      1634-9.74817E+08-1.20313E+07-4.06623E+05 5.00967E+07 2.15602E+07 2.34946E+07
 -1      1635-7.42844E+08-1.31125E+07-4.32619E+05 6.58274E+07 2.26073E+07 2.25667E+07
 -1      1637-7.42844E+08-1.31125E+07-4.32619E+05 6.58274E+07 2.26073E+07 2.25667E+07
 -1      1638-4.57714E+08-1.36775E+07-8.19787E+04 7.63501E+07 2.37873E+07 2.15250E+07
 -1      1640-4.57714E+08-1.36775E+07-8.19787E+04 7.63501E+07 2.37873E+07 2.15250E+07
 -1      1641-1.42060E+08-1.45299E+07 2.52355E+04 8.09505E+07 2.47126E+07 2.04330E+07
 -1      1643-1.42060E+08-1.45299E+07 2.52355E+04 8.09505E+07 2.47126E+07 2.04330E+07
 -1      1644 1.79861E+08-1.51235E+07 3.38879E+05 7.94057E+07 2.57220E+07 1.92387E+07
 -1      1646 1.79861E+08-1.51235E+07 3.38879E+05 7.94057E+07 2.57220E+07 1.92387E+07
 -1      1647 4.83652E+08-1.58240E+07 4.81246E+05 7.19541E+07 2.65568E+07 1.79910E+07
 -1      1649 4.83652E+08-1.58240E+07 4.81246E+05 7.19541E+07 2.65568E+07 1.79910E+07
 -1      1650 7.46886E+08-1.63776E+07 7.19134E+05 5.92817E+07 2.74505E+07 1.66605E+07
 -1      1652 7.46886E+08-1.63776E+07 7.19134E+05 5.92817E+07 2.74505E+07 1.66605E+07
 -1      1653 9.50693E+08-1.69605E+07 8.17124E+05 4.25026E+07 2.82253E+07 1.52819E+07
 -1      1655 9.50693E+08-1.69605E+07 8.17124E+05 4.25026E+07 2.82253E+07 1.52819E+07
 -1      1656 1.08140E+09-1.74403E+07 9.43942E+05 2.30552E+07 2.90441E+07 1.38420E+07
 -1      1658 1.08140E+09-1.74403E+07 9.43942E+05 2.30552E+07 2.90441E+07 1.38420E+07
 -1      1659 1.13165E+09-1.79174E+07 9.49250E+05 2.64436E+06 2.97720E+07 1.23695E+07
 -1      1661 1.13165E+09-1.79174E+07 9.49250E+05 2.64436E+06 2.97720E+07 1.23695E+07
 -1      1662 1.10116E+09-1.83107E+07 9.53394E+05-1.69286E+07 3.05254E+07 1.08503E+07
 -1      1664 1.10116E+09-1.83107E+07 9.53394E+05-1.69286E+07 3.05254E+07 1.08503E+07
 -1      1665 9.97056E+08-1.86768E+07 8.57576E+05-3.37851E+07 3.11888E+07 9.33398E+06
 -1      1667 9.97056E+08-1.86768E+07 8.57576E+05-3.37851E+07 3.11888E+07 9.33398E+06
 -1      1668 8.33675E+08-1.89974E+07 7.61251E+05-4.62524E+07 3.18425E+07 7.74633E+06
 -1      1670 8.33675E+08-1.89974E+07 7.61251E+05-4.62524E+07 3.18425E+07 7.74633E+06
 -1      1671 6.31915E+08-1.92199E+07 5.97298E+05-5.26913E+07 3.23877E+07 6.27420E+06
 -1      1673 6.31915E+08-1.92199E+07 5.97298E+05-5.26913E+07 3.23877E+07 6.27420E+06
 -1      1674 4.18456E+08-1.95101E+07 4.54114E+05-5.19278E+07 3.28515E+07 4.53132E+06
 -1      1676 4.18456E+08-1.95101E+07 4.54114E+05-5.19278E+07 3.28515E+07 4.53132E+06
 -1      1677 2.24193E+08-1.95921E+07 2.92262E+05-4.30320E+07 3.31974E+07 3.36821E+06
 -1      1679 2.24193E+08-1.95921E+07 2.92262E+05-4.30320E+07 3.31974E+07 3.36821E+06
 -1      1680 8.37501E+07-1.96603E+07 1.70798E+05-2.48369E+07 3.33497E+07 9.78701E+05
 -1      1682 8.37501E+07-1.96603E+07 1.70798E+05-2.48369E+07 3.33497E+07 9.78701E+05
 -1      1683 1.52712E+09 2.69428E+08 1.25097E+06-3.06346E+08-3.21367E+07 1.26724E+08
 -1      1685 1.52712E+09 2.69428E+08 1.25097E+06-3.06346E+08-3.21367E+07 1.26724E+08
 -1      1686 1.36173E+09 9.83866E+07 4.97042E+05-2.08702E+08 1.22389E+07-3.35171E+07
 -1      1688 1.36173E+09 9.83866E+07 4.97042E+05-2.08702E+08 1.22389E+07-3.35171E+07
 -1      1689 1.04142E+09-4.31013E+07-7.34320E+05-1.64962E+08-9.86180E+06 1.64138E+07
 -1      1691 1.04142E+09-4.31013E+07-7.34320E+05-1.64962E+08-9.86180E+06 1.64138E+07
 -1      1692 7.34780E+08 3.37053E+06 3.79026E+05-1.92236E+08-9.39123E+06-7.27760E+06
 -1      1694 7.34780E+08 3.37053E+06 3.79026E+05-1.92236E+08-9.39123E+06-7.27760E+06
 -1      1695 4.30848E+08-5.45942E+06-1.07152E+05-1.74985E+08-1.41758E+07 3.74521E+06
 -1      1697 4.30848E+08-5.45942E+06-1.07152E+05-1.74985E+08-1.41758E+07 3.74521E+06
 -1      1698 1.34844E+08-1.24678E+07-1.52758E+05-1.72755E+08-1.84530E+07-1.25605E+06
 -1      1700 1.34844E+08-1.24678E+07-1.52758E+05-1.72755E+08-1.84530E+07-1.25605E+06
 -1      1701-1.38796E+08-6.34070E+06 1.41875E+05-1.52772E+08-2.13382E+07 9.49153E+05
 -1      1703-1.38796E+08-6.34070E+06 1.41875E+05-1.52772E+08-2.13382E+07 9.49153E+05
 -1      1704-3.78600E+08-1.30819E+07-2.57285E+05-1.30461E+08-2.58115E+07-1.15399E+04
 -1      1706-3.78600E+08-1.30819E+07-2.57285E+05-1.30461E+08-2.58115E+07-1.15399E+04
 -1      1707-5.73419E+08-1.10299E+07 1.08085E+05-9.96986E+07-2.86247E+07 3.36922E+05
 -1      1709-5.73419E+08-1.10299E+07 1.08085E+05-9.96986E+07-2.86247E+07 3.36922E+05
 -1      1710-7.13236E+08-1.43202E+07-2.14813E+05-6.47309E+07-3.26217E+07 1.72809E+05
 -1      1712-7.13236E+08-1.43202E+07-2.14813E+05-6.47309E+07-3.26217E+07 1.72809E+05
 -1      1713-7.91755E+08-1.50841E+07 2.03791E+04-2.67976E+07-3.54130E+07 1.63193E+05
 -1      1715-7.91755E+08-1.50841E+07 2.03791E+04-2.67976E+07-3.54130E+07 1.63193E+05
 -1      1716-8.06155E+08-1.73241E+07-1.66611E+05 1.16824E+07-3.88743E+07 1.31696E+05
 -1      1718-8.06155E+08-1.73241E+07-1.66611E+05 1.16824E+07-3.88743E+07 1.31696E+05
 -1      1719-7.57671E+08-1.92350E+07-4.97973E+04 4.79341E+07-4.15125E+07 7.22359E+04
 -1      1721-7.57671E+08-1.92350E+07-4.97973E+04 4.79341E+07-4.15125E+07 7.22359E+04
 -1      1722-6.51994E+08-2.14957E+07-1.41592E+05 7.98078E+07-4.44800E+07 5.76140E+04
 -1      1724-6.51994E+08-2.14957E+07-1.41592E+05 7.98078E+07-4.44800E+07 5.76140E+04
 -1      1725-4.98356E+08-2.38616E+07-9.60759E+04 1.04893E+08-4.68836E+07 1.05817E+04
 -1      1727-4.98356E+08-2.38616E+07-9.60759E+04 1.04893E+08-4.68836E+07 1.05817E+04
 -1      1728-3.09515E+08-2.62685E+07-1.35449E+05 1.21709E+08-4.94265E+07 4.06504E+03
 -1      1730-3.09515E+08-2.62685E+07-1.35449E+05 1.21709E+08-4.94265E+07 4.06504E+03
 -1      1731-1.00304E+08-2.87166E+07-1.25711E+05 1.29032E+08-5.15796E+07-1.80240E+04
 -1      1733-1.00304E+08-2.87166E+07-1.25711E+05 1.29032E+08-5.15796E+07-1.80240E+04
 -1      1734 1.13044E+08-3.10444E+07-1.39736E+05 1.26601E+08-5.37799E+07-1.10439E+04
 -1      1736 1.13044E+08-3.10444E+07-1.39736E+05 1.26601E+08-5.37799E+07-1.10439E+04
 -1      1737 3.14437E+08-3.32469E+07-1.45156E+05 1.14717E+08-5.57083E+07-8.15078E+03
 -1      1739 3.14437E+08-3.32469E+07-1.45156E+05 1.14717E+08-5.57083E+07-8.15078E+03
 -1      1740 4.88923E+08-3.51888E+07-1.48292E+05 9.45358E+07-5.76456E+07 1.33338E+04
 -1      1742 4.88923E+08-3.51888E+07-1.48292E+05 9.45358E+07-5.76456E+07 1.33338E+04
 -1      1743 6.24034E+08-3.68526E+07-1.58110E+05 6.77895E+07-5.93845E+07 3.48860E+04
 -1      1745 6.24034E+08-3.68526E+07-1.58110E+05 6.77895E+07-5.93845E+07 3.48860E+04
 -1      1746 7.10668E+08-3.81540E+07-1.57453E+05 3.68081E+07-6.11168E+07 6.54231E+04
 -1      1748 7.10668E+08-3.81540E+07-1.57453E+05 3.68081E+07-6.11168E+07 6.54231E+04
 -1      1749 7.43966E+08-3.90784E+07-1.66342E+05 4.27775E+06-6.26821E+07 9.40504E+04
 -1      1751 7.43966E+08-3.90784E+07-1.66342E+05 4.27775E+06-6.26821E+07 9.40504E+04
 -1      1752 7.23752E+08-3.96175E+07-1.65163E+05-2.68832E+07-6.42289E+07 1.25054E+05
 -1      1754 7.23752E+08-3.96175E+07-1.65163E+05-2.68832E+07-6.42289E+07 1.25054E+05
 -1      1755 6.54762E+08-3.97313E+07-1.70815E+05-5.37496E+07-6.55982E+07 1.42439E+05
 -1      1757 6.54762E+08-3.97313E+07-1.70815E+05-5.37496E+07-6.55982E+07 1.42439E+05
 -1      1758 5.46533E+08-3.95620E+07-1.69867E+05-7.35268E+07-6.69310E+07 1.72872E+05
 -1      1760 5.46533E+08-3.95620E+07-1.69867E+05-7.35268E+07-6.69310E+07 1.72872E+05
 -1      1761 4.12967E+08-3.89129E+07-1.73012E+05-8.37959E+07-6.80403E+07 1.39025E+05
 -1      1763 4.12967E+08-3.89129E+07-1.73012E+05-8.37959E+07-6.80403E+07 1.39025E+05
 -1      1764 2.71759E+08-3.82286E+07-1.68736E+05-8.24202E+07-6.90721E+07 2.14299E+05
 -1      1766 2.71759E+08-3.82286E+07-1.68736E+05-8.24202E+07-6.90721E+07 2.14299E+05
 -1      1767 1.43596E+08-3.70459E+07-1.76823E+05-6.80952E+07-6.98409E+07-8.68646E+03
 -1      1769 1.43596E+08-3.70459E+07-1.76823E+05-6.80952E+07-6.98409E+07-8.68646E+03
 -1      1770 5.11219E+07-3.57259E+07-1.56225E+05-3.93089E+07-7.03310E+07 3.60548E+05
 -1      1772 5.11219E+07-3.57259E+07-1.56225E+05-3.93089E+07-7.03310E+07 3.60548E+05
 -1      1773-1.36173E+09-9.83866E+07-4.97042E+05-2.08702E+08 1.22389E+07 3.35171E+07
 -1      1775-1.36173E+09-9.83866E+07-4.97042E+05-2.08702E+08 1.22389E+07 3.35171E+07
 -1      1776-1.04142E+09 4.31013E+07 7.34320E+05-1.64962E+08-9.86180E+06-1.64138E+07
 -1      1778-1.04142E+09 4.31013E+07 7.34320E+05-1.64962E+08-9.86180E+06-1.64138E+07
 -1      1779-7.34780E+08-3.37053E+06-3.79026E+05-1.92236E+08-9.39123E+06 7.27760E+06
 -1      1781-7.34780E+08-3.37053E+06-3.79026E+05-1.92236E+08-9.39123E+06 7.27760E+06
 -1      1782-4.30848E+08 5.45942E+06 1.07152E+05-1.74985E+08-1.41758E+07-3.74521E+06
 -1      1784-4.30848E+08 5.45942E+06 1.07152E+05-1.74985E+08-1.41758E+07-3.74521E+06
 -1      1785-1.34844E+08 1.24678E+07 1.52758E+05-1.72755E+08-1.84530E+07 1.25605E+06
 -1      1787-1.34844E+08 1.24678E+07 1.52758E+05-1.72755E+08-1.84530E+07 1.25605E+06
 -1      1788 1.38796E+08 6.34070E+06-1.41875E+05-1.52772E+08-2.13382E+07-9.49153E+05
 -1      1790 1.38796E+08 6.34070E+06-1.41875E+05-1.52772E+08-2.13382E+07-9.49153E+05
 -1      1791 3.78600E+08 1.30819E+07 2.57285E+05-1.30461E+08-2.58115E+07 1.15399E+04
 -1      1793 3.78600E+08 1.30819E+07 2.57285E+05-1.30461E+08-2.58115E+07 1.15399E+04
 -1      1794 5.73419E+08 1.10299E+07-1.08085E+05-9.96986E+07-2.86247E+07-3.36922E+05
 -1      1796 5.73419E+08 1.10299E+07-1.08085E+05-9.96986E+07-2.86247E+07-3.36922E+05
 -1      1797 7.13236E+08 1.43202E+07 2.14813E+05-6.47309E+07-3.26217E+07-1.72809E+05
 -1      1799 7.13236E+08 1.43202E+07 2.14813E+05-6.47309E+07-3.26217E+07-1.72809E+05
 -1      1800 7.91755E+08 1.50841E+07-2.03791E+04-2.67976E+07-3.54130E+07-1.63193E+05
 -1      1802 7.91755E+08 1.50841E+07-2.03791E+04-2.67976E+07-3.54130E+07-1.63193E+05
 -1      1803 8.06155E+08 1.73241E+07 1.66611E+05 1.16824E+07-3.88743E+07-1.31696E+05
 -1      1805 8.06155E+08 1.73241E+07 1.66611E+05 1.16824E+07-3.88743E+07-1.31696E+05
 -1      1806 7.57671E+08 1.92350E+07 4.97973E+04 4.79341E+07-4.15125E+07-7.22359E+04
 -1      1808 7.57671E+08 1.92350E+07 4.97973E+04 4.79341E+07-4.15125E+07-7.22359E+04
 -1      1809 6.51994E+08 2.14957E+07 1.41592E+05 7.98078E+07-4.44800E+07-5.76140E+04
 -1      1811 6.51994E+08 2.14957E+07 1.41592E+05 7.98078E+07-4.44800E+07-5.76140E+04
 -1      1812 4.98356E+08 2.38616E+07 9.60759E+04 1.04893E+08-4.68836E+07-1.05817E+04
 -1      1814 4.98356E+08 2.38616E+07 9.60759E+04 1.04893E+08-4.68836E+07-1.05817E+04
 -1      1815 3.09515E+08 2.62685E+07 1.35449E+05 1.21709E+08-4.94265E+07-4.06504E+03
 -1      1817 3.09515E+08 2.62685E+07 1.35449E+05 1.21709E+08-4.94265E+07-4.06504E+03
 -1      1818 1.00304E+08 2.87166E+07 1.25711E+05 1.29032E+08-5.15796E+07 1.80240E+04
 -1      1820 1.00304E+08 2.87166E+07 1.25711E+05 1.29032E+08-5.15796E+07 1.80240E+04
 -1      1821-1.13044E+08 3.10444E+07 1.39736E+05 1.26601E+08-5.37799E+07 1.10439E+04
 -1      1823-1.13044E+08 3.10444E+07 1.39736E+05 1.26601E+08-5.37799E+07 1.10439E+04
 -1      1824-3.14437E+08 3.32469E+07 1.45156E+05 1.14717E+08-5.57083E+07 8.15078E+03
 -1      1826-3.14437E+08 3.32469E+07 1.45156E+05 1.14717E+08-5.57083E+07 8.15078E+03
 -1      1827-4.88923E+08 3.51888E+07 1.48292E+05 9.45358E+07-5.76456E+07-1.33338E+04
 -1      1829-4.88923E+08 3.51888E+07 1.48292E+05 9.45358E+07-5.76456E+07-1.33338E+04
 -1      1830-6.24034E+08 3.68526E+07 1.58110E+05 6.77895E+07-5.93845E+07-3.48860E+04
 -1      1832-6.24034E+08 3.68526E+07 1.58110E+05 6.77895E+07-5.93845E+07-3.48860E+04
 -1      1833-7.10668E+08 3.81540E+07 1.57453E+05 3.68081E+07-6.11168E+07-6.54231E+04
 -1      1835-7.10668E+08 3.81540E+07 1.57453E+05 3.68081E+07-6.11168E+07-6.54231E+04
 -1      1836-7.43966E+08 3.90784E+07 1.66342E+05 4.27775E+06-6.26821E+07-9.40504E+04
 -1      1838-7.43966E+08 3.90784E+07 1.66342E+05 4.27775E+06-6.26821E+07-9.40504E+04
 -1      1839-7.23752E+08 3.96175E+07 1.65163E+05-2.68832E+07-6.42289E+07-1.25054E+05
 -1      1841-7.23752E+08 3.96175E+07 1.65163E+05-2.68832E+07-6.42289E+07-1.25054E+05
 -1      1842-6.54762E+08 3.97313E+07 1.70815E+05-5.37496E+07-6.55982E+07-1.42439E+05
 -1      1844-6.54762E+08 3.97313E+07 1.70815E+05-5.37496E+07-6.55982E+07-1.42439E+05
 -1      1845-5.46533E+08 3.95620E+07 1.69867E+05-7.35268E+07-6.69310E+07-1.72872E+05
 -1      1847-5.46533E+08 3.95620E+07 1.69867E+05-7.35268E+07-6.69310E+07-1.72872E+05
 -1      1848-4.12967E+08 3.89129E+07 1.73012E+05-8.37959E+07-6.80403E+07-1.39025E+05
 -1      1850-4.12967E+08 3.89129E+07 1.73012E+05-8.37959E+07-6.80403E+07-1.39025E+05
 -1      1851-2.71759E+08 3.82286E+07 1.68736E+05-8.24202E+07-6.90721E+07-2.14299E+05
 -1      1853-2.71759E+08 3.82286E+07 1.68736E+05-8.24202E+07-6.90721E+07-2.14299E+05
 -1      1854-1.43596E+08 3.70459E+07 1.76823E+05-6.80952E+07-6.98409E+07 8.68646E+03
 -1      1856-1.43596E+08 3.70459E+07 1.76823E+05-6.80952E+07-6.98409E+07 8.68646E+03
 -1      1857-5.11219E+07 3.57259E+07 1.56225E+05-3.93089E+07-7.03310E+07-3.60548E+05
 -1      1859-5.11219E+07 3.57259E+07 1.56225E+05-3.93089E+07-7.03310E+07-3.60548E+05
 -1      1860-3.67567E-02-1.73513E-05 2.12024E-03 4.06757E+07 1.88879E+06-6.65682E-02
 -1      1862-3.67567E-02-1.73513E-05 2.12024E-03 4.06757E+07 1.88879E+06-6.65682E-02
 -1      1863-2.98504E-02 1.81757E-05 9.66609E-03-2.47342E+07 6.90619E+06-6.60493E-02
 -1      1865-2.98504E-02 1.81757E-05 9.66609E-03-2.47342E+07 6.90619E+06-6.60493E-02
 -1      1866-2.32119E-02 2.46871E-05 2.38872E-03 1.21769E+07 8.14676E+06-6.22387E-02
 -1      1868-2.32119E-02 2.46871E-05 2.38872E-03 1.21769E+07 8.14676E+06-6.22387E-02
 -1      1869-1.51847E-02 4.23664E-05-8.56196E-03-7.72826E+06 1.13348E+07-6.09710E-02
 -1      1871-1.51847E-02 4.23664E-05-8.56196E-03-7.72826E+06 1.13348E+07-6.09710E-02
 -1      1872-4.43347E-03 2.20447E-05-9.91901E-03 2.42845E+06 1.34270E+07-6.09362E-02
 -1      1874-4.43347E-03 2.20447E-05-9.91901E-03 2.42845E+06 1.34270E+07-6.09362E-02
 -1      1875 5.70792E-03 8.14334E-05-6.95822E-04-2.30453E+06 1.60616E+07-5.88924E-02
 -1      1877 5.70792E-03 8.14334E-05-6.95822E-04-2.30453E+06 1.60616E+07-5.88924E-02
 -1      1878 1.16702E-02 3.19163E-04 9.69691E-03-8.15201E+04 1.85813E+07-5.13871E-02
 -1      1880 1.16702E-02 3.19163E-04 9.69691E-03-8.15201E+04 1.85813E+07-5.13871E-02
 -1      1881 1.44281E-02 3.08117E-04 9.52509E-03-6.98862E+05 2.11119E+07-4.27834E-02
 -1      1883 1.44281E-02 3.08117E-04 9.52509E-03-6.98862E+05 2.11119E+07-4.27834E-02
 -1      1884 1.78443E-02-1.40041E-04 2.05037E-03-3.02294E+05 2.39021E+07-4.00448E-02
 -1      1886 1.78443E-02-1.40041E-04 2.05037E-03-3.02294E+05 2.39021E+07-4.00448E-02
 -1      1887 2.42736E-02-3.84893E-04 1.50788E-03-5.55367E+04 2.65788E+07-4.05593E-02
 -1      1889 2.42736E-02-3.84893E-04 1.50788E-03-5.55367E+04 2.65788E+07-4.05593E-02
 -1      1890 3.11898E-02-1.23384E-04 1.04819E-02 5.90377E+04 2.95818E+07-3.48577E-02
 -1      1892 3.11898E-02-1.23384E-04 1.04819E-02 5.90377E+04 2.95818E+07-3.48577E-02
 -1      1893 3.55757E-02-1.47710E-05 1.90092E-02 3.74777E+05 3.24678E+07-2.31809E-02
 -1      1895 3.55757E-02-1.47710E-05 1.90092E-02 3.74777E+05 3.24678E+07-2.31809E-02
 -1      1896 3.87915E-02 3.03529E-05 2.09953E-02 4.63636E+05 3.56069E+07-1.10061E-02
 -1      1898 3.87915E-02 3.03529E-05 2.09953E-02 4.63636E+05 3.56069E+07-1.10061E-02
 -1      1899 4.07278E-02 1.74699E-04 1.94624E-02 6.76434E+05 3.86161E+07-2.54320E-04
 -1      1901 4.07278E-02 1.74699E-04 1.94624E-02 6.76434E+05 3.86161E+07-2.54320E-04
 -1      1902 3.89983E-02 2.47026E-04 1.96455E-02 7.19083E+05 4.17424E+07 8.60247E-03
 -1      1904 3.89983E-02 2.47026E-04 1.96455E-02 7.19083E+05 4.17424E+07 8.60247E-03
 -1      1905 3.56384E-02 1.28494E-04 2.05509E-02 7.94491E+05 4.46845E+07 1.47323E-02
 -1      1907 3.56384E-02 1.28494E-04 2.05509E-02 7.94491E+05 4.46845E+07 1.47323E-02
 -1      1908 3.39902E-02 2.44229E-04 1.80774E-02 7.51723E+05 4.75872E+07 1.76718E-02
 -1      1910 3.39902E-02 2.44229E-04 1.80774E-02 7.51723E+05 4.75872E+07 1.76718E-02
 -1      1911 3.19887E-02 6.30803E-04 1.19444E-02 6.95891E+05 5.02255E+07 1.75324E-02
 -1      1913 3.19887E-02 6.30803E-04 1.19444E-02 6.95891E+05 5.02255E+07 1.75324E-02
 -1      1914 2.58662E-02 5.11496E-04 5.83702E-03 5.63390E+05 5.26809E+07 1.60418E-02
 -1      1916 2.58662E-02 5.11496E-04 5.83702E-03 5.63390E+05 5.26809E+07 1.60418E-02
 -1      1917 1.68719E-02 3.88853E-04 2.33767E-03 4.10457E+05 5.47980E+07 1.80573E-02
 -1      1919 1.68719E-02 3.88853E-04 2.33767E-03 4.10457E+05 5.47980E+07 1.80573E-02
 -1      1920 8.89268E-03 1.76035E-04-9.75397E-06 2.20913E+05 5.66317E+07 2.24196E-02
 -1      1922 8.89268E-03 1.76035E-04-9.75397E-06 2.20913E+05 5.66317E+07 2.24196E-02
 -1      1923 3.18727E-03-5.83075E-05 5.81866E-04 2.81373E+04 5.80914E+07 2.33915E-02
 -1      1925 3.18727E-03-5.83075E-05 5.81866E-04 2.81373E+04 5.80914E+07 2.33915E-02
 -1      1926-8.68100E-04 1.46362E-04 6.75721E-03-1.62963E+05 5.92304E+07 2.18005E-02
 -1      1928-8.68100E-04 1.46362E-04 6.75721E-03-1.62963E+05 5.92304E+07 2.18005E-02
 -1      1929-2.20452E-03 1.32950E-04 1.34890E-02-3.23527E+05 6.00201E+07 1.98100E-02
 -1      1931-2.20452E-03 1.32950E-04 1.34890E-02-3.23527E+05 6.00201E+07 1.98100E-02
 -1      1932-8.26227E-04 4.02809E-04 1.61577E-02-4.63180E+05 6.05211E+07 1.79728E-02
 -1      1934-8.26227E-04 4.02809E-04 1.61577E-02-4.63180E+05 6.05211E+07 1.79728E-02
 -1      1935-4.12647E-04 3.52846E-04 1.66656E-02-5.05736E+05 6.07632E+07 1.60452E-02
 -1      1937-4.12647E-04 3.52846E-04 1.66656E-02-5.05736E+05 6.07632E+07 1.60452E-02
 -1      1938-1.93229E-03-1.67344E-04 1.69176E-02-5.88722E+05 6.08108E+07 1.30550E-02
 -1      1940-1.93229E-03-1.67344E-04 1.69176E-02-5.88722E+05 6.08108E+07 1.30550E-02
 -1      1941-3.59045E-03-8.18382E-05 1.36150E-02-3.78514E+05 6.07375E+07 9.79015E-03
 -1      1943-3.59045E-03-8.18382E-05 1.36150E-02-3.78514E+05 6.07375E+07 9.79015E-03
 -1      1944-3.47893E-03 1.64485E-04 5.62039E-03-5.40378E+05 6.06141E+07 5.45601E-03
 -1      1946-3.47893E-03 1.64485E-04 5.62039E-03-5.40378E+05 6.06141E+07 5.45601E-03
 -1      1947-3.82281E-03 3.09177E-06 6.47059E-03 1.00202E+08 8.19750E-06-6.68439E-02
 -1      1949-3.82281E-03 3.09177E-06 6.47059E-03 1.00202E+08 8.19750E-06-6.68439E-02
 -1      1950-5.02247E-03 5.88636E-06 6.38269E-03-1.56706E+07-1.03823E-04-7.09373E-02
 -1      1952-5.02247E-03 5.88636E-06 6.38269E-03-1.56706E+07-1.03823E-04-7.09373E-02
 -1      1953-4.31915E-03 8.16187E-05-1.28603E-03 4.95344E+07-1.09568E-04-6.89563E-02
 -1      1955-4.31915E-03 8.16187E-05-1.28603E-03 4.95344E+07-1.09568E-04-6.89563E-02
 -1      1956-3.33372E-03 1.41261E-04-9.82479E-03 1.30471E+07-1.89152E-04-6.55463E-02
 -1      1958-3.33372E-03 1.41261E-04-9.82479E-03 1.30471E+07-1.89152E-04-6.55463E-02
 -1      1959-1.84795E-03 8.29859E-05-1.19614E-02 3.24730E+07-3.73259E-04-6.27142E-02
 -1      1961-1.84795E-03 8.29859E-05-1.19614E-02 3.24730E+07-3.73259E-04-6.27142E-02
 -1      1962-1.70975E-03 2.79603E-05-6.57091E-03 2.17097E+07-6.73660E-04-5.76928E-02
 -1      1964-1.70975E-03 2.79603E-05-6.57091E-03 2.17097E+07-6.73660E-04-5.76928E-02
 -1      1965-3.33387E-03 1.83589E-04 1.82809E-03 2.71704E+07-8.95597E-04-4.99699E-02
 -1      1967-3.33387E-03 1.83589E-04 1.82809E-03 2.71704E+07-8.95597E-04-4.99699E-02
 -1      1968-3.34423E-03 2.58544E-04 5.04149E-03 2.39568E+07-9.07927E-04-4.46798E-02
 -1      1970-3.34423E-03 2.58544E-04 5.04149E-03 2.39568E+07-9.07927E-04-4.46798E-02
 -1      1971-1.08293E-03-1.70874E-04 5.52210E-04 2.54698E+07-8.10410E-04-4.33354E-02
 -1      1973-1.08293E-03-1.70874E-04 5.52210E-04 2.54698E+07-8.10410E-04-4.33354E-02
 -1      1974 1.89469E-03-3.07199E-04-2.16095E-03 2.43159E+07-7.15694E-04-4.14000E-02
 -1      1976 1.89469E-03-3.07199E-04-2.16095E-03 2.43159E+07-7.15694E-04-4.14000E-02
 -1      1977 3.97635E-03-1.26577E-04 3.37329E-03 2.46251E+07-8.16015E-04-3.38684E-02
 -1      1979 3.97635E-03-1.26577E-04 3.37329E-03 2.46251E+07-8.16015E-04-3.38684E-02
 -1      1980 4.03193E-03 5.32865E-06 1.19175E-02 2.39230E+07-9.66215E-04-2.29266E-02
 -1      1982 4.03193E-03 5.32865E-06 1.19175E-02 2.39230E+07-9.66215E-04-2.29266E-02
 -1      1983 3.74520E-03 3.22317E-04 1.69524E-02 2.36681E+07-1.12426E-03-1.29672E-02
 -1      1985 3.74520E-03 3.22317E-04 1.69524E-02 2.36681E+07-1.12426E-03-1.29672E-02
 -1      1986 3.82209E-03 1.12748E-04 1.76147E-02 2.28875E+07-1.21842E-03-3.34776E-03
 -1      1988 3.82209E-03 1.12748E-04 1.76147E-02 2.28875E+07-1.21842E-03-3.34776E-03
 -1      1989 2.53595E-03 1.89436E-04 1.78741E-02 2.21779E+07-1.15453E-03 5.90401E-03
 -1      1991 2.53595E-03 1.89436E-04 1.78741E-02 2.21779E+07-1.15453E-03 5.90401E-03
 -1      1992-5.42848E-05 3.66928E-04 1.91131E-02 2.11142E+07-9.16896E-04 1.17587E-02
 -1      1994-5.42848E-05 3.66928E-04 1.91131E-02 2.11142E+07-9.16896E-04 1.17587E-02
 -1      1995-2.29805E-04 2.65059E-04 1.78999E-02 1.99732E+07-6.62448E-04 1.40100E-02
 -1      1997-2.29805E-04 2.65059E-04 1.78999E-02 1.99732E+07-6.62448E-04 1.40100E-02
 -1      1998 3.07145E-03 7.40200E-04 1.19858E-02 1.85738E+07-6.16493E-04 1.44722E-02
 -1      2000 3.07145E-03 7.40200E-04 1.19858E-02 1.85738E+07-6.16493E-04 1.44722E-02
 -1      2001 3.86034E-03 6.43344E-04 3.18023E-03 1.70612E+07-5.80626E-04 1.51546E-02
 -1      2003 3.86034E-03 6.43344E-04 3.18023E-03 1.70612E+07-5.80626E-04 1.51546E-02
 -1      2004 7.51300E-05 2.56301E-04-3.72830E-03 1.53814E+07-4.41635E-04 1.88771E-02
 -1      2006 7.51300E-05 2.56301E-04-3.72830E-03 1.53814E+07-4.41635E-04 1.88771E-02
 -1      2007-3.76357E-03-2.32083E-05-5.09566E-03 1.36172E+07-2.86952E-04 2.44841E-02
 -1      2009-3.76357E-03-2.32083E-05-5.09566E-03 1.36172E+07-2.86952E-04 2.44841E-02
 -1      2010-6.83311E-03-2.23244E-04-1.28283E-04 1.17915E+07-1.87188E-04 2.77641E-02
 -1      2012-6.83311E-03-2.23244E-04-1.28283E-04 1.17915E+07-1.87188E-04 2.77641E-02
 -1      2013-1.01933E-02 2.23584E-04 8.29629E-03 9.93682E+06-1.09848E-04 2.67339E-02
 -1      2015-1.01933E-02 2.23584E-04 8.29629E-03 9.93682E+06-1.09848E-04 2.67339E-02
 -1      2016-1.06939E-02 2.40242E-04 1.43702E-02 8.14642E+06-5.15636E-05 2.21247E-02
 -1      2018-1.06939E-02 2.40242E-04 1.43702E-02 8.14642E+06-5.15636E-05 2.21247E-02
 -1      2019-6.65684E-03 5.36496E-04 1.60613E-02 6.35628E+06 1.10971E-04 1.87053E-02
 -1      2021-6.65684E-03 5.36496E-04 1.60613E-02 6.35628E+06 1.10971E-04 1.87053E-02
 -1      2022-2.72535E-03 6.39581E-04 1.63592E-02 4.80985E+06 7.84639E-05 1.83175E-02
 -1      2024-2.72535E-03 6.39581E-04 1.63592E-02 4.80985E+06 7.84639E-05 1.83175E-02
 -1      2025-2.00043E-03-5.18570E-04 1.69807E-02 3.15257E+06-7.84732E-06 1.61732E-02
 -1      2027-2.00043E-03-5.18570E-04 1.69807E-02 3.15257E+06-7.84732E-06 1.61732E-02
 -1      2028-2.30012E-03-4.87733E-04 1.52072E-02 2.12938E+06-2.91448E-05 1.09700E-02
 -1      2030-2.30012E-03-4.87733E-04 1.52072E-02 2.12938E+06-2.91448E-05 1.09700E-02
 -1      2031-1.69176E-03 1.56456E-04 9.05226E-03 4.26720E+05 6.94953E-05 5.32111E-03
 -1      2033-1.69176E-03 1.56456E-04 9.05226E-03 4.26720E+05 6.94953E-05 5.32111E-03
 -1      2034 3.09761E-02 2.82949E-05 9.69060E-03 4.06757E+07-1.88879E+06-6.19040E-02
 -1      2036 3.09761E-02 2.82949E-05 9.69060E-03 4.06757E+07-1.88879E+06-6.19040E-02
 -1      2037 2.38586E-02 3.54964E-05 3.20762E-03-2.47342E+07-6.90619E+06-6.64676E-02
 -1      2039 2.38586E-02 3.54964E-05 3.20762E-03-2.47342E+07-6.90619E+06-6.64676E-02
 -1      2040 1.52983E-02 1.16069E-04-3.73976E-03 1.21769E+07-8.14676E+06-6.54811E-02
 -1      2042 1.52983E-02 1.16069E-04-3.73976E-03 1.21769E+07-8.14676E+06-6.54811E-02
 -1      2043 5.75594E-03 1.64373E-04-1.00070E-02-7.72826E+06-1.13348E+07-6.26665E-02
 -1      2045 5.75594E-03 1.64373E-04-1.00070E-02-7.72826E+06-1.13348E+07-6.26665E-02
 -1      2046-2.74849E-03 1.52867E-05-1.52306E-02 2.42845E+06-1.34270E+07-5.90561E-02
 -1      2048-2.74849E-03 1.52867E-05-1.52306E-02 2.42845E+06-1.34270E+07-5.90561E-02
 -1      2049-9.86506E-03-2.16214E-05-1.53674E-02-2.30453E+06-1.60616E+07-5.20692E-02
 -1      2051-9.86506E-03-2.16214E-05-1.53674E-02-2.30453E+06-1.60616E+07-5.20692E-02
 -1      2052-1.47563E-02 8.72367E-05-7.85958E-03-8.15201E+04-1.85813E+07-4.27522E-02
 -1      2054-1.47563E-02 8.72367E-05-7.85958E-03-8.15201E+04-1.85813E+07-4.27522E-02
 -1      2055-1.79506E-02 3.85251E-05-9.32321E-06-6.98862E+05-2.11119E+07-3.94923E-02
 -1      2057-1.79506E-02 3.85251E-05-9.32321E-06-6.98862E+05-2.11119E+07-3.94923E-02
 -1      2058-2.18787E-02-1.51864E-04-1.37872E-03-3.02294E+05-2.39021E+07-4.04768E-02
 -1      2060-2.18787E-02-1.51864E-04-1.37872E-03-3.02294E+05-2.39021E+07-4.04768E-02
 -1      2061-2.49987E-02-1.71661E-04-6.07687E-03-5.55367E+04-2.65788E+07-3.70282E-02
 -1      2063-2.49987E-02-1.71661E-04-6.07687E-03-5.55367E+04-2.65788E+07-3.70282E-02
 -1      2064-2.60117E-02-2.13809E-04-3.45573E-03 5.90377E+04-2.95818E+07-2.79161E-02
 -1      2066-2.60117E-02-2.13809E-04-3.45573E-03 5.90377E+04-2.95818E+07-2.79161E-02
 -1      2067-2.85604E-02-1.94438E-04 5.33586E-03 3.74777E+05-3.24678E+07-1.84713E-02
 -1      2069-2.85604E-02-1.94438E-04 5.33586E-03 3.74777E+05-3.24678E+07-1.84713E-02
 -1      2070-3.28918E-02 7.39289E-05 1.30488E-02 4.63636E+05-3.56069E+07-1.18684E-02
 -1      2072-3.28918E-02 7.39289E-05 1.30488E-02 4.63636E+05-3.56069E+07-1.18684E-02
 -1      2073-3.57121E-02 3.28487E-05 1.50716E-02 6.76434E+05-3.86161E+07-4.91080E-03
 -1      2075-3.57121E-02 3.28487E-05 1.50716E-02 6.76434E+05-3.86161E+07-4.91080E-03
 -1      2076-3.58456E-02-1.80449E-05 1.44525E-02 7.19083E+05-4.17424E+07 4.49184E-03
 -1      2078-3.58456E-02-1.80449E-05 1.44525E-02 7.19083E+05-4.17424E+07 4.49184E-03
 -1      2079-3.40005E-02 2.08497E-04 1.55775E-02 7.94491E+05-4.46845E+07 1.09752E-02
 -1      2081-3.40005E-02 2.08497E-04 1.55775E-02 7.94491E+05-4.46845E+07 1.09752E-02
 -1      2082-3.00158E-02 5.68757E-05 1.44291E-02 7.51723E+05-4.75872E+07 1.20808E-02
 -1      2084-3.00158E-02 5.68757E-05 1.44291E-02 7.51723E+05-4.75872E+07 1.20808E-02
 -1      2085-2.35336E-02 4.48179E-05 7.98448E-03 6.95891E+05-5.02255E+07 1.21158E-02
 -1      2087-2.35336E-02 4.48179E-05 7.98448E-03 6.95891E+05-5.02255E+07 1.21158E-02
 -1      2088-1.88519E-02 1.25379E-04-3.65551E-06 5.63390E+05-5.26809E+07 1.39587E-02
 -1      2090-1.88519E-02 1.25379E-04-3.65551E-06 5.63390E+05-5.26809E+07 1.39587E-02
 -1      2091-1.83806E-02-7.55380E-05-6.42930E-03 4.10457E+05-5.47980E+07 1.78512E-02
 -1      2093-1.83806E-02-7.55380E-05-6.42930E-03 4.10457E+05-5.47980E+07 1.78512E-02
 -1      2094-1.85749E-02-9.35966E-05-8.23808E-03 2.20913E+05-5.66317E+07 2.35426E-02
 -1      2096-1.85749E-02-9.35966E-05-8.23808E-03 2.20913E+05-5.66317E+07 2.35426E-02
 -1      2097-1.85282E-02-2.57818E-04-1.21608E-03 2.81373E+04-5.80914E+07 2.83636E-02
 -1      2099-1.85282E-02-2.57818E-04-1.21608E-03 2.81373E+04-5.80914E+07 2.83636E-02
 -1      2100-1.89080E-02 8.74138E-06 1.07770E-02-1.62963E+05-5.92304E+07 2.71810E-02
 -1      2102-1.89080E-02 8.74138E-06 1.07770E-02-1.62963E+05-5.92304E+07 2.71810E-02
 -1      2103-1.72480E-02 5.61566E-05 1.59586E-02-3.23527E+05-6.00201E+07 1.99073E-02
 -1      2105-1.72480E-02 5.61566E-05 1.59586E-02-3.23527E+05-6.00201E+07 1.99073E-02
 -1      2106-1.20269E-02 3.21413E-05 1.25226E-02-4.63180E+05-6.05211E+07 1.54453E-02
 -1      2108-1.20269E-02 3.21413E-05 1.25226E-02-4.63180E+05-6.05211E+07 1.54453E-02
 -1      2109-5.95005E-03 2.78556E-04 1.05312E-02-5.05736E+05-6.07632E+07 1.72364E-02
 -1      2111-5.95005E-03 2.78556E-04 1.05312E-02-5.05736E+05-6.07632E+07 1.72364E-02
 -1      2112-1.60918E-03-3.11430E-04 1.34719E-02-5.88722E+05-6.08108E+07 1.60744E-02
 -1      2114-1.60918E-03-3.11430E-04 1.34719E-02-5.88722E+05-6.08108E+07 1.60744E-02
 -1      2115 4.03603E-04-3.55827E-04 1.41866E-02-3.78514E+05-6.07375E+07 9.22308E-03
 -1      2117 4.03603E-04-3.55827E-04 1.41866E-02-3.78514E+05-6.07375E+07 9.22308E-03
 -1      2118 2.95205E-04-1.35422E-04 9.12327E-03-5.40378E+05-6.06141E+07 3.30487E-03
 -1      2120 2.95205E-04-1.35422E-04 9.12327E-03-5.40378E+05-6.06141E+07 3.30487E-03
 -1      2121-1.36173E+09-9.83866E+07-4.97042E+05-2.08702E+08-1.22389E+07-3.35171E+07
 -1      2123-1.36173E+09-9.83866E+07-4.97042E+05-2.08702E+08-1.22389E+07-3.35171E+07
 -1      2124-1.04142E+09 4.31013E+07 7.34320E+05-1.64962E+08 9.86180E+06 1.64138E+07
 -1      2126-1.04142E+09 4.31013E+07 7.34320E+05-1.64962E+08 9.86180E+06 1.64138E+07
 -1      2127-7.34780E+08-3.37053E+06-3.79026E+05-1.92236E+08 9.39123E+06-7.27760E+06
 -1      2129-7.34780E+08-3.37053E+06-3.79026E+05-1.92236E+08 9.39123E+06-7.27760E+06
 -1      2130-4.30848E+08 5.45942E+06 1.07152E+05-1.74985E+08 1.41758E+07 3.74521E+06
 -1      2132-4.30848E+08 5.45942E+06 1.07152E+05-1.74985E+08 1.41758E+07 3.74521E+06
 -1      2133-1.34844E+08 1.24678E+07 1.52758E+05-1.72755E+08 1.84530E+07-1.25605E+06
 -1      2135-1.34844E+08 1.24678E+07 1.52758E+05-1.72755E+08 1.84530E+07-1.25605E+06
 -1      2136 1.38796E+08 6.34070E+06-1.41875E+05-1.52772E+08 2.13382E+07 9.49153E+05
 -1      2138 1.38796E+08 6.34070E+06-1.41875E+05-1.52772E+08 2.13382E+07 9.49153E+05
 -1      2139 3.78600E+08 1.30819E+07 2.57285E+05-1.30461E+08 2.58115E+07-1.15399E+04
 -1      2141 3.78600E+08 1.30819E+07 2.57285E+05-1.30461E+08 2.58115E+07-1.15399E+04
 -1      2142 5.73419E+08 1.10299E+07-1.08085E+05-9.96986E+07 2.86247E+07 3.36922E+05
 -1      2144 5.73419E+08 1.10299E+07-1.08085E+05-9.96986E+07 2.86247E+07 3.36922E+05
 -1      2145 7.13236E+08 1.43202E+07 2.14813E+05-6.47309E+07 3.26217E+07 1.72809E+05
 -1      2147 7.13236E+08 1.43202E+07 2.14813E+05-6.47309E+07 3.26217E+07 1.72809E+05
 -1      2148 7.91755E+08 1.50841E+07-2.03791E+04-2.67976E+07 3.54130E+07 1.63193E+05
 -1      2150 7.91755E+08 1.50841E+07-2.03791E+04-2.67976E+07 3.54130E+07 1.63193E+05
 -1      2151 8.06155E+08 1.73241E+07 1.66611E+05 1.16824E+07 3.88743E+07 1.31696E+05
 -1      2153 8.06155E+08 1.73241E+07 1.66611E+05 1.16824E+07 3.88743E+07 1.31696E+05
 -1      2154 7.57671E+08 1.92350E+07 4.97973E+04 4.79341E+07 4.15125E+07 7.22359E+04
 -1      2156 7.57671E+08 1.92350E+07 4.97973E+04 4.79341E+07 4.15125E+07 7.22359E+04
 -1      2157 6.51994E+08 2.14957E+07 1.41592E+05 7.98078E+07 4.44800E+07 5.76140E+04
 -1      2159 6.51994E+08 2.14957E+07 1.41592E+05 7.98078E+07 4.44800E+07 5.76140E+04
 -1      2160 4.98356E+08 2.38616E+07 9.60759E+04 1.04893E+08 4.68836E+07 1.05817E+04
 -1      2162 4.98356E+08 2.38616E+07 9.60759E+04 1.04893E+08 4.68836E+07 1.05817E+04
 -1      2163 3.09515E+08 2.62685E+07 1.35449E+05 1.21709E+08 4.94265E+07 4.06504E+03
 -1      2165 3.09515E+08 2.62685E+07 1.35449E+05 1.21709E+08 4.94265E+07 4.06504E+03
 -1      2166 1.00304E+08 2.87166E+07 1.25711E+05 1.29032E+08 5.15796E+07-1.80240E+04
 -1      2168 1.00304E+08 2.87166E+07 1.25711E+05 1.29032E+08 5.15796E+07-1.80240E+04
 -1      2169-1.13044E+08 3.10444E+07 1.39736E+05 1.26601E+08 5.37799E+07-1.10439E+04
 -1      2171-1.13044E+08 3.10444E+07 1.39736E+05 1.26601E+08 5.37799E+07-1.10439E+04
 -1      2172-3.14437E+08 3.32469E+07 1.45156E+05 1.14717E+08 5.57083E+07-8.15078E+03
 -1      2174-3.14437E+08 3.32469E+07 1.45156E+05 1.14717E+08 5.57083E+07-8.15078E+03
 -1      2175-4.88923E+08 3.51888E+07 1.48292E+05 9.45358E+07 5.76456E+07 1.33338E+04
 -1      2177-4.88923E+08 3.51888E+07 1.48292E+05 9.45358E+07 5.76456E+07 1.33338E+04
 -1      2178-6.24034E+08 3.68526E+07 1.58110E+05 6.77895E+07 5.93845E+07 3.48860E+04
 -1      2180-6.24034E+08 3.68526E+07 1.58110E+05 6.77895E+07 5.93845E+07 3.48860E+04
 -1      2181-7.10668E+08 3.81540E+07 1.57453E+05 3.68081E+07 6.11168E+07 6.54231E+04
 -1      2183-7.10668E+08 3.81540E+07 1.57453E+05 3.68081E+07 6.11168E+07 6.54231E+04
 -1      2184-7.43966E+08 3.90784E+07 1.66342E+05 4.27775E+06 6.26821E+07 9.40504E+04
 -1      2186-7.43966E+08 3.90784E+07 1.66342E+05 4.27775E+06 6.26821E+07 9.40504E+04
 -1      2187-7.23752E+08 3.96175E+07 1.65163E+05-2.68832E+07 6.42289E+07 1.25054E+05
 -1      2189-7.23752E+08 3.96175E+07 1.65163E+05-2.68832E+07 6.42289E+07 1.25054E+05
 -1      2190-6.54762E+08 3.97313E+07 1.70815E+05-5.37496E+07 6.55982E+07 1.42439E+05
 -1      2192-6.54762E+08 3.97313E+07 1.70815E+05-5.37496E+07 6.55982E+07 1.42439E+05
 -1      2193-5.46533E+08 3.95620E+07 1.69867E+05-7.35268E+07 6.69310E+07 1.72872E+05
 -1      2195-5.46533E+08 3.95620E+07 1.69867E+05-7.35268E+07 6.69310E+07 1.72872E+05
 -1      2196-4.12967E+08 3.89129E+07 1.73012E+05-8.37959E+07 6.80403E+07 1.39025E+05
 -1      2198-4.12967E+08 3.89129E+07 1.73012E+05-8.37959E+07 6.80403E+07 1.39025E+05
 -1      2199-2.71759E+08 3.82286E+07 1.68736E+05-8.24202E+07 6.90721E+07 2.14299E+05
 -1      2201-2.71759E+08 3.82286E+07 1.68736E+05-8.24202E+07 6.90721E+07 2.14299E+05
 -1      2202-1.43596E+08 3.70459E+07 1.76823E+05-6.80952E+07 6.98409E+07-8.68646E+03
 -1      2204-1.43596E+08 3.70459E+07 1.76823E+05-6.80952E+07 6.98409E+07-8.68646E+03
 -1      2205-5.11219E+07 3.57259E+07 1.56225E+05-3.93089E+07 7.03310E+07 3.60548E+05
 -1      2207-5.11219E+07 3.57259E+07 1.56225E+05-3.93089E+07 7.03310E+07 3.60548E+05
 -1      2208 1.36173E+09 9.83866E+07 4.97042E+05-2.08702E+08-1.22389E+07 3.35171E+07
 -1      2210 1.36173E+09 9.83866E+07 4.97042E+05-2.08702E+08-1.22389E+07 3.35171E+07
 -1      2211 1.04142E+09-4.31013E+07-7.34320E+05-1.64962E+08 9.86180E+06-1.64138E+07
 -1      2213 1.04142E+09-4.31013E+07-7.34320E+05-1.64962E+08 9.86180E+06-1.64138E+07
 -1      2214 7.34780E+08 3.37053E+06 3.79026E+05-1.92236E+08 9.39123E+06 7.27760E+06
 -1      2216 7.34780E+08 3.37053E+06 3.79026E+05-1.92236E+08 9.39123E+06 7.27760E+06
 -1      2217 4.30848E+08-5.45942E+06-1.07152E+05-1.74985E+08 1.41758E+07-3.74521E+06
 -1      2219 4.30848E+08-5.45942E+06-1.07152E+05-1.74985E+08 1.41758E+07-3.74521E+06
 -1      2220 1.34844E+08-1.24678E+07-1.52758E+05-1.72755E+08 1.84530E+07 1.25605E+06
 -1      2222 1.34844E+08-1.24678E+07-1.52758E+05-1.72755E+08 1.84530E+07 1.25605E+06
 -1      2223-1.38796E+08-6.34070E+06 1.41875E+05-1.52772E+08 2.13382E+07-9.49153E+05
 -1      2225-1.38796E+08-6.34070E+06 1.41875E+05-1.52772E+08 2.13382E+07-9.49153E+05
 -1      2226-3.78600E+08-1.30819E+07-2.57285E+05-1.30461E+08 2.58115E+07 1.15399E+04
 -1      2228-3.78600E+08-1.30819E+07-2.57285E+05-1.30461E+08 2.58115E+07 1.15399E+04
 -1      2229-5.73419E+08-1.10299E+07 1.08085E+05-9.96986E+07 2.86247E+07-3.36922E+05
 -1      2231-5.73419E+08-1.10299E+07 1.08085E+05-9.96986E+07 2.86247E+07-3.36922E+05
 -1      2232-7.13236E+08-1.43202E+07-2.14813E+05-6.47309E+07 3.26217E+07-1.72809E+05
 -1      2234-7.13236E+08-1.43202E+07-2.14813E+05-6.47309E+07 3.26217E+07-1.72809E+05
 -1      2235-7.91755E+08-1.50841E+07 2.03791E+04-2.67976E+07 3.54130E+07-1.63193E+05
 -1      2237-7.91755E+08-1.50841E+07 2.03791E+04-2.67976E+07 3.54130E+07-1.63193E+05
 -1      2238-8.06155E+08-1.73241E+07-1.66611E+05 1.16824E+07 3.88743E+07-1.31696E+05
 -1      2240-8.06155E+08-1.73241E+07-1.66611E+05 1.16824E+07 3.88743E+07-1.31696E+05
 -1      2241-7.57671E+08-1.92350E+07-4.97973E+04 4.79341E+07 4.15125E+07-7.22359E+04
 -1      2243-7.57671E+08-1.92350E+07-4.97973E+04 4.79341E+07 4.15125E+07-7.22359E+04
 -1      2244-6.51994E+08-2.14957E+07-1.41592E+05 7.98078E+07 4.44800E+07-5.76140E+04
 -1      2246-6.51994E+08-2.14957E+07-1.41592E+05 7.98078E+07 4.44800E+07-5.76140E+04
 -1      2247-4.98356E+08-2.38616E+07-9.60759E+04 1.04893E+08 4.68836E+07-1.05817E+04
 -1      2249-4.98356E+08-2.38616E+07-9.60759E+04 1.04893E+08 4.68836E+07-1.05817E+04
 -1      2250-3.09515E+08-2.62685E+07-1.35449E+05 1.21709E+08 4.94265E+07-4.06504E+03
 -1      2252-3.09515E+08-2.62685E+07-1.35449E+05 1.21709E+08 4.94265E+07-4.06504E+03
 -1      2253-1.00304E+08-2.87166E+07-1.25711E+05 1.29032E+08 5.15796E+07 1.80240E+04
 -1      2255-1.00304E+08-2.87166E+07-1.25711E+05 1.29032E+08 5.15796E+07 1.80240E+04
 -1      2256 1.13044E+08-3.10444E+07-1.39736E+05 1.26601E+08 5.37799E+07 1.10439E+04
 -1      2258 1.13044E+08-3.10444E+07-1.39736E+05 1.26601E+08 5.37799E+07 1.10439E+04
 -1      2259 3.14437E+08-3.32469E+07-1.45156E+05 1.14717E+08 5.57083E+07 8.15078E+03
 -1      2261 3.14437E+08-3.32469E+07-1.45156E+05 1.14717E+08 5.57083E+07 8.15078E+03
 -1      2262 4.88923E+08-3.51888E+07-1.48292E+05 9.45358E+07 5.76456E+07-1.33338E+04
 -1      2264 4.88923E+08-3.51888E+07-1.48292E+05 9.45358E+07 5.76456E+07-1.33338E+04
 -1      2265 6.24034E+08-3.68526E+07-1.58110E+05 6.77895E+07 5.93845E+07-3.48860E+04
 -1      2267 6.24034E+08-3.68526E+07-1.58110E+05 6.77895E+07 5.93845E+07-3.48860E+04
 -1      2268 7.10668E+08-3.81540E+07-1.57453E+05 3.68081E+07 6.11168E+07-6.54231E+04
 -1      2270 7.10668E+08-3.81540E+07-1.57453E+05 3.68081E+07 6.11168E+07-6.54231E+04
 -1      2271 7.43966E+08-3.90784E+07-1.66342E+05 4.27775E+06 6.26821E+07-9.40504E+04
 -1      2273 7.43966E+08-3.90784E+07-1.66342E+05 4.27775E+06 6.26821E+07-9.40504E+04
 -1      2274 7.23752E+08-3.96175E+07-1.65163E+05-2.68832E+07 6.42289E+07-1.25054E+05
 -1      2276 7.23752E+08-3.96175E+07-1.65163E+05-2.68832E+07 6.42289E+07-1.25054E+05
 -1      2277 6.54762E+08-3.97313E+07-1.70815E+05-5.37496E+07 6.55982E+07-1.42439E+05
 -1      2279 6.54762E+08-3.97313E+07-1.70815E+05-5.37496E+07 6.55982E+07-1.42439E+05
 -1      2280 5.46533E+08-3.95620E+07-1.69867E+05-7.35268E+07 6.69310E+07-1.72872E+05
 -1      2282 5.46533E+08-3.95620E+07-1.69867E+05-7.35268E+07 6.69310E+07-1.72872E+05
 -1      2283 4.12967E+08-3.89129E+07-1.73012E+05-8.37959E+07 6.80403E+07-1.39025E+05
 -1      2285 4.12967E+08-3.89129E+07-1.73012E+05-8.37959E+07 6.80403E+07-1.39025E+05
 -1      2286 2.71759E+08-3.82286E+07-1.68736E+05-8.24202E+07 6.90721E+07-2.14299E+05
 -1      2288 2.71759E+08-3.82286E+07-1.68736E+05-8.24202E+07 6.90721E+07-2.14299E+05
 -1      2289 1.43596E+08-3.70459E+07-1.76823E+05-6.80952E+07 6.98409E+07 8.68646E+03
 -1      2291 1.43596E+08-3.70459E+07-1.76823E+05-6.80952E+07 6.98409E+07 8.68646E+03
 -1      2292 5.11219E+07-3.57259E+07-1.56225E+05-3.93089E+07 7.03310E+07-3.60548E+05
 -1      2294 5.11219E+07-3.57259E+07-1.56225E+05-3.93089E+07 7.03310E+07-3.60548E+05
 -3
    1PSTEP                        23           1           1          
    1PGM                1.000000E+00                                  
    1PGK                2.271357E+06                                  
    1PHID                         -1                                  
    1PSUBC                         0                                  
    1PMODE                         6                                  
  100CL  106 239.8627768         930                     2    6MODAL      1
 -4  FORC        4    1
 -5  F1          1    2    1    0
 -5  F2          1    2    2    0
 -5  F3          1    2    3    0
 -5  ALL         1    2    0    0    1ALL
 -1       404-1.05658E+05 1.94726E+05 2.55609E+05
 -1       406-8.51488E+05 7.12300E+04 2.55609E+05
 -1       407 4.54568E+02-8.55375E+03-1.82118E+04
 -1       409 4.54568E+02-8.55375E+03-1.82118E+04
 -1       410-8.42999E-07 6.46268E+05-1.85304E-07
 -1       412-7.37928E-07-5.94638E+05-1.62907E-06
 -1       413-1.69933E-06-4.15560E+04 9.73967E+05
 -1       415-1.75388E-06-4.15560E+04-9.73967E+05
 -1       424 3.07742E-05-1.15380E+05-4.64410E-07
 -1       426 7.24502E-06-5.88462E+04 1.22062E-07
 -1       427-5.46170E+04 1.01931E+06-1.74181E+05
 -1       429 5.46170E+04 1.01931E+06 1.74181E+05
 -1       438-4.54568E+02-8.55375E+03 1.82118E+04
 -1       440-4.54568E+02-8.55375E+03 1.82118E+04
 -1       441 1.05658E+05 1.94726E+05-2.55609E+05
 -1       443 8.51488E+05 7.12300E+04-2.55609E+05
 -1       444-5.46170E+04 1.01931E+06 1.74181E+05
 -1       446 5.46170E+04 1.01931E+06-1.74181E+05
 -1       447-2.70610E-05-1.15380E+05-3.39789E-07
 -1       449-9.99856E-06-5.88462E+04 2.33851E-07
 -1       458 3.33343E-07-4.15560E+04-9.73967E+05
 -1       460 2.78818E-07-4.15560E+04 9.73967E+05
 -1       461 1.59145E-06 6.46268E+05 9.48684E-07
 -1       463 1.65742E-06-5.94638E+05-6.58803E-07
 -1       472 1.05658E+05 1.94726E+05 2.55609E+05
 -1       474 8.51488E+05 7.12300E+04 2.55609E+05
 -1       475-4.54568E+02-8.55375E+03-1.82118E+04
 -1       477-4.54568E+02-8.55375E+03-1.82118E+04
 -1       478 4.54568E+02-8.55375E+03 1.82118E+04
 -1       480 4.54568E+02-8.55375E+03 1.82118E+04
 -1       481-1.05658E+05 1.94726E+05-2.55609E+05
 -1       483-8.51488E+05 7.12300E+04-2.55609E+05
 -1       484 2.71774E+02-4.11394E+02-1.64534E+03
 -1       486 2.71774E+02-4.11394E+02-1.64534E+03
 -1       487 5.01902E+02-1.05662E+03-3.50420E+03
 -1       489 5.01902E+02-1.05662E+03-3.50420E+03
 -1       490 6.74499E+02-1.99056E+03-5.38063E+03
 -1       492 6.74499E+02-1.99056E+03-5.38063E+03
 -1       493 7.87580E+02-3.13933E+03-7.21946E+03
 -1       495 7.87580E+02-3.13933E+03-7.21946E+03
 -1       496 8.42528E+02-4.40933E+03-9.04983E+03
 -1       498 8.42528E+02-4.40933E+03-9.04983E+03
 -1       499 8.42538E+02-5.71548E+03-1.08537E+04
 -1       501 8.42538E+02-5.71548E+03-1.08537E+04
 -1       502 7.92768E+02-6.97767E+03-1.26349E+04
 -1       504 7.92768E+02-6.97767E+03-1.26349E+04
 -1       505 7.01010E+02-8.12525E+03-1.43863E+04
 -1       507 7.01010E+02-8.12525E+03-1.43863E+04
 -1       508 5.76891E+02-9.10133E+03-1.61058E+04
 -1       510 5.76891E+02-9.10133E+03-1.61058E+04
 -1       511 4.31716E+02-9.86484E+03-1.77885E+04
 -1       513 4.31716E+02-9.86484E+03-1.77885E+04
 -1       514 2.77653E+02-1.03931E+04-1.94303E+04
 -1       516 2.77653E+02-1.03931E+04-1.94303E+04
 -1       517 1.27023E+02-1.06822E+04-2.10261E+04
 -1       519 1.27023E+02-1.06822E+04-2.10261E+04
 -1       520-8.51482E+00-1.07473E+04-2.25710E+04
 -1       522-8.51482E+00-1.07473E+04-2.25710E+04
 -1       523-1.18759E+02-1.06201E+04-2.40593E+04
 -1       525-1.18759E+02-1.06201E+04-2.40593E+04
 -1       526-1.95637E+02-1.03468E+04-2.54855E+04
 -1       528-1.95637E+02-1.03468E+04-2.54855E+04
 -1       529-2.33760E+02-9.98395E+03-2.68436E+04
 -1       531-2.33760E+02-9.98395E+03-2.68436E+04
 -1       532-2.30757E+02-9.59425E+03-2.81281E+04
 -1       534-2.30757E+02-9.59425E+03-2.81281E+04
 -1       535-1.87394E+02-9.24145E+03-2.93334E+04
 -1       537-1.87394E+02-9.24145E+03-2.93334E+04
 -1       538-1.07455E+02-8.98571E+03-3.04544E+04
 -1       540-1.07455E+02-8.98571E+03-3.04544E+04
 -1       541 2.61169E+00-8.87908E+03-3.14864E+04
 -1       543 2.61169E+00-8.87908E+03-3.14864E+04
 -1       544 1.34263E+02-8.96181E+03-3.24256E+04
 -1       546 1.34263E+02-8.96181E+03-3.24256E+04
 -1       547 2.77597E+02-9.25957E+03-3.32687E+04
 -1       549 2.77597E+02-9.25957E+03-3.32687E+04
 -1       550 4.22221E+02-9.78199E+03-3.40133E+04
 -1       552 4.22221E+02-9.78199E+03-3.40133E+04
 -1       553 5.58184E+02-1.05226E+04-3.46578E+04
 -1       555 5.58184E+02-1.05226E+04-3.46578E+04
 -1       556 6.76918E+02-1.14602E+04-3.52015E+04
 -1       558 6.76918E+02-1.14602E+04-3.52015E+04
 -1       559 7.72126E+02-1.25616E+04-3.56442E+04
 -1       561 7.72126E+02-1.25616E+04-3.56442E+04
 -1       562 8.40577E+02-1.37859E+04-3.59866E+04
 -1       564 8.40577E+02-1.37859E+04-3.59866E+04
 -1       565 8.82754E+02-1.50892E+04-3.62296E+04
 -1       567 8.82754E+02-1.50892E+04-3.62296E+04
 -1       568 9.03359E+02-1.64314E+04-3.63749E+04
 -1       570 9.03359E+02-1.64314E+04-3.63749E+04
 -1       571 6.05911E+02-1.71063E+04-2.41206E+04
 -1       573 6.05911E+02-1.71063E+04-2.41206E+04
 -1       574-2.30269E-05-3.00467E+05-3.60668E-06
 -1       576-2.30388E-05-1.69218E+05-3.25879E-06
 -1       577 2.17395E-05 2.34752E+05-1.03016E+05
 -1       579 2.17271E-05 2.34752E+05 1.03016E+05
 -1       588-2.18048E-05 2.44358E+05 7.52665E-06
 -1       590-2.18380E-05 3.02123E+04 6.70012E-06
 -1       591 2.36043E-05-1.38216E+05 1.68080E+05
 -1       593 2.36042E-05-1.38216E+05-1.68080E+05
 -1       602-2.02264E-05 1.34358E+05 6.23193E-07
 -1       604-2.02168E-05-2.39942E+05 1.86563E-07
 -1       605 2.31292E-05 5.00002E+04 2.93782E+05
 -1       607 2.31244E-05 5.00002E+04-2.93782E+05
 -1       616-2.23576E-05 2.87154E+05-2.28119E-06
 -1       618-2.23394E-05-2.03933E+05-2.24506E-06
 -1       619 2.15065E-05-4.70020E+04 3.85446E+05
 -1       621 2.15054E-05-4.70020E+04-3.85446E+05
 -1       630-2.29570E-05 3.20405E+05-5.30040E-06
 -1       632-2.29199E-05-3.23921E+05-4.85922E-06
 -1       633 2.04962E-05-6.65555E+03 5.05721E+05
 -1       635 2.04851E-05-6.65555E+03-5.05721E+05
 -1       644-2.09187E-05 3.95682E+05-5.41187E-07
 -1       646-2.08670E-05-3.67789E+05-1.36054E-06
 -1       647 2.04628E-05-2.55251E+04 5.99236E+05
 -1       649 2.04844E-05-2.55251E+04-5.99236E+05
 -1       658-1.58032E-05 4.57916E+05 5.09030E-06
 -1       660-1.57588E-05-4.41894E+05 3.71241E-06
 -1       661 1.94265E-05-2.26133E+04 7.06246E+05
 -1       663 1.94288E-05-2.26133E+04-7.06246E+05
 -1       672-1.15262E-05 5.17846E+05 4.41960E-06
 -1       674-1.14512E-05-5.02078E+05 4.24319E-06
 -1       675 1.72455E-05-2.51351E+04 8.00522E+05
 -1       677 1.71784E-05-2.51351E+04-8.00522E+05
 -1       686-1.15332E-05 5.81968E+05 5.98310E-07
 -1       688-1.14608E-05-5.60876E+05 7.37847E-07
 -1       689 1.51822E-05-2.98738E+04 8.96999E+05
 -1       691 1.50775E-05-2.98738E+04-8.96999E+05
 -1       700-1.29907E-05 6.38902E+05 8.70003E-07
 -1       702-1.29756E-05-6.16658E+05 1.34608E-06
 -1       703 1.35863E-05-3.18178E+04 9.85469E+05
 -1       705 1.36801E-05-3.18178E+04-9.85469E+05
 -1       714-1.14377E-05 6.99527E+05 4.48916E-06
 -1       716-1.15053E-05-6.65584E+05 3.21218E-06
 -1       717 1.15340E-05-3.82508E+04 1.07145E+06
 -1       719 1.15305E-05-3.82508E+04-1.07145E+06
 -1       728-8.24284E-06 7.54635E+05 7.43157E-06
 -1       730-8.33198E-06-7.11756E+05 5.44531E-06
 -1       731 8.18904E-06-4.25094E+04 1.15095E+06
 -1       733 8.18001E-06-4.25094E+04-1.15095E+06
 -1       742-5.29541E-06 8.10923E+05 6.99911E-06
 -1       744-5.30843E-06-7.51465E+05 5.94109E-06
 -1       745 3.36145E-06-4.98519E+04 1.22629E+06
 -1       747 3.37404E-06-4.98519E+04-1.22629E+06
 -1       756-1.02363E-06 8.63197E+05 5.76320E-06
 -1       758-1.06090E-06-7.88094E+05 3.67104E-06
 -1       759-5.23379E-07-5.61043E+04 1.29607E+06
 -1       761-5.62738E-07-5.61043E+04-1.29607E+06
 -1       770 3.28912E-06 9.14780E+05 6.73729E-06
 -1       772 3.18360E-06-8.19959E+05 4.21698E-06
 -1       773-3.41568E-06-6.39345E+04 1.36157E+06
 -1       775-3.40641E-06-6.39345E+04-1.36157E+06
 -1       784 4.63552E-06 9.62983E+05 6.38501E-06
 -1       786 4.54416E-06-8.49413E+05 5.05003E-06
 -1       787-6.86004E-06-7.10220E+04 1.42252E+06
 -1       789-6.75897E-06-7.10220E+04-1.42252E+06
 -1       798 6.03837E-06 1.00929E+06 2.42563E-06
 -1       800 5.93236E-06-8.76123E+05 4.05265E-06
 -1       801-7.64450E-06-7.84978E+04 1.47983E+06
 -1       803-7.76854E-06-7.84978E+04-1.47983E+06
 -1       812 9.54144E-06 1.05230E+06 1.86679E-08
 -1       814 9.46886E-06-9.01732E+05 1.02610E-06
 -1       815-5.35632E-06-8.50599E+04 1.53369E+06
 -1       817-5.32893E-06-8.50599E+04-1.53369E+06
 -1       826 1.06710E-05 1.09263E+06 1.18584E-06
 -1       828 1.07174E-05-9.26466E+05 7.70291E-07
 -1       829-3.89735E-06-9.11227E+04 1.58476E+06
 -1       831-3.97639E-06-9.11227E+04-1.58476E+06
 -1       840 1.02696E-05 1.12949E+06 4.36632E-06
 -1       842 1.02976E-05-9.51384E+05 2.87147E-06
 -1       843-4.99882E-06-9.59370E+04 1.63324E+06
 -1       845-5.15870E-06-9.59370E+04-1.63324E+06
 -1       854 1.03022E-05 1.16316E+06 5.54766E-07
 -1       856 1.01448E-05-9.76712E+05 1.01095E-06
 -1       857-6.72959E-06-9.96811E+04 1.67955E+06
 -1       859-7.12957E-06-9.96811E+04-1.67955E+06
 -1       868 9.76638E-06 1.19309E+06-2.34311E-06
 -1       870 9.86311E-06-1.00290E+06-1.47068E-06
 -1       871-7.64087E-06-1.01940E+05 1.72360E+06
 -1       873-7.67935E-06-1.01940E+05-1.72360E+06
 -1       882 8.78391E-06 1.21952E+06 5.51137E-07
 -1       884 8.67635E-06-1.02989E+06 6.85180E-07
 -1       885-7.61858E-06-1.02902E+05 1.76553E+06
 -1       887-7.50124E-06-1.02902E+05-1.76553E+06
 -1       896 6.08832E-06 1.24193E+06 3.06514E-07
 -1       898 5.80009E-06-1.05745E+06 4.01450E-06
 -1       899-7.80640E-06-1.02394E+05 1.80475E+06
 -1       901-7.89623E-06-1.02394E+05-1.80475E+06
 -1       910 4.59258E-06 1.26064E+06 8.69759E-07
 -1       912 4.44641E-06-1.08531E+06 2.72323E-06
 -1       913-7.05418E-06-1.00644E+05 1.84129E+06
 -1       915-7.19716E-06-1.00644E+05-1.84129E+06
 -1       924 4.35409E-06 1.27505E+06 7.20719E-08
 -1       926 4.46719E-06-1.11229E+06 1.61276E-06
 -1       927-5.39202E-06-9.78209E+04 1.87378E+06
 -1       929-5.18157E-06-9.78209E+04-1.87378E+06
 -1       938 4.16970E-06 1.28529E+06 1.11622E-06
 -1       940 4.26251E-06-1.13863E+06 4.17203E-06
 -1       941-4.41389E-06-9.37346E+04 1.90250E+06
 -1       943-4.06786E-06-9.37346E+04-1.90250E+06
 -1       952 3.26074E-06 1.29133E+06 1.59580E-06
 -1       954 3.43499E-06-1.16116E+06 8.52395E-07
 -1       955-3.24176E-06-8.97887E+04 1.92492E+06
 -1       957-3.08703E-06-8.97887E+04-1.92492E+06
 -1       966 2.55030E-07 1.29030E+06-1.84856E-06
 -1       968 3.81119E-07-1.18216E+06-1.58143E-06
 -1       969-2.72395E-06-8.32727E+04 1.94059E+06
 -1       971-2.88825E-06-8.32727E+04-1.94059E+06
 -1       980-1.02218E+05 1.44298E+05 2.58549E+04
 -1       982-8.68621E+05 4.90693E+04 2.58549E+04
 -1       983-6.05911E+02-1.71063E+04 2.41206E+04
 -1       985-6.05911E+02-1.71063E+04 2.41206E+04
 -1       986-2.71774E+02-4.11394E+02 1.64534E+03
 -1       988-2.71774E+02-4.11394E+02 1.64534E+03
 -1       989-5.01902E+02-1.05662E+03 3.50420E+03
 -1       991-5.01902E+02-1.05662E+03 3.50420E+03
 -1       992-6.74499E+02-1.99056E+03 5.38063E+03
 -1       994-6.74499E+02-1.99056E+03 5.38063E+03
 -1       995-7.87580E+02-3.13933E+03 7.21946E+03
 -1       997-7.87580E+02-3.13933E+03 7.21946E+03
 -1       998-8.42528E+02-4.40933E+03 9.04983E+03
 -1      1000-8.42528E+02-4.40933E+03 9.04983E+03
 -1      1001-8.42538E+02-5.71548E+03 1.08537E+04
 -1      1003-8.42538E+02-5.71548E+03 1.08537E+04
 -1      1004-7.92768E+02-6.97767E+03 1.26349E+04
 -1      1006-7.92768E+02-6.97767E+03 1.26349E+04
 -1      1007-7.01010E+02-8.12525E+03 1.43863E+04
 -1      1009-7.01010E+02-8.12525E+03 1.43863E+04
 -1      1010-5.76891E+02-9.10133E+03 1.61058E+04
 -1      1012-5.76891E+02-9.10133E+03 1.61058E+04
 -1      1013-4.31716E+02-9.86484E+03 1.77885E+04
 -1      1015-4.31716E+02-9.86484E+03 1.77885E+04
 -1      1016-2.77653E+02-1.03931E+04 1.94303E+04
 -1      1018-2.77653E+02-1.03931E+04 1.94303E+04
 -1      1019-1.27023E+02-1.06822E+04 2.10261E+04
 -1      1021-1.27023E+02-1.06822E+04 2.10261E+04
 -1      1022 8.51482E+00-1.07473E+04 2.25710E+04
 -1      1024 8.51482E+00-1.07473E+04 2.25710E+04
 -1      1025 1.18759E+02-1.06201E+04 2.40593E+04
 -1      1027 1.18759E+02-1.06201E+04 2.40593E+04
 -1      1028 1.95637E+02-1.03468E+04 2.54855E+04
 -1      1030 1.95637E+02-1.03468E+04 2.54855E+04
 -1      1031 2.33760E+02-9.98395E+03 2.68436E+04
 -1      1033 2.33760E+02-9.98395E+03 2.68436E+04
 -1      1034 2.30757E+02-9.59425E+03 2.81281E+04
 -1      1036 2.30757E+02-9.59425E+03 2.81281E+04
 -1      1037 1.87394E+02-9.24145E+03 2.93334E+04
 -1      1039 1.87394E+02-9.24145E+03 2.93334E+04
 -1      1040 1.07455E+02-8.98571E+03 3.04544E+04
 -1      1042 1.07455E+02-8.98571E+03 3.04544E+04
 -1      1043-2.61169E+00-8.87908E+03 3.14864E+04
 -1      1045-2.61169E+00-8.87908E+03 3.14864E+04
 -1      1046-1.34263E+02-8.96181E+03 3.24256E+04
 -1      1048-1.34263E+02-8.96181E+03 3.24256E+04
 -1      1049-2.77597E+02-9.25957E+03 3.32687E+04
 -1      1051-2.77597E+02-9.25957E+03 3.32687E+04
 -1      1052-4.22221E+02-9.78199E+03 3.40133E+04
 -1      1054-4.22221E+02-9.78199E+03 3.40133E+04
 -1      1055-5.58184E+02-1.05226E+04 3.46578E+04
 -1      1057-5.58184E+02-1.05226E+04 3.46578E+04
 -1      1058-6.76918E+02-1.14602E+04 3.52015E+04
 -1      1060-6.76918E+02-1.14602E+04 3.52015E+04
 -1      1061-7.72126E+02-1.25616E+04 3.56442E+04
 -1      1063-7.72126E+02-1.25616E+04 3.56442E+04
 -1      1064-8.40577E+02-1.37859E+04 3.59866E+04
 -1      1066-8.40577E+02-1.37859E+04 3.59866E+04
 -1      1067-8.82754E+02-1.50892E+04 3.62296E+04
 -1      1069-8.82754E+02-1.50892E+04 3.62296E+04
 -1      1070-9.03359E+02-1.64314E+04 3.63749E+04
 -1      1072-9.03359E+02-1.64314E+04 3.63749E+04
 -1      1073 1.02218E+05 1.44298E+05-2.58549E+04
 -1      1075 8.68621E+05 4.90693E+04-2.58549E+04
 -1      1076-1.11839E+06-7.22369E+05-1.02841E+05
 -1      1078 1.11839E+06-7.22369E+05 1.02841E+05
 -1      1079-2.12756E+06-9.04081E+05 2.57596E-05
 -1      1081 2.12756E+06-9.04081E+05 2.44975E-05
 -1      1082-1.11839E+06-7.22369E+05 1.02841E+05
 -1      1084 1.11839E+06-7.22369E+05-1.02841E+05
 -1      1085-2.07732E-05 2.34752E+05 1.03016E+05
 -1      1087-2.07975E-05 2.34752E+05-1.03016E+05
 -1      1088 1.67879E-05-3.00467E+05-5.37560E-06
 -1      1090 1.67800E-05-1.69218E+05-4.61656E-06
 -1      1099-2.23094E-05-1.38216E+05-1.68080E+05
 -1      1101-2.23301E-05-1.38216E+05 1.68080E+05
 -1      1102 1.99251E-05 2.44358E+05 2.13748E-06
 -1      1104 1.98894E-05 3.02123E+04 2.07428E-06
 -1      1113-2.18782E-05 5.00002E+04-2.93782E+05
 -1      1115-2.18148E-05 5.00002E+04 2.93782E+05
 -1      1116 2.25371E-05 1.34358E+05-8.57276E-07
 -1      1118 2.24857E-05-2.39942E+05-5.51408E-07
 -1      1127-2.17490E-05-4.70020E+04-3.85446E+05
 -1      1129-2.17044E-05-4.70020E+04 3.85446E+05
 -1      1130 2.20770E-05 2.87154E+05 1.09004E-06
 -1      1132 2.20329E-05-2.03933E+05 1.59400E-06
 -1      1141-2.05538E-05-6.65555E+03-5.05721E+05
 -1      1143-2.05878E-05-6.65555E+03 5.05721E+05
 -1      1144 1.95866E-05 3.20405E+05 4.12863E-06
 -1      1146 1.96020E-05-3.23921E+05 3.90961E-06
 -1      1155-1.92385E-05-2.55251E+04-5.99236E+05
 -1      1157-1.91697E-05-2.55251E+04 5.99236E+05
 -1      1158 1.61020E-05 3.95682E+05 7.21000E-06
 -1      1160 1.61774E-05-3.67789E+05 6.31464E-06
 -1      1169-1.63240E-05-2.26133E+04-7.06246E+05
 -1      1171-1.61767E-05-2.26133E+04 7.06246E+05
 -1      1172 1.28449E-05 4.57916E+05 5.14160E-06
 -1      1174 1.28207E-05-4.41894E+05 3.27089E-06
 -1      1183-1.34575E-05-2.51351E+04-8.00522E+05
 -1      1185-1.34382E-05-2.51351E+04 8.00522E+05
 -1      1186 1.31961E-05 5.17846E+05 2.32251E-06
 -1      1188 1.31015E-05-5.02078E+05 1.28421E-06
 -1      1197-1.28217E-05-2.98738E+04-8.96999E+05
 -1      1199-1.28685E-05-2.98738E+04 8.96999E+05
 -1      1200 1.33253E-05 5.81968E+05 3.26466E-06
 -1      1202 1.32546E-05-5.60876E+05 2.85811E-06
 -1      1211-1.28711E-05-3.18178E+04-9.85469E+05
 -1      1213-1.29386E-05-3.18178E+04 9.85469E+05
 -1      1214 9.78555E-06 6.38902E+05 5.14191E-06
 -1      1216 9.80390E-06-6.16658E+05 3.94649E-06
 -1      1225-9.92083E-06-3.82508E+04-1.07145E+06
 -1      1227-9.88171E-06-3.82508E+04 1.07145E+06
 -1      1228 7.69102E-06 6.99527E+05 3.33441E-06
 -1      1230 7.69638E-06-6.65584E+05 2.50440E-06
 -1      1239-5.45872E-06-4.25094E+04-1.15095E+06
 -1      1241-5.39260E-06-4.25094E+04 1.15095E+06
 -1      1242 8.32374E-06 7.54635E+05-9.72350E-07
 -1      1244 8.25860E-06-7.11756E+05-9.22281E-07
 -1      1253-3.05185E-06-4.98519E+04-1.22629E+06
 -1      1255-3.04384E-06-4.98519E+04 1.22629E+06
 -1      1256 7.04476E-06 8.10923E+05-3.33841E-06
 -1      1258 7.05438E-06-7.51465E+05-4.44334E-06
 -1      1267-1.27205E-06-5.61043E+04-1.29607E+06
 -1      1269-1.40356E-06-5.61043E+04 1.29607E+06
 -1      1270 2.72952E-06 8.63197E+05-2.64905E-06
 -1      1272 2.79202E-06-7.88094E+05-3.34026E-06
 -1      1281 1.09363E-06-6.39345E+04-1.36157E+06
 -1      1283 9.81702E-07-6.39345E+04 1.36157E+06
 -1      1284-2.99903E-06 9.14780E+05-1.31059E-06
 -1      1286-2.96543E-06-8.19959E+05-1.78647E-06
 -1      1295 3.05253E-06-7.10220E+04-1.42252E+06
 -1      1297 3.04307E-06-7.10220E+04 1.42252E+06
 -1      1298-7.30319E-06 9.62983E+05-2.72493E-06
 -1      1300-7.23653E-06-8.49413E+05-2.49569E-06
 -1      1309 3.55525E-06-7.84978E+04-1.47983E+06
 -1      1311 3.55533E-06-7.84978E+04 1.47983E+06
 -1      1312-8.78041E-06 1.00929E+06-3.91019E-06
 -1      1314-8.72552E-06-8.76123E+05-2.55499E-06
 -1      1323 3.16432E-06-8.50599E+04-1.53369E+06
 -1      1325 3.23871E-06-8.50599E+04 1.53369E+06
 -1      1326-7.38506E-06 1.05230E+06-3.36820E-06
 -1      1328-7.34631E-06-9.01732E+05-1.83268E-06
 -1      1337 4.94214E-06-9.11227E+04-1.58476E+06
 -1      1339 4.99488E-06-9.11227E+04 1.58476E+06
 -1      1340-4.82183E-06 1.09263E+06-3.44932E-06
 -1      1342-4.88718E-06-9.26466E+05 7.07707E-07
 -1      1351 6.96848E-06-9.59370E+04-1.63324E+06
 -1      1353 7.00403E-06-9.59370E+04 1.63324E+06
 -1      1354-4.41618E-06 1.12949E+06-8.76159E-07
 -1      1356-4.42547E-06-9.51384E+05 1.83235E-06
 -1      1365 8.47194E-06-9.96811E+04-1.67955E+06
 -1      1367 8.45384E-06-9.96811E+04 1.67955E+06
 -1      1368-5.31122E-06 1.16316E+06 3.96887E-06
 -1      1370-5.26163E-06-9.76712E+05 2.63126E-06
 -1      1379 9.93583E-06-1.01940E+05-1.72360E+06
 -1      1381 9.97240E-06-1.01940E+05 1.72360E+06
 -1      1382-4.83244E-06 1.19309E+06 3.53764E-06
 -1      1384-4.69883E-06-1.00290E+06 1.97128E-06
 -1      1393 9.62894E-06-1.02902E+05-1.76553E+06
 -1      1395 9.71699E-06-1.02902E+05 1.76553E+06
 -1      1396-4.99047E-06 1.21952E+06-3.70027E-06
 -1      1398-4.85326E-06-1.02989E+06-4.22201E-06
 -1      1407 6.55132E-06-1.02394E+05-1.80475E+06
 -1      1409 6.71503E-06-1.02394E+05 1.80475E+06
 -1      1410-5.33366E-06 1.24193E+06-5.91444E-06
 -1      1412-5.49975E-06-1.05745E+06-9.97287E-06
 -1      1421 4.22575E-06-1.00644E+05-1.84129E+06
 -1      1423 4.36292E-06-1.00644E+05 1.84129E+06
 -1      1424-5.27206E-06 1.26064E+06-3.90300E-06
 -1      1426-5.36016E-06-1.08531E+06-3.68731E-06
 -1      1435 4.82125E-06-9.78209E+04-1.87378E+06
 -1      1437 4.92320E-06-9.78209E+04 1.87378E+06
 -1      1438-5.39704E-06 1.27505E+06-5.47088E-07
 -1      1440-5.50605E-06-1.11229E+06-8.04297E-07
 -1      1449 4.30722E-06-9.37346E+04-1.90250E+06
 -1      1451 4.37525E-06-9.37346E+04 1.90250E+06
 -1      1452-3.96830E-06 1.28529E+06-4.18399E-06
 -1      1454-3.89266E-06-1.13863E+06-2.28014E-06
 -1      1463 2.73047E-06-8.97887E+04-1.92492E+06
 -1      1465 2.61503E-06-8.97887E+04 1.92492E+06
 -1      1466-7.28459E-07 1.29133E+06-5.38609E-06
 -1      1468-7.00301E-07-1.16116E+06-4.50297E-06
 -1      1477 1.38447E-06-8.32727E+04-1.94059E+06
 -1      1479 1.25655E-06-8.32727E+04 1.94059E+06
 -1      1480 2.09372E-06 1.29030E+06-9.48688E-07
 -1      1482 2.13937E-06-1.18216E+06-4.22631E-06
 -1      1491-6.14087E-07 2.10262E+04-3.12728E-07
 -1      1493-7.44395E-07 2.10262E+04 3.39453E-07
 -1      1494-7.47905E-07 3.93241E+04 1.97524E-08
 -1      1496-8.51112E-07 3.93241E+04 9.76231E-07
 -1      1497 4.83419E-07 2.10262E+04 5.89134E-07
 -1      1499 5.12378E-07 2.10262E+04 7.79592E-07
 -1      1500-2.71774E+02-4.11394E+02-1.64534E+03
 -1      1502-2.71774E+02-4.11394E+02-1.64534E+03
 -1      1503-5.01902E+02-1.05662E+03-3.50420E+03
 -1      1505-5.01902E+02-1.05662E+03-3.50420E+03
 -1      1506-6.74499E+02-1.99056E+03-5.38063E+03
 -1      1508-6.74499E+02-1.99056E+03-5.38063E+03
 -1      1509-7.87580E+02-3.13933E+03-7.21946E+03
 -1      1511-7.87580E+02-3.13933E+03-7.21946E+03
 -1      1512-8.42528E+02-4.40933E+03-9.04983E+03
 -1      1514-8.42528E+02-4.40933E+03-9.04983E+03
 -1      1515-8.42538E+02-5.71548E+03-1.08537E+04
 -1      1517-8.42538E+02-5.71548E+03-1.08537E+04
 -1      1518-7.92768E+02-6.97767E+03-1.26349E+04
 -1      1520-7.92768E+02-6.97767E+03-1.26349E+04
 -1      1521-7.01010E+02-8.12525E+03-1.43863E+04
 -1      1523-7.01010E+02-8.12525E+03-1.43863E+04
 -1      1524-5.76891E+02-9.10133E+03-1.61058E+04
 -1      1526-5.76891E+02-9.10133E+03-1.61058E+04
 -1      1527-4.31716E+02-9.86484E+03-1.77885E+04
 -1      1529-4.31716E+02-9.86484E+03-1.77885E+04
 -1      1530-2.77653E+02-1.03931E+04-1.94303E+04
 -1      1532-2.77653E+02-1.03931E+04-1.94303E+04
 -1      1533-1.27023E+02-1.06822E+04-2.10261E+04
 -1      1535-1.27023E+02-1.06822E+04-2.10261E+04
 -1      1536 8.51482E+00-1.07473E+04-2.25710E+04
 -1      1538 8.51482E+00-1.07473E+04-2.25710E+04
 -1      1539 1.18759E+02-1.06201E+04-2.40593E+04
 -1      1541 1.18759E+02-1.06201E+04-2.40593E+04
 -1      1542 1.95637E+02-1.03468E+04-2.54855E+04
 -1      1544 1.95637E+02-1.03468E+04-2.54855E+04
 -1      1545 2.33760E+02-9.98395E+03-2.68436E+04
 -1      1547 2.33760E+02-9.98395E+03-2.68436E+04
 -1      1548 2.30757E+02-9.59425E+03-2.81281E+04
 -1      1550 2.30757E+02-9.59425E+03-2.81281E+04
 -1      1551 1.87394E+02-9.24145E+03-2.93334E+04
 -1      1553 1.87394E+02-9.24145E+03-2.93334E+04
 -1      1554 1.07455E+02-8.98571E+03-3.04544E+04
 -1      1556 1.07455E+02-8.98571E+03-3.04544E+04
 -1      1557-2.61169E+00-8.87908E+03-3.14864E+04
 -1      1559-2.61169E+00-8.87908E+03-3.14864E+04
 -1      1560-1.34263E+02-8.96181E+03-3.24256E+04
 -1      1562-1.34263E+02-8.96181E+03-3.24256E+04
 -1      1563-2.77597E+02-9.25957E+03-3.32687E+04
 -1      1565-2.77597E+02-9.25957E+03-3.32687E+04
 -1      1566-4.22221E+02-9.78199E+03-3.40133E+04
 -1      1568-4.22221E+02-9.78199E+03-3.40133E+04
 -1      1569-5.58184E+02-1.05226E+04-3.46578E+04
 -1      1571-5.58184E+02-1.05226E+04-3.46578E+04
 -1      1572-6.76918E+02-1.14602E+04-3.52015E+04
 -1      1574-6.76918E+02-1.14602E+04-3.52015E+04
 -1      1575-7.72126E+02-1.25616E+04-3.56442E+04
 -1      1577-7.72126E+02-1.25616E+04-3.56442E+04
 -1      1578-8.40577E+02-1.37859E+04-3.59866E+04
 -1      1580-8.40577E+02-1.37859E+04-3.59866E+04
 -1      1581-8.82754E+02-1.50892E+04-3.62296E+04
 -1      1583-8.82754E+02-1.50892E+04-3.62296E+04
 -1      1584-9.03359E+02-1.64314E+04-3.63749E+04
 -1      1586-9.03359E+02-1.64314E+04-3.63749E+04
 -1      1587-6.05911E+02-1.71063E+04-2.41206E+04
 -1      1589-6.05911E+02-1.71063E+04-2.41206E+04
 -1      1590 1.02218E+05 1.44298E+05 2.58549E+04
 -1      1592 8.68621E+05 4.90693E+04 2.58549E+04
 -1      1593 6.05911E+02-1.71063E+04 2.41206E+04
 -1      1595 6.05911E+02-1.71063E+04 2.41206E+04
 -1      1596 2.71774E+02-4.11394E+02 1.64534E+03
 -1      1598 2.71774E+02-4.11394E+02 1.64534E+03
 -1      1599 5.01902E+02-1.05662E+03 3.50420E+03
 -1      1601 5.01902E+02-1.05662E+03 3.50420E+03
 -1      1602 6.74499E+02-1.99056E+03 5.38063E+03
 -1      1604 6.74499E+02-1.99056E+03 5.38063E+03
 -1      1605 7.87580E+02-3.13933E+03 7.21946E+03
 -1      1607 7.87580E+02-3.13933E+03 7.21946E+03
 -1      1608 8.42528E+02-4.40933E+03 9.04983E+03
 -1      1610 8.42528E+02-4.40933E+03 9.04983E+03
 -1      1611 8.42538E+02-5.71548E+03 1.08537E+04
 -1      1613 8.42538E+02-5.71548E+03 1.08537E+04
 -1      1614 7.92768E+02-6.97767E+03 1.26349E+04
 -1      1616 7.92768E+02-6.97767E+03 1.26349E+04
 -1      1617 7.01010E+02-8.12525E+03 1.43863E+04
 -1      1619 7.01010E+02-8.12525E+03 1.43863E+04
 -1      1620 5.76891E+02-9.10133E+03 1.61058E+04
 -1      1622 5.76891E+02-9.10133E+03 1.61058E+04
 -1      1623 4.31716E+02-9.86484E+03 1.77885E+04
 -1      1625 4.31716E+02-9.86484E+03 1.77885E+04
 -1      1626 2.77653E+02-1.03931E+04 1.94303E+04
 -1      1628 2.77653E+02-1.03931E+04 1.94303E+04
 -1      1629 1.27023E+02-1.06822E+04 2.10261E+04
 -1      1631 1.27023E+02-1.06822E+04 2.10261E+04
 -1      1632-8.51482E+00-1.07473E+04 2.25710E+04
 -1      1634-8.51482E+00-1.07473E+04 2.25710E+04
 -1      1635-1.18759E+02-1.06201E+04 2.40593E+04
 -1      1637-1.18759E+02-1.06201E+04 2.40593E+04
 -1      1638-1.95637E+02-1.03468E+04 2.54855E+04
 -1      1640-1.95637E+02-1.03468E+04 2.54855E+04
 -1      1641-2.33760E+02-9.98395E+03 2.68436E+04
 -1      1643-2.33760E+02-9.98395E+03 2.68436E+04
 -1      1644-2.30757E+02-9.59425E+03 2.81281E+04
 -1      1646-2.30757E+02-9.59425E+03 2.81281E+04
 -1      1647-1.87394E+02-9.24145E+03 2.93334E+04
 -1      1649-1.87394E+02-9.24145E+03 2.93334E+04
 -1      1650-1.07455E+02-8.98571E+03 3.04544E+04
 -1      1652-1.07455E+02-8.98571E+03 3.04544E+04
 -1      1653 2.61169E+00-8.87908E+03 3.14864E+04
 -1      1655 2.61169E+00-8.87908E+03 3.14864E+04
 -1      1656 1.34263E+02-8.96181E+03 3.24256E+04
 -1      1658 1.34263E+02-8.96181E+03 3.24256E+04
 -1      1659 2.77597E+02-9.25957E+03 3.32687E+04
 -1      1661 2.77597E+02-9.25957E+03 3.32687E+04
 -1      1662 4.22221E+02-9.78199E+03 3.40133E+04
 -1      1664 4.22221E+02-9.78199E+03 3.40133E+04
 -1      1665 5.58184E+02-1.05226E+04 3.46578E+04
 -1      1667 5.58184E+02-1.05226E+04 3.46578E+04
 -1      1668 6.76918E+02-1.14602E+04 3.52015E+04
 -1      1670 6.76918E+02-1.14602E+04 3.52015E+04
 -1      1671 7.72126E+02-1.25616E+04 3.56442E+04
 -1      1673 7.72126E+02-1.25616E+04 3.56442E+04
 -1      1674 8.40577E+02-1.37859E+04 3.59866E+04
 -1      1676 8.40577E+02-1.37859E+04 3.59866E+04
 -1      1677 8.82754E+02-1.50892E+04 3.62296E+04
 -1      1679 8.82754E+02-1.50892E+04 3.62296E+04
 -1      1680 9.03359E+02-1.64314E+04 3.63749E+04
 -1      1682 9.03359E+02-1.64314E+04 3.63749E+04
 -1      1683-1.02218E+05 1.44298E+05-2.58549E+04
 -1      1685-8.68621E+05 4.90693E+04-2.58549E+04
 -1      1686 3.58221E+02-8.04783E+02-2.17240E+03
 -1      1688 3.58221E+02-8.04783E+02-2.17240E+03
 -1      1689 6.65977E+02-2.09263E+03-4.63759E+03
 -1      1691 6.65977E+02-2.09263E+03-4.63759E+03
 -1      1692 8.96568E+02-3.96851E+03-7.12409E+03
 -1      1694 8.96568E+02-3.96851E+03-7.12409E+03
 -1      1695 1.04695E+03-6.27084E+03-9.55827E+03
 -1      1697 1.04695E+03-6.27084E+03-9.55827E+03
 -1      1698 1.12060E+03-8.81559E+03-1.19816E+04
 -1      1700 1.12060E+03-8.81559E+03-1.19816E+04
 -1      1701 1.12081E+03-1.14330E+04-1.43695E+04
 -1      1703 1.12081E+03-1.14330E+04-1.43695E+04
 -1      1704 1.05485E+03-1.39612E+04-1.67276E+04
 -1      1706 1.05485E+03-1.39612E+04-1.67276E+04
 -1      1707 9.33028E+02-1.62598E+04-1.90464E+04
 -1      1709 9.33028E+02-1.62598E+04-1.90464E+04
 -1      1710 7.68098E+02-1.82142E+04-2.13234E+04
 -1      1712 7.68098E+02-1.82142E+04-2.13234E+04
 -1      1713 5.75174E+02-1.97426E+04-2.35521E+04
 -1      1715 5.75174E+02-1.97426E+04-2.35521E+04
 -1      1716 3.70383E+02-2.07992E+04-2.57270E+04
 -1      1718 3.70383E+02-2.07992E+04-2.57270E+04
 -1      1719 1.70150E+02-2.13765E+04-2.78416E+04
 -1      1721 1.70150E+02-2.13765E+04-2.78416E+04
 -1      1722-1.00435E+01-2.15046E+04-2.98891E+04
 -1      1724-1.00435E+01-2.15046E+04-2.98891E+04
 -1      1725-1.56617E+02-2.12474E+04-3.18621E+04
 -1      1727-1.56617E+02-2.12474E+04-3.18621E+04
 -1      1728-2.58844E+02-2.06974E+04-3.37530E+04
 -1      1730-2.58844E+02-2.06974E+04-3.37530E+04
 -1      1731-3.09553E+02-1.99680E+04-3.55539E+04
 -1      1733-3.09553E+02-1.99680E+04-3.55539E+04
 -1      1734-3.05588E+02-1.91847E+04-3.72572E+04
 -1      1736-3.05588E+02-1.91847E+04-3.72572E+04
 -1      1737-2.47967E+02-1.84755E+04-3.88555E+04
 -1      1739-2.47967E+02-1.84755E+04-3.88555E+04
 -1      1740-1.41714E+02-1.79609E+04-4.03418E+04
 -1      1742-1.41714E+02-1.79609E+04-4.03418E+04
 -1      1743 4.60052E+00-1.77452E+04-4.17099E+04
 -1      1745 4.60052E+00-1.77452E+04-4.17099E+04
 -1      1746 1.79624E+02-1.79090E+04-4.29545E+04
 -1      1748 1.79624E+02-1.79090E+04-4.29545E+04
 -1      1749 3.70200E+02-1.85039E+04-4.40713E+04
 -1      1751 3.70200E+02-1.85039E+04-4.40713E+04
 -1      1752 5.62520E+02-1.95491E+04-4.50571E+04
 -1      1754 5.62520E+02-1.95491E+04-4.50571E+04
 -1      1755 7.43362E+02-2.10315E+04-4.59099E+04
 -1      1757 7.43362E+02-2.10315E+04-4.59099E+04
 -1      1758 9.01350E+02-2.29086E+04-4.66286E+04
 -1      1760 9.01350E+02-2.29086E+04-4.66286E+04
 -1      1761 1.02813E+03-2.51138E+04-4.72134E+04
 -1      1763 1.02813E+03-2.51138E+04-4.72134E+04
 -1      1764 1.11942E+03-2.75648E+04-4.76654E+04
 -1      1766 1.11942E+03-2.75648E+04-4.76654E+04
 -1      1767 1.17591E+03-3.01738E+04-4.79857E+04
 -1      1769 1.17591E+03-3.01738E+04-4.79857E+04
 -1      1770 1.20384E+03-3.28598E+04-4.81771E+04
 -1      1772 1.20384E+03-3.28598E+04-4.81771E+04
 -1      1773-3.58221E+02-8.04783E+02 2.17240E+03
 -1      1775-3.58221E+02-8.04783E+02 2.17240E+03
 -1      1776-6.65977E+02-2.09263E+03 4.63759E+03
 -1      1778-6.65977E+02-2.09263E+03 4.63759E+03
 -1      1779-8.96568E+02-3.96851E+03 7.12409E+03
 -1      1781-8.96568E+02-3.96851E+03 7.12409E+03
 -1      1782-1.04695E+03-6.27084E+03 9.55827E+03
 -1      1784-1.04695E+03-6.27084E+03 9.55827E+03
 -1      1785-1.12060E+03-8.81559E+03 1.19816E+04
 -1      1787-1.12060E+03-8.81559E+03 1.19816E+04
 -1      1788-1.12081E+03-1.14330E+04 1.43695E+04
 -1      1790-1.12081E+03-1.14330E+04 1.43695E+04
 -1      1791-1.05485E+03-1.39612E+04 1.67276E+04
 -1      1793-1.05485E+03-1.39612E+04 1.67276E+04
 -1      1794-9.33028E+02-1.62598E+04 1.90464E+04
 -1      1796-9.33028E+02-1.62598E+04 1.90464E+04
 -1      1797-7.68098E+02-1.82142E+04 2.13234E+04
 -1      1799-7.68098E+02-1.82142E+04 2.13234E+04
 -1      1800-5.75174E+02-1.97426E+04 2.35521E+04
 -1      1802-5.75174E+02-1.97426E+04 2.35521E+04
 -1      1803-3.70383E+02-2.07992E+04 2.57270E+04
 -1      1805-3.70383E+02-2.07992E+04 2.57270E+04
 -1      1806-1.70150E+02-2.13765E+04 2.78416E+04
 -1      1808-1.70150E+02-2.13765E+04 2.78416E+04
 -1      1809 1.00435E+01-2.15046E+04 2.98891E+04
 -1      1811 1.00435E+01-2.15046E+04 2.98891E+04
 -1      1812 1.56617E+02-2.12474E+04 3.18621E+04
 -1      1814 1.56617E+02-2.12474E+04 3.18621E+04
 -1      1815 2.58844E+02-2.06974E+04 3.37530E+04
 -1      1817 2.58844E+02-2.06974E+04 3.37530E+04
 -1      1818 3.09553E+02-1.99680E+04 3.55539E+04
 -1      1820 3.09553E+02-1.99680E+04 3.55539E+04
 -1      1821 3.05588E+02-1.91847E+04 3.72572E+04
 -1      1823 3.05588E+02-1.91847E+04 3.72572E+04
 -1      1824 2.47967E+02-1.84755E+04 3.88555E+04
 -1      1826 2.47967E+02-1.84755E+04 3.88555E+04
 -1      1827 1.41714E+02-1.79609E+04 4.03418E+04
 -1      1829 1.41714E+02-1.79609E+04 4.03418E+04
 -1      1830-4.60051E+00-1.77452E+04 4.17099E+04
 -1      1832-4.60051E+00-1.77452E+04 4.17099E+04
 -1      1833-1.79624E+02-1.79090E+04 4.29545E+04
 -1      1835-1.79624E+02-1.79090E+04 4.29545E+04
 -1      1836-3.70200E+02-1.85039E+04 4.40713E+04
 -1      1838-3.70200E+02-1.85039E+04 4.40713E+04
 -1      1839-5.62520E+02-1.95491E+04 4.50571E+04
 -1      1841-5.62520E+02-1.95491E+04 4.50571E+04
 -1      1842-7.43362E+02-2.10315E+04 4.59099E+04
 -1      1844-7.43362E+02-2.10315E+04 4.59099E+04
 -1      1845-9.01350E+02-2.29086E+04 4.66286E+04
 -1      1847-9.01350E+02-2.29086E+04 4.66286E+04
 -1      1848-1.02813E+03-2.51138E+04 4.72134E+04
 -1      1850-1.02813E+03-2.51138E+04 4.72134E+04
 -1      1851-1.11942E+03-2.75648E+04 4.76654E+04
 -1      1853-1.11942E+03-2.75648E+04 4.76654E+04
 -1      1854-1.17591E+03-3.01738E+04 4.79857E+04
 -1      1856-1.17591E+03-3.01738E+04 4.79857E+04
 -1      1857-1.20384E+03-3.28598E+04 4.81771E+04
 -1      1859-1.20384E+03-3.28598E+04 4.81771E+04
 -1      1860 5.31309E-07 3.08891E+03-7.28607E-07
 -1      1862 4.98381E-07 3.08891E+03-8.48340E-07
 -1      1863 1.12179E-06 5.81419E+03-3.13958E-08
 -1      1865 1.08975E-06 5.81419E+03 1.77773E-07
 -1      1866 1.08853E-06 7.70278E+03 9.89676E-08
 -1      1868 1.08807E-06 7.70278E+03 2.70127E-07
 -1      1869-1.29073E-06 8.93412E+03 2.69625E-07
 -1      1871-1.26383E-06 8.93412E+03 4.32767E-07
 -1      1872-2.85446E-06 9.79483E+03-4.39861E-07
 -1      1874-2.84577E-06 9.79483E+03 2.78960E-07
 -1      1875-2.20663E-06 1.04935E+04-1.17262E-06
 -1      1877-2.12770E-06 1.04935E+04-1.06759E-06
 -1      1878-8.27467E-08 1.12747E+04-9.55501E-07
 -1      1880 1.29262E-08 1.12747E+04-2.12632E-06
 -1      1881 1.46180E-06 1.23220E+04-7.83184E-07
 -1      1883 1.32836E-06 1.23220E+04-1.93990E-06
 -1      1884 2.88626E-07 1.37995E+04 1.46755E-06
 -1      1886 2.02850E-07 1.37995E+04 1.12683E-06
 -1      1887-1.47647E-06 1.58129E+04 1.70441E-06
 -1      1889-1.50416E-06 1.58129E+04 1.43278E-06
 -1      1890-7.69037E-07 1.84190E+04-1.39363E-06
 -1      1892-7.54723E-07 1.84190E+04-1.68604E-06
 -1      1893-3.58024E-07 2.16151E+04-2.81159E-06
 -1      1895-3.20268E-07 2.16151E+04-2.69924E-06
 -1      1896-8.15466E-07 2.53443E+04-3.57123E-06
 -1      1898-6.62567E-07 2.53443E+04-3.75794E-06
 -1      1899 8.00542E-07 2.94977E+04-3.41885E-06
 -1      1901 7.78745E-07 2.94977E+04-4.29131E-06
 -1      1902 2.64559E-06 3.39246E+04-2.52716E-06
 -1      1904 2.78161E-06 3.39246E+04-2.68051E-06
 -1      1905 2.35154E-06 3.84430E+04-1.52828E-06
 -1      1907 2.56078E-06 3.84430E+04-1.57917E-06
 -1      1908 1.63915E-06 4.28535E+04-2.13346E-06
 -1      1910 1.37780E-06 4.28535E+04-2.09171E-06
 -1      1911 2.50975E-06 4.69537E+04-1.33317E-06
 -1      1913 2.39725E-06 4.69537E+04-1.71456E-06
 -1      1914 4.38159E-06 5.05533E+04 8.54772E-07
 -1      1916 4.15977E-06 5.05533E+04 2.08442E-07
 -1      1917 4.26927E-06 5.34870E+04 1.58886E-06
 -1      1919 3.66533E-06 5.34870E+04 1.83753E-06
 -1      1920 2.14334E-06 5.56267E+04-1.52686E-08
 -1      1922 1.41644E-06 5.56267E+04 1.84965E-06
 -1      1923 8.51242E-08 5.68893E+04 1.24955E-07
 -1      1925-2.82635E-08 5.68893E+04-4.37207E-07
 -1      1926-9.12391E-07 5.72416E+04 1.22816E-06
 -1      1928-6.57997E-07 5.72416E+04-8.38665E-07
 -1      1929-1.62131E-06 5.67004E+04 1.67540E-06
 -1      1931-1.64848E-06 5.67004E+04-5.58521E-07
 -1      1932-1.55274E-06 5.53292E+04-1.21227E-06
 -1      1934-1.66419E-06 5.53292E+04-1.22915E-06
 -1      1935-9.69177E-07 5.32292E+04-1.09835E-06
 -1      1937-8.06425E-07 5.32292E+04-1.13707E-06
 -1      1938-9.22434E-07 5.05280E+04 2.56292E-07
 -1      1940-5.74767E-07 5.05280E+04-8.49276E-07
 -1      1941-1.70856E-07 4.73634E+04 1.39486E-07
 -1      1943-3.09574E-07 4.73634E+04-1.08422E-06
 -1      1944-3.53062E-07 4.38675E+04-5.52936E-07
 -1      1946-7.21567E-07 4.38675E+04-1.35726E-07
 -1      1947 1.32866E-06 4.78604E+03 1.54009E-06
 -1      1949 1.26354E-06 4.78604E+03 1.52422E-06
 -1      1950 3.51214E-07 9.34591E+03 2.87708E-06
 -1      1952 2.75893E-07 9.34591E+03 3.04700E-06
 -1      1953 2.09822E-07 1.30776E+04 1.28348E-07
 -1      1955 2.34884E-07 1.30776E+04 5.27769E-07
 -1      1956-1.32043E-07 1.61258E+04-1.65463E-06
 -1      1958-5.23496E-08 1.61258E+04-7.17831E-07
 -1      1959-1.00361E-06 1.87923E+04-3.72842E-07
 -1      1961-9.99110E-07 1.87923E+04 8.75014E-07
 -1      1962-9.70854E-07 2.12739E+04 1.08487E-06
 -1      1964-8.02508E-07 2.12739E+04 7.89427E-07
 -1      1965-1.77037E-06 2.38194E+04 2.64857E-06
 -1      1967-1.66680E-06 2.38194E+04 1.13922E-06
 -1      1968-2.39427E-06 2.66077E+04 1.20081E-06
 -1      1970-2.43834E-06 2.66077E+04 2.07889E-07
 -1      1971-1.57410E-06 2.98029E+04-1.30996E-07
 -1      1973-1.60569E-06 2.98029E+04-1.01927E-06
 -1      1974-1.96137E-06 3.35067E+04-2.81892E-07
 -1      1976-2.15036E-06 3.35067E+04-4.33000E-07
 -1      1977-2.12674E-06 3.77728E+04-8.12695E-07
 -1      1979-1.99931E-06 3.77728E+04-1.19246E-06
 -1      1980-9.57002E-07 4.25932E+04-6.78338E-07
 -1      1982-1.05099E-06 4.25932E+04-6.03664E-07
 -1      1983 1.44101E-07 4.79048E+04-1.87081E-06
 -1      1985 4.68951E-08 4.79048E+04-2.08552E-06
 -1      1986 1.60050E-06 5.35916E+04-3.75697E-06
 -1      1988 1.59452E-06 5.35916E+04-4.46755E-06
 -1      1989 2.91885E-06 5.94948E+04-2.09803E-06
 -1      1991 2.99255E-06 5.94948E+04-3.07654E-06
 -1      1992 3.39431E-06 6.54237E+04 1.09849E-07
 -1      1994 3.18415E-06 6.54237E+04-2.30448E-07
 -1      1995 1.18439E-06 7.11700E+04 3.23405E-07
 -1      1997 9.20029E-07 7.11700E+04 6.00503E-07
 -1      1998-7.15623E-07 7.65230E+04 1.83885E-06
 -1      2000-8.80540E-07 7.65230E+04 1.67311E-06
 -1      2001 1.04230E-06 8.12840E+04 1.31356E-06
 -1      2003 8.07340E-07 8.12840E+04 1.27240E-06
 -1      2004 1.89179E-06 8.52809E+04-5.43565E-07
 -1      2006 1.56918E-06 8.52809E+04 2.27898E-07
 -1      2007 6.55332E-07 8.83799E+04 1.02250E-06
 -1      2009 1.21500E-07 8.83799E+04 3.53171E-07
 -1      2010-5.15401E-07 9.04936E+04 9.48807E-07
 -1      2012-7.68852E-07 9.04936E+04-6.15193E-07
 -1      2013-6.02730E-07 9.15865E+04 5.73069E-07
 -1      2015-6.13059E-07 9.15865E+04-5.18539E-07
 -1      2016-1.44603E-06 9.16749E+04 2.93175E-06
 -1      2018-9.19048E-07 9.16749E+04 1.64977E-06
 -1      2019-2.20739E-06 9.08235E+04 2.37598E-06
 -1      2021-2.04308E-06 9.08235E+04 2.01063E-06
 -1      2022-1.62989E-06 8.91364E+04 2.88728E-06
 -1      2024-1.62170E-06 8.91364E+04 2.72558E-06
 -1      2025-7.70714E-07 8.67457E+04 3.23646E-06
 -1      2027-9.49609E-07 8.67457E+04 4.11063E-06
 -1      2028-2.38408E-07 8.37949E+04 3.01492E-06
 -1      2030-5.46620E-07 8.37949E+04 3.59437E-06
 -1      2031-5.87002E-07 8.04228E+04 7.59532E-07
 -1      2033-9.38202E-07 8.04228E+04 2.64452E-06
 -1      2034-2.63350E-06 3.08891E+03 2.62316E-06
 -1      2036-2.71139E-06 3.08891E+03 2.64643E-06
 -1      2037-2.40741E-06 5.81419E+03 2.57336E-06
 -1      2039-2.44724E-06 5.81419E+03 2.83684E-06
 -1      2040 3.98048E-07 7.70278E+03-1.37441E-06
 -1      2042 4.78556E-07 7.70278E+03-5.77442E-07
 -1      2043 1.14050E-06 8.93412E+03-3.40670E-06
 -1      2045 1.19358E-06 8.93412E+03-2.09868E-06
 -1      2046 4.96561E-07 9.79483E+03-1.47043E-06
 -1      2048 4.84324E-07 9.79483E+03-2.78644E-07
 -1      2049-7.94219E-08 1.04935E+04-4.98316E-07
 -1      2051 1.25629E-07 1.04935E+04-2.38171E-07
 -1      2052-1.60324E-06 1.12747E+04 1.36076E-06
 -1      2054-1.40584E-06 1.12747E+04 8.01316E-07
 -1      2055-1.92703E-06 1.23220E+04 3.00663E-06
 -1      2057-1.89610E-06 1.23220E+04 2.69942E-06
 -1      2058-8.35018E-07 1.37995E+04 1.23223E-06
 -1      2060-9.47093E-07 1.37995E+04 8.51309E-07
 -1      2061-2.86872E-06 1.58129E+04-1.43344E-06
 -1      2063-2.97823E-06 1.58129E+04-1.11930E-06
 -1      2064-3.21426E-06 1.84190E+04-2.37677E-06
 -1      2066-3.22241E-06 1.84190E+04-1.55831E-06
 -1      2067-2.00509E-07 2.16151E+04-9.85052E-07
 -1      2069-1.26608E-07 2.16151E+04-9.45529E-07
 -1      2070 1.03489E-06 2.53443E+04-8.41806E-07
 -1      2072 9.45959E-07 2.53443E+04-1.67146E-06
 -1      2073 4.05800E-07 2.94977E+04-2.43886E-06
 -1      2075 2.88842E-07 2.94977E+04-3.25494E-06
 -1      2076-8.90616E-07 3.39246E+04-1.50617E-06
 -1      2078-9.99870E-07 3.39246E+04-2.54167E-06
 -1      2079-1.69387E-06 3.84430E+04 4.85805E-07
 -1      2081-1.76378E-06 3.84430E+04 5.65411E-07
 -1      2082-2.64539E-06 4.28535E+04 1.46532E-06
 -1      2084-2.72111E-06 4.28535E+04 2.36362E-06
 -1      2085-2.95507E-06 4.69537E+04 1.83516E-06
 -1      2087-2.93915E-06 4.69537E+04 2.28336E-06
 -1      2088-3.18832E-07 5.05533E+04-1.06960E-06
 -1      2090-3.13426E-07 5.05533E+04-3.23631E-07
 -1      2091 1.17097E-06 5.34870E+04-2.44715E-06
 -1      2093 1.11537E-06 5.34870E+04-2.78477E-06
 -1      2094 1.60617E-06 5.56267E+04-2.07162E-06
 -1      2096 1.61084E-06 5.56267E+04-2.72337E-06
 -1      2097 2.89147E-06 5.68893E+04-1.78497E-08
 -1      2099 2.59358E-06 5.68893E+04-4.96073E-07
 -1      2100 2.45777E-06 5.72416E+04 3.46545E-07
 -1      2102 2.51344E-06 5.72416E+04 1.86106E-07
 -1      2103 3.21400E-08 5.67004E+04 2.30555E-06
 -1      2105 5.14597E-07 5.67004E+04 1.53571E-06
 -1      2106-1.18832E-06 5.53292E+04 2.18728E-06
 -1      2108-8.59197E-07 5.53292E+04 1.47477E-06
 -1      2109-7.07229E-07 5.32292E+04 1.99549E-06
 -1      2111-5.85834E-07 5.32292E+04 1.54280E-06
 -1      2112 3.17507E-07 5.05280E+04 2.90788E-06
 -1      2114 1.43719E-07 5.05280E+04 3.97744E-06
 -1      2115 1.93063E-06 4.73634E+04 2.92376E-06
 -1      2117 1.65382E-06 4.73634E+04 4.06748E-06
 -1      2118 2.21531E-06 4.38675E+04 2.03394E-06
 -1      2120 2.00921E-06 4.38675E+04 2.68958E-06
 -1      2121-3.58221E+02-8.04783E+02-2.17240E+03
 -1      2123-3.58221E+02-8.04783E+02-2.17240E+03
 -1      2124-6.65977E+02-2.09263E+03-4.63759E+03
 -1      2126-6.65977E+02-2.09263E+03-4.63759E+03
 -1      2127-8.96568E+02-3.96851E+03-7.12409E+03
 -1      2129-8.96568E+02-3.96851E+03-7.12409E+03
 -1      2130-1.04695E+03-6.27084E+03-9.55827E+03
 -1      2132-1.04695E+03-6.27084E+03-9.55827E+03
 -1      2133-1.12060E+03-8.81559E+03-1.19816E+04
 -1      2135-1.12060E+03-8.81559E+03-1.19816E+04
 -1      2136-1.12081E+03-1.14330E+04-1.43695E+04
 -1      2138-1.12081E+03-1.14330E+04-1.43695E+04
 -1      2139-1.05485E+03-1.39612E+04-1.67276E+04
 -1      2141-1.05485E+03-1.39612E+04-1.67276E+04
 -1      2142-9.33028E+02-1.62598E+04-1.90464E+04
 -1      2144-9.33028E+02-1.62598E+04-1.90464E+04
 -1      2145-7.68098E+02-1.82142E+04-2.13234E+04
 -1      2147-7.68098E+02-1.82142E+04-2.13234E+04
 -1      2148-5.75174E+02-1.97426E+04-2.35521E+04
 -1      2150-5.75174E+02-1.97426E+04-2.35521E+04
 -1      2151-3.70383E+02-2.07992E+04-2.57270E+04
 -1      2153-3.70383E+02-2.07992E+04-2.57270E+04
 -1      2154-1.70150E+02-2.13765E+04-2.78416E+04
 -1      2156-1.70150E+02-2.13765E+04-2.78416E+04
 -1      2157 1.00435E+01-2.15046E+04-2.98891E+04
 -1      2159 1.00435E+01-2.15046E+04-2.98891E+04
 -1      2160 1.56617E+02-2.12474E+04-3.18621E+04
 -1      2162 1.56617E+02-2.12474E+04-3.18621E+04
 -1      2163 2.58844E+02-2.06974E+04-3.37530E+04
 -1      2165 2.58844E+02-2.06974E+04-3.37530E+04
 -1      2166 3.09553E+02-1.99680E+04-3.55539E+04
 -1      2168 3.09553E+02-1.99680E+04-3.55539E+04
 -1      2169 3.05588E+02-1.91847E+04-3.72572E+04
 -1      2171 3.05588E+02-1.91847E+04-3.72572E+04
 -1      2172 2.47967E+02-1.84755E+04-3.88555E+04
 -1      2174 2.47967E+02-1.84755E+04-3.88555E+04
 -1      2175 1.41714E+02-1.79609E+04-4.03418E+04
 -1      2177 1.41714E+02-1.79609E+04-4.03418E+04
 -1      2178-4.60051E+00-1.77452E+04-4.17099E+04
 -1      2180-4.60051E+00-1.77452E+04-4.17099E+04
 -1      2181-1.79624E+02-1.79090E+04-4.29545E+04
 -1      2183-1.79624E+02-1.79090E+04-4.29545E+04
 -1      2184-3.70200E+02-1.85039E+04-4.40713E+04
 -1      2186-3.70200E+02-1.85039E+04-4.40713E+04
 -1      2187-5.62520E+02-1.95491E+04-4.50571E+04
 -1      2189-5.62520E+02-1.95491E+04-4.50571E+04
 -1      2190-7.43362E+02-2.10315E+04-4.59099E+04
 -1      2192-7.43362E+02-2.10315E+04-4.59099E+04
 -1      2193-9.01350E+02-2.29086E+04-4.66286E+04
 -1      2195-9.01350E+02-2.29086E+04-4.66286E+04
 -1      2196-1.02813E+03-2.51138E+04-4.72134E+04
 -1      2198-1.02813E+03-2.51138E+04-4.72134E+04
 -1      2199-1.11942E+03-2.75648E+04-4.76654E+04
 -1      2201-1.11942E+03-2.75648E+04-4.76654E+04
 -1      2202-1.17591E+03-3.01738E+04-4.79857E+04
 -1      2204-1.17591E+03-3.01738E+04-4.79857E+04
 -1      2205-1.20384E+03-3.28598E+04-4.81771E+04
 -1      2207-1.20384E+03-3.28598E+04-4.81771E+04
 -1      2208 3.58221E+02-8.04783E+02 2.17240E+03
 -1      2210 3.58221E+02-8.04783E+02 2.17240E+03
 -1      2211 6.65977E+02-2.09263E+03 4.63759E+03
 -1      2213 6.65977E+02-2.09263E+03 4.63759E+03
 -1      2214 8.96568E+02-3.96851E+03 7.12409E+03
 -1      2216 8.96568E+02-3.96851E+03 7.12409E+03
 -1      2217 1.04695E+03-6.27084E+03 9.55827E+03
 -1      2219 1.04695E+03-6.27084E+03 9.55827E+03
 -1      2220 1.12060E+03-8.81559E+03 1.19816E+04
 -1      2222 1.12060E+03-8.81559E+03 1.19816E+04
 -1      2223 1.12081E+03-1.14330E+04 1.43695E+04
 -1      2225 1.12081E+03-1.14330E+04 1.43695E+04
 -1      2226 1.05485E+03-1.39612E+04 1.67276E+04
 -1      2228 1.05485E+03-1.39612E+04 1.67276E+04
 -1      2229 9.33028E+02-1.62598E+04 1.90464E+04
 -1      2231 9.33028E+02-1.62598E+04 1.90464E+04
 -1      2232 7.68098E+02-1.82142E+04 2.13234E+04
 -1      2234 7.68098E+02-1.82142E+04 2.13234E+04
 -1      2235 5.75174E+02-1.97426E+04 2.35521E+04
 -1      2237 5.75174E+02-1.97426E+04 2.35521E+04
 -1      2238 3.70383E+02-2.07992E+04 2.57270E+04
 -1      2240 3.70383E+02-2.07992E+04 2.57270E+04
 -1      2241 1.70150E+02-2.13765E+04 2.78416E+04
 -1      2243 1.70150E+02-2.13765E+04 2.78416E+04
 -1      2244-1.00435E+01-2.15046E+04 2.98891E+04
 -1      2246-1.00435E+01-2.15046E+04 2.98891E+04
 -1      2247-1.56617E+02-2.12474E+04 3.18621E+04
 -1      2249-1.56617E+02-2.12474E+04 3.18621E+04
 -1      2250-2.58844E+02-2.06974E+04 3.37530E+04
 -1      2252-2.58844E+02-2.06974E+04 3.37530E+04
 -1      2253-3.09553E+02-1.99680E+04 3.55539E+04
 -1      2255-3.09553E+02-1.99680E+04 3.55539E+04
 -1      2256-3.05588E+02-1.91847E+04 3.72572E+04
 -1      2258-3.05588E+02-1.91847E+04 3.72572E+04
 -1      2259-2.47967E+02-1.84755E+04 3.88555E+04
 -1      2261-2.47967E+02-1.84755E+04 3.88555E+04
 -1      2262-1.41714E+02-1.79609E+04 4.03418E+04
 -1      2264-1.41714E+02-1.79609E+04 4.03418E+04
 -1      2265 4.60052E+00-1.77452E+04 4.17099E+04
 -1      2267 4.60052E+00-1.77452E+04 4.17099E+04
 -1      2268 1.79624E+02-1.79090E+04 4.29545E+04
 -1      2270 1.79624E+02-1.79090E+04 4.29545E+04
 -1      2271 3.70200E+02-1.85039E+04 4.40713E+04
 -1      2273 3.70200E+02-1.85039E+04 4.40713E+04
 -1      2274 5.62520E+02-1.95491E+04 4.50571E+04
 -1      2276 5.62520E+02-1.95491E+04 4.50571E+04
 -1      2277 7.43362E+02-2.10315E+04 4.59099E+04
 -1      2279 7.43362E+02-2.10315E+04 4.59099E+04
 -1      2280 9.01350E+02-2.29086E+04 4.66286E+04
 -1      2282 9.01350E+02-2.29086E+04 4.66286E+04
 -1      2283 1.02813E+03-2.51138E+04 4.72134E+04
 -1      2285 1.02813E+03-2.51138E+04 4.72134E+04
 -1      2286 1.11942E+03-2.75648E+04 4.76654E+04
 -1      2288 1.11942E+03-2.75648E+04 4.76654E+04
 -1      2289 1.17591E+03-3.01738E+04 4.79857E+04
 -1      2291 1.17591E+03-3.01738E+04 4.79857E+04
 -1      2292 1.20384E+03-3.28598E+04 4.81771E+04
 -1      2294 1.20384E+03-3.28598E+04 4.81771E+04
 -3
    1PSTEP                        24           1           1          
    1PGM                1.000000E+00                                  
    1PGK                2.271357E+06                                  
    1PHID                         -1                                  
    1PSUBC                         0                                  
    1PMODE                         6                                  
  100CL  106 239.8627768         930                     2    6MODAL      1
 -4  ERROR       1    1
 -5  STR(%)      1    1    0    0
 -1       404 0.00000E+00
 -1       406 0.00000E+00
 -1       407 0.00000E+00
 -1       409 0.00000E+00
 -1       410 0.00000E+00
 -1       412 0.00000E+00
 -1       413 0.00000E+00
 -1       415 0.00000E+00
 -1       424 0.00000E+00
 -1       426 0.00000E+00
 -1       427 0.00000E+00
 -1       429 0.00000E+00
 -1       438 0.00000E+00
 -1       440 0.00000E+00
 -1       441 0.00000E+00
 -1       443 0.00000E+00
 -1       444 0.00000E+00
 -1       446 0.00000E+00
 -1       447 0.00000E+00
 -1       449 0.00000E+00
 -1       458 0.00000E+00
 -1       460 0.00000E+00
 -1       461 0.00000E+00
 -1       463 0.00000E+00
 -1       472 0.00000E+00
 -1       474 0.00000E+00
 -1       475 0.00000E+00
 -1       477 0.00000E+00
 -1       478 0.00000E+00
 -1       480 0.00000E+00
 -1       481 0.00000E+00
 -1       483 0.00000E+00
 -1       484 0.00000E+00
 -1       486 0.00000E+00
 -1       487 0.00000E+00
 -1       489 0.00000E+00
 -1       490 0.00000E+00
 -1       492 0.00000E+00
 -1       493 0.00000E+00
 -1       495 0.00000E+00
 -1       496 0.00000E+00
 -1       498 0.00000E+00
 -1       499 0.00000E+00
 -1       501 0.00000E+00
 -1       502 0.00000E+00
 -1       504 0.00000E+00
 -1       505 0.00000E+00
 -1       507 0.00000E+00
 -1       508 0.00000E+00
 -1       510 0.00000E+00
 -1       511 0.00000E+00
 -1       513 0.00000E+00
 -1       514 0.00000E+00
 -1       516 0.00000E+00
 -1       517 0.00000E+00
 -1       519 0.00000E+00
 -1       520 0.00000E+00
 -1       522 0.00000E+00
 -1       523 0.00000E+00
 -1       525 0.00000E+00
 -1       526 0.00000E+00
 -1       528 0.00000E+00
 -1       529 0.00000E+00
 -1       531 0.00000E+00
 -1       532 0.00000E+00
 -1       534 0.00000E+00
 -1       535 0.00000E+00
 -1       537 0.00000E+00
 -1       538 0.00000E+00
 -1       540 0.00000E+00
 -1       541 0.00000E+00
 -1       543 0.00000E+00
 -1       544 0.00000E+00
 -1       546 0.00000E+00
 -1       547 0.00000E+00
 -1       549 0.00000E+00
 -1       550 0.00000E+00
 -1       552 0.00000E+00
 -1       553 0.00000E+00
 -1       555 0.00000E+00
 -1       556 0.00000E+00
 -1       558 0.00000E+00
 -1       559 0.00000E+00
 -1       561 0.00000E+00
 -1       562 0.00000E+00
 -1       564 0.00000E+00
 -1       565 0.00000E+00
 -1       567 0.00000E+00
 -1       568 0.00000E+00
 -1       570 0.00000E+00
 -1       571 0.00000E+00
 -1       573 0.00000E+00
 -1       574 0.00000E+00
 -1       576 0.00000E+00
 -1       577 0.00000E+00
 -1       579 0.00000E+00
 -1       588 0.00000E+00
 -1       590 0.00000E+00
 -1       591 0.00000E+00
 -1       593 0.00000E+00
 -1       602 0.00000E+00
 -1       604 0.00000E+00
 -1       605 0.00000E+00
 -1       607 0.00000E+00
 -1       616 0.00000E+00
 -1       618 0.00000E+00
 -1       619 0.00000E+00
 -1       621 0.00000E+00
 -1       630 0.00000E+00
 -1       632 0.00000E+00
 -1       633 0.00000E+00
 -1       635 0.00000E+00
 -1       644 0.00000E+00
 -1       646 0.00000E+00
 -1       647 0.00000E+00
 -1       649 0.00000E+00
 -1       658 0.00000E+00
 -1       660 0.00000E+00
 -1       661 0.00000E+00
 -1       663 0.00000E+00
 -1       672 0.00000E+00
 -1       674 0.00000E+00
 -1       675 0.00000E+00
 -1       677 0.00000E+00
 -1       686 0.00000E+00
 -1       688 0.00000E+00
 -1       689 0.00000E+00
 -1       691 0.00000E+00
 -1       700 0.00000E+00
 -1       702 0.00000E+00
 -1       703 0.00000E+00
 -1       705 0.00000E+00
 -1       714 0.00000E+00
 -1       716 0.00000E+00
 -1       717 0.00000E+00
 -1       719 0.00000E+00
 -1       728 0.00000E+00
 -1       730 0.00000E+00
 -1       731 0.00000E+00
 -1       733 0.00000E+00
 -1       742 0.00000E+00
 -1       744 0.00000E+00
 -1       745 0.00000E+00
 -1       747 0.00000E+00
 -1       756 0.00000E+00
 -1       758 0.00000E+00
 -1       759 0.00000E+00
 -1       761 0.00000E+00
 -1       770 0.00000E+00
 -1       772 0.00000E+00
 -1       773 0.00000E+00
 -1       775 0.00000E+00
 -1       784 0.00000E+00
 -1       786 0.00000E+00
 -1       787 0.00000E+00
 -1       789 0.00000E+00
 -1       798 0.00000E+00
 -1       800 0.00000E+00
 -1       801 0.00000E+00
 -1       803 0.00000E+00
 -1       812 0.00000E+00
 -1       814 0.00000E+00
 -1       815 0.00000E+00
 -1       817 0.00000E+00
 -1       826 0.00000E+00
 -1       828 0.00000E+00
 -1       829 0.00000E+00
 -1       831 0.00000E+00
 -1       840 0.00000E+00
 -1       842 0.00000E+00
 -1       843 0.00000E+00
 -1       845 0.00000E+00
 -1       854 0.00000E+00
 -1       856 0.00000E+00
 -1       857 0.00000E+00
 -1       859 0.00000E+00
 -1       868 0.00000E+00
 -1       870 0.00000E+00
 -1       871 0.00000E+00
 -1       873 0.00000E+00
 -1       882 0.00000E+00
 -1       884 0.00000E+00
 -1       885 0.00000E+00
 -1       887 0.00000E+00
 -1       896 0.00000E+00
 -1       898 0.00000E+00
 -1       899 0.00000E+00
 -1       901 0.00000E+00
 -1       910 0.00000E+00
 -1       912 0.00000E+00
 -1       913 0.00000E+00
 -1       915 0.00000E+00
 -1       924 0.00000E+00
 -1       926 0.00000E+00
 -1       927 0.00000E+00
 -1       929 0.00000E+00
 -1       938 0.00000E+00
 -1       940 0.00000E+00
 -1       941 0.00000E+00
 -1       943 0.00000E+00
 -1       952 0.00000E+00
 -1       954 0.00000E+00
 -1       955 0.00000E+00
 -1       957 0.00000E+00
 -1       966 0.00000E+00
 -1       968 0.00000E+00
 -1       969 0.00000E+00
 -1       971 0.00000E+00
 -1       980 0.00000E+00
 -1       982 0.00000E+00
 -1       983 0.00000E+00
 -1       985 0.00000E+00
 -1       986 0.00000E+00
 -1       988 0.00000E+00
 -1       989 0.00000E+00
 -1       991 0.00000E+00
 -1       992 0.00000E+00
 -1       994 0.00000E+00
 -1       995 0.00000E+00
 -1       997 0.00000E+00
 -1       998 0.00000E+00
 -1      1000 0.00000E+00
 -1      1001 0.00000E+00
 -1      1003 0.00000E+00
 -1      1004 0.00000E+00
 -1      1006 0.00000E+00
 -1      1007 0.00000E+00
 -1      1009 0.00000E+00
 -1      1010 0.00000E+00
 -1      1012 0.00000E+00
 -1      1013 0.00000E+00
 -1      1015 0.00000E+00
 -1      1016 0.00000E+00
 -1      1018 0.00000E+00
 -1      1019 0.00000E+00
 -1      1021 0.00000E+00
 -1      1022 0.00000E+00
 -1      1024 0.00000E+00
 -1      1025 0.00000E+00
 -1      1027 0.00000E+00
 -1      1028 0.00000E+00
 -1      1030 0.00000E+00
 -1      1031 0.00000E+00
 -1      1033 0.00000E+00
 -1      1034 0.00000E+00
 -1      1036 0.00000E+00
 -1      1037 0.00000E+00
 -1      1039 0.00000E+00
 -1      1040 0.00000E+00
 -1      1042 0.00000E+00
 -1      1043 0.00000E+00
 -1      1045 0.00000E+00
 -1      1046 0.00000E+00
 -1      1048 0.00000E+00
 -1      1049 0.00000E+00
 -1      1051 0.00000E+00
 -1      1052 0.00000E+00
 -1      1054 0.00000E+00
 -1      1055 0.00000E+00
 -1      1057 0.00000E+00
 -1      1058 0.00000E+00
 -1      1060 0.00000E+00
 -1      1061 0.00000E+00
 -1      1063 0.00000E+00
 -1      1064 0.00000E+00
 -1      1066 0.00000E+00
 -1      1067 0.00000E+00
 -1      1069 0.00000E+00
 -1      1070 0.00000E+00
 -1      1072 0.00000E+00
 -1      1073 0.00000E+00
 -1      1075 0.00000E+00
 -1      1076 0.00000E+00
 -1      1078 0.00000E+00
 -1      1079 0.00000E+00
 -1      1081 0.00000E+00
 -1      1082 0.00000E+00
 -1      1084 0.00000E+00
 -1      1085 0.00000E+00
 -1      1087 0.00000E+00
 -1      1088 0.00000E+00
 -1      1090 0.00000E+00
 -1      1099 0.00000E+00
 -1      1101 0.00000E+00
 -1      1102 0.00000E+00
 -1      1104 0.00000E+00
 -1      1113 0.00000E+00
 -1      1115 0.00000E+00
 -1      1116 0.00000E+00
 -1      1118 0.00000E+00
 -1      1127 0.00000E+00
 -1      1129 0.00000E+00
 -1      1130 0.00000E+00
 -1      1132 0.00000E+00
 -1      1141 0.00000E+00
 -1      1143 0.00000E+00
 -1      1144 0.00000E+00
 -1      1146 0.00000E+00
 -1      1155 0.00000E+00
 -1      1157 0.00000E+00
 -1      1158 0.00000E+00
 -1      1160 0.00000E+00
 -1      1169 0.00000E+00
 -1      1171 0.00000E+00
 -1      1172 0.00000E+00
 -1      1174 0.00000E+00
 -1      1183 0.00000E+00
 -1      1185 0.00000E+00
 -1      1186 0.00000E+00
 -1      1188 0.00000E+00
 -1      1197 0.00000E+00
 -1      1199 0.00000E+00
 -1      1200 0.00000E+00
 -1      1202 0.00000E+00
 -1      1211 0.00000E+00
 -1      1213 0.00000E+00
 -1      1214 0.00000E+00
 -1      1216 0.00000E+00
 -1      1225 0.00000E+00
 -1      1227 0.00000E+00
 -1      1228 0.00000E+00
 -1      1230 0.00000E+00
 -1      1239 0.00000E+00
 -1      1241 0.00000E+00
 -1      1242 0.00000E+00
 -1      1244 0.00000E+00
 -1      1253 0.00000E+00
 -1      1255 0.00000E+00
 -1      1256 0.00000E+00
 -1      1258 0.00000E+00
 -1      1267 0.00000E+00
 -1      1269 0.00000E+00
 -1      1270 0.00000E+00
 -1      1272 0.00000E+00
 -1      1281 0.00000E+00
 -1      1283 0.00000E+00
 -1      1284 0.00000E+00
 -1      1286 0.00000E+00
 -1      1295 0.00000E+00
 -1      1297 0.00000E+00
 -1      1298 0.00000E+00
 -1      1300 0.00000E+00
 -1      1309 0.00000E+00
 -1      1311 0.00000E+00
 -1      1312 0.00000E+00
 -1      1314 0.00000E+00
 -1      1323 0.00000E+00
 -1      1325 0.00000E+00
 -1      1326 0.00000E+00
 -1      1328 0.00000E+00
 -1      1337 0.00000E+00
 -1      1339 0.00000E+00
 -1      1340 0.00000E+00
 -1      1342 0.00000E+00
 -1      1351 0.00000E+00
 -1      1353 0.00000E+00
 -1      1354 0.00000E+00
 -1      1356 0.00000E+00
 -1      1365 0.00000E+00
 -1      1367 0.00000E+00
 -1      1368 0.00000E+00
 -1      1370 0.00000E+00
 -1      1379 0.00000E+00
 -1      1381 0.00000E+00
 -1      1382 0.00000E+00
 -1      1384 0.00000E+00
 -1      1393 0.00000E+00
 -1      1395 0.00000E+00
 -1      1396 0.00000E+00
 -1      1398 0.00000E+00
 -1      1407 0.00000E+00
 -1      1409 0.00000E+00
 -1      1410 0.00000E+00
 -1      1412 0.00000E+00
 -1      1421 0.00000E+00
 -1      1423 0.00000E+00
 -1      1424 0.00000E+00
 -1      1426 0.00000E+00
 -1      1435 0.00000E+00
 -1      1437 0.00000E+00
 -1      1438 0.00000E+00
 -1      1440 0.00000E+00
 -1      1449 0.00000E+00
 -1      1451 0.00000E+00
 -1      1452 0.00000E+00
 -1      1454 0.00000E+00
 -1      1463 0.00000E+00
 -1      1465 0.00000E+00
 -1      1466 0.00000E+00
 -1      1468 0.00000E+00
 -1      1477 0.00000E+00
 -1      1479 0.00000E+00
 -1      1480 0.00000E+00
 -1      1482 0.00000E+00
 -1      1491 0.00000E+00
 -1      1493 0.00000E+00
 -1      1494 0.00000E+00
 -1      1496 0.00000E+00
 -1      1497 0.00000E+00
 -1      1499 0.00000E+00
 -1      1500 0.00000E+00
 -1      1502 0.00000E+00
 -1      1503 0.00000E+00
 -1      1505 0.00000E+00
 -1      1506 0.00000E+00
 -1      1508 0.00000E+00
 -1      1509 0.00000E+00
 -1      1511 0.00000E+00
 -1      1512 0.00000E+00
 -1      1514 0.00000E+00
 -1      1515 0.00000E+00
 -1      1517 0.00000E+00
 -1      1518 0.00000E+00
 -1      1520 0.00000E+00
 -1      1521 0.00000E+00
 -1      1523 0.00000E+00
 -1      1524 0.00000E+00
 -1      1526 0.00000E+00
 -1      1527 0.00000E+00
 -1      1529 0.00000E+00
 -1      1530 0.00000E+00
 -1      1532 0.00000E+00
 -1      1533 0.00000E+00
 -1      1535 0.00000E+00
 -1      1536 0.00000E+00
 -1      1538 0.00000E+00
 -1      1539 0.00000E+00
 -1      1541 0.00000E+00
 -1      1542 0.00000E+00
 -1      1544 0.00000E+00
 -1      1545 0.00000E+00
 -1      1547 0.00000E+00
 -1      1548 0.00000E+00
 -1      1550 0.00000E+00
 -1      1551 0.00000E+00
 -1      1553 0.00000E+00
 -1      1554 0.00000E+00
 -1      1556 0.00000E+00
 -1      1557 0.00000E+00
 -1      1559 0.00000E+00
 -1      1560 0.00000E+00
 -1      1562 0.00000E+00
 -1      1563 0.00000E+00
 -1      1565 0.00000E+00
 -1      1566 0.00000E+00
 -1      1568 0.00000E+00
 -1      1569 0.00000E+00
 -1      1571 0.00000E+00
 -1      1572 0.00000E+00
 -1      1574 0.00000E+00
 -1      1575 0.00000E+00
 -1      1577 0.00000E+00
 -1      1578 0.00000E+00
 -1      1580 0.00000E+00
 -1      1581 0.00000E+00
 -1      1583 0.00000E+00
 -1      1584 0.00000E+00
 -1      1586 0.00000E+00
 -1      1587 0.00000E+00
 -1      1589 0.00000E+00
 -1      1590 0.00000E+00
 -1      1592 0.00000E+00
 -1      1593 0.00000E+00
 -1      1595 0.00000E+00
 -1      1596 0.00000E+00
 -1      1598 0.00000E+00
 -1      1599 0.00000E+00
 -1      1601 0.00000E+00
 -1      1602 0.00000E+00
 -1      1604 0.00000E+00
 -1      1605 0.00000E+00
 -1      1607 0.00000E+00
 -1      1608 0.00000E+00
 -1      1610 0.00000E+00
 -1      1611 0.00000E+00
 -1      1613 0.00000E+00
 -1      1614 0.00000E+00
 -1      1616 0.00000E+00
 -1      1617 0.00000E+00
 -1      1619 0.00000E+00
 -1      1620 0.00000E+00
 -1      1622 0.00000E+00
 -1      1623 0.00000E+00
 -1      1625 0.00000E+00
 -1      1626 0.00000E+00
 -1      1628 0.00000E+00
 -1      1629 0.00000E+00
 -1      1631 0.00000E+00
 -1      1632 0.00000E+00
 -1      1634 0.00000E+00
 -1      1635 0.00000E+00
 -1      1637 0.00000E+00
 -1      1638 0.00000E+00
 -1      1640 0.00000E+00
 -1      1641 0.00000E+00
 -1      1643 0.00000E+00
 -1      1644 0.00000E+00
 -1      1646 0.00000E+00
 -1      1647 0.00000E+00
 -1      1649 0.00000E+00
 -1      1650 0.00000E+00
 -1      1652 0.00000E+00
 -1      1653 0.00000E+00
 -1      1655 0.00000E+00
 -1      1656 0.00000E+00
 -1      1658 0.00000E+00
 -1      1659 0.00000E+00
 -1      1661 0.00000E+00
 -1      1662 0.00000E+00
 -1      1664 0.00000E+00
 -1      1665 0.00000E+00
 -1      1667 0.00000E+00
 -1      1668 0.00000E+00
 -1      1670 0.00000E+00
 -1      1671 0.00000E+00
 -1      1673 0.00000E+00
 -1      1674 0.00000E+00
 -1      1676 0.00000E+00
 -1      1677 0.00000E+00
 -1      1679 0.00000E+00
 -1      1680 0.00000E+00
 -1      1682 0.00000E+00
 -1      1683 0.00000E+00
 -1      1685 0.00000E+00
 -1      1686 0.00000E+00
 -1      1688 0.00000E+00
 -1      1689 0.00000E+00
 -1      1691 0.00000E+00
 -1      1692 0.00000E+00
 -1      1694 0.00000E+00
 -1      1695 0.00000E+00
 -1      1697 0.00000E+00
 -1      1698 0.00000E+00
 -1      1700 0.00000E+00
 -1      1701 0.00000E+00
 -1      1703 0.00000E+00
 -1      1704 0.00000E+00
 -1      1706 0.00000E+00
 -1      1707 0.00000E+00
 -1      1709 0.00000E+00
 -1      1710 0.00000E+00
 -1      1712 0.00000E+00
 -1      1713 0.00000E+00
 -1      1715 0.00000E+00
 -1      1716 0.00000E+00
 -1      1718 0.00000E+00
 -1      1719 0.00000E+00
 -1      1721 0.00000E+00
 -1      1722 0.00000E+00
 -1      1724 0.00000E+00
 -1      1725 0.00000E+00
 -1      1727 0.00000E+00
 -1      1728 0.00000E+00
 -1      1730 0.00000E+00
 -1      1731 0.00000E+00
 -1      1733 0.00000E+00
 -1      1734 0.00000E+00
 -1      1736 0.00000E+00
 -1      1737 0.00000E+00
 -1      1739 0.00000E+00
 -1      1740 0.00000E+00
 -1      1742 0.00000E+00
 -1      1743 0.00000E+00
 -1      1745 0.00000E+00
 -1      1746 0.00000E+00
 -1      1748 0.00000E+00
 -1      1749 0.00000E+00
 -1      1751 0.00000E+00
 -1      1752 0.00000E+00
 -1      1754 0.00000E+00
 -1      1755 0.00000E+00
 -1      1757 0.00000E+00
 -1      1758 0.00000E+00
 -1      1760 0.00000E+00
 -1      1761 0.00000E+00
 -1      1763 0.00000E+00
 -1      1764 0.00000E+00
 -1      1766 0.00000E+00
 -1      1767 0.00000E+00
 -1      1769 0.00000E+00
 -1      1770 0.00000E+00
 -1      1772 0.00000E+00
 -1      1773 0.00000E+00
 -1      1775 0.00000E+00
 -1      1776 0.00000E+00
 -1      1778 0.00000E+00
 -1      1779 0.00000E+00
 -1      1781 0.00000E+00
 -1      1782 0.00000E+00
 -1      1784 0.00000E+00
 -1      1785 0.00000E+00
 -1      1787 0.00000E+00
 -1      1788 0.00000E+00
 -1      1790 0.00000E+00
 -1      1791 0.00000E+00
 -1      1793 0.00000E+00
 -1      1794 0.00000E+00
 -1      1796 0.00000E+00
 -1      1797 0.00000E+00
 -1      1799 0.00000E+00
 -1      1800 0.00000E+00
 -1      1802 0.00000E+00
 -1      1803 0.00000E+00
 -1      1805 0.00000E+00
 -1      1806 0.00000E+00
 -1      1808 0.00000E+00
 -1      1809 0.00000E+00
 -1      1811 0.00000E+00
 -1      1812 0.00000E+00
 -1      1814 0.00000E+00
 -1      1815 0.00000E+00
 -1      1817 0.00000E+00
 -1      1818 0.00000E+00
 -1      1820 0.00000E+00
 -1      1821 0.00000E+00
 -1      1823 0.00000E+00
 -1      1824 0.00000E+00
 -1      1826 0.00000E+00
 -1      1827 0.00000E+00
 -1      1829 0.00000E+00
 -1      1830 0.00000E+00
 -1      1832 0.00000E+00
 -1      1833 0.00000E+00
 -1      1835 0.00000E+00
 -1      1836 0.00000E+00
 -1      1838 0.00000E+00
 -1      1839 0.00000E+00
 -1      1841 0.00000E+00
 -1      1842 0.00000E+00
 -1      1844 0.00000E+00
 -1      1845 0.00000E+00
 -1      1847 0.00000E+00
 -1      1848 0.00000E+00
 -1      1850 0.00000E+00
 -1      1851 0.00000E+00
 -1      1853 0.00000E+00
 -1      1854 0.00000E+00
 -1      1856 0.00000E+00
 -1      1857 0.00000E+00
 -1      1859 0.00000E+00
 -1      1860 0.00000E+00
 -1      1862 0.00000E+00
 -1      1863 0.00000E+00
 -1      1865 0.00000E+00
 -1      1866 0.00000E+00
 -1      1868 0.00000E+00
 -1      1869 0.00000E+00
 -1      1871 0.00000E+00
 -1      1872 0.00000E+00
 -1      1874 0.00000E+00
 -1      1875 0.00000E+00
 -1      1877 0.00000E+00
 -1      1878 0.00000E+00
 -1      1880 0.00000E+00
 -1      1881 0.00000E+00
 -1      1883 0.00000E+00
 -1      1884 0.00000E+00
 -1      1886 0.00000E+00
 -1      1887 0.00000E+00
 -1      1889 0.00000E+00
 -1      1890 0.00000E+00
 -1      1892 0.00000E+00
 -1      1893 0.00000E+00
 -1      1895 0.00000E+00
 -1      1896 0.00000E+00
 -1      1898 0.00000E+00
 -1      1899 0.00000E+00
 -1      1901 0.00000E+00
 -1      1902 0.00000E+00
 -1      1904 0.00000E+00
 -1      1905 0.00000E+00
 -1      1907 0.00000E+00
 -1      1908 0.00000E+00
 -1      1910 0.00000E+00
 -1      1911 0.00000E+00
 -1      1913 0.00000E+00
 -1      1914 0.00000E+00
 -1      1916 0.00000E+00
 -1      1917 0.00000E+00
 -1      1919 0.00000E+00
 -1      1920 0.00000E+00
 -1      1922 0.00000E+00
 -1      1923 0.00000E+00
 -1      1925 0.00000E+00
 -1      1926 0.00000E+00
 -1      1928 0.00000E+00
 -1      1929 0.00000E+00
 -1      1931 0.00000E+00
 -1      1932 0.00000E+00
 -1      1934 0.00000E+00
 -1      1935 0.00000E+00
 -1      1937 0.00000E+00
 -1      1938 0.00000E+00
 -1      1940 0.00000E+00
 -1      1941 0.00000E+00
 -1      1943 0.00000E+00
 -1      1944 0.00000E+00
 -1      1946 0.00000E+00
 -1      1947 0.00000E+00
 -1      1949 0.00000E+00
 -1      1950 0.00000E+00
 -1      1952 0.00000E+00
 -1      1953 0.00000E+00
 -1      1955 0.00000E+00
 -1      1956 0.00000E+00
 -1      1958 0.00000E+00
 -1      1959 0.00000E+00
 -1      1961 0.00000E+00
 -1      1962 0.00000E+00
 -1      1964 0.00000E+00
 -1      1965 0.00000E+00
 -1      1967 0.00000E+00
 -1      1968 0.00000E+00
 -1      1970 0.00000E+00
 -1      1971 0.00000E+00
 -1      1973 0.00000E+00
 -1      1974 0.00000E+00
 -1      1976 0.00000E+00
 -1      1977 0.00000E+00
 -1      1979 0.00000E+00
 -1      1980 0.00000E+00
 -1      1982 0.00000E+00
 -1      1983 0.00000E+00
 -1      1985 0.00000E+00
 -1      1986 0.00000E+00
 -1      1988 0.00000E+00
 -1      1989 0.00000E+00
 -1      1991 0.00000E+00
 -1      1992 0.00000E+00
 -1      1994 0.00000E+00
 -1      1995 0.00000E+00
 -1      1997 0.00000E+00
 -1      1998 0.00000E+00
 -1      2000 0.00000E+00
 -1      2001 0.00000E+00
 -1      2003 0.00000E+00
 -1      2004 0.00000E+00
 -1      2006 0.00000E+00
 -1      2007 0.00000E+00
 -1      2009 0.00000E+00
 -1      2010 0.00000E+00
 -1      2012 0.00000E+00
 -1      2013 0.00000E+00
 -1      2015 0.00000E+00
 -1      2016 0.00000E+00
 -1      2018 0.00000E+00
 -1      2019 0.00000E+00
 -1      2021 0.00000E+00
 -1      2022 0.00000E+00
 -1      2024 0.00000E+00
 -1      2025 0.00000E+00
 -1      2027 0.00000E+00
 -1      2028 0.00000E+00
 -1      2030 0.00000E+00
 -1      2031 0.00000E+00
 -1      2033 0.00000E+00
 -1      2034 0.00000E+00
 -1      2036 0.00000E+00
 -1      2037 0.00000E+00
 -1      2039 0.00000E+00
 -1      2040 0.00000E+00
 -1      2042 0.00000E+00
 -1      2043 0.00000E+00
 -1      2045 0.00000E+00
 -1      2046 0.00000E+00
 -1      2048 0.00000E+00
 -1      2049 0.00000E+00
 -1      2051 0.00000E+00
 -1      2052 0.00000E+00
 -1      2054 0.00000E+00
 -1      2055 0.00000E+00
 -1      2057 0.00000E+00
 -1      2058 0.00000E+00
 -1      2060 0.00000E+00
 -1      2061 0.00000E+00
 -1      2063 0.00000E+00
 -1      2064 0.00000E+00
 -1      2066 0.00000E+00
 -1      2067 0.00000E+00
 -1      2069 0.00000E+00
 -1      2070 0.00000E+00
 -1      2072 0.00000E+00
 -1      2073 0.00000E+00
 -1      2075 0.00000E+00
 -1      2076 0.00000E+00
 -1      2078 0.00000E+00
 -1      2079 0.00000E+00
 -1      2081 0.00000E+00
 -1      2082 0.00000E+00
 -1      2084 0.00000E+00
 -1      2085 0.00000E+00
 -1      2087 0.00000E+00
 -1      2088 0.00000E+00
 -1      2090 0.00000E+00
 -1      2091 0.00000E+00
 -1      2093 0.00000E+00
 -1      2094 0.00000E+00
 -1      2096 0.00000E+00
 -1      2097 0.00000E+00
 -1      2099 0.00000E+00
 -1      2100 0.00000E+00
 -1      2102 0.00000E+00
 -1      2103 0.00000E+00
 -1      2105 0.00000E+00
 -1      2106 0.00000E+00
 -1      2108 0.00000E+00
 -1      2109 0.00000E+00
 -1      2111 0.00000E+00
 -1      2112 0.00000E+00
 -1      2114 0.00000E+00
 -1      2115 0.00000E+00
 -1      2117 0.00000E+00
 -1      2118 0.00000E+00
 -1      2120 0.00000E+00
 -1      2121 0.00000E+00
 -1      2123 0.00000E+00
 -1      2124 0.00000E+00
 -1      2126 0.00000E+00
 -1      2127 0.00000E+00
 -1      2129 0.00000E+00
 -1      2130 0.00000E+00
 -1      2132 0.00000E+00
 -1      2133 0.00000E+00
 -1      2135 0.00000E+00
 -1      2136 0.00000E+00
 -1      2138 0.00000E+00
 -1      2139 0.00000E+00
 -1      2141 0.00000E+00
 -1      2142 0.00000E+00
 -1      2144 0.00000E+00
 -1      2145 0.00000E+00
 -1      2147 0.00000E+00
 -1      2148 0.00000E+00
 -1      2150 0.00000E+00
 -1      2151 0.00000E+00
 -1      2153 0.00000E+00
 -1      2154 0.00000E+00
 -1      2156 0.00000E+00
 -1      2157 0.00000E+00
 -1      2159 0.00000E+00
 -1      2160 0.00000E+00
 -1      2162 0.00000E+00
 -1      2163 0.00000E+00
 -1      2165 0.00000E+00
 -1      2166 0.00000E+00
 -1      2168 0.00000E+00
 -1      2169 0.00000E+00
 -1      2171 0.00000E+00
 -1      2172 0.00000E+00
 -1      2174 0.00000E+00
 -1      2175 0.00000E+00
 -1      2177 0.00000E+00
 -1      2178 0.00000E+00
 -1      2180 0.00000E+00
 -1      2181 0.00000E+00
 -1      2183 0.00000E+00
 -1      2184 0.00000E+00
 -1      2186 0.00000E+00
 -1      2187 0.00000E+00
 -1      2189 0.00000E+00
 -1      2190 0.00000E+00
 -1      2192 0.00000E+00
 -1      2193 0.00000E+00
 -1      2195 0.00000E+00
 -1      2196 0.00000E+00
 -1      2198 0.00000E+00
 -1      2199 0.00000E+00
 -1      2201 0.00000E+00
 -1      2202 0.00000E+00
 -1      2204 0.00000E+00
 -1      2205 0.00000E+00
 -1      2207 0.00000E+00
 -1      2208 0.00000E+00
 -1      2210 0.00000E+00
 -1      2211 0.00000E+00
 -1      2213 0.00000E+00
 -1      2214 0.00000E+00
 -1      2216 0.00000E+00
 -1      2217 0.00000E+00
 -1      2219 0.00000E+00
 -1      2220 0.00000E+00
 -1      2222 0.00000E+00
 -1      2223 0.00000E+00
 -1      2225 0.00000E+00
 -1      2226 0.00000E+00
 -1      2228 0.00000E+00
 -1      2229 0.00000E+00
 -1      2231 0.00000E+00
 -1      2232 0.00000E+00
 -1      2234 0.00000E+00
 -1      2235 0.00000E+00
 -1      2237 0.00000E+00
 -1      2238 0.00000E+00
 -1      2240 0.00000E+00
 -1      2241 0.00000E+00
 -1      2243 0.00000E+00
 -1      2244 0.00000E+00
 -1      2246 0.00000E+00
 -1      2247 0.00000E+00
 -1      2249 0.00000E+00
 -1      2250 0.00000E+00
 -1      2252 0.00000E+00
 -1      2253 0.00000E+00
 -1      2255 0.00000E+00
 -1      2256 0.00000E+00
 -1      2258 0.00000E+00
 -1      2259 0.00000E+00
 -1      2261 0.00000E+00
 -1      2262 0.00000E+00
 -1      2264 0.00000E+00
 -1      2265 0.00000E+00
 -1      2267 0.00000E+00
 -1      2268 0.00000E+00
 -1      2270 0.00000E+00
 -1      2271 0.00000E+00
 -1      2273 0.00000E+00
 -1      2274 0.00000E+00
 -1      2276 0.00000E+00
 -1      2277 0.00000E+00
 -1      2279 0.00000E+00
 -1      2280 0.00000E+00
 -1      2282 0.00000E+00
 -1      2283 0.00000E+00
 -1      2285 0.00000E+00
 -1      2286 0.00000E+00
 -1      2288 0.00000E+00
 -1      2289 0.00000E+00
 -1      2291 0.00000E+00
 -1      2292 0.00000E+00
 -1      2294 0.00000E+00
 -3
    1PSTEP                        25           1           1          
    1PGM                1.000000E+00                                  
    1PGK                2.544398E+06                                  
    1PHID                         -1                                  
    1PSUBC                         0                                  
    1PMODE                         7                                  
  100CL  107 253.8707414         930                     2    7MODAL      1
 -4  DISP        4    1
 -5  D1          1    2    1    0
 -5  D2          1    2    2    0
 -5  D3          1    2    3    0
 -5  ALL         1    2    0    0    1ALL
 -1       404 0.00000E+00 0.00000E+00 1.93956E-04
 -1       406 0.00000E+00-0.00000E+00-1.93956E-04
 -1       407-9.36700E-03 1.41778E-01 3.42991E-02
 -1       409-9.40739E-03 1.37559E-01 3.43579E-02
 -1       410 1.84972E-13 1.42595E-01 6.08712E-13
 -1       412 1.72534E-13 1.35623E-01 6.08814E-13
 -1       413 3.52282E-04 1.39109E-01-2.22084E-03
 -1       415-3.52282E-04 1.39109E-01 2.22084E-03
 -1       424 0.00000E+00 0.00000E+00-4.48431E-16
 -1       426 0.00000E+00 0.00000E+00 4.48431E-16
 -1       427 0.00000E+00-2.85667E-16 0.00000E+00
 -1       429 0.00000E+00 2.85667E-16 0.00000E+00
 -1       438 9.36700E-03 1.41778E-01-3.42991E-02
 -1       440 9.40739E-03 1.37559E-01-3.43579E-02
 -1       441 0.00000E+00 0.00000E+00-1.93956E-04
 -1       443 0.00000E+00-0.00000E+00 1.93956E-04
 -1       444 0.00000E+00 3.42524E-16 0.00000E+00
 -1       446 0.00000E+00-3.42524E-16 0.00000E+00
 -1       447 0.00000E+00 0.00000E+00-5.37683E-16
 -1       449 0.00000E+00 0.00000E+00 5.37683E-16
 -1       458-3.52282E-04-1.39109E-01-2.22084E-03
 -1       460 3.52282E-04-1.39109E-01 2.22084E-03
 -1       461-1.56319E-13-1.42595E-01 5.97105E-13
 -1       463-1.48007E-13-1.35623E-01 5.95164E-13
 -1       472 0.00000E+00 0.00000E+00-1.93956E-04
 -1       474 0.00000E+00 0.00000E+00 1.93956E-04
 -1       475-9.36700E-03-1.41778E-01-3.42991E-02
 -1       477-9.40739E-03-1.37559E-01-3.43579E-02
 -1       478 9.36700E-03-1.41778E-01 3.42991E-02
 -1       480 9.40739E-03-1.37559E-01 3.43579E-02
 -1       481 0.00000E+00 0.00000E+00 1.93956E-04
 -1       483 0.00000E+00 0.00000E+00-1.93956E-04
 -1       484 5.70534E-03-6.18141E-03-3.31963E-03
 -1       486 6.53350E-03-5.59893E-03-3.46097E-03
 -1       487 9.61821E-03-1.62708E-02-8.01848E-03
 -1       489 1.00716E-02-1.50421E-02-8.13709E-03
 -1       490 1.18297E-02-2.99241E-02-1.22451E-02
 -1       492 1.24795E-02-2.80758E-02-1.23179E-02
 -1       493 1.28979E-02-4.49832E-02-1.67578E-02
 -1       495 1.34500E-02-4.25372E-02-1.67590E-02
 -1       496 1.29334E-02-6.05623E-02-2.09597E-02
 -1       498 1.34989E-02-5.75726E-02-2.09615E-02
 -1       499 1.22291E-02-7.55504E-02-2.49649E-02
 -1       501 1.27267E-02-7.20673E-02-2.49067E-02
 -1       502 1.08707E-02-8.92619E-02-2.84735E-02
 -1       504 1.13100E-02-8.53524E-02-2.84214E-02
 -1       505 9.03073E-03-1.01011E-01-3.14538E-02
 -1       507 9.38256E-03-9.67524E-02-3.13610E-02
 -1       508 6.79560E-03-1.10341E-01-3.37261E-02
 -1       510 7.05163E-03-1.05819E-01-3.36391E-02
 -1       511 4.28736E-03-1.16849E-01-3.52469E-02
 -1       513 4.43489E-03-1.12163E-01-3.51358E-02
 -1       514 1.59369E-03-1.20293E-01-3.59157E-02
 -1       516 1.62634E-03-1.15546E-01-3.58114E-02
 -1       517-1.18354E-03-1.20508E-01-3.57192E-02
 -1       519-1.26934E-03-1.15811E-01-3.56037E-02
 -1       520-3.95929E-03-1.17460E-01-3.46247E-02
 -1       522-4.16353E-03-1.12922E-01-3.45187E-02
 -1       523-6.64416E-03-1.11198E-01-3.26627E-02
 -1       525-6.96289E-03-1.06931E-01-3.25559E-02
 -1       526-9.16133E-03-1.01881E-01-2.98617E-02
 -1       528-9.58761E-03-9.79874E-02-2.97679E-02
 -1       529-1.14359E-02-8.97492E-02-2.62970E-02
 -1       531-1.19592E-02-8.63256E-02-2.62105E-02
 -1       532-1.34060E-02-7.51255E-02-2.20493E-02
 -1       534-1.40134E-02-7.22569E-02-2.19787E-02
 -1       535-1.50166E-02-5.84013E-02-1.72318E-02
 -1       537-1.56923E-02-5.61600E-02-1.71748E-02
 -1       538-1.62281E-02-4.00237E-02-1.19657E-02
 -1       540-1.69548E-02-3.84651E-02-1.19259E-02
 -1       541-1.70110E-02-2.04833E-02-6.38920E-03
 -1       543-1.77695E-02-1.96460E-02-6.36742E-03
 -1       544-1.73555E-02-2.89511E-04-6.50045E-04
 -1       546-1.81259E-02-1.92356E-04-6.43905E-04
 -1       547-1.72625E-02 2.00302E-02 5.10549E-03
 -1       549-1.80247E-02 1.93878E-02 5.09091E-03
 -1       550-1.67616E-02 3.99833E-02 1.07169E-02
 -1       552-1.74950E-02 3.86236E-02 1.06922E-02
 -1       553-1.58858E-02 5.90767E-02 1.60497E-02
 -1       555-1.65723E-02 5.70424E-02 1.60032E-02
 -1       556-1.47270E-02 7.69386E-02 2.09391E-02
 -1       558-1.53454E-02 7.42938E-02 2.08934E-02
 -1       559-1.33357E-02 9.31938E-02 2.52831E-02
 -1       561-1.38743E-02 9.00254E-02 2.52172E-02
 -1       562-1.19351E-02 1.07714E-01 2.89069E-02
 -1       564-1.23667E-02 1.04120E-01 2.88572E-02
 -1       565-1.05425E-02 1.20430E-01 3.17497E-02
 -1       567-1.08708E-02 1.16541E-01 3.16935E-02
 -1       568-9.61114E-03 1.31428E-01 3.35903E-02
 -1       570-9.77776E-03 1.27321E-01 3.35488E-02
 -1       571-4.68436E-03 1.41948E-01 1.94748E-02
 -1       573-4.71569E-03 1.37231E-01 1.94001E-02
 -1       574-1.93075E-14-5.11146E-03-2.76462E-14
 -1       576-1.27810E-14-4.77896E-03-2.68415E-14
 -1       577-4.07214E-04-4.94521E-03 1.05906E-04
 -1       579 4.07214E-04-4.94521E-03-1.05906E-04
 -1       588-3.08916E-14-1.59001E-02-6.50086E-14
 -1       590-2.70169E-14-1.49153E-02-6.46377E-14
 -1       591-4.90322E-04-1.54077E-02 3.13692E-04
 -1       593 4.90322E-04-1.54077E-02-3.13692E-04
 -1       602-4.17645E-14-2.95978E-02-1.06985E-13
 -1       604-3.47645E-14-2.78972E-02-1.06624E-13
 -1       605-6.36783E-04-2.87475E-02 5.41700E-04
 -1       607 6.36783E-04-2.87475E-02-5.41700E-04
 -1       616-4.69065E-14-4.49695E-02-1.54858E-13
 -1       618-4.08532E-14-4.24681E-02-1.54681E-13
 -1       619-6.40469E-04-4.37188E-02 7.96747E-04
 -1       621 6.40469E-04-4.37188E-02-7.96747E-04
 -1       630-5.00860E-14-6.07545E-02-2.01170E-13
 -1       632-4.38562E-14-5.74394E-02-2.01209E-13
 -1       633-6.62978E-04-5.90969E-02 1.05593E-03
 -1       635 6.62978E-04-5.90969E-02-1.05593E-03
 -1       644-5.06889E-14-7.59968E-02-2.44458E-13
 -1       646-4.51858E-14-7.19057E-02-2.44888E-13
 -1       647-6.02455E-04-7.39513E-02 1.30309E-03
 -1       649 6.02455E-04-7.39513E-02-1.30309E-03
 -1       658-4.97842E-14-8.99034E-02-2.87103E-13
 -1       660-4.38978E-14-8.51013E-02-2.86894E-13
 -1       661-5.47610E-04-8.75024E-02 1.52956E-03
 -1       663 5.47610E-04-8.75024E-02-1.52956E-03
 -1       672-4.55071E-14-1.01848E-01-3.29427E-13
 -1       674-3.98413E-14-9.64435E-02-3.29863E-13
 -1       675-4.43685E-04-9.91455E-02 1.72129E-03
 -1       677 4.43685E-04-9.91455E-02-1.72129E-03
 -1       686-3.78496E-14-1.11317E-01-3.69370E-13
 -1       688-3.26149E-14-1.05435E-01-3.69581E-13
 -1       689-3.40126E-04-1.08376E-01 1.87379E-03
 -1       691 3.40126E-04-1.08376E-01-1.87379E-03
 -1       700-2.70072E-14-1.17943E-01-4.00207E-13
 -1       702-2.36953E-14-1.11732E-01-4.00222E-13
 -1       703-2.10002E-04-1.14838E-01 1.97827E-03
 -1       705 2.10002E-04-1.14838E-01-1.97827E-03
 -1       714-1.50619E-14-1.21454E-01-4.19109E-13
 -1       716-1.33668E-14-1.15072E-01-4.19795E-13
 -1       717-8.07511E-05-1.18263E-01 2.03268E-03
 -1       719 8.07511E-05-1.18263E-01-2.03268E-03
 -1       728-2.91956E-15-1.21704E-01-4.31345E-13
 -1       730-1.42245E-15-1.15320E-01-4.32008E-13
 -1       731 5.92570E-05-1.18512E-01 2.03318E-03
 -1       733-5.92570E-05-1.18512E-01-2.03318E-03
 -1       742 1.07893E-14-1.18643E-01-4.39350E-13
 -1       744 1.12937E-14-1.12427E-01-4.39455E-13
 -1       745 1.94113E-04-1.15535E-01 1.98013E-03
 -1       747-1.94113E-04-1.15535E-01-1.98013E-03
 -1       756 2.55957E-14-1.12336E-01-4.39221E-13
 -1       758 2.46766E-14-1.06452E-01-4.39961E-13
 -1       759 3.28005E-04-1.09394E-01 1.87404E-03
 -1       761-3.28005E-04-1.09394E-01-1.87404E-03
 -1       770 4.03963E-14-1.02933E-01-4.34091E-13
 -1       772 3.96837E-14-9.75405E-02-4.34288E-13
 -1       773 4.50771E-04-1.00237E-01 1.71766E-03
 -1       775-4.50771E-04-1.00237E-01-1.71766E-03
 -1       784 5.78129E-14-9.06841E-02-4.14640E-13
 -1       786 5.32250E-14-8.59268E-02-4.16008E-13
 -1       787 5.63862E-04-8.83055E-02 1.51528E-03
 -1       789-5.63862E-04-8.83055E-02-1.51528E-03
 -1       798 7.25170E-14-7.59137E-02-3.85035E-13
 -1       800 6.88508E-14-7.19212E-02-3.85730E-13
 -1       801 6.59697E-04-7.39175E-02 1.27168E-03
 -1       803-6.59697E-04-7.39175E-02-1.27168E-03
 -1       812 8.82769E-14-5.90192E-02-3.46373E-13
 -1       814 8.19524E-14-5.58974E-02-3.47198E-13
 -1       815 7.40127E-04-5.74583E-02 9.94357E-04
 -1       817-7.40127E-04-5.74583E-02-9.94357E-04
 -1       826 1.04083E-13-4.04530E-02-2.89992E-13
 -1       828 9.50880E-14-3.82891E-02-2.90044E-13
 -1       829 7.97951E-04-3.93710E-02 6.89263E-04
 -1       831-7.97951E-04-3.93710E-02-6.89263E-04
 -1       840 1.17053E-13-2.07096E-02-2.26775E-13
 -1       842 1.09471E-13-1.95590E-02-2.26543E-13
 -1       843 8.38288E-04-2.01343E-02 3.66509E-04
 -1       845-8.38288E-04-2.01343E-02-3.66509E-04
 -1       854 1.31738E-13-3.08790E-04-1.55434E-13
 -1       856 1.20664E-13-2.08675E-04-1.56157E-13
 -1       857 8.51722E-04-2.58733E-04 3.18883E-05
 -1       859-8.51722E-04-2.58733E-04-3.18883E-05
 -1       868 1.42724E-13 2.02252E-02-7.99181E-14
 -1       870 1.33527E-13 1.92756E-02-8.06964E-14
 -1       871 8.50545E-04 1.97504E-02-3.02474E-04
 -1       873-8.50545E-04 1.97504E-02 3.02474E-04
 -1       882 1.54528E-13 4.03792E-02 1.02878E-15
 -1       884 1.43130E-13 3.83925E-02-9.55918E-16
 -1       885 8.18714E-04 3.93858E-02-6.32814E-04
 -1       887-8.18714E-04 3.93858E-02 6.32814E-04
 -1       896 1.64551E-13 5.96803E-02 9.08217E-14
 -1       898 1.51633E-13 5.67121E-02 9.06082E-14
 -1       899 7.82245E-04 5.81962E-02-9.45426E-04
 -1       901-7.82245E-04 5.81962E-02 9.45426E-04
 -1       910 1.70609E-13 7.77189E-02 1.83421E-13
 -1       912 1.58434E-13 7.38221E-02 1.82679E-13
 -1       913 7.10990E-04 7.57705E-02-1.24118E-03
 -1       915-7.10990E-04 7.57705E-02 1.24118E-03
 -1       924 1.74984E-13 9.41531E-02 2.68007E-13
 -1       926 1.63759E-13 8.94295E-02 2.67926E-13
 -1       927 6.53841E-04 9.17913E-02-1.50458E-03
 -1       929-6.53841E-04 9.17913E-02 1.50458E-03
 -1       938 1.78674E-13 1.08856E-01 3.50504E-13
 -1       940 1.66953E-13 1.03378E-01 3.50768E-13
 -1       941 5.61764E-04 1.06117E-01-1.74475E-03
 -1       943-5.61764E-04 1.06117E-01 1.74475E-03
 -1       952 1.81925E-13 1.21593E-01 4.36661E-13
 -1       954 1.69932E-13 1.15499E-01 4.34114E-13
 -1       955 4.98883E-04 1.18546E-01-1.94105E-03
 -1       957-4.98883E-04 1.18546E-01 1.94105E-03
 -1       966 1.83655E-13 1.33036E-01 5.20697E-13
 -1       968 1.72046E-13 1.26397E-01 5.23662E-13
 -1       969 4.47489E-04 1.29717E-01-2.11482E-03
 -1       971-4.47489E-04 1.29717E-01 2.11482E-03
 -1       980 0.00000E+00 0.00000E+00 7.71854E-05
 -1       982 0.00000E+00-0.00000E+00-7.71854E-05
 -1       983 4.68436E-03 1.41948E-01-1.94748E-02
 -1       985 4.71569E-03 1.37231E-01-1.94001E-02
 -1       986-5.70534E-03-6.18141E-03 3.31963E-03
 -1       988-6.53350E-03-5.59893E-03 3.46097E-03
 -1       989-9.61821E-03-1.62708E-02 8.01848E-03
 -1       991-1.00716E-02-1.50421E-02 8.13709E-03
 -1       992-1.18297E-02-2.99241E-02 1.22451E-02
 -1       994-1.24795E-02-2.80758E-02 1.23179E-02
 -1       995-1.28979E-02-4.49832E-02 1.67578E-02
 -1       997-1.34500E-02-4.25372E-02 1.67590E-02
 -1       998-1.29334E-02-6.05623E-02 2.09597E-02
 -1      1000-1.34989E-02-5.75726E-02 2.09615E-02
 -1      1001-1.22291E-02-7.55504E-02 2.49649E-02
 -1      1003-1.27267E-02-7.20673E-02 2.49067E-02
 -1      1004-1.08707E-02-8.92619E-02 2.84735E-02
 -1      1006-1.13100E-02-8.53524E-02 2.84214E-02
 -1      1007-9.03073E-03-1.01011E-01 3.14538E-02
 -1      1009-9.38256E-03-9.67524E-02 3.13610E-02
 -1      1010-6.79560E-03-1.10341E-01 3.37261E-02
 -1      1012-7.05163E-03-1.05819E-01 3.36391E-02
 -1      1013-4.28736E-03-1.16849E-01 3.52469E-02
 -1      1015-4.43489E-03-1.12163E-01 3.51358E-02
 -1      1016-1.59369E-03-1.20293E-01 3.59157E-02
 -1      1018-1.62634E-03-1.15546E-01 3.58114E-02
 -1      1019 1.18354E-03-1.20508E-01 3.57192E-02
 -1      1021 1.26934E-03-1.15811E-01 3.56037E-02
 -1      1022 3.95929E-03-1.17460E-01 3.46247E-02
 -1      1024 4.16353E-03-1.12922E-01 3.45187E-02
 -1      1025 6.64416E-03-1.11198E-01 3.26627E-02
 -1      1027 6.96289E-03-1.06931E-01 3.25559E-02
 -1      1028 9.16133E-03-1.01881E-01 2.98617E-02
 -1      1030 9.58761E-03-9.79874E-02 2.97679E-02
 -1      1031 1.14359E-02-8.97492E-02 2.62970E-02
 -1      1033 1.19592E-02-8.63256E-02 2.62105E-02
 -1      1034 1.34060E-02-7.51255E-02 2.20493E-02
 -1      1036 1.40134E-02-7.22569E-02 2.19787E-02
 -1      1037 1.50166E-02-5.84013E-02 1.72318E-02
 -1      1039 1.56923E-02-5.61600E-02 1.71748E-02
 -1      1040 1.62281E-02-4.00237E-02 1.19657E-02
 -1      1042 1.69548E-02-3.84651E-02 1.19259E-02
 -1      1043 1.70110E-02-2.04833E-02 6.38920E-03
 -1      1045 1.77695E-02-1.96460E-02 6.36742E-03
 -1      1046 1.73555E-02-2.89511E-04 6.50045E-04
 -1      1048 1.81259E-02-1.92356E-04 6.43905E-04
 -1      1049 1.72625E-02 2.00302E-02-5.10549E-03
 -1      1051 1.80247E-02 1.93878E-02-5.09091E-03
 -1      1052 1.67616E-02 3.99833E-02-1.07169E-02
 -1      1054 1.74950E-02 3.86236E-02-1.06922E-02
 -1      1055 1.58858E-02 5.90767E-02-1.60497E-02
 -1      1057 1.65723E-02 5.70424E-02-1.60032E-02
 -1      1058 1.47270E-02 7.69386E-02-2.09391E-02
 -1      1060 1.53454E-02 7.42938E-02-2.08934E-02
 -1      1061 1.33357E-02 9.31938E-02-2.52831E-02
 -1      1063 1.38743E-02 9.00254E-02-2.52172E-02
 -1      1064 1.19351E-02 1.07714E-01-2.89069E-02
 -1      1066 1.23667E-02 1.04120E-01-2.88572E-02
 -1      1067 1.05425E-02 1.20430E-01-3.17497E-02
 -1      1069 1.08708E-02 1.16541E-01-3.16935E-02
 -1      1070 9.61114E-03 1.31428E-01-3.35903E-02
 -1      1072 9.77776E-03 1.27321E-01-3.35488E-02
 -1      1073 0.00000E+00 0.00000E+00-7.71854E-05
 -1      1075 0.00000E+00-0.00000E+00 7.71854E-05
 -1      1076 0.00000E+00-4.19451E-17 0.00000E+00
 -1      1078 0.00000E+00 4.19451E-17 0.00000E+00
 -1      1079 0.00000E+00 3.85095E-17 0.00000E+00
 -1      1081 0.00000E+00-3.85095E-17 0.00000E+00
 -1      1082 0.00000E+00 1.49552E-16 0.00000E+00
 -1      1084 0.00000E+00-1.49552E-16 0.00000E+00
 -1      1085 4.07214E-04 4.94521E-03 1.05906E-04
 -1      1087-4.07214E-04 4.94521E-03-1.05906E-04
 -1      1088 2.06753E-14 5.11146E-03-3.13870E-14
 -1      1090 1.31146E-14 4.77896E-03-3.07500E-14
 -1      1099 4.90322E-04 1.54077E-02 3.13692E-04
 -1      1101-4.90322E-04 1.54077E-02-3.13692E-04
 -1      1102 3.11514E-14 1.59001E-02-6.95746E-14
 -1      1104 2.80287E-14 1.49153E-02-6.91862E-14
 -1      1113 6.36783E-04 2.87475E-02 5.41700E-04
 -1      1115-6.36783E-04 2.87475E-02-5.41700E-04
 -1      1116 4.23363E-14 2.95978E-02-1.07069E-13
 -1      1118 3.59049E-14 2.78972E-02-1.06633E-13
 -1      1127 6.40469E-04 4.37188E-02 7.96747E-04
 -1      1129-6.40469E-04 4.37188E-02-7.96747E-04
 -1      1130 4.86307E-14 4.49695E-02-1.50150E-13
 -1      1132 4.33929E-14 4.24681E-02-1.50054E-13
 -1      1141 6.62978E-04 5.90969E-02 1.05593E-03
 -1      1143-6.62978E-04 5.90969E-02-1.05593E-03
 -1      1144 5.34818E-14 6.07545E-02-1.94319E-13
 -1      1146 4.72119E-14 5.74394E-02-1.94415E-13
 -1      1155 6.02455E-04 7.39513E-02 1.30309E-03
 -1      1157-6.02455E-04 7.39513E-02-1.30309E-03
 -1      1158 5.48300E-14 7.59968E-02-2.40228E-13
 -1      1160 4.90487E-14 7.19057E-02-2.39912E-13
 -1      1169 5.47610E-04 8.75024E-02 1.52956E-03
 -1      1171-5.47610E-04 8.75024E-02-1.52956E-03
 -1      1172 5.37344E-14 8.99034E-02-2.87632E-13
 -1      1174 4.70842E-14 8.51013E-02-2.87923E-13
 -1      1183 4.43685E-04 9.91455E-02 1.72129E-03
 -1      1185-4.43685E-04 9.91455E-02-1.72129E-03
 -1      1186 4.81210E-14 1.01848E-01-3.33988E-13
 -1      1188 4.25252E-14 9.64435E-02-3.34598E-13
 -1      1197 3.40126E-04 1.08376E-01 1.87379E-03
 -1      1199-3.40126E-04 1.08376E-01-1.87379E-03
 -1      1200 4.00545E-14 1.11317E-01-3.70505E-13
 -1      1202 3.63080E-14 1.05435E-01-3.71062E-13
 -1      1211 2.10002E-04 1.14838E-01 1.97827E-03
 -1      1213-2.10002E-04 1.14838E-01-1.97827E-03
 -1      1214 3.09701E-14 1.17943E-01-3.96959E-13
 -1      1216 2.82569E-14 1.11732E-01-3.98095E-13
 -1      1225 8.07511E-05 1.18263E-01 2.03268E-03
 -1      1227-8.07511E-05 1.18263E-01-2.03268E-03
 -1      1228 2.09792E-14 1.21454E-01-4.21119E-13
 -1      1230 1.79376E-14 1.15072E-01-4.21011E-13
 -1      1239-5.92570E-05 1.18512E-01 2.03318E-03
 -1      1241 5.92570E-05 1.18512E-01-2.03318E-03
 -1      1242 8.19325E-15 1.21704E-01-4.38710E-13
 -1      1244 6.80864E-15 1.15320E-01-4.39552E-13
 -1      1253-1.94113E-04 1.15535E-01 1.98013E-03
 -1      1255 1.94113E-04 1.15535E-01-1.98013E-03
 -1      1256-4.48806E-15 1.18643E-01-4.49896E-13
 -1      1258-5.57160E-15 1.12427E-01-4.50113E-13
 -1      1267-3.28005E-04 1.09394E-01 1.87404E-03
 -1      1269 3.28005E-04 1.09394E-01-1.87404E-03
 -1      1270-1.85107E-14 1.12336E-01-4.51368E-13
 -1      1272-1.80087E-14 1.06452E-01-4.52631E-13
 -1      1281-4.50771E-04 1.00237E-01 1.71766E-03
 -1      1283 4.50771E-04 1.00237E-01-1.71766E-03
 -1      1284-3.28223E-14 1.02933E-01-4.42849E-13
 -1      1286-3.08317E-14 9.75405E-02-4.43268E-13
 -1      1295-5.63862E-04 8.83055E-02 1.51528E-03
 -1      1297 5.63862E-04 8.83055E-02-1.51528E-03
 -1      1298-4.80867E-14 9.06841E-02-4.24173E-13
 -1      1300-4.49153E-14 8.59268E-02-4.25383E-13
 -1      1309-6.59697E-04 7.39175E-02 1.27168E-03
 -1      1311 6.59697E-04 7.39175E-02-1.27168E-03
 -1      1312-6.45275E-14 7.59137E-02-3.92959E-13
 -1      1314-5.92988E-14 7.19212E-02-3.92580E-13
 -1      1323-7.40127E-04 5.74583E-02 9.94357E-04
 -1      1325 7.40127E-04 5.74583E-02-9.94357E-04
 -1      1326-8.09330E-14 5.90192E-02-3.44246E-13
 -1      1328-7.35528E-14 5.58974E-02-3.45702E-13
 -1      1337-7.97951E-04 3.93710E-02 6.89263E-04
 -1      1339 7.97951E-04 3.93710E-02-6.89263E-04
 -1      1340-9.56475E-14 4.04530E-02-2.89677E-13
 -1      1342-8.85810E-14 3.82891E-02-2.89734E-13
 -1      1351-8.38288E-04 2.01343E-02 3.66509E-04
 -1      1353 8.38288E-04 2.01343E-02-3.66509E-04
 -1      1354-1.10671E-13 2.07096E-02-2.25243E-13
 -1      1356-1.01390E-13 1.95590E-02-2.27340E-13
 -1      1365-8.51722E-04 2.58733E-04 3.18883E-05
 -1      1367 8.51722E-04 2.58733E-04-3.18883E-05
 -1      1368-1.22279E-13 3.08790E-04-1.55024E-13
 -1      1370-1.12835E-13 2.08675E-04-1.54603E-13
 -1      1379-8.50545E-04-1.97504E-02-3.02474E-04
 -1      1381 8.50545E-04-1.97504E-02 3.02474E-04
 -1      1382-1.32073E-13-2.02252E-02-8.25195E-14
 -1      1384-1.22484E-13-1.92756E-02-8.35074E-14
 -1      1393-8.18714E-04-3.93858E-02-6.32814E-04
 -1      1395 8.18714E-04-3.93858E-02 6.32814E-04
 -1      1396-1.40980E-13-4.03792E-02-8.45386E-15
 -1      1398-1.29675E-13-3.83925E-02-6.70068E-15
 -1      1407-7.82245E-04-5.81962E-02-9.45426E-04
 -1      1409 7.82245E-04-5.81962E-02 9.45426E-04
 -1      1410-1.47392E-13-5.96803E-02 7.81694E-14
 -1      1412-1.35354E-13-5.67121E-02 7.66443E-14
 -1      1421-7.10990E-04-7.57705E-02-1.24118E-03
 -1      1423 7.10990E-04-7.57705E-02 1.24118E-03
 -1      1424-1.51444E-13-7.77189E-02 1.65462E-13
 -1      1426-1.39511E-13-7.38221E-02 1.66897E-13
 -1      1435-6.53841E-04-9.17913E-02-1.50458E-03
 -1      1437 6.53841E-04-9.17913E-02 1.50458E-03
 -1      1438-1.54131E-13-9.41531E-02 2.56485E-13
 -1      1440-1.41973E-13-8.94295E-02 2.54731E-13
 -1      1449-5.61764E-04-1.06117E-01-1.74475E-03
 -1      1451 5.61764E-04-1.06117E-01 1.74475E-03
 -1      1452-1.56320E-13-1.08856E-01 3.44125E-13
 -1      1454-1.44446E-13-1.03378E-01 3.45629E-13
 -1      1463-4.98883E-04-1.18546E-01-1.94105E-03
 -1      1465 4.98883E-04-1.18546E-01 1.94105E-03
 -1      1466-1.57183E-13-1.21593E-01 4.31547E-13
 -1      1468-1.46262E-13-1.15499E-01 4.32193E-13
 -1      1477-4.47489E-04-1.29717E-01-2.11482E-03
 -1      1479 4.47489E-04-1.29717E-01 2.11482E-03
 -1      1480-1.58276E-13-1.33036E-01 5.19678E-13
 -1      1482-1.46057E-13-1.26397E-01 5.18950E-13
 -1      1491 1.82027E-04 7.57171E-02-3.19160E-03
 -1      1493-1.82027E-04 7.57171E-02 3.19160E-03
 -1      1494 2.73254E-14 4.04533E-12-3.29899E-03
 -1      1496-2.17881E-15 4.04615E-12 3.29899E-03
 -1      1497-1.82027E-04-7.57171E-02-3.19160E-03
 -1      1499 1.82027E-04-7.57171E-02 3.19160E-03
 -1      1500 5.70534E-03 6.18141E-03 3.31963E-03
 -1      1502 6.53350E-03 5.59893E-03 3.46097E-03
 -1      1503 9.61821E-03 1.62708E-02 8.01848E-03
 -1      1505 1.00716E-02 1.50421E-02 8.13709E-03
 -1      1506 1.18297E-02 2.99241E-02 1.22451E-02
 -1      1508 1.24795E-02 2.80758E-02 1.23179E-02
 -1      1509 1.28979E-02 4.49832E-02 1.67578E-02
 -1      1511 1.34500E-02 4.25372E-02 1.67590E-02
 -1      1512 1.29334E-02 6.05623E-02 2.09597E-02
 -1      1514 1.34989E-02 5.75726E-02 2.09615E-02
 -1      1515 1.22291E-02 7.55504E-02 2.49649E-02
 -1      1517 1.27267E-02 7.20673E-02 2.49067E-02
 -1      1518 1.08707E-02 8.92619E-02 2.84735E-02
 -1      1520 1.13100E-02 8.53524E-02 2.84214E-02
 -1      1521 9.03073E-03 1.01011E-01 3.14538E-02
 -1      1523 9.38256E-03 9.67524E-02 3.13610E-02
 -1      1524 6.79560E-03 1.10341E-01 3.37261E-02
 -1      1526 7.05163E-03 1.05819E-01 3.36391E-02
 -1      1527 4.28736E-03 1.16849E-01 3.52469E-02
 -1      1529 4.43489E-03 1.12163E-01 3.51358E-02
 -1      1530 1.59369E-03 1.20293E-01 3.59157E-02
 -1      1532 1.62634E-03 1.15546E-01 3.58114E-02
 -1      1533-1.18354E-03 1.20508E-01 3.57192E-02
 -1      1535-1.26934E-03 1.15811E-01 3.56037E-02
 -1      1536-3.95929E-03 1.17460E-01 3.46247E-02
 -1      1538-4.16353E-03 1.12922E-01 3.45187E-02
 -1      1539-6.64416E-03 1.11198E-01 3.26627E-02
 -1      1541-6.96289E-03 1.06931E-01 3.25559E-02
 -1      1542-9.16133E-03 1.01881E-01 2.98617E-02
 -1      1544-9.58761E-03 9.79874E-02 2.97679E-02
 -1      1545-1.14359E-02 8.97492E-02 2.62970E-02
 -1      1547-1.19592E-02 8.63256E-02 2.62105E-02
 -1      1548-1.34060E-02 7.51255E-02 2.20493E-02
 -1      1550-1.40134E-02 7.22569E-02 2.19787E-02
 -1      1551-1.50166E-02 5.84013E-02 1.72318E-02
 -1      1553-1.56923E-02 5.61600E-02 1.71748E-02
 -1      1554-1.62281E-02 4.00237E-02 1.19657E-02
 -1      1556-1.69548E-02 3.84651E-02 1.19259E-02
 -1      1557-1.70110E-02 2.04833E-02 6.38920E-03
 -1      1559-1.77695E-02 1.96460E-02 6.36742E-03
 -1      1560-1.73555E-02 2.89511E-04 6.50045E-04
 -1      1562-1.81259E-02 1.92356E-04 6.43905E-04
 -1      1563-1.72625E-02-2.00302E-02-5.10549E-03
 -1      1565-1.80247E-02-1.93878E-02-5.09091E-03
 -1      1566-1.67616E-02-3.99833E-02-1.07169E-02
 -1      1568-1.74950E-02-3.86236E-02-1.06922E-02
 -1      1569-1.58858E-02-5.90767E-02-1.60497E-02
 -1      1571-1.65723E-02-5.70424E-02-1.60032E-02
 -1      1572-1.47270E-02-7.69386E-02-2.09391E-02
 -1      1574-1.53454E-02-7.42938E-02-2.08934E-02
 -1      1575-1.33357E-02-9.31938E-02-2.52831E-02
 -1      1577-1.38743E-02-9.00254E-02-2.52172E-02
 -1      1578-1.19351E-02-1.07714E-01-2.89069E-02
 -1      1580-1.23667E-02-1.04120E-01-2.88572E-02
 -1      1581-1.05425E-02-1.20430E-01-3.17497E-02
 -1      1583-1.08708E-02-1.16541E-01-3.16935E-02
 -1      1584-9.61114E-03-1.31428E-01-3.35903E-02
 -1      1586-9.77776E-03-1.27321E-01-3.35488E-02
 -1      1587-4.68436E-03-1.41948E-01-1.94748E-02
 -1      1589-4.71569E-03-1.37231E-01-1.94001E-02
 -1      1590 0.00000E+00 0.00000E+00-7.71854E-05
 -1      1592 0.00000E+00 0.00000E+00 7.71854E-05
 -1      1593 4.68436E-03-1.41948E-01 1.94748E-02
 -1      1595 4.71569E-03-1.37231E-01 1.94001E-02
 -1      1596-5.70534E-03 6.18141E-03-3.31963E-03
 -1      1598-6.53350E-03 5.59893E-03-3.46097E-03
 -1      1599-9.61821E-03 1.62708E-02-8.01848E-03
 -1      1601-1.00716E-02 1.50421E-02-8.13709E-03
 -1      1602-1.18297E-02 2.99241E-02-1.22451E-02
 -1      1604-1.24795E-02 2.80758E-02-1.23179E-02
 -1      1605-1.28979E-02 4.49832E-02-1.67578E-02
 -1      1607-1.34500E-02 4.25372E-02-1.67590E-02
 -1      1608-1.29334E-02 6.05623E-02-2.09597E-02
 -1      1610-1.34989E-02 5.75726E-02-2.09615E-02
 -1      1611-1.22291E-02 7.55504E-02-2.49649E-02
 -1      1613-1.27267E-02 7.20673E-02-2.49067E-02
 -1      1614-1.08707E-02 8.92619E-02-2.84735E-02
 -1      1616-1.13100E-02 8.53524E-02-2.84214E-02
 -1      1617-9.03073E-03 1.01011E-01-3.14538E-02
 -1      1619-9.38256E-03 9.67524E-02-3.13610E-02
 -1      1620-6.79560E-03 1.10341E-01-3.37261E-02
 -1      1622-7.05163E-03 1.05819E-01-3.36391E-02
 -1      1623-4.28736E-03 1.16849E-01-3.52469E-02
 -1      1625-4.43489E-03 1.12163E-01-3.51358E-02
 -1      1626-1.59369E-03 1.20293E-01-3.59157E-02
 -1      1628-1.62634E-03 1.15546E-01-3.58114E-02
 -1      1629 1.18354E-03 1.20508E-01-3.57192E-02
 -1      1631 1.26934E-03 1.15811E-01-3.56037E-02
 -1      1632 3.95929E-03 1.17460E-01-3.46247E-02
 -1      1634 4.16353E-03 1.12922E-01-3.45187E-02
 -1      1635 6.64416E-03 1.11198E-01-3.26627E-02
 -1      1637 6.96289E-03 1.06931E-01-3.25559E-02
 -1      1638 9.16133E-03 1.01881E-01-2.98617E-02
 -1      1640 9.58761E-03 9.79874E-02-2.97679E-02
 -1      1641 1.14359E-02 8.97492E-02-2.62970E-02
 -1      1643 1.19592E-02 8.63256E-02-2.62105E-02
 -1      1644 1.34060E-02 7.51255E-02-2.20493E-02
 -1      1646 1.40134E-02 7.22569E-02-2.19787E-02
 -1      1647 1.50166E-02 5.84013E-02-1.72318E-02
 -1      1649 1.56923E-02 5.61600E-02-1.71748E-02
 -1      1650 1.62281E-02 4.00237E-02-1.19657E-02
 -1      1652 1.69548E-02 3.84651E-02-1.19259E-02
 -1      1653 1.70110E-02 2.04833E-02-6.38920E-03
 -1      1655 1.77695E-02 1.96460E-02-6.36742E-03
 -1      1656 1.73555E-02 2.89511E-04-6.50045E-04
 -1      1658 1.81259E-02 1.92356E-04-6.43905E-04
 -1      1659 1.72625E-02-2.00302E-02 5.10549E-03
 -1      1661 1.80247E-02-1.93878E-02 5.09091E-03
 -1      1662 1.67616E-02-3.99833E-02 1.07169E-02
 -1      1664 1.74950E-02-3.86236E-02 1.06922E-02
 -1      1665 1.58858E-02-5.90767E-02 1.60497E-02
 -1      1667 1.65723E-02-5.70424E-02 1.60032E-02
 -1      1668 1.47270E-02-7.69386E-02 2.09391E-02
 -1      1670 1.53454E-02-7.42938E-02 2.08934E-02
 -1      1671 1.33357E-02-9.31938E-02 2.52831E-02
 -1      1673 1.38743E-02-9.00254E-02 2.52172E-02
 -1      1674 1.19351E-02-1.07714E-01 2.89069E-02
 -1      1676 1.23667E-02-1.04120E-01 2.88572E-02
 -1      1677 1.05425E-02-1.20430E-01 3.17497E-02
 -1      1679 1.08708E-02-1.16541E-01 3.16935E-02
 -1      1680 9.61114E-03-1.31428E-01 3.35903E-02
 -1      1682 9.77776E-03-1.27321E-01 3.35488E-02
 -1      1683 0.00000E+00 0.00000E+00 7.71854E-05
 -1      1685 0.00000E+00 0.00000E+00-7.71854E-05
 -1      1686 2.43835E-03-5.36446E-03-1.42085E-03
 -1      1688 2.84741E-03-4.79847E-03-1.53988E-03
 -1      1689 4.69411E-03-1.61716E-02-3.82268E-03
 -1      1691 4.93446E-03-1.48689E-02-3.88691E-03
 -1      1692 5.73100E-03-2.97157E-02-5.99479E-03
 -1      1694 6.08079E-03-2.77981E-02-6.03044E-03
 -1      1695 6.32449E-03-4.50269E-02-8.42958E-03
 -1      1697 6.63499E-03-4.24827E-02-8.44446E-03
 -1      1698 6.35593E-03-6.06477E-02-1.07556E-02
 -1      1700 6.67567E-03-5.75056E-02-1.07443E-02
 -1      1701 6.02058E-03-7.57754E-02-1.29914E-02
 -1      1703 6.30738E-03-7.20858E-02-1.29698E-02
 -1      1704 5.36064E-03-8.95516E-02-1.49876E-02
 -1      1706 5.61465E-03-8.53672E-02-1.49490E-02
 -1      1707 4.45424E-03-1.01389E-01-1.66847E-02
 -1      1709 4.66031E-03-9.67986E-02-1.66384E-02
 -1      1710 3.35356E-03-1.10770E-01-1.80047E-02
 -1      1712 3.50507E-03-1.05861E-01-1.79499E-02
 -1      1713 2.11373E-03-1.17327E-01-1.88993E-02
 -1      1715 2.20418E-03-1.12215E-01-1.88390E-02
 -1      1716 7.82321E-04-1.20794E-01-1.93276E-02
 -1      1718 8.07482E-04-1.15593E-01-1.92653E-02
 -1      1719-5.92069E-04-1.21022E-01-1.92708E-02
 -1      1721-6.33833E-04-1.15860E-01-1.92059E-02
 -1      1722-1.96584E-03-1.17966E-01-1.87188E-02
 -1      1724-2.07469E-03-1.12966E-01-1.86568E-02
 -1      1725-3.29529E-03-1.11683E-01-1.76840E-02
 -1      1727-3.46878E-03-1.06971E-01-1.76230E-02
 -1      1728-4.54181E-03-1.02329E-01-1.61857E-02
 -1      1730-4.77606E-03-9.80229E-02-1.61316E-02
 -1      1731-5.66857E-03-9.01461E-02-1.42647E-02
 -1      1733-5.95752E-03-8.63565E-02-1.42146E-02
 -1      1734-6.64460E-03-7.54601E-02-1.19656E-02
 -1      1736-6.98099E-03-7.22833E-02-1.19257E-02
 -1      1737-7.44300E-03-5.86637E-02-9.35293E-03
 -1      1739-7.81790E-03-5.61813E-02-9.31892E-03
 -1      1740-8.04368E-03-4.02072E-02-6.48964E-03
 -1      1742-8.44739E-03-3.84835E-02-6.46845E-03
 -1      1743-8.43285E-03-2.05808E-02-3.45710E-03
 -1      1745-8.85470E-03-1.96595E-02-3.44200E-03
 -1      1746-8.60460E-03-3.02466E-04-3.27350E-04
 -1      1748-9.03358E-03-2.08009E-04-3.27226E-04
 -1      1749-8.56152E-03 2.01092E-02 2.80946E-03
 -1      1751-8.98676E-03 1.93763E-02 2.80599E-03
 -1      1752-8.31487E-03 4.01387E-02 5.88395E-03
 -1      1754-8.72494E-03 3.85972E-02 5.86340E-03
 -1      1755-7.88957E-03 5.93259E-02 8.80537E-03
 -1      1757-8.27571E-03 5.70188E-02 8.78756E-03
 -1      1758-7.31239E-03 7.72367E-02 1.15191E-02
 -1      1760-7.66241E-03 7.42268E-02 1.14819E-02
 -1      1761-6.65482E-03 9.35889E-02 1.39408E-02
 -1      1763-6.96594E-03 8.99585E-02 1.39170E-02
 -1      1764-5.92924E-03 1.08104E-01 1.60326E-02
 -1      1766-6.18366E-03 1.03967E-01 1.59907E-02
 -1      1767-5.34003E-03 1.20892E-01 1.77179E-02
 -1      1769-5.54615E-03 1.16363E-01 1.76934E-02
 -1      1770-4.82601E-03 1.31810E-01 1.88995E-02
 -1      1772-4.94079E-03 1.27104E-01 1.88996E-02
 -1      1773-2.43835E-03-5.36446E-03 1.42085E-03
 -1      1775-2.84741E-03-4.79847E-03 1.53988E-03
 -1      1776-4.69411E-03-1.61716E-02 3.82268E-03
 -1      1778-4.93446E-03-1.48689E-02 3.88691E-03
 -1      1779-5.73100E-03-2.97157E-02 5.99479E-03
 -1      1781-6.08079E-03-2.77981E-02 6.03044E-03
 -1      1782-6.32449E-03-4.50269E-02 8.42958E-03
 -1      1784-6.63499E-03-4.24827E-02 8.44446E-03
 -1      1785-6.35593E-03-6.06477E-02 1.07556E-02
 -1      1787-6.67567E-03-5.75056E-02 1.07443E-02
 -1      1788-6.02058E-03-7.57754E-02 1.29914E-02
 -1      1790-6.30738E-03-7.20858E-02 1.29698E-02
 -1      1791-5.36064E-03-8.95516E-02 1.49876E-02
 -1      1793-5.61465E-03-8.53672E-02 1.49490E-02
 -1      1794-4.45424E-03-1.01389E-01 1.66847E-02
 -1      1796-4.66031E-03-9.67986E-02 1.66384E-02
 -1      1797-3.35356E-03-1.10770E-01 1.80047E-02
 -1      1799-3.50507E-03-1.05861E-01 1.79499E-02
 -1      1800-2.11373E-03-1.17327E-01 1.88993E-02
 -1      1802-2.20418E-03-1.12215E-01 1.88390E-02
 -1      1803-7.82321E-04-1.20794E-01 1.93276E-02
 -1      1805-8.07482E-04-1.15593E-01 1.92653E-02
 -1      1806 5.92069E-04-1.21022E-01 1.92708E-02
 -1      1808 6.33833E-04-1.15860E-01 1.92059E-02
 -1      1809 1.96584E-03-1.17966E-01 1.87188E-02
 -1      1811 2.07469E-03-1.12966E-01 1.86568E-02
 -1      1812 3.29529E-03-1.11683E-01 1.76840E-02
 -1      1814 3.46878E-03-1.06971E-01 1.76230E-02
 -1      1815 4.54181E-03-1.02329E-01 1.61857E-02
 -1      1817 4.77606E-03-9.80229E-02 1.61316E-02
 -1      1818 5.66857E-03-9.01461E-02 1.42647E-02
 -1      1820 5.95752E-03-8.63565E-02 1.42146E-02
 -1      1821 6.64460E-03-7.54601E-02 1.19656E-02
 -1      1823 6.98099E-03-7.22833E-02 1.19257E-02
 -1      1824 7.44300E-03-5.86637E-02 9.35293E-03
 -1      1826 7.81790E-03-5.61813E-02 9.31892E-03
 -1      1827 8.04368E-03-4.02072E-02 6.48964E-03
 -1      1829 8.44739E-03-3.84835E-02 6.46845E-03
 -1      1830 8.43285E-03-2.05808E-02 3.45710E-03
 -1      1832 8.85470E-03-1.96595E-02 3.44200E-03
 -1      1833 8.60460E-03-3.02466E-04 3.27350E-04
 -1      1835 9.03358E-03-2.08009E-04 3.27226E-04
 -1      1836 8.56152E-03 2.01092E-02-2.80946E-03
 -1      1838 8.98676E-03 1.93763E-02-2.80599E-03
 -1      1839 8.31487E-03 4.01387E-02-5.88395E-03
 -1      1841 8.72494E-03 3.85972E-02-5.86340E-03
 -1      1842 7.88957E-03 5.93259E-02-8.80537E-03
 -1      1844 8.27571E-03 5.70188E-02-8.78756E-03
 -1      1845 7.31239E-03 7.72367E-02-1.15191E-02
 -1      1847 7.66241E-03 7.42268E-02-1.14819E-02
 -1      1848 6.65482E-03 9.35889E-02-1.39408E-02
 -1      1850 6.96594E-03 8.99585E-02-1.39170E-02
 -1      1851 5.92924E-03 1.08104E-01-1.60326E-02
 -1      1853 6.18366E-03 1.03967E-01-1.59907E-02
 -1      1854 5.34003E-03 1.20892E-01-1.77179E-02
 -1      1856 5.54615E-03 1.16363E-01-1.76934E-02
 -1      1857 4.82601E-03 1.31810E-01-1.88995E-02
 -1      1859 4.94079E-03 1.27104E-01-1.88996E-02
 -1      1860-2.36323E-04-2.81012E-03 8.08200E-05
 -1      1862 2.36323E-04-2.81012E-03-8.08200E-05
 -1      1863-2.65438E-04-8.54691E-03 2.83999E-04
 -1      1865 2.65438E-04-8.54691E-03-2.83999E-04
 -1      1866-3.52775E-04-1.57016E-02 5.83654E-04
 -1      1868 3.52775E-04-1.57016E-02-5.83654E-04
 -1      1869-3.50054E-04-2.37805E-02 9.22773E-04
 -1      1871 3.50054E-04-2.37805E-02-9.22773E-04
 -1      1872-3.65564E-04-3.20397E-02 1.27318E-03
 -1      1874 3.65564E-04-3.20397E-02-1.27318E-03
 -1      1875-3.31076E-04-4.00589E-02 1.61331E-03
 -1      1877 3.31076E-04-4.00589E-02-1.61331E-03
 -1      1878-3.02277E-04-4.73639E-02 1.92283E-03
 -1      1880 3.02277E-04-4.73639E-02-1.92283E-03
 -1      1881-2.44671E-04-5.36636E-02 2.18962E-03
 -1      1883 2.44671E-04-5.36636E-02-2.18962E-03
 -1      1884-1.88116E-04-5.86547E-02 2.40119E-03
 -1      1886 1.88116E-04-5.86547E-02-2.40119E-03
 -1      1887-1.16081E-04-6.21591E-02 2.55027E-03
 -1      1889 1.16081E-04-6.21591E-02-2.55027E-03
 -1      1890-4.48233E-05-6.40153E-02 2.63052E-03
 -1      1892 4.48233E-05-6.40153E-02-2.63052E-03
 -1      1893 3.27928E-05-6.41532E-02 2.63927E-03
 -1      1895-3.27928E-05-6.41532E-02-2.63927E-03
 -1      1896 1.07447E-04-6.25373E-02 2.57504E-03
 -1      1898-1.07447E-04-6.25373E-02-2.57504E-03
 -1      1899 1.81787E-04-5.92028E-02 2.43998E-03
 -1      1901-1.81787E-04-5.92028E-02-2.43998E-03
 -1      1902 2.49908E-04-5.42265E-02 2.23649E-03
 -1      1904-2.49908E-04-5.42265E-02-2.23649E-03
 -1      1905 3.12802E-04-4.77394E-02 1.97150E-03
 -1      1907-3.12802E-04-4.77394E-02-1.97150E-03
 -1      1908 3.66080E-04-3.99129E-02 1.65018E-03
 -1      1910-3.66080E-04-3.99129E-02-1.65018E-03
 -1      1911 4.10928E-04-3.09552E-02 1.28393E-03
 -1      1913-4.10928E-04-3.09552E-02-1.28393E-03
 -1      1914 4.43155E-04-2.11082E-02 8.79114E-04
 -1      1916-4.43155E-04-2.11082E-02-8.79114E-04
 -1      1917 4.65821E-04-1.06290E-02 4.51224E-04
 -1      1919-4.65821E-04-1.06290E-02-4.51224E-04
 -1      1920 4.73397E-04 2.00488E-04 5.55013E-06
 -1      1922-4.73397E-04 2.00488E-04-5.55013E-06
 -1      1923 4.73060E-04 1.11116E-02-4.38572E-04
 -1      1925-4.73060E-04 1.11116E-02 4.38572E-04
 -1      1926 4.55397E-04 2.18184E-02-8.80314E-04
 -1      1928-4.55397E-04 2.18184E-02 8.80314E-04
 -1      1929 4.35381E-04 3.20866E-02-1.29597E-03
 -1      1931-4.35381E-04 3.20866E-02 1.29597E-03
 -1      1932 3.95502E-04 4.16703E-02-1.69494E-03
 -1      1934-3.95502E-04 4.16703E-02 1.69494E-03
 -1      1935 3.63461E-04 5.04163E-02-2.04620E-03
 -1      1937-3.63461E-04 5.04163E-02 2.04620E-03
 -1      1938 3.11040E-04 5.81982E-02-2.38268E-03
 -1      1940-3.11040E-04 5.81982E-02 2.38268E-03
 -1      1941 2.74159E-04 6.49356E-02-2.65426E-03
 -1      1943-2.74159E-04 6.49356E-02 2.65426E-03
 -1      1944 2.40288E-04 7.08685E-02-2.95912E-03
 -1      1946-2.40288E-04 7.08685E-02 2.95912E-03
 -1      1947 1.78230E-14 1.97016E-13 1.62387E-04
 -1      1949-1.71836E-14 1.97111E-13-1.62387E-04
 -1      1950 1.02358E-14 4.71732E-13 4.46799E-04
 -1      1952-7.50311E-15 4.71623E-13-4.46799E-04
 -1      1953 1.62457E-14 7.21499E-13 7.66241E-04
 -1      1955-1.19618E-14 7.21534E-13-7.66241E-04
 -1      1956 1.40608E-14 9.97695E-13 1.11813E-03
 -1      1958-9.50975E-15 9.97626E-13-1.11813E-03
 -1      1959 1.51433E-14 1.26811E-12 1.48033E-03
 -1      1961-1.12542E-14 1.26822E-12-1.48033E-03
 -1      1962 1.26210E-14 1.52660E-12 1.82764E-03
 -1      1964-9.34197E-15 1.52618E-12-1.82764E-03
 -1      1965 1.27246E-14 1.75936E-12 2.14758E-03
 -1      1967-8.88807E-15 1.75966E-12-2.14758E-03
 -1      1968 1.08017E-14 1.95885E-12 2.42130E-03
 -1      1970-5.30955E-15 1.95868E-12-2.42130E-03
 -1      1971 1.00046E-14 2.11223E-12 2.63956E-03
 -1      1973-3.83894E-15 2.11252E-12-2.63956E-03
 -1      1974 7.69718E-15 2.22990E-12 2.79129E-03
 -1      1976-2.14434E-15 2.22999E-12-2.79129E-03
 -1      1977 3.82192E-15 2.28485E-12 2.87090E-03
 -1      1979 6.27970E-16 2.28503E-12-2.87090E-03
 -1      1980 2.11772E-15 2.28657E-12 2.87406E-03
 -1      1982 1.96110E-15 2.28611E-12-2.87406E-03
 -1      1983-1.34484E-15 2.23127E-12 2.79926E-03
 -1      1985 5.53117E-15 2.23198E-12-2.79926E-03
 -1      1986-2.85145E-15 2.11509E-12 2.64828E-03
 -1      1988 7.90785E-15 2.11448E-12-2.64828E-03
 -1      1989-2.69966E-15 1.97045E-12 2.42339E-03
 -1      1991 9.07694E-15 1.97130E-12-2.42339E-03
 -1      1992-2.12720E-15 1.82174E-12 2.13202E-03
 -1      1994 9.40296E-15 1.82116E-12-2.13202E-03
 -1      1995 7.79053E-16 1.69629E-12 1.77927E-03
 -1      1997 8.51532E-15 1.69641E-12-1.77927E-03
 -1      1998 3.24285E-15 1.62340E-12 1.37776E-03
 -1      2000 6.03922E-15 1.62325E-12-1.37776E-03
 -1      2001 3.34032E-15 1.58789E-12 9.33708E-04
 -1      2003 4.61161E-15 1.58833E-12-9.33708E-04
 -1      2004 4.08874E-15 1.57846E-12 4.64516E-04
 -1      2006 2.52858E-15 1.57883E-12-4.64516E-04
 -1      2007 6.40612E-15 1.61390E-12-2.48940E-05
 -1      2009 6.03033E-16 1.61391E-12 2.48940E-05
 -1      2010 9.84705E-15 1.70976E-12-5.12688E-04
 -1      2012-2.08839E-15 1.70955E-12 5.12688E-04
 -1      2013 1.38544E-14 1.87558E-12-9.98359E-04
 -1      2015-3.43172E-15 1.87472E-12 9.98359E-04
 -1      2016 1.70038E-14 2.08309E-12-1.45575E-03
 -1      2018-2.44249E-15 2.08344E-12 1.45575E-03
 -1      2019 2.19200E-14 2.33700E-12-1.89225E-03
 -1      2021-2.92127E-15 2.33636E-12 1.89225E-03
 -1      2022 2.44024E-14 2.63061E-12-2.27761E-03
 -1      2024-1.99320E-15 2.63125E-12 2.27761E-03
 -1      2025 2.70547E-14 2.95429E-12-2.62896E-03
 -1      2027-2.78423E-15 2.95400E-12 2.62896E-03
 -1      2028 2.86403E-14 3.31762E-12-2.91314E-03
 -1      2030-4.82774E-15 3.31670E-12 2.91314E-03
 -1      2031 2.74121E-14 3.69203E-12-3.14816E-03
 -1      2033-3.92741E-15 3.69334E-12 3.14816E-03
 -1      2034 2.36323E-04 2.81012E-03 8.08200E-05
 -1      2036-2.36323E-04 2.81012E-03-8.08200E-05
 -1      2037 2.65438E-04 8.54691E-03 2.83999E-04
 -1      2039-2.65438E-04 8.54691E-03-2.83999E-04
 -1      2040 3.52775E-04 1.57016E-02 5.83654E-04
 -1      2042-3.52775E-04 1.57016E-02-5.83654E-04
 -1      2043 3.50054E-04 2.37805E-02 9.22773E-04
 -1      2045-3.50054E-04 2.37805E-02-9.22773E-04
 -1      2046 3.65564E-04 3.20397E-02 1.27318E-03
 -1      2048-3.65564E-04 3.20397E-02-1.27318E-03
 -1      2049 3.31076E-04 4.00589E-02 1.61331E-03
 -1      2051-3.31076E-04 4.00589E-02-1.61331E-03
 -1      2052 3.02277E-04 4.73639E-02 1.92283E-03
 -1      2054-3.02277E-04 4.73639E-02-1.92283E-03
 -1      2055 2.44671E-04 5.36636E-02 2.18962E-03
 -1      2057-2.44671E-04 5.36636E-02-2.18962E-03
 -1      2058 1.88116E-04 5.86547E-02 2.40119E-03
 -1      2060-1.88116E-04 5.86547E-02-2.40119E-03
 -1      2061 1.16081E-04 6.21591E-02 2.55027E-03
 -1      2063-1.16081E-04 6.21591E-02-2.55027E-03
 -1      2064 4.48233E-05 6.40153E-02 2.63052E-03
 -1      2066-4.48233E-05 6.40153E-02-2.63052E-03
 -1      2067-3.27928E-05 6.41532E-02 2.63927E-03
 -1      2069 3.27928E-05 6.41532E-02-2.63927E-03
 -1      2070-1.07447E-04 6.25373E-02 2.57504E-03
 -1      2072 1.07447E-04 6.25373E-02-2.57504E-03
 -1      2073-1.81787E-04 5.92028E-02 2.43998E-03
 -1      2075 1.81787E-04 5.92028E-02-2.43998E-03
 -1      2076-2.49908E-04 5.42265E-02 2.23649E-03
 -1      2078 2.49908E-04 5.42265E-02-2.23649E-03
 -1      2079-3.12802E-04 4.77394E-02 1.97150E-03
 -1      2081 3.12802E-04 4.77394E-02-1.97150E-03
 -1      2082-3.66080E-04 3.99129E-02 1.65018E-03
 -1      2084 3.66080E-04 3.99129E-02-1.65018E-03
 -1      2085-4.10928E-04 3.09552E-02 1.28393E-03
 -1      2087 4.10928E-04 3.09552E-02-1.28393E-03
 -1      2088-4.43155E-04 2.11082E-02 8.79114E-04
 -1      2090 4.43155E-04 2.11082E-02-8.79114E-04
 -1      2091-4.65821E-04 1.06290E-02 4.51224E-04
 -1      2093 4.65821E-04 1.06290E-02-4.51224E-04
 -1      2094-4.73397E-04-2.00488E-04 5.55013E-06
 -1      2096 4.73397E-04-2.00488E-04-5.55013E-06
 -1      2097-4.73060E-04-1.11116E-02-4.38572E-04
 -1      2099 4.73060E-04-1.11116E-02 4.38572E-04
 -1      2100-4.55397E-04-2.18184E-02-8.80314E-04
 -1      2102 4.55397E-04-2.18184E-02 8.80314E-04
 -1      2103-4.35381E-04-3.20866E-02-1.29597E-03
 -1      2105 4.35381E-04-3.20866E-02 1.29597E-03
 -1      2106-3.95502E-04-4.16703E-02-1.69494E-03
 -1      2108 3.95502E-04-4.16703E-02 1.69494E-03
 -1      2109-3.63461E-04-5.04163E-02-2.04620E-03
 -1      2111 3.63461E-04-5.04163E-02 2.04620E-03
 -1      2112-3.11040E-04-5.81982E-02-2.38268E-03
 -1      2114 3.11040E-04-5.81982E-02 2.38268E-03
 -1      2115-2.74159E-04-6.49356E-02-2.65426E-03
 -1      2117 2.74159E-04-6.49356E-02 2.65426E-03
 -1      2118-2.40288E-04-7.08685E-02-2.95912E-03
 -1      2120 2.40288E-04-7.08685E-02 2.95912E-03
 -1      2121 2.43835E-03 5.36446E-03 1.42085E-03
 -1      2123 2.84741E-03 4.79847E-03 1.53988E-03
 -1      2124 4.69411E-03 1.61716E-02 3.82268E-03
 -1      2126 4.93446E-03 1.48689E-02 3.88691E-03
 -1      2127 5.73100E-03 2.97157E-02 5.99479E-03
 -1      2129 6.08079E-03 2.77981E-02 6.03044E-03
 -1      2130 6.32449E-03 4.50269E-02 8.42958E-03
 -1      2132 6.63499E-03 4.24827E-02 8.44446E-03
 -1      2133 6.35593E-03 6.06477E-02 1.07556E-02
 -1      2135 6.67567E-03 5.75056E-02 1.07443E-02
 -1      2136 6.02058E-03 7.57754E-02 1.29914E-02
 -1      2138 6.30738E-03 7.20858E-02 1.29698E-02
 -1      2139 5.36064E-03 8.95516E-02 1.49876E-02
 -1      2141 5.61465E-03 8.53672E-02 1.49490E-02
 -1      2142 4.45424E-03 1.01389E-01 1.66847E-02
 -1      2144 4.66031E-03 9.67986E-02 1.66384E-02
 -1      2145 3.35356E-03 1.10770E-01 1.80047E-02
 -1      2147 3.50507E-03 1.05861E-01 1.79499E-02
 -1      2148 2.11373E-03 1.17327E-01 1.88993E-02
 -1      2150 2.20418E-03 1.12215E-01 1.88390E-02
 -1      2151 7.82321E-04 1.20794E-01 1.93276E-02
 -1      2153 8.07482E-04 1.15593E-01 1.92653E-02
 -1      2154-5.92069E-04 1.21022E-01 1.92708E-02
 -1      2156-6.33833E-04 1.15860E-01 1.92059E-02
 -1      2157-1.96584E-03 1.17966E-01 1.87188E-02
 -1      2159-2.07469E-03 1.12966E-01 1.86568E-02
 -1      2160-3.29529E-03 1.11683E-01 1.76840E-02
 -1      2162-3.46878E-03 1.06971E-01 1.76230E-02
 -1      2163-4.54181E-03 1.02329E-01 1.61857E-02
 -1      2165-4.77606E-03 9.80229E-02 1.61316E-02
 -1      2166-5.66857E-03 9.01461E-02 1.42647E-02
 -1      2168-5.95752E-03 8.63565E-02 1.42146E-02
 -1      2169-6.64460E-03 7.54601E-02 1.19656E-02
 -1      2171-6.98099E-03 7.22833E-02 1.19257E-02
 -1      2172-7.44300E-03 5.86637E-02 9.35293E-03
 -1      2174-7.81790E-03 5.61813E-02 9.31892E-03
 -1      2175-8.04368E-03 4.02072E-02 6.48964E-03
 -1      2177-8.44739E-03 3.84835E-02 6.46845E-03
 -1      2178-8.43285E-03 2.05808E-02 3.45710E-03
 -1      2180-8.85470E-03 1.96595E-02 3.44200E-03
 -1      2181-8.60460E-03 3.02466E-04 3.27350E-04
 -1      2183-9.03358E-03 2.08009E-04 3.27226E-04
 -1      2184-8.56152E-03-2.01092E-02-2.80946E-03
 -1      2186-8.98676E-03-1.93763E-02-2.80599E-03
 -1      2187-8.31487E-03-4.01387E-02-5.88395E-03
 -1      2189-8.72494E-03-3.85972E-02-5.86340E-03
 -1      2190-7.88957E-03-5.93259E-02-8.80537E-03
 -1      2192-8.27571E-03-5.70188E-02-8.78756E-03
 -1      2193-7.31239E-03-7.72367E-02-1.15191E-02
 -1      2195-7.66241E-03-7.42268E-02-1.14819E-02
 -1      2196-6.65482E-03-9.35889E-02-1.39408E-02
 -1      2198-6.96594E-03-8.99585E-02-1.39170E-02
 -1      2199-5.92924E-03-1.08104E-01-1.60326E-02
 -1      2201-6.18366E-03-1.03967E-01-1.59907E-02
 -1      2202-5.34003E-03-1.20892E-01-1.77179E-02
 -1      2204-5.54615E-03-1.16363E-01-1.76934E-02
 -1      2205-4.82601E-03-1.31810E-01-1.88995E-02
 -1      2207-4.94079E-03-1.27104E-01-1.88996E-02
 -1      2208-2.43835E-03 5.36446E-03-1.42085E-03
 -1      2210-2.84741E-03 4.79847E-03-1.53988E-03
 -1      2211-4.69411E-03 1.61716E-02-3.82268E-03
 -1      2213-4.93446E-03 1.48689E-02-3.88691E-03
 -1      2214-5.73100E-03 2.97157E-02-5.99479E-03
 -1      2216-6.08079E-03 2.77981E-02-6.03044E-03
 -1      2217-6.32449E-03 4.50269E-02-8.42958E-03
 -1      2219-6.63499E-03 4.24827E-02-8.44446E-03
 -1      2220-6.35593E-03 6.06477E-02-1.07556E-02
 -1      2222-6.67567E-03 5.75056E-02-1.07443E-02
 -1      2223-6.02058E-03 7.57754E-02-1.29914E-02
 -1      2225-6.30738E-03 7.20858E-02-1.29698E-02
 -1      2226-5.36064E-03 8.95516E-02-1.49876E-02
 -1      2228-5.61465E-03 8.53672E-02-1.49490E-02
 -1      2229-4.45424E-03 1.01389E-01-1.66847E-02
 -1      2231-4.66031E-03 9.67986E-02-1.66384E-02
 -1      2232-3.35356E-03 1.10770E-01-1.80047E-02
 -1      2234-3.50507E-03 1.05861E-01-1.79499E-02
 -1      2235-2.11373E-03 1.17327E-01-1.88993E-02
 -1      2237-2.20418E-03 1.12215E-01-1.88390E-02
 -1      2238-7.82321E-04 1.20794E-01-1.93276E-02
 -1      2240-8.07482E-04 1.15593E-01-1.92653E-02
 -1      2241 5.92069E-04 1.21022E-01-1.92708E-02
 -1      2243 6.33833E-04 1.15860E-01-1.92059E-02
 -1      2244 1.96584E-03 1.17966E-01-1.87188E-02
 -1      2246 2.07469E-03 1.12966E-01-1.86568E-02
 -1      2247 3.29529E-03 1.11683E-01-1.76840E-02
 -1      2249 3.46878E-03 1.06971E-01-1.76230E-02
 -1      2250 4.54181E-03 1.02329E-01-1.61857E-02
 -1      2252 4.77606E-03 9.80229E-02-1.61316E-02
 -1      2253 5.66857E-03 9.01461E-02-1.42647E-02
 -1      2255 5.95752E-03 8.63565E-02-1.42146E-02
 -1      2256 6.64460E-03 7.54601E-02-1.19656E-02
 -1      2258 6.98099E-03 7.22833E-02-1.19257E-02
 -1      2259 7.44300E-03 5.86637E-02-9.35293E-03
 -1      2261 7.81790E-03 5.61813E-02-9.31892E-03
 -1      2262 8.04368E-03 4.02072E-02-6.48964E-03
 -1      2264 8.44739E-03 3.84835E-02-6.46845E-03
 -1      2265 8.43285E-03 2.05808E-02-3.45710E-03
 -1      2267 8.85470E-03 1.96595E-02-3.44200E-03
 -1      2268 8.60460E-03 3.02466E-04-3.27350E-04
 -1      2270 9.03358E-03 2.08009E-04-3.27226E-04
 -1      2271 8.56152E-03-2.01092E-02 2.80946E-03
 -1      2273 8.98676E-03-1.93763E-02 2.80599E-03
 -1      2274 8.31487E-03-4.01387E-02 5.88395E-03
 -1      2276 8.72494E-03-3.85972E-02 5.86340E-03
 -1      2277 7.88957E-03-5.93259E-02 8.80537E-03
 -1      2279 8.27571E-03-5.70188E-02 8.78756E-03
 -1      2280 7.31239E-03-7.72367E-02 1.15191E-02
 -1      2282 7.66241E-03-7.42268E-02 1.14819E-02
 -1      2283 6.65482E-03-9.35889E-02 1.39408E-02
 -1      2285 6.96594E-03-8.99585E-02 1.39170E-02
 -1      2286 5.92924E-03-1.08104E-01 1.60326E-02
 -1      2288 6.18366E-03-1.03967E-01 1.59907E-02
 -1      2289 5.34003E-03-1.20892E-01 1.77179E-02
 -1      2291 5.54615E-03-1.16363E-01 1.76934E-02
 -1      2292 4.82601E-03-1.31810E-01 1.88995E-02
 -1      2294 4.94079E-03-1.27104E-01 1.88996E-02
 -3
    1PSTEP                        26           1           1          
    1PGM                1.000000E+00                                  
    1PGK                2.544398E+06                                  
    1PHID                         -1                                  
    1PSUBC                         0                                  
    1PMODE                         7                                  
  100CL  107 253.8707414         930                     2    7MODAL      1
 -4  STRESS      6    1
 -5  SXX         1    4    1    1
 -5  SYY         1    4    2    2
 -5  SZZ         1    4    3    3
 -5  SXY         1    4    1    2
 -5  SYZ         1    4    2    3
 -5  SZX         1    4    3    1
 -1       404 9.49571E+09 9.66949E+08 1.73816E+07-1.31088E+09 3.75463E+06-1.16462E+08
 -1       406 9.49571E+09 9.66949E+08 1.73816E+07-1.31088E+09 3.75463E+06-1.16462E+08
 -1       407 5.60815E+08 1.58959E+08-6.78488E+06-2.74753E+08-2.02731E+07-4.44516E+06
 -1       409 5.60815E+08 1.58959E+08-6.78488E+06-2.74753E+08-2.02731E+07-4.44516E+06
 -1       410 1.62995E-03 8.60572E-04-1.32607E-03-7.15526E+08-5.04409E+07 2.06672E-06
 -1       412 1.62995E-03 8.60572E-04-1.32607E-03-7.15526E+08-5.04409E+07 2.06672E-06
 -1       413 1.36172E-04-2.79752E-04-5.42075E-03 1.24785E+07-1.23451E+08 1.31347E-03
 -1       415 1.36172E-04-2.79752E-04-5.42075E-03 1.24785E+07-1.23451E+08 1.31347E-03
 -1       424-3.26066E-02-3.95858E-03 1.16229E-05-1.67742E+09 1.53692E+07-1.14570E-03
 -1       426-3.26066E-02-3.95858E-03 1.16229E-05-1.67742E+09 1.53692E+07-1.14570E-03
 -1       427-2.54414E-02-9.88777E-05-6.82927E-03-1.09983E+08-1.45979E+07-1.77086E-02
 -1       429-2.54414E-02-9.88777E-05-6.82927E-03-1.09983E+08-1.45979E+07-1.77086E-02
 -1       438-5.60815E+08-1.58959E+08 6.78488E+06-2.74753E+08-2.02731E+07 4.44516E+06
 -1       440-5.60815E+08-1.58959E+08 6.78488E+06-2.74753E+08-2.02731E+07 4.44516E+06
 -1       441-9.49571E+09-9.66949E+08-1.73816E+07-1.31088E+09 3.75463E+06 1.16462E+08
 -1       443-9.49571E+09-9.66949E+08-1.73816E+07-1.31088E+09 3.75463E+06 1.16462E+08
 -1       444 2.70158E-02 1.38845E-04 5.61153E-03 1.09983E+08-1.45979E+07-2.01975E-02
 -1       446 2.70158E-02 1.38845E-04 5.61153E-03 1.09983E+08-1.45979E+07-2.01975E-02
 -1       447 3.38364E-02 4.31341E-03-3.43323E-05 1.67742E+09 1.53692E+07-1.37751E-03
 -1       449 3.38364E-02 4.31341E-03-3.43323E-05 1.67742E+09 1.53692E+07-1.37751E-03
 -1       458 8.41484E-05 3.67849E-04 5.20292E-04-1.24785E+07-1.23451E+08-1.92756E-03
 -1       460 8.41484E-05 3.67849E-04 5.20292E-04-1.24785E+07-1.23451E+08-1.92756E-03
 -1       461-5.23269E-04-2.51055E-04-2.35796E-04 7.15526E+08-5.04409E+07-1.29078E-04
 -1       463-5.23269E-04-2.51055E-04-2.35796E-04 7.15526E+08-5.04409E+07-1.29078E-04
 -1       472 9.49571E+09 9.66949E+08 1.73816E+07 1.31088E+09 3.75463E+06 1.16462E+08
 -1       474 9.49571E+09 9.66949E+08 1.73816E+07 1.31088E+09 3.75463E+06 1.16462E+08
 -1       475 5.60815E+08 1.58959E+08-6.78488E+06 2.74753E+08-2.02731E+07 4.44516E+06
 -1       477 5.60815E+08 1.58959E+08-6.78488E+06 2.74753E+08-2.02731E+07 4.44516E+06
 -1       478-5.60815E+08-1.58959E+08 6.78488E+06 2.74753E+08-2.02731E+07-4.44516E+06
 -1       480-5.60815E+08-1.58959E+08 6.78488E+06 2.74753E+08-2.02731E+07-4.44516E+06
 -1       481-9.49571E+09-9.66949E+08-1.73816E+07 1.31088E+09 3.75463E+06-1.16462E+08
 -1       483-9.49571E+09-9.66949E+08-1.73816E+07 1.31088E+09 3.75463E+06-1.16462E+08
 -1       484 7.78219E+09 2.88394E+08-1.33608E+06-9.17991E+08 1.95568E+06-4.01138E+07
 -1       486 7.78219E+09 2.88394E+08-1.33608E+06-9.17991E+08 1.95568E+06-4.01138E+07
 -1       487 4.85615E+09-8.71611E+07 2.48795E+06-5.68466E+08 1.70789E+06-3.13844E+04
 -1       489 4.85615E+09-8.71611E+07 2.48795E+06-5.68466E+08 1.70789E+06-3.13844E+04
 -1       490 2.64088E+09 6.06342E+07 1.93356E+06-5.07047E+08 3.09705E+06-1.90656E+07
 -1       492 2.64088E+09 6.06342E+07 1.93356E+06-5.07047E+08 3.09705E+06-1.90656E+07
 -1       493 8.69606E+08-2.49063E+07-1.41071E+06-3.75491E+08 3.60168E+06-9.35494E+06
 -1       495 8.69606E+08-2.49063E+07-1.41071E+06-3.75491E+08 3.60168E+06-9.35494E+06
 -1       496-5.31382E+08-1.77301E+06 1.12665E+06-3.10605E+08 5.90449E+06-1.28417E+07
 -1       498-5.31382E+08-1.77301E+06 1.12665E+06-3.10605E+08 5.90449E+06-1.28417E+07
 -1       499-1.66482E+09-2.76673E+07-2.39341E+06-2.46430E+08 8.19222E+06-9.67310E+06
 -1       501-1.66482E+09-2.76673E+07-2.39341E+06-2.46430E+08 8.19222E+06-9.67310E+06
 -1       502-2.56880E+09-2.60014E+07-1.92694E+05-1.96398E+08 1.08372E+07-9.11665E+06
 -1       504-2.56880E+09-2.60014E+07-1.92694E+05-1.96398E+08 1.08372E+07-9.11665E+06
 -1       505-3.28024E+09-3.75332E+07-2.68528E+06-1.51341E+08 1.33625E+07-6.93789E+06
 -1       507-3.28024E+09-3.75332E+07-2.68528E+06-1.51341E+08 1.33625E+07-6.93789E+06
 -1       508-3.81502E+09-3.88410E+07-1.17963E+06-1.10156E+08 1.54598E+07-5.07388E+06
 -1       510-3.81502E+09-3.88410E+07-1.17963E+06-1.10156E+08 1.54598E+07-5.07388E+06
 -1       511-4.18681E+09-4.42626E+07-2.75684E+06-7.13444E+07 1.72343E+07-2.77227E+06
 -1       513-4.18681E+09-4.42626E+07-2.75684E+06-7.13444E+07 1.72343E+07-2.77227E+06
 -1       514-4.40266E+09-4.47228E+07-1.73490E+06-3.43636E+07 1.82917E+07-4.07958E+05
 -1       516-4.40266E+09-4.47228E+07-1.73490E+06-3.43636E+07 1.82917E+07-4.07958E+05
 -1       517-4.47008E+09-4.60885E+07-2.65343E+06 1.00423E+06 1.88871E+07 2.04220E+06
 -1       519-4.47008E+09-4.60885E+07-2.65343E+06 1.00423E+06 1.88871E+07 2.04220E+06
 -1       520-4.39568E+09-4.45827E+07-1.90195E+06 3.44373E+07 1.87236E+07 4.50154E+06
 -1       522-4.39568E+09-4.45827E+07-1.90195E+06 3.44373E+07 1.87236E+07 4.50154E+06
 -1       523-4.18819E+09-4.27504E+07-2.35554E+06 6.56347E+07 1.80519E+07 6.86632E+06
 -1       525-4.18819E+09-4.27504E+07-2.35554E+06 6.56347E+07 1.80519E+07 6.86632E+06
 -1       526-3.85788E+09-3.90754E+07-1.74685E+06 9.39513E+07 1.66999E+07 9.10539E+06
 -1       528-3.85788E+09-3.90754E+07-1.74685E+06 9.39513E+07 1.66999E+07 9.10539E+06
 -1       529-3.41773E+09-3.46474E+07-1.85903E+06 1.18862E+08 1.48799E+07 1.11123E+07
 -1       531-3.41773E+09-3.46474E+07-1.85903E+06 1.18862E+08 1.48799E+07 1.11123E+07
 -1       532-2.88317E+09-2.91389E+07-1.34675E+06 1.39647E+08 1.25201E+07 1.28640E+07
 -1       534-2.88317E+09-2.91389E+07-1.34675E+06 1.39647E+08 1.25201E+07 1.28640E+07
 -1       535-2.27227E+09-2.27026E+07-1.18698E+06 1.55753E+08 9.80009E+06 1.42757E+07
 -1       537-2.27227E+09-2.27026E+07-1.18698E+06 1.55753E+08 9.80009E+06 1.42757E+07
 -1       538-1.60588E+09-1.61360E+07-7.95168E+05 1.66443E+08 6.70709E+06 1.53324E+07
 -1       540-1.60588E+09-1.61360E+07-7.95168E+05 1.66443E+08 6.70709E+06 1.53324E+07
 -1       541-9.07058E+08-8.22670E+06-3.85468E+05 1.71230E+08 3.39961E+06 1.59808E+07
 -1       543-9.07058E+08-8.22670E+06-3.85468E+05 1.71230E+08 3.39961E+06 1.59808E+07
 -1       544-2.02069E+08-1.89330E+06-2.06059E+05 1.69293E+08-1.25425E+05 1.62042E+07
 -1       546-2.02069E+08-1.89330E+06-2.06059E+05 1.69293E+08-1.25425E+05 1.62042E+07
 -1       547 4.80888E+08 7.22102E+06 4.81838E+05 1.59947E+08-3.72713E+06 1.60123E+07
 -1       549 4.80888E+08 7.22102E+06 4.81838E+05 1.59947E+08-3.72713E+06 1.60123E+07
 -1       550 1.10918E+09 1.14708E+07 2.86460E+05 1.42852E+08-7.44390E+06 1.53201E+07
 -1       552 1.10918E+09 1.14708E+07 2.86460E+05 1.42852E+08-7.44390E+06 1.53201E+07
 -1       553 1.64721E+09 2.13349E+07 1.33060E+06 1.14128E+08-1.11910E+07 1.43283E+07
 -1       555 1.64721E+09 2.13349E+07 1.33060E+06 1.14128E+08-1.11910E+07 1.43283E+07
 -1       556 2.05275E+09 2.33293E+07 5.36371E+05 8.04955E+07-1.49781E+07 1.26250E+07
 -1       558 2.05275E+09 2.33293E+07 5.36371E+05 8.04955E+07-1.49781E+07 1.26250E+07
 -1       559 2.27477E+09 2.70024E+07 2.01010E+06 1.77204E+07-1.89803E+07 1.10821E+07
 -1       561 2.27477E+09 2.70024E+07 2.01010E+06 1.77204E+07-1.89803E+07 1.10821E+07
 -1       562 2.25209E+09 4.15813E+07 5.05279E+05-3.06776E+07-2.23958E+07 8.08468E+06
 -1       564 2.25209E+09 4.15813E+07 5.05279E+05-3.06776E+07-2.23958E+07 8.08468E+06
 -1       565 1.90775E+09 5.79468E+06 1.79883E+06-1.51194E+08-2.63593E+07 6.84438E+06
 -1       567 1.90775E+09 5.79468E+06 1.79883E+06-1.51194E+08-2.63593E+07 6.84438E+06
 -1       568 1.10287E+09 6.51155E+07 1.77276E+06-2.72681E+08-2.46534E+07 1.90361E+06
 -1       570 1.10287E+09 6.51155E+07 1.77276E+06-2.72681E+08-2.46534E+07 1.90361E+06
 -1       571 4.74746E+08 3.97569E+08 5.40465E+06-4.95140E+08-3.53570E+07-2.88446E+06
 -1       573 4.74746E+08 3.97569E+08 5.40465E+06-4.95140E+08-3.53570E+07-2.88446E+06
 -1       574-2.97927E-02-1.15736E-03 2.88188E-05-1.71300E+09-3.61674E+06-1.94686E-04
 -1       576-2.97927E-02-1.15736E-03 2.88188E-05-1.71300E+09-3.61674E+06-1.94686E-04
 -1       577-2.29184E-02-8.85236E-05-5.23772E-03-4.05253E+07-3.25942E+07-1.83879E-02
 -1       579-2.29184E-02-8.85236E-05-5.23772E-03-4.05253E+07-3.25942E+07-1.83879E-02
 -1       588-2.29872E-02 9.29624E-04 1.96546E-05-1.43035E+09-2.22854E+07 1.80149E-04
 -1       590-2.29872E-02 9.29624E-04 1.96546E-05-1.43035E+09-2.22854E+07 1.80149E-04
 -1       591-1.73977E-02 6.65424E-05-2.50885E-03-2.59508E+07-5.12996E+07-1.85257E-02
 -1       593-1.73977E-02 6.65424E-05-2.50885E-03-2.59508E+07-5.12996E+07-1.85257E-02
 -1       602-1.56331E-02 4.63799E-06-4.03151E-05-1.04987E+09-1.53766E+07-3.56236E-05
 -1       604-1.56331E-02 4.63799E-06-4.03151E-05-1.04987E+09-1.53766E+07-3.56236E-05
 -1       605-1.13099E-02 1.90321E-04 2.86963E-04-4.56618E+07-4.53458E+07-1.83225E-02
 -1       607-1.13099E-02 1.90321E-04 2.86963E-04-4.56618E+07-4.53458E+07-1.83225E-02
 -1       616-9.41753E-03-1.27774E-04 3.48771E-05-8.61516E+08-1.12903E+07 8.05291E-05
 -1       618-9.41753E-03-1.27774E-04 3.48771E-05-8.61516E+08-1.12903E+07 8.05291E-05
 -1       619-6.21931E-03-4.34567E-05 3.35441E-03-3.75140E+07-3.58310E+07-1.77001E-02
 -1       621-6.21931E-03-4.34567E-05 3.35441E-03-3.75140E+07-3.58310E+07-1.77001E-02
 -1       630-4.38613E-03 8.83639E-06-5.30547E-05-6.76849E+08-7.14516E+06-7.56630E-06
 -1       632-4.38613E-03 8.83639E-06-5.30547E-05-6.76849E+08-7.14516E+06-7.56630E-06
 -1       633-2.59785E-03-6.87864E-05 4.15602E-03-4.41215E+07-2.55478E+07-1.57578E-02
 -1       635-2.59785E-03-6.87864E-05 4.15602E-03-4.41215E+07-2.55478E+07-1.57578E-02
 -1       644 1.64509E-04 1.34882E-04-8.40649E-05-5.48905E+08-1.88851E+06 7.81147E-06
 -1       646 1.64509E-04 1.34882E-04-8.40649E-05-5.48905E+08-1.88851E+06 7.81147E-06
 -1       647 7.61747E-04 5.25833E-04 2.07905E-03-3.58308E+07-1.40914E+07-1.43674E-02
 -1       649 7.61747E-04 5.25833E-04 2.07905E-03-3.58308E+07-1.40914E+07-1.43674E-02
 -1       658 5.60045E-03-9.49576E-05 1.06044E-04-4.32745E+08 8.70640E+05-3.23311E-05
 -1       660 5.60045E-03-9.49576E-05 1.06044E-04-4.32745E+08 8.70640E+05-3.23311E-05
 -1       661 4.99697E-03 1.47739E-03 2.38515E-04-3.53328E+07-4.91718E+06-1.41727E-02
 -1       663 4.99697E-03 1.47739E-03 2.38515E-04-3.53328E+07-4.91718E+06-1.41727E-02
 -1       672 1.20672E-02-2.27511E-04 2.89060E-04-3.35133E+08 4.49298E+06-6.77793E-06
 -1       674 1.20672E-02-2.27511E-04 2.89060E-04-3.35133E+08 4.49298E+06-6.77793E-06
 -1       675 1.01121E-02 1.76187E-03 5.79185E-04-2.65071E+07 3.81441E+06-1.41416E-02
 -1       677 1.01121E-02 1.76187E-03 5.79185E-04-2.65071E+07 3.81441E+06-1.41416E-02
 -1       686 1.78645E-02-2.12714E-05 2.11343E-04-2.42917E+08 6.28985E+06-3.36443E-05
 -1       688 1.78645E-02-2.12714E-05 2.11343E-04-2.42917E+08 6.28985E+06-3.36443E-05
 -1       689 1.40237E-02 7.96090E-04 1.84154E-03-2.16853E+07 1.04471E+07-1.21689E-02
 -1       691 1.40237E-02 7.96090E-04 1.84154E-03-2.16853E+07 1.04471E+07-1.21689E-02
 -1       700 2.18727E-02 4.37930E-04 8.46088E-05-1.58006E+08 8.35155E+06-1.54121E-06
 -1       702 2.18727E-02 4.37930E-04 8.46088E-05-1.58006E+08 8.35155E+06-1.54121E-06
 -1       703 1.60316E-02-3.90614E-04 1.62896E-03-1.24767E+07 1.59695E+07-8.68546E-03
 -1       705 1.60316E-02-3.90614E-04 1.62896E-03-1.24767E+07 1.59695E+07-8.68546E-03
 -1       714 2.44618E-02 6.41406E-04-9.71258E-05-7.58070E+07 9.26327E+06-1.16315E-05
 -1       716 2.44618E-02 6.41406E-04-9.71258E-05-7.58070E+07 9.26327E+06-1.16315E-05
 -1       717 1.78560E-02 4.47182E-04-3.56012E-04-5.36477E+06 1.98061E+07-6.61132E-03
 -1       719 1.78560E-02 4.47182E-04-3.56012E-04-5.36477E+06 1.98061E+07-6.61132E-03
 -1       728 2.64297E-02 2.47851E-04-2.29463E-04 1.72042E+06 1.00774E+07-4.25527E-05
 -1       730 2.64297E-02 2.47851E-04-2.29463E-04 1.72042E+06 1.00774E+07-4.25527E-05
 -1       731 1.95594E-02 1.20180E-03-2.80807E-03 3.80179E+06 2.24337E+07-6.68615E-03
 -1       733 1.95594E-02 1.20180E-03-2.80807E-03 3.80179E+06 2.24337E+07-6.68615E-03
 -1       742 2.82031E-02-5.43721E-04-3.67031E-04 7.57567E+07 1.01503E+07 1.75755E-05
 -1       744 2.82031E-02-5.43721E-04-3.67031E-04 7.57567E+07 1.01503E+07 1.75755E-05
 -1       745 2.07902E-02 8.12219E-04-4.09402E-03 1.16065E+07 2.36745E+07-6.61006E-03
 -1       747 2.07902E-02 8.12219E-04-4.09402E-03 1.16065E+07 2.36745E+07-6.61006E-03
 -1       756 3.00601E-02-6.94506E-04-3.36811E-04 1.44221E+08 9.96194E+06 8.34197E-05
 -1       758 3.00601E-02-6.94506E-04-3.36811E-04 1.44221E+08 9.96194E+06 8.34197E-05
 -1       759 2.20621E-02 5.08855E-04-2.95766E-03 2.00885E+07 2.38859E+07-6.35038E-03
 -1       761 2.20621E-02 5.08855E-04-2.95766E-03 2.00885E+07 2.38859E+07-6.35038E-03
 -1       770 3.20051E-02 4.04000E-04 1.26660E-04 2.06810E+08 9.29463E+06-6.95658E-05
 -1       772 3.20051E-02 4.04000E-04 1.26660E-04 2.06810E+08 9.29463E+06-6.95658E-05
 -1       773 2.32193E-02-3.28817E-04-8.45236E-04 2.72983E+07 2.29382E+07-4.90914E-03
 -1       775 2.32193E-02-3.28817E-04-8.45236E-04 2.72983E+07 2.29382E+07-4.90914E-03
 -1       784 3.22656E-02 1.00475E-03 1.97813E-04 2.61464E+08 8.31649E+06 9.23686E-05
 -1       786 3.22656E-02 1.00475E-03 1.97813E-04 2.61464E+08 8.31649E+06 9.23686E-05
 -1       787 2.39669E-02-4.93511E-04-2.76617E-04 3.43952E+07 2.12906E+07-1.79205E-03
 -1       789 2.39669E-02-4.93511E-04-2.76617E-04 3.43952E+07 2.12906E+07-1.79205E-03
 -1       798 3.09129E-02 4.48361E-04 3.07873E-04 3.07419E+08 7.07710E+06-1.08517E-04
 -1       800 3.09129E-02 4.48361E-04 3.07873E-04 3.07419E+08 7.07710E+06-1.08517E-04
 -1       801 2.38541E-02 8.12581E-04 9.25757E-04 3.99723E+07 1.86781E+07 8.21540E-04
 -1       803 2.38541E-02 8.12581E-04 9.25757E-04 3.99723E+07 1.86781E+07 8.21540E-04
 -1       812 2.99445E-02-5.37049E-04 5.17279E-04 3.42606E+08 5.53686E+06-5.78663E-05
 -1       814 2.99445E-02-5.37049E-04 5.17279E-04 3.42606E+08 5.53686E+06-5.78663E-05
 -1       815 2.31442E-02 8.80934E-04 2.17438E-03 4.51000E+07 1.58100E+07 5.09037E-03
 -1       817 2.31442E-02 8.80934E-04 2.17438E-03 4.51000E+07 1.58100E+07 5.09037E-03
 -1       826 2.90747E-02-6.48122E-04 1.74087E-04 3.66411E+08 3.96305E+06 2.64463E-05
 -1       828 2.90747E-02-6.48122E-04 1.74087E-04 3.66411E+08 3.96305E+06 2.64463E-05
 -1       829 2.22079E-02 5.22860E-05 9.31324E-04 4.82425E+07 1.21216E+07 8.66197E-03
 -1       831 2.22079E-02 5.22860E-05 9.31324E-04 4.82425E+07 1.21216E+07 8.66197E-03
 -1       840 2.77238E-02-3.41743E-04-3.34481E-04 3.76438E+08 2.12870E+06-1.74160E-04
 -1       842 2.77238E-02-3.41743E-04-3.34481E-04 3.76438E+08 2.12870E+06-1.74160E-04
 -1       843 2.12728E-02 3.22341E-04 6.68610E-04 5.10989E+07 8.74536E+06 9.34981E-03
 -1       845 2.12728E-02 3.22341E-04 6.68610E-04 5.10989E+07 8.74536E+06 9.34981E-03
 -1       854 2.61600E-02-2.97874E-04 2.34125E-04 3.72568E+08 5.15827E+05 3.17707E-05
 -1       856 2.61600E-02-2.97874E-04 2.34125E-04 3.72568E+08 5.15827E+05 3.17707E-05
 -1       857 1.99870E-02-2.96001E-04 1.05901E-03 5.12312E+07 4.54964E+06 8.90326E-03
 -1       859 1.99870E-02-2.96001E-04 1.05901E-03 5.12312E+07 4.54964E+06 8.90326E-03
 -1       868 2.37373E-02-2.07734E-04 1.89126E-04 3.51439E+08-1.28602E+06-1.03368E-04
 -1       870 2.37373E-02-2.07734E-04 1.89126E-04 3.51439E+08-1.28602E+06-1.03368E-04
 -1       871 1.83668E-02-2.31367E-04 1.10687E-03 5.19681E+07 1.40522E+06 8.16478E-03
 -1       873 1.83668E-02-2.31367E-04 1.10687E-03 5.19681E+07 1.40522E+06 8.16478E-03
 -1       882 2.05497E-02-1.15501E-04-1.31227E-04 3.12929E+08-2.64444E+06-9.87784E-05
 -1       884 2.05497E-02-1.15501E-04-1.31227E-04 3.12929E+08-2.64444E+06-9.87784E-05
 -1       885 1.59833E-02-2.83250E-04-4.51788E-04 4.87105E+07-2.98396E+06 9.72714E-03
 -1       887 1.59833E-02-2.83250E-04-4.51788E-04 4.87105E+07-2.98396E+06 9.72714E-03
 -1       896 1.68517E-02 3.38517E-04 8.78658E-04 2.53190E+08-4.00618E+06-1.06520E-04
 -1       898 1.68517E-02 3.38517E-04 8.78658E-04 2.53190E+08-4.00618E+06-1.06520E-04
 -1       899 1.17823E-02-8.41865E-04-6.03982E-03 4.81048E+07-5.25017E+06 1.10124E-02
 -1       901 1.17823E-02-8.41865E-04-6.03982E-03 4.81048E+07-5.25017E+06 1.10124E-02
 -1       910 1.23103E-02 2.72345E-04 2.06292E-04 1.66277E+08-5.14714E+06-2.70065E-05
 -1       912 1.23103E-02 2.72345E-04 2.06292E-04 1.66277E+08-5.14714E+06-2.70065E-05
 -1       913 7.62176E-03-8.45297E-04-9.97312E-03 4.13636E+07-1.05631E+07 8.58205E-03
 -1       915 7.62176E-03-8.45297E-04-9.97312E-03 4.13636E+07-1.05631E+07 8.58205E-03
 -1       924 9.00322E-03-1.57766E-05 2.02037E-04 5.73869E+07-5.68304E+06 7.00559E-05
 -1       926 9.00322E-03-1.57766E-05 2.02037E-04 5.73869E+07-5.68304E+06 7.00559E-05
 -1       927 5.16668E-03-2.14748E-04-8.05855E-03 4.05903E+07-1.17791E+07 4.59412E-03
 -1       929 5.16668E-03-2.14748E-04-8.05855E-03 4.05903E+07-1.17791E+07 4.59412E-03
 -1       938 7.26539E-03 2.44915E-04 5.06550E-04-1.08737E+08-8.82395E+06 1.45226E-04
 -1       940 7.26539E-03 2.44915E-04 5.06550E-04-1.08737E+08-8.82395E+06 1.45226E-04
 -1       941 3.85322E-03 6.23478E-04-5.03902E-03 3.19618E+07-2.30246E+07 3.03797E-03
 -1       943 3.85322E-03 6.23478E-04-5.03902E-03 3.19618E+07-2.30246E+07 3.03797E-03
 -1       952 5.43307E-03 5.16281E-04-5.95190E-05-2.99005E+08-9.87349E+06 7.03011E-05
 -1       954 5.43307E-03 5.16281E-04-5.95190E-05-2.99005E+08-9.87349E+06 7.03011E-05
 -1       955 2.87711E-03 1.03759E-03-3.14883E-03 2.95012E+07-2.57221E+07 3.36475E-03
 -1       957 2.87711E-03 1.03759E-03-3.14883E-03 2.95012E+07-2.57221E+07 3.36475E-03
 -1       966 3.06429E-03 7.63029E-04-5.01487E-04-5.49176E+08-2.96534E+07-8.16329E-05
 -1       968 3.06429E-03 7.63029E-04-5.01487E-04-5.49176E+08-2.96534E+07-8.16329E-05
 -1       969 1.26671E-03 6.00022E-04-3.77414E-03 2.99218E+07-6.68819E+07 2.33621E-03
 -1       971 1.26671E-03 6.00022E-04-3.77414E-03 2.99218E+07-6.68819E+07 2.33621E-03
 -1       980 6.21725E+09 7.63279E+08 1.84395E+06-1.49415E+09 9.56191E+06-5.12329E+07
 -1       982 6.21725E+09 7.63279E+08 1.84395E+06-1.49415E+09 9.56191E+06-5.12329E+07
 -1       983-4.74746E+08-3.97569E+08-5.40465E+06-4.95140E+08-3.53570E+07 2.88446E+06
 -1       985-4.74746E+08-3.97569E+08-5.40465E+06-4.95140E+08-3.53570E+07 2.88446E+06
 -1       986-7.78219E+09-2.88394E+08 1.33608E+06-9.17991E+08 1.95568E+06 4.01138E+07
 -1       988-7.78219E+09-2.88394E+08 1.33608E+06-9.17991E+08 1.95568E+06 4.01138E+07
 -1       989-4.85615E+09 8.71611E+07-2.48795E+06-5.68466E+08 1.70789E+06 3.13844E+04
 -1       991-4.85615E+09 8.71611E+07-2.48795E+06-5.68466E+08 1.70789E+06 3.13844E+04
 -1       992-2.64088E+09-6.06342E+07-1.93356E+06-5.07047E+08 3.09705E+06 1.90656E+07
 -1       994-2.64088E+09-6.06342E+07-1.93356E+06-5.07047E+08 3.09705E+06 1.90656E+07
 -1       995-8.69606E+08 2.49063E+07 1.41071E+06-3.75491E+08 3.60168E+06 9.35494E+06
 -1       997-8.69606E+08 2.49063E+07 1.41071E+06-3.75491E+08 3.60168E+06 9.35494E+06
 -1       998 5.31382E+08 1.77301E+06-1.12665E+06-3.10605E+08 5.90449E+06 1.28417E+07
 -1      1000 5.31382E+08 1.77301E+06-1.12665E+06-3.10605E+08 5.90449E+06 1.28417E+07
 -1      1001 1.66482E+09 2.76673E+07 2.39341E+06-2.46430E+08 8.19222E+06 9.67310E+06
 -1      1003 1.66482E+09 2.76673E+07 2.39341E+06-2.46430E+08 8.19222E+06 9.67310E+06
 -1      1004 2.56880E+09 2.60014E+07 1.92694E+05-1.96398E+08 1.08372E+07 9.11665E+06
 -1      1006 2.56880E+09 2.60014E+07 1.92694E+05-1.96398E+08 1.08372E+07 9.11665E+06
 -1      1007 3.28024E+09 3.75332E+07 2.68528E+06-1.51341E+08 1.33625E+07 6.93789E+06
 -1      1009 3.28024E+09 3.75332E+07 2.68528E+06-1.51341E+08 1.33625E+07 6.93789E+06
 -1      1010 3.81502E+09 3.88410E+07 1.17963E+06-1.10156E+08 1.54598E+07 5.07388E+06
 -1      1012 3.81502E+09 3.88410E+07 1.17963E+06-1.10156E+08 1.54598E+07 5.07388E+06
 -1      1013 4.18681E+09 4.42626E+07 2.75684E+06-7.13444E+07 1.72343E+07 2.77227E+06
 -1      1015 4.18681E+09 4.42626E+07 2.75684E+06-7.13444E+07 1.72343E+07 2.77227E+06
 -1      1016 4.40266E+09 4.47228E+07 1.73490E+06-3.43636E+07 1.82917E+07 4.07958E+05
 -1      1018 4.40266E+09 4.47228E+07 1.73490E+06-3.43636E+07 1.82917E+07 4.07958E+05
 -1      1019 4.47008E+09 4.60885E+07 2.65343E+06 1.00423E+06 1.88871E+07-2.04220E+06
 -1      1021 4.47008E+09 4.60885E+07 2.65343E+06 1.00423E+06 1.88871E+07-2.04220E+06
 -1      1022 4.39568E+09 4.45827E+07 1.90195E+06 3.44373E+07 1.87236E+07-4.50154E+06
 -1      1024 4.39568E+09 4.45827E+07 1.90195E+06 3.44373E+07 1.87236E+07-4.50154E+06
 -1      1025 4.18819E+09 4.27504E+07 2.35554E+06 6.56347E+07 1.80519E+07-6.86632E+06
 -1      1027 4.18819E+09 4.27504E+07 2.35554E+06 6.56347E+07 1.80519E+07-6.86632E+06
 -1      1028 3.85788E+09 3.90754E+07 1.74685E+06 9.39513E+07 1.66999E+07-9.10539E+06
 -1      1030 3.85788E+09 3.90754E+07 1.74685E+06 9.39513E+07 1.66999E+07-9.10539E+06
 -1      1031 3.41773E+09 3.46474E+07 1.85903E+06 1.18862E+08 1.48799E+07-1.11123E+07
 -1      1033 3.41773E+09 3.46474E+07 1.85903E+06 1.18862E+08 1.48799E+07-1.11123E+07
 -1      1034 2.88317E+09 2.91389E+07 1.34675E+06 1.39647E+08 1.25201E+07-1.28640E+07
 -1      1036 2.88317E+09 2.91389E+07 1.34675E+06 1.39647E+08 1.25201E+07-1.28640E+07
 -1      1037 2.27227E+09 2.27026E+07 1.18698E+06 1.55753E+08 9.80009E+06-1.42757E+07
 -1      1039 2.27227E+09 2.27026E+07 1.18698E+06 1.55753E+08 9.80009E+06-1.42757E+07
 -1      1040 1.60588E+09 1.61360E+07 7.95168E+05 1.66443E+08 6.70709E+06-1.53324E+07
 -1      1042 1.60588E+09 1.61360E+07 7.95168E+05 1.66443E+08 6.70709E+06-1.53324E+07
 -1      1043 9.07058E+08 8.22670E+06 3.85468E+05 1.71230E+08 3.39961E+06-1.59808E+07
 -1      1045 9.07058E+08 8.22670E+06 3.85468E+05 1.71230E+08 3.39961E+06-1.59808E+07
 -1      1046 2.02069E+08 1.89330E+06 2.06059E+05 1.69293E+08-1.25425E+05-1.62042E+07
 -1      1048 2.02069E+08 1.89330E+06 2.06059E+05 1.69293E+08-1.25425E+05-1.62042E+07
 -1      1049-4.80888E+08-7.22102E+06-4.81838E+05 1.59947E+08-3.72713E+06-1.60123E+07
 -1      1051-4.80888E+08-7.22102E+06-4.81838E+05 1.59947E+08-3.72713E+06-1.60123E+07
 -1      1052-1.10918E+09-1.14708E+07-2.86460E+05 1.42852E+08-7.44390E+06-1.53201E+07
 -1      1054-1.10918E+09-1.14708E+07-2.86460E+05 1.42852E+08-7.44390E+06-1.53201E+07
 -1      1055-1.64721E+09-2.13349E+07-1.33060E+06 1.14128E+08-1.11910E+07-1.43283E+07
 -1      1057-1.64721E+09-2.13349E+07-1.33060E+06 1.14128E+08-1.11910E+07-1.43283E+07
 -1      1058-2.05275E+09-2.33293E+07-5.36371E+05 8.04955E+07-1.49781E+07-1.26250E+07
 -1      1060-2.05275E+09-2.33293E+07-5.36371E+05 8.04955E+07-1.49781E+07-1.26250E+07
 -1      1061-2.27477E+09-2.70024E+07-2.01010E+06 1.77204E+07-1.89803E+07-1.10821E+07
 -1      1063-2.27477E+09-2.70024E+07-2.01010E+06 1.77204E+07-1.89803E+07-1.10821E+07
 -1      1064-2.25209E+09-4.15813E+07-5.05279E+05-3.06776E+07-2.23958E+07-8.08468E+06
 -1      1066-2.25209E+09-4.15813E+07-5.05279E+05-3.06776E+07-2.23958E+07-8.08468E+06
 -1      1067-1.90775E+09-5.79468E+06-1.79883E+06-1.51194E+08-2.63593E+07-6.84438E+06
 -1      1069-1.90775E+09-5.79468E+06-1.79883E+06-1.51194E+08-2.63593E+07-6.84438E+06
 -1      1070-1.10287E+09-6.51155E+07-1.77276E+06-2.72681E+08-2.46534E+07-1.90361E+06
 -1      1072-1.10287E+09-6.51155E+07-1.77276E+06-2.72681E+08-2.46534E+07-1.90361E+06
 -1      1073-6.21725E+09-7.63279E+08-1.84395E+06-1.49415E+09 9.56191E+06 5.12329E+07
 -1      1075-6.21725E+09-7.63279E+08-1.84395E+06-1.49415E+09 9.56191E+06 5.12329E+07
 -1      1076-1.62585E-02-3.85867E-05-4.92136E-03-6.75472E+07-1.09067E+07-1.83914E-02
 -1      1078-1.62585E-02-3.85867E-05-4.92136E-03-6.75472E+07-1.09067E+07-1.83914E-02
 -1      1079 5.25412E-04-7.13687E-05-1.02070E-03 8.21744E-03-7.21548E+06-1.94493E-02
 -1      1081 5.25412E-04-7.13687E-05-1.02070E-03 8.21744E-03-7.21548E+06-1.94493E-02
 -1      1082 1.75711E-02-1.27985E-05 3.29179E-03 6.75472E+07-1.09067E+07-2.00109E-02
 -1      1084 1.75711E-02-1.27985E-05 3.29179E-03 6.75472E+07-1.09067E+07-2.00109E-02
 -1      1085 2.37774E-02 6.28425E-06 2.65228E-03 4.05253E+07-3.25942E+07-2.02353E-02
 -1      1087 2.37774E-02 6.28425E-06 2.65228E-03 4.05253E+07-3.25942E+07-2.02353E-02
 -1      1088 3.03029E-02 1.28897E-03-3.46899E-05 1.71300E+09-3.61674E+06-2.47194E-04
 -1      1090 3.03029E-02 1.28897E-03-3.46899E-05 1.71300E+09-3.61674E+06-2.47194E-04
 -1      1099 1.78128E-02-1.39937E-04-5.69793E-04 2.59508E+07-5.12996E+07-1.86287E-02
 -1      1101 1.78128E-02-1.39937E-04-5.69793E-04 2.59508E+07-5.12996E+07-1.86287E-02
 -1      1102 2.33067E-02-9.81189E-04-5.44488E-05 1.43035E+09-2.22854E+07 2.22673E-04
 -1      1104 2.33067E-02-9.81189E-04-5.44488E-05 1.43035E+09-2.22854E+07 2.22673E-04
 -1      1113 1.30435E-02-9.25245E-05 1.51693E-05 4.56618E+07-4.53458E+07-1.73147E-02
 -1      1115 1.30435E-02-9.25245E-05 1.51693E-05 4.56618E+07-4.53458E+07-1.73147E-02
 -1      1116 1.74139E-02 1.23847E-04-5.58794E-06 1.04987E+09-1.53766E+07-6.38920E-05
 -1      1118 1.74139E-02 1.23847E-04-5.58794E-06 1.04987E+09-1.53766E+07-6.38920E-05
 -1      1127 9.07346E-03-3.73049E-05 1.29380E-03 3.75140E+07-3.58310E+07-1.70951E-02
 -1      1129 9.07346E-03-3.73049E-05 1.29380E-03 3.75140E+07-3.58310E+07-1.70951E-02
 -1      1130 1.20272E-02 2.98696E-04-5.41769E-05 8.61516E+08-1.12903E+07 7.71675E-05
 -1      1132 1.20272E-02 2.98696E-04-5.41769E-05 8.61516E+08-1.12903E+07 7.71675E-05
 -1      1141 5.09891E-03-1.83372E-05 2.53381E-03 4.41215E+07-2.55478E+07-1.63296E-02
 -1      1143 5.09891E-03-1.83372E-05 2.53381E-03 4.41215E+07-2.55478E+07-1.63296E-02
 -1      1144 6.09596E-03-2.42161E-04-1.41911E-04 6.76849E+08-7.14516E+06-2.28733E-05
 -1      1146 6.09596E-03-2.42161E-04-1.41911E-04 6.76849E+08-7.14516E+06-2.28733E-05
 -1      1155 7.04605E-04-1.29492E-04 2.98268E-03 3.58308E+07-1.40914E+07-1.65174E-02
 -1      1157 7.04605E-04-1.29492E-04 2.98268E-03 3.58308E+07-1.40914E+07-1.65174E-02
 -1      1158-1.65910E-04-3.13520E-04-7.28630E-05 5.48905E+08-1.88851E+06 6.06687E-05
 -1      1160-1.65910E-04-3.13520E-04-7.28630E-05 5.48905E+08-1.88851E+06 6.06687E-05
 -1      1169-4.15478E-03 5.54422E-04 1.02905E-03 3.53328E+07-4.91718E+06-1.70887E-02
 -1      1171-4.15478E-03 5.54422E-04 1.02905E-03 3.53328E+07-4.91718E+06-1.70887E-02
 -1      1172-6.79070E-03 1.07542E-04 1.54756E-04 4.32745E+08 8.70640E+05 9.63267E-06
 -1      1174-6.79070E-03 1.07542E-04 1.54756E-04 4.32745E+08 8.70640E+05 9.63267E-06
 -1      1183-9.17137E-03 2.02446E-04-2.12202E-03 2.65071E+07 3.81441E+06-1.53257E-02
 -1      1185-9.17137E-03 2.02446E-04-2.12202E-03 2.65071E+07 3.81441E+06-1.53257E-02
 -1      1186-1.23768E-02 1.70901E-04 2.20619E-04 3.35133E+08 4.49298E+06 4.49761E-05
 -1      1188-1.23768E-02 1.70901E-04 2.20619E-04 3.35133E+08 4.49298E+06 4.49761E-05
 -1      1197-1.26638E-02-2.58795E-04-2.26541E-03 2.16853E+07 1.04471E+07-1.14923E-02
 -1      1199-1.26638E-02-2.58795E-04-2.26541E-03 2.16853E+07 1.04471E+07-1.14923E-02
 -1      1200-1.61844E-02-5.27203E-05 1.54823E-04 2.42917E+08 6.28985E+06 1.01914E-04
 -1      1202-1.61844E-02-5.27203E-05 1.54823E-04 2.42917E+08 6.28985E+06 1.01914E-04
 -1      1211-1.53368E-02-2.00397E-04-5.63498E-04 1.24767E+07 1.59695E+07-9.57809E-03
 -1      1213-1.53368E-02-2.00397E-04-5.63498E-04 1.24767E+07 1.59695E+07-9.57809E-03
 -1      1214-1.96725E-02-5.24200E-04-8.54135E-05 1.58006E+08 8.35155E+06 1.09104E-04
 -1      1216-1.96725E-02-5.24200E-04-8.54135E-05 1.58006E+08 8.35155E+06 1.09104E-04
 -1      1225-1.83993E-02-1.49845E-04-1.37366E-03 5.36477E+06 1.98061E+07-9.13388E-03
 -1      1227-1.83993E-02-1.49845E-04-1.37366E-03 5.36477E+06 1.98061E+07-9.13388E-03
 -1      1228-2.32259E-02-6.20387E-04-2.52694E-04 7.58070E+07 9.26327E+06 4.68665E-05
 -1      1230-2.32259E-02-6.20387E-04-2.52694E-04 7.58070E+07 9.26327E+06 4.68665E-05
 -1      1239-2.06464E-02 9.06138E-05-4.23143E-03-3.80179E+06 2.24337E+07-8.29699E-03
 -1      1241-2.06464E-02 9.06138E-05-4.23143E-03-3.80179E+06 2.24337E+07-8.29699E-03
 -1      1242-2.54367E-02-9.83179E-05 4.57168E-05-1.72042E+06 1.00774E+07 1.13840E-04
 -1      1244-2.54367E-02-9.83179E-05 4.57168E-05-1.72042E+06 1.00774E+07 1.13840E-04
 -1      1253-2.16629E-02 7.09612E-04-6.59171E-03-1.16065E+07 2.36745E+07-7.16978E-03
 -1      1255-2.16629E-02 7.09612E-04-6.59171E-03-1.16065E+07 2.36745E+07-7.16978E-03
 -1      1256-2.66402E-02 1.64263E-04 3.17514E-04-7.57567E+07 1.01503E+07 3.22699E-05
 -1      1258-2.66402E-02 1.64263E-04 3.17514E-04-7.57567E+07 1.01503E+07 3.22699E-05
 -1      1267-2.24459E-02 9.44281E-04-7.82423E-03-2.00885E+07 2.38859E+07-5.16909E-03
 -1      1269-2.24459E-02 9.44281E-04-7.82423E-03-2.00885E+07 2.38859E+07-5.16909E-03
 -1      1270-2.81686E-02-4.27075E-04-2.80291E-05-1.44221E+08 9.96194E+06 2.12272E-05
 -1      1272-2.81686E-02-4.27075E-04-2.80291E-05-1.44221E+08 9.96194E+06 2.12272E-05
 -1      1281-2.39517E-02-2.14343E-04-8.85934E-03-2.72983E+07 2.29382E+07-3.25861E-03
 -1      1283-2.39517E-02-2.14343E-04-8.85934E-03-2.72983E+07 2.29382E+07-3.25861E-03
 -1      1284-2.98184E-02-4.07651E-04-3.79980E-06-2.06810E+08 9.29463E+06-9.14210E-06
 -1      1286-2.98184E-02-4.07651E-04-3.79980E-06-2.06810E+08 9.29463E+06-9.14210E-06
 -1      1295-2.51084E-02-1.15827E-04-8.53994E-03-3.43952E+07 2.12906E+07-9.57759E-04
 -1      1297-2.51084E-02-1.15827E-04-8.53994E-03-3.43952E+07 2.12906E+07-9.57759E-04
 -1      1298-3.12440E-02 2.66403E-04-2.85178E-04-2.61464E+08 8.31649E+06-8.17906E-05
 -1      1300-3.12440E-02 2.66403E-04-2.85178E-04-2.61464E+08 8.31649E+06-8.17906E-05
 -1      1309-2.54754E-02-9.40547E-05-6.11860E-03-3.99723E+07 1.86781E+07 3.69105E-03
 -1      1311-2.54754E-02-9.40547E-05-6.11860E-03-3.99723E+07 1.86781E+07 3.69105E-03
 -1      1312-3.17434E-02 1.47089E-04-2.32071E-04-3.07419E+08 7.07710E+06-7.27186E-05
 -1      1314-3.17434E-02 1.47089E-04-2.32071E-04-3.07419E+08 7.07710E+06-7.27186E-05
 -1      1323-2.51099E-02-5.09006E-04-2.85463E-03-4.51000E+07 1.58100E+07 6.97677E-03
 -1      1325-2.51099E-02-5.09006E-04-2.85463E-03-4.51000E+07 1.58100E+07 6.97677E-03
 -1      1326-3.11962E-02 2.02209E-04 1.47708E-04-3.42606E+08 5.53686E+06-3.43979E-05
 -1      1328-3.11962E-02 2.02209E-04 1.47708E-04-3.42606E+08 5.53686E+06-3.43979E-05
 -1      1337-2.39215E-02-5.58457E-04-1.31296E-03-4.82425E+07 1.21216E+07 8.36087E-03
 -1      1339-2.39215E-02-5.58457E-04-1.31296E-03-4.82425E+07 1.21216E+07 8.36087E-03
 -1      1340-2.95601E-02 1.13482E-03-1.04032E-04-3.66411E+08 3.96305E+06-1.11810E-04
 -1      1342-2.95601E-02 1.13482E-03-1.04032E-04-3.66411E+08 3.96305E+06-1.11810E-04
 -1      1351-2.11804E-02-8.97045E-04-1.01461E-03-5.10989E+07 8.74536E+06 9.89480E-03
 -1      1353-2.11804E-02-8.97045E-04-1.01461E-03-5.10989E+07 8.74536E+06 9.89480E-03
 -1      1354-2.62663E-02 9.66208E-04-1.13228E-04-3.76438E+08 2.12870E+06-2.07019E-05
 -1      1356-2.62663E-02 9.66208E-04-1.13228E-04-3.76438E+08 2.12870E+06-2.07019E-05
 -1      1365-1.74669E-02-4.24656E-04-6.27693E-04-5.12312E+07 4.54964E+06 9.14065E-03
 -1      1367-1.74669E-02-4.24656E-04-6.27693E-04-5.12312E+07 4.54964E+06 9.14065E-03
 -1      1368-2.23952E-02-3.76857E-05 1.59205E-05-3.72568E+08 5.15827E+05-5.07552E-05
 -1      1370-2.23952E-02-3.76857E-05 1.59205E-05-3.72568E+08 5.15827E+05-5.07552E-05
 -1      1379-1.42917E-02 5.08389E-05-1.99508E-03-5.19681E+07 1.40522E+06 7.27105E-03
 -1      1381-1.42917E-02 5.08389E-05-1.99508E-03-5.19681E+07 1.40522E+06 7.27105E-03
 -1      1382-1.87045E-02 9.47760E-05-1.09713E-04-3.51439E+08-1.28602E+06-4.15086E-05
 -1      1384-1.87045E-02 9.47760E-05-1.09713E-04-3.51439E+08-1.28602E+06-4.15086E-05
 -1      1393-1.10819E-02 1.85474E-05-4.12737E-03-4.87105E+07-2.98396E+06 8.60750E-03
 -1      1395-1.10819E-02 1.85474E-05-4.12737E-03-4.87105E+07-2.98396E+06 8.60750E-03
 -1      1396-1.46186E-02 4.12546E-04-6.42315E-05-3.12929E+08-2.64444E+06 3.32068E-05
 -1      1398-1.46186E-02 4.12546E-04-6.42315E-05-3.12929E+08-2.64444E+06 3.32068E-05
 -1      1407-8.07351E-03 5.80152E-06-5.23538E-03-4.81048E+07-5.25017E+06 1.02578E-02
 -1      1409-8.07351E-03 5.80152E-06-5.23538E-03-4.81048E+07-5.25017E+06 1.02578E-02
 -1      1410-1.03357E-02 2.77195E-04 1.16640E-03-2.53190E+08-4.00618E+06 1.05680E-04
 -1      1412-1.03357E-02 2.77195E-04 1.16640E-03-2.53190E+08-4.00618E+06 1.05680E-04
 -1      1421-5.46647E-03 4.01336E-04-4.61994E-03-4.13636E+07-1.05631E+07 8.94779E-03
 -1      1423-5.46647E-03 4.01336E-04-4.61994E-03-4.13636E+07-1.05631E+07 8.94779E-03
 -1      1424-7.54014E-03-9.00015E-04 1.78263E-04-1.66277E+08-5.14714E+06-2.80561E-07
 -1      1426-7.54014E-03-9.00015E-04 1.78263E-04-1.66277E+08-5.14714E+06-2.80561E-07
 -1      1435-3.82435E-03 6.68493E-04-2.10748E-03-4.05903E+07-1.17791E+07 6.96260E-03
 -1      1437-3.82435E-03 6.68493E-04-2.10748E-03-4.05903E+07-1.17791E+07 6.96260E-03
 -1      1438-5.61476E-03-6.75600E-04-2.31579E-04-5.73869E+07-5.68304E+06-1.42569E-05
 -1      1440-5.61476E-03-6.75600E-04-2.31579E-04-5.73869E+07-5.68304E+06-1.42569E-05
 -1      1449-3.13938E-03-2.04873E-04 2.02714E-04-3.19618E+07-2.30246E+07 5.29282E-03
 -1      1451-3.13938E-03-2.04873E-04 2.02714E-04-3.19618E+07-2.30246E+07 5.29282E-03
 -1      1452-3.83386E-03 7.70390E-05 1.07765E-04 1.08737E+08-8.82395E+06-8.85513E-05
 -1      1454-3.83386E-03 7.70390E-05 1.07765E-04 1.08737E+08-8.82395E+06-8.85513E-05
 -1      1463-2.02765E-03-1.17246E-03 1.46124E-03-2.95012E+07-2.57221E+07 4.55331E-03
 -1      1465-2.02765E-03-1.17246E-03 1.46124E-03-2.95012E+07-2.57221E+07 4.55331E-03
 -1      1466-2.14031E-03-4.30584E-04-1.38041E-05 2.99005E+08-9.87349E+06-1.19113E-04
 -1      1468-2.14031E-03-4.30584E-04-1.38041E-05 2.99005E+08-9.87349E+06-1.19113E-04
 -1      1477-6.11309E-04-6.59958E-04 1.20921E-03-2.99218E+07-6.68819E+07 1.26731E-03
 -1      1479-6.11309E-04-6.59958E-04 1.20921E-03-2.99218E+07-6.68819E+07 1.26731E-03
 -1      1480-7.93725E-04-3.38405E-04 3.06921E-04 5.49176E+08-2.96534E+07 1.33597E-04
 -1      1482-7.93725E-04-3.38405E-04 3.06921E-04 5.49176E+08-2.96534E+07 1.33597E-04
 -1      1491 2.51318E-04 5.81247E-04-5.77453E-03-6.27732E+06-8.16769E+07 9.99040E-04
 -1      1493 2.51318E-04 5.81247E-04-5.77453E-03-6.27732E+06-8.16769E+07 9.99040E-04
 -1      1494 7.61678E-05 1.36480E-03-5.20786E-03-5.15617E-05-3.99026E+07-3.82496E-04
 -1      1496 7.61678E-05 1.36480E-03-5.20786E-03-5.15617E-05-3.99026E+07-3.82496E-04
 -1      1497-6.49899E-05 8.27599E-04-1.88356E-03 6.27732E+06-8.16769E+07-1.68858E-03
 -1      1499-6.49899E-05 8.27599E-04-1.88356E-03 6.27732E+06-8.16769E+07-1.68858E-03
 -1      1500 7.78219E+09 2.88394E+08-1.33608E+06 9.17991E+08 1.95568E+06 4.01138E+07
 -1      1502 7.78219E+09 2.88394E+08-1.33608E+06 9.17991E+08 1.95568E+06 4.01138E+07
 -1      1503 4.85615E+09-8.71611E+07 2.48795E+06 5.68466E+08 1.70789E+06 3.13844E+04
 -1      1505 4.85615E+09-8.71611E+07 2.48795E+06 5.68466E+08 1.70789E+06 3.13844E+04
 -1      1506 2.64088E+09 6.06342E+07 1.93356E+06 5.07047E+08 3.09705E+06 1.90656E+07
 -1      1508 2.64088E+09 6.06342E+07 1.93356E+06 5.07047E+08 3.09705E+06 1.90656E+07
 -1      1509 8.69606E+08-2.49063E+07-1.41071E+06 3.75491E+08 3.60168E+06 9.35494E+06
 -1      1511 8.69606E+08-2.49063E+07-1.41071E+06 3.75491E+08 3.60168E+06 9.35494E+06
 -1      1512-5.31382E+08-1.77301E+06 1.12665E+06 3.10605E+08 5.90449E+06 1.28417E+07
 -1      1514-5.31382E+08-1.77301E+06 1.12665E+06 3.10605E+08 5.90449E+06 1.28417E+07
 -1      1515-1.66482E+09-2.76673E+07-2.39341E+06 2.46430E+08 8.19222E+06 9.67310E+06
 -1      1517-1.66482E+09-2.76673E+07-2.39341E+06 2.46430E+08 8.19222E+06 9.67310E+06
 -1      1518-2.56880E+09-2.60014E+07-1.92694E+05 1.96398E+08 1.08372E+07 9.11665E+06
 -1      1520-2.56880E+09-2.60014E+07-1.92694E+05 1.96398E+08 1.08372E+07 9.11665E+06
 -1      1521-3.28024E+09-3.75332E+07-2.68528E+06 1.51341E+08 1.33625E+07 6.93789E+06
 -1      1523-3.28024E+09-3.75332E+07-2.68528E+06 1.51341E+08 1.33625E+07 6.93789E+06
 -1      1524-3.81502E+09-3.88410E+07-1.17963E+06 1.10156E+08 1.54598E+07 5.07388E+06
 -1      1526-3.81502E+09-3.88410E+07-1.17963E+06 1.10156E+08 1.54598E+07 5.07388E+06
 -1      1527-4.18681E+09-4.42626E+07-2.75684E+06 7.13444E+07 1.72343E+07 2.77227E+06
 -1      1529-4.18681E+09-4.42626E+07-2.75684E+06 7.13444E+07 1.72343E+07 2.77227E+06
 -1      1530-4.40266E+09-4.47228E+07-1.73490E+06 3.43636E+07 1.82917E+07 4.07958E+05
 -1      1532-4.40266E+09-4.47228E+07-1.73490E+06 3.43636E+07 1.82917E+07 4.07958E+05
 -1      1533-4.47008E+09-4.60885E+07-2.65343E+06-1.00423E+06 1.88871E+07-2.04220E+06
 -1      1535-4.47008E+09-4.60885E+07-2.65343E+06-1.00423E+06 1.88871E+07-2.04220E+06
 -1      1536-4.39568E+09-4.45827E+07-1.90195E+06-3.44373E+07 1.87236E+07-4.50154E+06
 -1      1538-4.39568E+09-4.45827E+07-1.90195E+06-3.44373E+07 1.87236E+07-4.50154E+06
 -1      1539-4.18819E+09-4.27504E+07-2.35554E+06-6.56347E+07 1.80519E+07-6.86632E+06
 -1      1541-4.18819E+09-4.27504E+07-2.35554E+06-6.56347E+07 1.80519E+07-6.86632E+06
 -1      1542-3.85788E+09-3.90754E+07-1.74685E+06-9.39513E+07 1.66999E+07-9.10539E+06
 -1      1544-3.85788E+09-3.90754E+07-1.74685E+06-9.39513E+07 1.66999E+07-9.10539E+06
 -1      1545-3.41773E+09-3.46474E+07-1.85903E+06-1.18862E+08 1.48799E+07-1.11123E+07
 -1      1547-3.41773E+09-3.46474E+07-1.85903E+06-1.18862E+08 1.48799E+07-1.11123E+07
 -1      1548-2.88317E+09-2.91389E+07-1.34675E+06-1.39647E+08 1.25201E+07-1.28640E+07
 -1      1550-2.88317E+09-2.91389E+07-1.34675E+06-1.39647E+08 1.25201E+07-1.28640E+07
 -1      1551-2.27227E+09-2.27026E+07-1.18698E+06-1.55753E+08 9.80009E+06-1.42757E+07
 -1      1553-2.27227E+09-2.27026E+07-1.18698E+06-1.55753E+08 9.80009E+06-1.42757E+07
 -1      1554-1.60588E+09-1.61360E+07-7.95168E+05-1.66443E+08 6.70709E+06-1.53324E+07
 -1      1556-1.60588E+09-1.61360E+07-7.95168E+05-1.66443E+08 6.70709E+06-1.53324E+07
 -1      1557-9.07058E+08-8.22670E+06-3.85468E+05-1.71230E+08 3.39961E+06-1.59808E+07
 -1      1559-9.07058E+08-8.22670E+06-3.85468E+05-1.71230E+08 3.39961E+06-1.59808E+07
 -1      1560-2.02069E+08-1.89330E+06-2.06059E+05-1.69293E+08-1.25425E+05-1.62042E+07
 -1      1562-2.02069E+08-1.89330E+06-2.06059E+05-1.69293E+08-1.25425E+05-1.62042E+07
 -1      1563 4.80888E+08 7.22102E+06 4.81838E+05-1.59947E+08-3.72713E+06-1.60123E+07
 -1      1565 4.80888E+08 7.22102E+06 4.81838E+05-1.59947E+08-3.72713E+06-1.60123E+07
 -1      1566 1.10918E+09 1.14708E+07 2.86460E+05-1.42852E+08-7.44390E+06-1.53201E+07
 -1      1568 1.10918E+09 1.14708E+07 2.86460E+05-1.42852E+08-7.44390E+06-1.53201E+07
 -1      1569 1.64721E+09 2.13349E+07 1.33060E+06-1.14128E+08-1.11910E+07-1.43283E+07
 -1      1571 1.64721E+09 2.13349E+07 1.33060E+06-1.14128E+08-1.11910E+07-1.43283E+07
 -1      1572 2.05275E+09 2.33293E+07 5.36371E+05-8.04955E+07-1.49781E+07-1.26250E+07
 -1      1574 2.05275E+09 2.33293E+07 5.36371E+05-8.04955E+07-1.49781E+07-1.26250E+07
 -1      1575 2.27477E+09 2.70024E+07 2.01010E+06-1.77204E+07-1.89803E+07-1.10821E+07
 -1      1577 2.27477E+09 2.70024E+07 2.01010E+06-1.77204E+07-1.89803E+07-1.10821E+07
 -1      1578 2.25209E+09 4.15813E+07 5.05279E+05 3.06776E+07-2.23958E+07-8.08468E+06
 -1      1580 2.25209E+09 4.15813E+07 5.05279E+05 3.06776E+07-2.23958E+07-8.08468E+06
 -1      1581 1.90775E+09 5.79468E+06 1.79883E+06 1.51194E+08-2.63593E+07-6.84438E+06
 -1      1583 1.90775E+09 5.79468E+06 1.79883E+06 1.51194E+08-2.63593E+07-6.84438E+06
 -1      1584 1.10287E+09 6.51155E+07 1.77276E+06 2.72681E+08-2.46534E+07-1.90361E+06
 -1      1586 1.10287E+09 6.51155E+07 1.77276E+06 2.72681E+08-2.46534E+07-1.90361E+06
 -1      1587 4.74746E+08 3.97569E+08 5.40465E+06 4.95140E+08-3.53570E+07 2.88446E+06
 -1      1589 4.74746E+08 3.97569E+08 5.40465E+06 4.95140E+08-3.53570E+07 2.88446E+06
 -1      1590 6.21725E+09 7.63279E+08 1.84395E+06 1.49415E+09 9.56191E+06 5.12329E+07
 -1      1592 6.21725E+09 7.63279E+08 1.84395E+06 1.49415E+09 9.56191E+06 5.12329E+07
 -1      1593-4.74746E+08-3.97569E+08-5.40465E+06 4.95140E+08-3.53570E+07-2.88446E+06
 -1      1595-4.74746E+08-3.97569E+08-5.40465E+06 4.95140E+08-3.53570E+07-2.88446E+06
 -1      1596-7.78219E+09-2.88394E+08 1.33608E+06 9.17991E+08 1.95568E+06-4.01138E+07
 -1      1598-7.78219E+09-2.88394E+08 1.33608E+06 9.17991E+08 1.95568E+06-4.01138E+07
 -1      1599-4.85615E+09 8.71611E+07-2.48795E+06 5.68466E+08 1.70789E+06-3.13844E+04
 -1      1601-4.85615E+09 8.71611E+07-2.48795E+06 5.68466E+08 1.70789E+06-3.13844E+04
 -1      1602-2.64088E+09-6.06342E+07-1.93356E+06 5.07047E+08 3.09705E+06-1.90656E+07
 -1      1604-2.64088E+09-6.06342E+07-1.93356E+06 5.07047E+08 3.09705E+06-1.90656E+07
 -1      1605-8.69606E+08 2.49063E+07 1.41071E+06 3.75491E+08 3.60168E+06-9.35494E+06
 -1      1607-8.69606E+08 2.49063E+07 1.41071E+06 3.75491E+08 3.60168E+06-9.35494E+06
 -1      1608 5.31382E+08 1.77301E+06-1.12665E+06 3.10605E+08 5.90449E+06-1.28417E+07
 -1      1610 5.31382E+08 1.77301E+06-1.12665E+06 3.10605E+08 5.90449E+06-1.28417E+07
 -1      1611 1.66482E+09 2.76673E+07 2.39341E+06 2.46430E+08 8.19222E+06-9.67310E+06
 -1      1613 1.66482E+09 2.76673E+07 2.39341E+06 2.46430E+08 8.19222E+06-9.67310E+06
 -1      1614 2.56880E+09 2.60014E+07 1.92694E+05 1.96398E+08 1.08372E+07-9.11665E+06
 -1      1616 2.56880E+09 2.60014E+07 1.92694E+05 1.96398E+08 1.08372E+07-9.11665E+06
 -1      1617 3.28024E+09 3.75332E+07 2.68528E+06 1.51341E+08 1.33625E+07-6.93789E+06
 -1      1619 3.28024E+09 3.75332E+07 2.68528E+06 1.51341E+08 1.33625E+07-6.93789E+06
 -1      1620 3.81502E+09 3.88410E+07 1.17963E+06 1.10156E+08 1.54598E+07-5.07388E+06
 -1      1622 3.81502E+09 3.88410E+07 1.17963E+06 1.10156E+08 1.54598E+07-5.07388E+06
 -1      1623 4.18681E+09 4.42626E+07 2.75684E+06 7.13444E+07 1.72343E+07-2.77227E+06
 -1      1625 4.18681E+09 4.42626E+07 2.75684E+06 7.13444E+07 1.72343E+07-2.77227E+06
 -1      1626 4.40266E+09 4.47228E+07 1.73490E+06 3.43636E+07 1.82917E+07-4.07958E+05
 -1      1628 4.40266E+09 4.47228E+07 1.73490E+06 3.43636E+07 1.82917E+07-4.07958E+05
 -1      1629 4.47008E+09 4.60885E+07 2.65343E+06-1.00423E+06 1.88871E+07 2.04220E+06
 -1      1631 4.47008E+09 4.60885E+07 2.65343E+06-1.00423E+06 1.88871E+07 2.04220E+06
 -1      1632 4.39568E+09 4.45827E+07 1.90195E+06-3.44373E+07 1.87236E+07 4.50154E+06
 -1      1634 4.39568E+09 4.45827E+07 1.90195E+06-3.44373E+07 1.87236E+07 4.50154E+06
 -1      1635 4.18819E+09 4.27504E+07 2.35554E+06-6.56347E+07 1.80519E+07 6.86632E+06
 -1      1637 4.18819E+09 4.27504E+07 2.35554E+06-6.56347E+07 1.80519E+07 6.86632E+06
 -1      1638 3.85788E+09 3.90754E+07 1.74685E+06-9.39513E+07 1.66999E+07 9.10539E+06
 -1      1640 3.85788E+09 3.90754E+07 1.74685E+06-9.39513E+07 1.66999E+07 9.10539E+06
 -1      1641 3.41773E+09 3.46474E+07 1.85903E+06-1.18862E+08 1.48799E+07 1.11123E+07
 -1      1643 3.41773E+09 3.46474E+07 1.85903E+06-1.18862E+08 1.48799E+07 1.11123E+07
 -1      1644 2.88317E+09 2.91389E+07 1.34675E+06-1.39647E+08 1.25201E+07 1.28640E+07
 -1      1646 2.88317E+09 2.91389E+07 1.34675E+06-1.39647E+08 1.25201E+07 1.28640E+07
 -1      1647 2.27227E+09 2.27026E+07 1.18698E+06-1.55753E+08 9.80009E+06 1.42757E+07
 -1      1649 2.27227E+09 2.27026E+07 1.18698E+06-1.55753E+08 9.80009E+06 1.42757E+07
 -1      1650 1.60588E+09 1.61360E+07 7.95168E+05-1.66443E+08 6.70709E+06 1.53324E+07
 -1      1652 1.60588E+09 1.61360E+07 7.95168E+05-1.66443E+08 6.70709E+06 1.53324E+07
 -1      1653 9.07058E+08 8.22670E+06 3.85468E+05-1.71230E+08 3.39961E+06 1.59808E+07
 -1      1655 9.07058E+08 8.22670E+06 3.85468E+05-1.71230E+08 3.39961E+06 1.59808E+07
 -1      1656 2.02069E+08 1.89330E+06 2.06059E+05-1.69293E+08-1.25425E+05 1.62042E+07
 -1      1658 2.02069E+08 1.89330E+06 2.06059E+05-1.69293E+08-1.25425E+05 1.62042E+07
 -1      1659-4.80888E+08-7.22102E+06-4.81838E+05-1.59947E+08-3.72713E+06 1.60123E+07
 -1      1661-4.80888E+08-7.22102E+06-4.81838E+05-1.59947E+08-3.72713E+06 1.60123E+07
 -1      1662-1.10918E+09-1.14708E+07-2.86460E+05-1.42852E+08-7.44390E+06 1.53201E+07
 -1      1664-1.10918E+09-1.14708E+07-2.86460E+05-1.42852E+08-7.44390E+06 1.53201E+07
 -1      1665-1.64721E+09-2.13349E+07-1.33060E+06-1.14128E+08-1.11910E+07 1.43283E+07
 -1      1667-1.64721E+09-2.13349E+07-1.33060E+06-1.14128E+08-1.11910E+07 1.43283E+07
 -1      1668-2.05275E+09-2.33293E+07-5.36371E+05-8.04955E+07-1.49781E+07 1.26250E+07
 -1      1670-2.05275E+09-2.33293E+07-5.36371E+05-8.04955E+07-1.49781E+07 1.26250E+07
 -1      1671-2.27477E+09-2.70024E+07-2.01010E+06-1.77204E+07-1.89803E+07 1.10821E+07
 -1      1673-2.27477E+09-2.70024E+07-2.01010E+06-1.77204E+07-1.89803E+07 1.10821E+07
 -1      1674-2.25209E+09-4.15813E+07-5.05279E+05 3.06776E+07-2.23958E+07 8.08468E+06
 -1      1676-2.25209E+09-4.15813E+07-5.05279E+05 3.06776E+07-2.23958E+07 8.08468E+06
 -1      1677-1.90775E+09-5.79468E+06-1.79883E+06 1.51194E+08-2.63593E+07 6.84438E+06
 -1      1679-1.90775E+09-5.79468E+06-1.79883E+06 1.51194E+08-2.63593E+07 6.84438E+06
 -1      1680-1.10287E+09-6.51155E+07-1.77276E+06 2.72681E+08-2.46534E+07 1.90361E+06
 -1      1682-1.10287E+09-6.51155E+07-1.77276E+06 2.72681E+08-2.46534E+07 1.90361E+06
 -1      1683-6.21725E+09-7.63279E+08-1.84395E+06 1.49415E+09 9.56191E+06-5.12329E+07
 -1      1685-6.21725E+09-7.63279E+08-1.84395E+06 1.49415E+09 9.56191E+06-5.12329E+07
 -1      1686 5.20656E+09 3.14761E+08 1.17148E+06-1.31549E+09-8.30530E+05-1.34497E+07
 -1      1688 5.20656E+09 3.14761E+08 1.17148E+06-1.31549E+09-8.30530E+05-1.34497E+07
 -1      1689 3.29751E+09 5.82254E+05 5.82335E+04-9.99410E+08-1.02887E+07 5.90707E+06
 -1      1691 3.29751E+09 5.82254E+05 5.82335E+04-9.99410E+08-1.02887E+07 5.90707E+06
 -1      1692 1.76827E+09 6.67482E+07 2.36684E+04-7.78460E+08-6.13979E+06-4.58715E+06
 -1      1694 1.76827E+09 6.67482E+07 2.36684E+04-7.78460E+08-6.13979E+06-4.58715E+06
 -1      1695 5.99423E+08 1.60631E+06 3.07372E+05-6.18504E+08-3.84429E+06-3.92217E+05
 -1      1697 5.99423E+08 1.60631E+06 3.07372E+05-6.18504E+08-3.84429E+06-3.92217E+05
 -1      1698-3.52337E+08-1.24552E+07-3.99639E+05-4.93727E+08-6.20330E+05-2.67756E+06
 -1      1700-3.52337E+08-1.24552E+07-3.99639E+05-4.93727E+08-6.20330E+05-2.67756E+06
 -1      1701-1.10835E+09-3.52421E+07 4.54018E+04-3.97667E+08 3.15186E+06-1.70506E+06
 -1      1703-1.10835E+09-3.52421E+07 4.54018E+04-3.97667E+08 3.15186E+06-1.70506E+06
 -1      1704-1.71760E+09-5.08292E+07-4.17685E+05-3.14572E+08 5.85394E+06-1.93894E+06
 -1      1706-1.71760E+09-5.08292E+07-4.17685E+05-3.14572E+08 5.85394E+06-1.93894E+06
 -1      1707-2.19373E+09-6.41789E+07-2.56457E+05-2.43237E+08 8.92772E+06-1.52426E+06
 -1      1709-2.19373E+09-6.41789E+07-2.56457E+05-2.43237E+08 8.92772E+06-1.52426E+06
 -1      1710-2.55328E+09-7.36625E+07-3.86073E+05-1.76536E+08 1.08748E+07-1.23926E+06
 -1      1712-2.55328E+09-7.36625E+07-3.86073E+05-1.76536E+08 1.08748E+07-1.23926E+06
 -1      1713-2.80228E+09-8.08720E+07-4.41192E+05-1.14675E+08 1.27929E+07-8.61120E+05
 -1      1715-2.80228E+09-8.08720E+07-4.41192E+05-1.14675E+08 1.27929E+07-8.61120E+05
 -1      1716-2.94746E+09-8.45546E+07-3.64226E+05-5.50853E+07 1.37775E+07-4.49683E+05
 -1      1718-2.94746E+09-8.45546E+07-3.64226E+05-5.50853E+07 1.37775E+07-4.49683E+05
 -1      1719-2.99266E+09-8.59928E+07-5.12819E+05 1.36233E+06 1.44823E+07-5.45997E+04
 -1      1721-2.99266E+09-8.59928E+07-5.12819E+05 1.36233E+06 1.44823E+07-5.45997E+04
 -1      1722-2.94315E+09-8.43150E+07-3.31382E+05 5.50970E+07 1.44370E+07 3.63843E+05
 -1      1724-2.94315E+09-8.43150E+07-3.31382E+05 5.50970E+07 1.44370E+07 3.63843E+05
 -1      1725-2.80427E+09-8.04393E+07-5.02961E+05 1.04928E+08 1.40069E+07 7.40620E+05
 -1      1727-2.80427E+09-8.04393E+07-5.02961E+05 1.04928E+08 1.40069E+07 7.40620E+05
 -1      1728-2.58322E+09-7.39590E+07-2.64930E+05 1.50381E+08 1.29972E+07 1.11101E+06
 -1      1730-2.58322E+09-7.39590E+07-2.64930E+05 1.50381E+08 1.29972E+07 1.11101E+06
 -1      1731-2.28857E+09-6.55579E+07-4.41328E+05 1.90163E+08 1.15982E+07 1.42640E+06
 -1      1733-2.28857E+09-6.55579E+07-4.41328E+05 1.90163E+08 1.15982E+07 1.42640E+06
 -1      1734-1.93069E+09-5.52074E+07-1.52390E+05 2.23533E+08 9.79862E+06 1.71227E+06
 -1      1736-1.93069E+09-5.52074E+07-1.52390E+05 2.23533E+08 9.79862E+06 1.71227E+06
 -1      1737-1.52178E+09-4.34380E+07-3.56987E+05 2.49180E+08 7.66847E+06 1.93324E+06
 -1      1739-1.52178E+09-4.34380E+07-3.56987E+05 2.49180E+08 7.66847E+06 1.93324E+06
 -1      1740-1.07557E+09-3.05944E+07 1.29367E+04 2.66427E+08 5.33507E+06 2.10959E+06
 -1      1742-1.07557E+09-3.05944E+07 1.29367E+04 2.66427E+08 5.33507E+06 2.10959E+06
 -1      1743-6.07966E+08-1.69487E+07-2.84776E+05 2.73834E+08 2.76416E+06 2.22215E+06
 -1      1745-6.07966E+08-1.69487E+07-2.84776E+05 2.73834E+08 2.76416E+06 2.22215E+06
 -1      1746-1.35897E+08-3.42953E+06 2.39427E+05 2.70930E+08 1.95201E+05 2.27494E+06
 -1      1748-1.35897E+08-3.42953E+06 2.39427E+05 2.70930E+08 1.95201E+05 2.27494E+06
 -1      1749 3.20815E+08 1.02408E+07-2.72008E+05 2.55693E+08-2.50658E+06 2.30044E+06
 -1      1751 3.20815E+08 1.02408E+07-2.72008E+05 2.55693E+08-2.50658E+06 2.30044E+06
 -1      1752 7.41280E+08 2.25745E+07 5.43652E+05 2.27890E+08-5.04417E+06 2.21896E+06
 -1      1754 7.41280E+08 2.25745E+07 5.43652E+05 2.27890E+08-5.04417E+06 2.21896E+06
 -1      1755 1.10092E+09 3.26549E+07-3.78069E+05 1.83659E+08-7.59861E+06 2.25452E+06
 -1      1757 1.10092E+09 3.26549E+07-3.78069E+05 1.83659E+08-7.59861E+06 2.25452E+06
 -1      1758 1.37078E+09 4.57885E+07 9.27344E+05 1.23386E+08-1.00626E+07 1.99463E+06
 -1      1760 1.37078E+09 4.57885E+07 9.27344E+05 1.23386E+08-1.00626E+07 1.99463E+06
 -1      1761 1.51960E+09 3.70451E+07-5.79892E+05 3.75536E+07-1.23317E+07 2.30443E+06
 -1      1763 1.51960E+09 3.70451E+07-5.79892E+05 3.75536E+07-1.23317E+07 2.30443E+06
 -1      1764 1.50186E+09 7.62967E+07 1.07640E+06-6.97076E+07-1.56099E+07 1.67290E+06
 -1      1766 1.50186E+09 7.62967E+07 1.07640E+06-6.97076E+07-1.56099E+07 1.67290E+06
 -1      1767 1.25780E+09-9.57412E+06 4.07435E+04-2.25099E+08-1.81164E+07 2.78662E+06
 -1      1769 1.25780E+09-9.57412E+06 4.07435E+04-2.25099E+08-1.81164E+07 2.78662E+06
 -1      1770 7.72912E+08 1.23147E+08-1.62902E+06-4.10929E+08-2.71534E+07 1.16368E+06
 -1      1772 7.72912E+08 1.23147E+08-1.62902E+06-4.10929E+08-2.71534E+07 1.16368E+06
 -1      1773-5.20656E+09-3.14761E+08-1.17148E+06-1.31549E+09-8.30530E+05 1.34497E+07
 -1      1775-5.20656E+09-3.14761E+08-1.17148E+06-1.31549E+09-8.30530E+05 1.34497E+07
 -1      1776-3.29751E+09-5.82254E+05-5.82335E+04-9.99410E+08-1.02887E+07-5.90707E+06
 -1      1778-3.29751E+09-5.82254E+05-5.82335E+04-9.99410E+08-1.02887E+07-5.90707E+06
 -1      1779-1.76827E+09-6.67482E+07-2.36684E+04-7.78460E+08-6.13979E+06 4.58715E+06
 -1      1781-1.76827E+09-6.67482E+07-2.36684E+04-7.78460E+08-6.13979E+06 4.58715E+06
 -1      1782-5.99423E+08-1.60631E+06-3.07372E+05-6.18504E+08-3.84429E+06 3.92217E+05
 -1      1784-5.99423E+08-1.60631E+06-3.07372E+05-6.18504E+08-3.84429E+06 3.92217E+05
 -1      1785 3.52337E+08 1.24552E+07 3.99639E+05-4.93727E+08-6.20330E+05 2.67756E+06
 -1      1787 3.52337E+08 1.24552E+07 3.99639E+05-4.93727E+08-6.20330E+05 2.67756E+06
 -1      1788 1.10835E+09 3.52421E+07-4.54018E+04-3.97667E+08 3.15186E+06 1.70506E+06
 -1      1790 1.10835E+09 3.52421E+07-4.54018E+04-3.97667E+08 3.15186E+06 1.70506E+06
 -1      1791 1.71760E+09 5.08292E+07 4.17685E+05-3.14572E+08 5.85394E+06 1.93894E+06
 -1      1793 1.71760E+09 5.08292E+07 4.17685E+05-3.14572E+08 5.85394E+06 1.93894E+06
 -1      1794 2.19373E+09 6.41789E+07 2.56457E+05-2.43237E+08 8.92772E+06 1.52426E+06
 -1      1796 2.19373E+09 6.41789E+07 2.56457E+05-2.43237E+08 8.92772E+06 1.52426E+06
 -1      1797 2.55328E+09 7.36625E+07 3.86073E+05-1.76536E+08 1.08748E+07 1.23926E+06
 -1      1799 2.55328E+09 7.36625E+07 3.86073E+05-1.76536E+08 1.08748E+07 1.23926E+06
 -1      1800 2.80228E+09 8.08720E+07 4.41192E+05-1.14675E+08 1.27929E+07 8.61120E+05
 -1      1802 2.80228E+09 8.08720E+07 4.41192E+05-1.14675E+08 1.27929E+07 8.61120E+05
 -1      1803 2.94746E+09 8.45546E+07 3.64226E+05-5.50853E+07 1.37775E+07 4.49683E+05
 -1      1805 2.94746E+09 8.45546E+07 3.64226E+05-5.50853E+07 1.37775E+07 4.49683E+05
 -1      1806 2.99266E+09 8.59928E+07 5.12819E+05 1.36233E+06 1.44823E+07 5.45997E+04
 -1      1808 2.99266E+09 8.59928E+07 5.12819E+05 1.36233E+06 1.44823E+07 5.45997E+04
 -1      1809 2.94315E+09 8.43150E+07 3.31382E+05 5.50970E+07 1.44370E+07-3.63843E+05
 -1      1811 2.94315E+09 8.43150E+07 3.31382E+05 5.50970E+07 1.44370E+07-3.63843E+05
 -1      1812 2.80427E+09 8.04393E+07 5.02961E+05 1.04928E+08 1.40069E+07-7.40620E+05
 -1      1814 2.80427E+09 8.04393E+07 5.02961E+05 1.04928E+08 1.40069E+07-7.40620E+05
 -1      1815 2.58322E+09 7.39590E+07 2.64930E+05 1.50381E+08 1.29972E+07-1.11101E+06
 -1      1817 2.58322E+09 7.39590E+07 2.64930E+05 1.50381E+08 1.29972E+07-1.11101E+06
 -1      1818 2.28857E+09 6.55579E+07 4.41328E+05 1.90163E+08 1.15982E+07-1.42640E+06
 -1      1820 2.28857E+09 6.55579E+07 4.41328E+05 1.90163E+08 1.15982E+07-1.42640E+06
 -1      1821 1.93069E+09 5.52074E+07 1.52390E+05 2.23533E+08 9.79862E+06-1.71227E+06
 -1      1823 1.93069E+09 5.52074E+07 1.52390E+05 2.23533E+08 9.79862E+06-1.71227E+06
 -1      1824 1.52178E+09 4.34380E+07 3.56987E+05 2.49180E+08 7.66847E+06-1.93324E+06
 -1      1826 1.52178E+09 4.34380E+07 3.56987E+05 2.49180E+08 7.66847E+06-1.93324E+06
 -1      1827 1.07557E+09 3.05944E+07-1.29367E+04 2.66427E+08 5.33507E+06-2.10959E+06
 -1      1829 1.07557E+09 3.05944E+07-1.29367E+04 2.66427E+08 5.33507E+06-2.10959E+06
 -1      1830 6.07966E+08 1.69487E+07 2.84776E+05 2.73834E+08 2.76416E+06-2.22215E+06
 -1      1832 6.07966E+08 1.69487E+07 2.84776E+05 2.73834E+08 2.76416E+06-2.22215E+06
 -1      1833 1.35897E+08 3.42953E+06-2.39427E+05 2.70930E+08 1.95201E+05-2.27494E+06
 -1      1835 1.35897E+08 3.42953E+06-2.39427E+05 2.70930E+08 1.95201E+05-2.27494E+06
 -1      1836-3.20815E+08-1.02408E+07 2.72008E+05 2.55693E+08-2.50658E+06-2.30044E+06
 -1      1838-3.20815E+08-1.02408E+07 2.72008E+05 2.55693E+08-2.50658E+06-2.30044E+06
 -1      1839-7.41280E+08-2.25745E+07-5.43652E+05 2.27890E+08-5.04417E+06-2.21896E+06
 -1      1841-7.41280E+08-2.25745E+07-5.43652E+05 2.27890E+08-5.04417E+06-2.21896E+06
 -1      1842-1.10092E+09-3.26549E+07 3.78069E+05 1.83659E+08-7.59861E+06-2.25452E+06
 -1      1844-1.10092E+09-3.26549E+07 3.78069E+05 1.83659E+08-7.59861E+06-2.25452E+06
 -1      1845-1.37078E+09-4.57885E+07-9.27344E+05 1.23386E+08-1.00626E+07-1.99463E+06
 -1      1847-1.37078E+09-4.57885E+07-9.27344E+05 1.23386E+08-1.00626E+07-1.99463E+06
 -1      1848-1.51960E+09-3.70451E+07 5.79892E+05 3.75536E+07-1.23317E+07-2.30443E+06
 -1      1850-1.51960E+09-3.70451E+07 5.79892E+05 3.75536E+07-1.23317E+07-2.30443E+06
 -1      1851-1.50186E+09-7.62967E+07-1.07640E+06-6.97076E+07-1.56099E+07-1.67290E+06
 -1      1853-1.50186E+09-7.62967E+07-1.07640E+06-6.97076E+07-1.56099E+07-1.67290E+06
 -1      1854-1.25780E+09 9.57412E+06-4.07435E+04-2.25099E+08-1.81164E+07-2.78662E+06
 -1      1856-1.25780E+09 9.57412E+06-4.07435E+04-2.25099E+08-1.81164E+07-2.78662E+06
 -1      1857-7.72912E+08-1.23147E+08 1.62902E+06-4.10929E+08-2.71534E+07-1.16368E+06
 -1      1859-7.72912E+08-1.23147E+08 1.62902E+06-4.10929E+08-2.71534E+07-1.16368E+06
 -1      1860-1.46481E-02-9.56666E-05-4.19625E-03-1.66829E+07-1.49314E+07-1.93913E-02
 -1      1862-1.46481E-02-9.56666E-05-4.19625E-03-1.66829E+07-1.49314E+07-1.93913E-02
 -1      1863-1.10565E-02 1.36927E-05-2.35723E-03 2.93300E+05-1.69819E+07-2.00178E-02
 -1      1865-1.10565E-02 1.36927E-05-2.35723E-03 2.93300E+05-1.69819E+07-2.00178E-02
 -1      1866-7.18359E-03 7.88548E-05 2.96607E-04-9.97326E+06-1.16909E+07-1.97698E-02
 -1      1868-7.18359E-03 7.88548E-05 2.96607E-04-9.97326E+06-1.16909E+07-1.97698E-02
 -1      1869-4.12573E-03-1.38863E-04 2.98284E-03-3.05665E+06-5.24291E+06-1.91227E-02
 -1      1871-4.12573E-03-1.38863E-04 2.98284E-03-3.05665E+06-5.24291E+06-1.91227E-02
 -1      1872-1.93738E-03-2.96411E-04 3.59167E-03-7.59920E+06 1.46582E+06-1.75241E-02
 -1      1874-1.93738E-03-2.96411E-04 3.59167E-03-7.59920E+06 1.46582E+06-1.75241E-02
 -1      1875 5.68302E-04 2.74443E-04 1.82310E-03-3.69827E+06 8.22043E+06-1.63066E-02
 -1      1877 5.68302E-04 2.74443E-04 1.82310E-03-3.69827E+06 8.22043E+06-1.63066E-02
 -1      1878 3.88962E-03 1.55926E-03 1.03316E-04-5.57860E+06 1.40185E+07-1.58476E-02
 -1      1880 3.88962E-03 1.55926E-03 1.03316E-04-5.57860E+06 1.40185E+07-1.58476E-02
 -1      1881 7.15964E-03 1.60909E-03 3.03026E-05-3.00479E+06 1.92098E+07-1.52753E-02
 -1      1883 7.15964E-03 1.60909E-03 3.03026E-05-3.00479E+06 1.92098E+07-1.52753E-02
 -1      1884 9.07969E-03 2.94640E-04 9.95166E-04-3.36827E+06 2.32778E+07-1.29600E-02
 -1      1886 9.07969E-03 2.94640E-04 9.95166E-04-3.36827E+06 2.32778E+07-1.29600E-02
 -1      1887 1.00205E-02-5.67350E-04 9.11430E-04-1.43790E+06 2.64155E+07-9.56617E-03
 -1      1889 1.00205E-02-5.67350E-04 9.11430E-04-1.43790E+06 2.64155E+07-9.56617E-03
 -1      1890 1.13456E-02 2.55079E-04-9.36296E-04-9.84981E+05 2.84072E+07-7.55346E-03
 -1      1892 1.13456E-02 2.55079E-04-9.36296E-04-9.84981E+05 2.84072E+07-7.55346E-03
 -1      1893 1.26980E-02 9.01822E-04-3.16382E-03 6.06943E+05 2.93988E+07-7.33240E-03
 -1      1895 1.26980E-02 9.01822E-04-3.16382E-03 6.06943E+05 2.93988E+07-7.33240E-03
 -1      1896 1.35010E-02 3.91238E-04-4.50299E-03 1.41289E+06 2.92482E+07-7.12080E-03
 -1      1898 1.35010E-02 3.91238E-04-4.50299E-03 1.41289E+06 2.92482E+07-7.12080E-03
 -1      1899 1.41823E-02-8.64006E-05-4.21187E-03 2.76589E+06 2.82140E+07-6.41253E-03
 -1      1901 1.41823E-02-8.64006E-05-4.21187E-03 2.76589E+06 2.82140E+07-6.41253E-03
 -1      1902 1.50775E-02-7.54833E-05-2.62260E-03 3.60777E+06 2.60724E+07-4.55396E-03
 -1      1904 1.50775E-02-7.54833E-05-2.62260E-03 3.60777E+06 2.60724E+07-4.55396E-03
 -1      1905 1.59611E-02-1.21908E-04-1.79579E-03 4.72769E+06 2.33181E+07-1.39287E-03
 -1      1907 1.59611E-02-1.21908E-04-1.79579E-03 4.72769E+06 2.33181E+07-1.39287E-03
 -1      1908 1.58626E-02 6.93097E-04-5.73746E-04 5.37244E+06 1.95136E+07 1.92793E-03
 -1      1910 1.58626E-02 6.93097E-04-5.73746E-04 5.37244E+06 1.95136E+07 1.92793E-03
 -1      1911 1.49423E-02 7.57942E-04 8.34723E-04 6.25060E+06 1.55176E+07 6.18535E-03
 -1      1913 1.49423E-02 7.57942E-04 8.34723E-04 6.25060E+06 1.55176E+07 6.18535E-03
 -1      1914 1.42696E-02-1.28657E-04 4.46377E-04 6.50555E+06 1.05073E+07 9.48769E-03
 -1      1916 1.42696E-02-1.28657E-04 4.46377E-04 6.50555E+06 1.05073E+07 9.48769E-03
 -1      1917 1.40381E-02 9.71623E-05 4.79510E-04 7.18012E+06 5.89331E+06 1.04374E-02
 -1      1919 1.40381E-02 9.71623E-05 4.79510E-04 7.18012E+06 5.89331E+06 1.04374E-02
 -1      1920 1.35746E-02-9.48988E-05 7.39950E-04 6.85028E+06 1.90904E+05 9.73658E-03
 -1      1922 1.35746E-02-9.48988E-05 7.39950E-04 6.85028E+06 1.90904E+05 9.73658E-03
 -1      1923 1.25390E-02-6.38179E-05-1.81184E-04 7.46560E+06-4.31709E+06 8.82587E-03
 -1      1925 1.25390E-02-6.38179E-05-1.81184E-04 7.46560E+06-4.31709E+06 8.82587E-03
 -1      1926 1.10149E-02-1.53808E-04-2.64857E-03 6.29894E+06-1.02741E+07 1.03092E-02
 -1      1928 1.10149E-02-1.53808E-04-2.64857E-03 6.29894E+06-1.02741E+07 1.03092E-02
 -1      1929 8.72495E-03-2.15639E-04-6.87913E-03 7.14809E+06-1.39120E+07 1.13205E-02
 -1      1931 8.72495E-03-2.15639E-04-6.87913E-03 7.14809E+06-1.39120E+07 1.13205E-02
 -1      1932 6.02141E-03-5.49415E-05-9.66290E-03 4.84146E+06-2.00938E+07 9.25349E-03
 -1      1934 6.02141E-03-5.49415E-05-9.66290E-03 4.84146E+06-2.00938E+07 9.25349E-03
 -1      1935 3.86782E-03 4.26349E-04-8.08104E-03 6.13789E+06-2.21423E+07 5.44133E-03
 -1      1937 3.86782E-03 4.26349E-04-8.08104E-03 6.13789E+06-2.21423E+07 5.44133E-03
 -1      1938 2.36415E-03 8.99440E-04-5.15583E-03 3.01860E+06-3.01453E+07 3.52081E-03
 -1      1940 2.36415E-03 8.99440E-04-5.15583E-03 3.01860E+06-3.01453E+07 3.52081E-03
 -1      1941 1.13425E-03 6.60159E-04-3.82981E-03 3.00615E+06-3.03971E+07 3.74878E-03
 -1      1943 1.13425E-03 6.60159E-04-3.82981E-03 3.00615E+06-3.03971E+07 3.74878E-03
 -1      1944 4.18888E-04 5.46267E-04-4.65981E-03 3.75169E+06-4.86638E+07 2.32209E-03
 -1      1946 4.18888E-04 5.46267E-04-4.65981E-03 3.75169E+06-4.86638E+07 2.32209E-03
 -1      1947 8.69185E-04-1.29687E-04-1.57340E-03 2.30562E-03 2.73144E+06-2.05914E-02
 -1      1949 8.69185E-04-1.29687E-04-1.57340E-03 2.30562E-03 2.73144E+06-2.05914E-02
 -1      1950 1.17212E-03-6.00756E-05-1.48488E-03-3.34029E-04 1.73357E+07-2.13523E-02
 -1      1952 1.17212E-03-6.00756E-05-1.48488E-03-3.34029E-04 1.73357E+07-2.13523E-02
 -1      1953 1.01472E-03-1.21649E-05 4.23305E-04 1.06443E-03 2.19639E+07-2.09163E-02
 -1      1955 1.01472E-03-1.21649E-05 4.23305E-04 1.06443E-03 2.19639E+07-2.09163E-02
 -1      1956 6.18980E-04-2.77587E-04 2.41793E-03 3.41592E-04 2.53451E+07-2.03768E-02
 -1      1958 6.18980E-04-2.77587E-04 2.41793E-03 3.41592E-04 2.53451E+07-2.03768E-02
 -1      1959 1.24204E-04-5.95311E-04 2.89158E-03 8.26942E-04 2.84794E+07-1.94011E-02
 -1      1961 1.24204E-04-5.95311E-04 2.89158E-03 8.26942E-04 2.84794E+07-1.94011E-02
 -1      1962 3.63095E-04-1.16046E-04 1.82590E-03 4.44436E-04 3.05323E+07-1.87413E-02
 -1      1964 3.63095E-04-1.16046E-04 1.82590E-03 4.44436E-04 3.05323E+07-1.87413E-02
 -1      1965 1.05852E-03 7.38443E-04-8.45794E-05 7.28445E-04 3.29542E+07-1.82237E-02
 -1      1967 1.05852E-03 7.38443E-04-8.45794E-05 7.28445E-04 3.29542E+07-1.82237E-02
 -1      1968 9.69751E-04 6.04162E-04-1.30867E-03 4.30426E-04 3.46052E+07-1.67295E-02
 -1      1970 9.69751E-04 6.04162E-04-1.30867E-03 4.30426E-04 3.46052E+07-1.67295E-02
 -1      1971-1.35695E-04-4.29266E-04-8.74393E-04 5.99890E-04 3.61085E+07-1.36545E-02
 -1      1973-1.35695E-04-4.29266E-04-8.74393E-04 5.99890E-04 3.61085E+07-1.36545E-02
 -1      1974-1.06935E-03-6.01421E-04-3.74411E-04 5.66649E-04 3.68615E+07-1.06577E-02
 -1      1976-1.06935E-03-6.01421E-04-3.74411E-04 5.66649E-04 3.68615E+07-1.06577E-02
 -1      1977-1.14630E-03 1.59324E-04-1.56697E-03 3.55500E-04 3.70082E+07-9.05582E-03
 -1      1979-1.14630E-03 1.59324E-04-1.56697E-03 3.55500E-04 3.70082E+07-9.05582E-03
 -1      1980-8.00687E-04 7.55354E-04-3.58398E-03 5.68751E-04 3.63639E+07-8.37864E-03
 -1      1982-8.00687E-04 7.55354E-04-3.58398E-03 5.68751E-04 3.63639E+07-8.37864E-03
 -1      1983-6.22225E-04 6.32619E-04-5.33645E-03 2.26526E-04 3.48218E+07-7.71955E-03
 -1      1985-6.22225E-04 6.32619E-04-5.33645E-03 2.26526E-04 3.48218E+07-7.71955E-03
 -1      1986-7.47803E-04-1.61693E-04-6.34673E-03 1.93495E-04 3.25421E+07-6.17175E-03
 -1      1988-7.47803E-04-1.61693E-04-6.34673E-03 1.93495E-04 3.25421E+07-6.17175E-03
 -1      1989-5.35039E-04 1.07943E-04-5.86277E-03 2.61310E-04 2.92066E+07-3.71565E-03
 -1      1991-5.35039E-04 1.07943E-04-5.86277E-03 2.61310E-04 2.92066E+07-3.71565E-03
 -1      1992 2.84677E-05 2.28533E-04-5.00837E-03 1.32125E-04 2.53457E+07-5.57044E-04
 -1      1994 2.84677E-05 2.28533E-04-5.00837E-03 1.32125E-04 2.53457E+07-5.57044E-04
 -1      1995-1.57800E-04 5.01249E-04-3.32058E-03 2.25020E-04 2.03491E+07 3.72323E-03
 -1      1997-1.57800E-04 5.01249E-04-3.32058E-03 2.25020E-04 2.03491E+07 3.72323E-03
 -1      1998-1.07747E-03 5.35659E-04-9.67515E-04 3.94277E-04 1.52252E+07 7.68378E-03
 -1      2000-1.07747E-03 5.35659E-04-9.67515E-04 3.94277E-04 1.52252E+07 7.68378E-03
 -1      2001-1.07601E-03 2.50410E-04 3.46230E-04 1.97139E-04 8.89301E+06 1.02612E-02
 -1      2003-1.07601E-03 2.50410E-04 3.46230E-04 1.97139E-04 8.89301E+06 1.02612E-02
 -1      2004-2.14267E-04-3.58351E-05 5.58382E-04 1.48941E-04 3.04126E+06 1.14707E-02
 -1      2006-2.14267E-04-3.58351E-05 5.58382E-04 1.48941E-04 3.04126E+06 1.14707E-02
 -1      2007 5.64123E-04-3.26147E-04 2.71428E-05 1.05364E-04-4.16783E+06 1.04136E-02
 -1      2009 5.64123E-04-3.26147E-04 2.71428E-05 1.05364E-04-4.16783E+06 1.04136E-02
 -1      2010 1.17426E-03-2.82743E-04-1.86599E-03 2.16335E-04-1.00394E+07 8.98964E-03
 -1      2012 1.17426E-03-2.82743E-04-1.86599E-03 2.16335E-04-1.00394E+07 8.98964E-03
 -1      2013 1.96329E-03-1.80457E-04-4.68051E-03 3.05302E-04-1.75643E+07 1.03372E-02
 -1      2015 1.96329E-03-1.80457E-04-4.68051E-03 3.05302E-04-1.75643E+07 1.03372E-02
 -1      2016 2.56335E-03 1.76595E-04-6.52346E-03 6.38915E-05-2.25737E+07 1.13793E-02
 -1      2018 2.56335E-03 1.76595E-04-6.52346E-03 6.38915E-05-2.25737E+07 1.13793E-02
 -1      2019 2.09925E-03 3.51303E-04-7.30599E-03 2.32587E-04-2.96244E+07 9.86291E-03
 -1      2021 2.09925E-03 3.51303E-04-7.30599E-03 2.32587E-04-2.96244E+07 9.86291E-03
 -1      2022 9.16144E-04 8.55179E-04-6.54466E-03 3.79700E-05-3.25056E+07 6.65930E-03
 -1      2024 9.16144E-04 8.55179E-04-6.54466E-03 3.79700E-05-3.25056E+07 6.65930E-03
 -1      2025-5.86502E-04 5.56977E-04-4.61273E-03 1.06204E-04-3.72661E+07 4.39428E-03
 -1      2027-5.86502E-04 5.56977E-04-4.61273E-03 1.06204E-04-3.72661E+07 4.39428E-03
 -1      2028-1.52119E-03-1.89932E-04-3.67257E-03 3.09228E-04-3.50722E+07 3.98954E-03
 -1      2030-1.52119E-03-1.89932E-04-3.67257E-03 3.09228E-04-3.50722E+07 3.98954E-03
 -1      2031-7.57521E-04 4.51628E-04-4.46318E-03 5.67446E-05-3.04458E+07 1.57695E-03
 -1      2033-7.57521E-04 4.51628E-04-4.46318E-03 5.67446E-05-3.04458E+07 1.57695E-03
 -1      2034 1.59468E-02-7.51406E-05 1.33013E-03 1.66829E+07-1.49314E+07-2.05117E-02
 -1      2036 1.59468E-02-7.51406E-05 1.33013E-03 1.66829E+07-1.49314E+07-2.05117E-02
 -1      2037 1.24362E-02-1.10466E-04-6.66977E-04-2.93300E+05-1.69819E+07-1.99117E-02
 -1      2039 1.24362E-02-1.10466E-04-6.66977E-04-2.93300E+05-1.69819E+07-1.99117E-02
 -1      2040 9.06511E-03-4.21216E-05 2.77764E-04 9.97326E+06-1.16909E+07-1.89651E-02
 -1      2042 9.06511E-03-4.21216E-05 2.77764E-04 9.97326E+06-1.16909E+07-1.89651E-02
 -1      2043 6.17178E-03-1.79105E-04 1.75919E-03 3.05665E+06-5.24291E+06-1.86517E-02
 -1      2045 6.17178E-03-1.79105E-04 1.75919E-03 3.05665E+06-5.24291E+06-1.86517E-02
 -1      2046 3.31211E-03-3.42462E-04 2.64482E-03 7.59920E+06 1.46582E+06-1.79207E-02
 -1      2048 3.31211E-03-3.42462E-04 2.64482E-03 7.59920E+06 1.46582E+06-1.79207E-02
 -1      2049 5.27969E-04-1.92319E-04 2.53366E-03 3.69827E+06 8.22043E+06-1.78771E-02
 -1      2051 5.27969E-04-1.92319E-04 2.53366E-03 3.69827E+06 8.22043E+06-1.78771E-02
 -1      2052-2.41000E-03 1.95090E-04 4.45888E-04 5.57860E+06 1.40185E+07-1.80068E-02
 -1      2054-2.41000E-03 1.95090E-04 4.45888E-04 5.57860E+06 1.40185E+07-1.80068E-02
 -1      2055-5.71953E-03-2.27666E-05-2.11039E-03 3.00479E+06 1.92098E+07-1.61879E-02
 -1      2057-5.71953E-03-2.27666E-05-2.11039E-03 3.00479E+06 1.92098E+07-1.61879E-02
 -1      2058-8.53540E-03-4.55259E-04-2.08150E-03 3.36827E+06 2.32778E+07-1.25252E-02
 -1      2060-8.53540E-03-4.55259E-04-2.08150E-03 3.36827E+06 2.32778E+07-1.25252E-02
 -1      2061-1.07424E-02-3.29576E-04-7.53107E-04 1.43790E+06 2.64155E+07-1.02233E-02
 -1      2063-1.07424E-02-3.29576E-04-7.53107E-04 1.43790E+06 2.64155E+07-1.02233E-02
 -1      2064-1.27635E-02 5.29134E-05-1.49551E-03 9.84981E+05 2.84072E+07-9.37496E-03
 -1      2066-1.27635E-02 5.29134E-05-1.49551E-03 9.84981E+05 2.84072E+07-9.37496E-03
 -1      2067-1.40422E-02 4.99739E-04-3.93991E-03-6.06943E+05 2.93988E+07-8.53781E-03
 -1      2069-1.40422E-02 4.99739E-04-3.93991E-03-6.06943E+05 2.93988E+07-8.53781E-03
 -1      2070-1.45595E-02 1.00230E-03-6.17632E-03-1.41289E+06 2.92482E+07-7.48867E-03
 -1      2072-1.45595E-02 1.00230E-03-6.17632E-03-1.41289E+06 2.92482E+07-7.48867E-03
 -1      2073-1.51220E-02 6.51276E-04-7.52581E-03-2.76589E+06 2.82140E+07-5.51895E-03
 -1      2075-1.51220E-02 6.51276E-04-7.52581E-03-2.76589E+06 2.82140E+07-5.51895E-03
 -1      2076-1.59787E-02-8.81542E-05-8.09245E-03-3.60777E+06 2.60724E+07-3.24556E-03
 -1      2078-1.59787E-02-8.81542E-05-8.09245E-03-3.60777E+06 2.60724E+07-3.24556E-03
 -1      2079-1.65034E-02 4.57718E-05-7.62085E-03-4.72769E+06 2.33181E+07-5.39079E-04
 -1      2081-1.65034E-02 4.57718E-05-7.62085E-03-4.72769E+06 2.33181E+07-5.39079E-04
 -1      2082-1.68311E-02 1.67415E-04-5.34326E-03-5.37244E+06 1.95136E+07 4.05159E-03
 -1      2084-1.68311E-02 1.67415E-04-5.34326E-03-5.37244E+06 1.95136E+07 4.05159E-03
 -1      2085-1.70026E-02-3.63186E-05-2.14236E-03-6.25060E+06 1.55176E+07 7.53200E-03
 -1      2087-1.70026E-02-3.63186E-05-2.14236E-03-6.25060E+06 1.55176E+07 7.53200E-03
 -1      2088-1.62024E-02 1.25982E-04-2.90965E-04-6.50555E+06 1.05073E+07 9.28497E-03
 -1      2090-1.62024E-02 1.25982E-04-2.90965E-04-6.50555E+06 1.05073E+07 9.28497E-03
 -1      2091-1.42062E-02-4.20349E-04-9.41294E-05-7.18012E+06 5.89331E+06 1.06555E-02
 -1      2093-1.42062E-02-4.20349E-04-9.41294E-05-7.18012E+06 5.89331E+06 1.06555E-02
 -1      2094-1.17504E-02-5.91577E-04-4.97150E-04-6.85028E+06 1.90904E+05 9.69898E-03
 -1      2096-1.17504E-02-5.91577E-04-4.97150E-04-6.85028E+06 1.90904E+05 9.69898E-03
 -1      2097-9.32715E-03-3.09189E-04-2.12891E-03-7.46560E+06-4.31709E+06 7.88168E-03
 -1      2099-9.32715E-03-3.09189E-04-2.12891E-03-7.46560E+06-4.31709E+06 7.88168E-03
 -1      2100-6.60089E-03-1.59000E-04-4.32153E-03-6.29894E+06-1.02741E+07 9.19526E-03
 -1      2102-6.60089E-03-1.59000E-04-4.32153E-03-6.29894E+06-1.02741E+07 9.19526E-03
 -1      2103-4.30719E-03-2.57971E-05-5.28193E-03-7.14809E+06-1.39120E+07 1.06939E-02
 -1      2105-4.30719E-03-2.57971E-05-5.28193E-03-7.14809E+06-1.39120E+07 1.06939E-02
 -1      2106-2.84452E-03 1.84264E-04-4.93962E-03-4.84146E+06-2.00938E+07 9.37434E-03
 -1      2108-2.84452E-03 1.84264E-04-4.93962E-03-4.84146E+06-2.00938E+07 9.37434E-03
 -1      2109-2.28051E-03 6.55703E-04-3.54663E-03-6.13789E+06-2.21423E+07 6.99633E-03
 -1      2111-2.28051E-03 6.55703E-04-3.54663E-03-6.13789E+06-2.21423E+07 6.99633E-03
 -1      2112-2.59372E-03-1.33160E-04-1.87506E-03-3.01860E+06-3.01453E+07 5.03886E-03
 -1      2114-2.59372E-03-1.33160E-04-1.87506E-03-3.01860E+06-3.01453E+07 5.03886E-03
 -1      2115-2.23072E-03-9.17524E-04-6.86554E-04-3.00615E+06-3.03971E+07 4.19979E-03
 -1      2117-2.23072E-03-9.17524E-04-6.86554E-04-3.00615E+06-3.03971E+07 4.19979E-03
 -1      2118-8.48707E-04-1.24607E-04-1.08583E-03-3.75169E+06-4.86638E+07 1.05662E-03
 -1      2120-8.48707E-04-1.24607E-04-1.08583E-03-3.75169E+06-4.86638E+07 1.05662E-03
 -1      2121 5.20656E+09 3.14761E+08 1.17148E+06 1.31549E+09-8.30530E+05 1.34497E+07
 -1      2123 5.20656E+09 3.14761E+08 1.17148E+06 1.31549E+09-8.30530E+05 1.34497E+07
 -1      2124 3.29751E+09 5.82254E+05 5.82335E+04 9.99410E+08-1.02887E+07-5.90707E+06
 -1      2126 3.29751E+09 5.82254E+05 5.82335E+04 9.99410E+08-1.02887E+07-5.90707E+06
 -1      2127 1.76827E+09 6.67482E+07 2.36684E+04 7.78460E+08-6.13979E+06 4.58715E+06
 -1      2129 1.76827E+09 6.67482E+07 2.36684E+04 7.78460E+08-6.13979E+06 4.58715E+06
 -1      2130 5.99423E+08 1.60631E+06 3.07372E+05 6.18504E+08-3.84429E+06 3.92217E+05
 -1      2132 5.99423E+08 1.60631E+06 3.07372E+05 6.18504E+08-3.84429E+06 3.92217E+05
 -1      2133-3.52337E+08-1.24552E+07-3.99639E+05 4.93727E+08-6.20330E+05 2.67756E+06
 -1      2135-3.52337E+08-1.24552E+07-3.99639E+05 4.93727E+08-6.20330E+05 2.67756E+06
 -1      2136-1.10835E+09-3.52421E+07 4.54018E+04 3.97667E+08 3.15186E+06 1.70506E+06
 -1      2138-1.10835E+09-3.52421E+07 4.54018E+04 3.97667E+08 3.15186E+06 1.70506E+06
 -1      2139-1.71760E+09-5.08292E+07-4.17685E+05 3.14572E+08 5.85394E+06 1.93894E+06
 -1      2141-1.71760E+09-5.08292E+07-4.17685E+05 3.14572E+08 5.85394E+06 1.93894E+06
 -1      2142-2.19373E+09-6.41789E+07-2.56457E+05 2.43237E+08 8.92772E+06 1.52426E+06
 -1      2144-2.19373E+09-6.41789E+07-2.56457E+05 2.43237E+08 8.92772E+06 1.52426E+06
 -1      2145-2.55328E+09-7.36625E+07-3.86073E+05 1.76536E+08 1.08748E+07 1.23926E+06
 -1      2147-2.55328E+09-7.36625E+07-3.86073E+05 1.76536E+08 1.08748E+07 1.23926E+06
 -1      2148-2.80228E+09-8.08720E+07-4.41192E+05 1.14675E+08 1.27929E+07 8.61120E+05
 -1      2150-2.80228E+09-8.08720E+07-4.41192E+05 1.14675E+08 1.27929E+07 8.61120E+05
 -1      2151-2.94746E+09-8.45546E+07-3.64226E+05 5.50853E+07 1.37775E+07 4.49683E+05
 -1      2153-2.94746E+09-8.45546E+07-3.64226E+05 5.50853E+07 1.37775E+07 4.49683E+05
 -1      2154-2.99266E+09-8.59928E+07-5.12819E+05-1.36233E+06 1.44823E+07 5.45997E+04
 -1      2156-2.99266E+09-8.59928E+07-5.12819E+05-1.36233E+06 1.44823E+07 5.45997E+04
 -1      2157-2.94315E+09-8.43150E+07-3.31382E+05-5.50970E+07 1.44370E+07-3.63843E+05
 -1      2159-2.94315E+09-8.43150E+07-3.31382E+05-5.50970E+07 1.44370E+07-3.63843E+05
 -1      2160-2.80427E+09-8.04393E+07-5.02961E+05-1.04928E+08 1.40069E+07-7.40620E+05
 -1      2162-2.80427E+09-8.04393E+07-5.02961E+05-1.04928E+08 1.40069E+07-7.40620E+05
 -1      2163-2.58322E+09-7.39590E+07-2.64930E+05-1.50381E+08 1.29972E+07-1.11101E+06
 -1      2165-2.58322E+09-7.39590E+07-2.64930E+05-1.50381E+08 1.29972E+07-1.11101E+06
 -1      2166-2.28857E+09-6.55579E+07-4.41328E+05-1.90163E+08 1.15982E+07-1.42640E+06
 -1      2168-2.28857E+09-6.55579E+07-4.41328E+05-1.90163E+08 1.15982E+07-1.42640E+06
 -1      2169-1.93069E+09-5.52074E+07-1.52390E+05-2.23533E+08 9.79862E+06-1.71227E+06
 -1      2171-1.93069E+09-5.52074E+07-1.52390E+05-2.23533E+08 9.79862E+06-1.71227E+06
 -1      2172-1.52178E+09-4.34380E+07-3.56987E+05-2.49180E+08 7.66847E+06-1.93324E+06
 -1      2174-1.52178E+09-4.34380E+07-3.56987E+05-2.49180E+08 7.66847E+06-1.93324E+06
 -1      2175-1.07557E+09-3.05944E+07 1.29367E+04-2.66427E+08 5.33507E+06-2.10959E+06
 -1      2177-1.07557E+09-3.05944E+07 1.29367E+04-2.66427E+08 5.33507E+06-2.10959E+06
 -1      2178-6.07966E+08-1.69487E+07-2.84776E+05-2.73834E+08 2.76416E+06-2.22215E+06
 -1      2180-6.07966E+08-1.69487E+07-2.84776E+05-2.73834E+08 2.76416E+06-2.22215E+06
 -1      2181-1.35897E+08-3.42953E+06 2.39427E+05-2.70930E+08 1.95201E+05-2.27494E+06
 -1      2183-1.35897E+08-3.42953E+06 2.39427E+05-2.70930E+08 1.95201E+05-2.27494E+06
 -1      2184 3.20815E+08 1.02408E+07-2.72008E+05-2.55693E+08-2.50658E+06-2.30044E+06
 -1      2186 3.20815E+08 1.02408E+07-2.72008E+05-2.55693E+08-2.50658E+06-2.30044E+06
 -1      2187 7.41280E+08 2.25745E+07 5.43652E+05-2.27890E+08-5.04417E+06-2.21896E+06
 -1      2189 7.41280E+08 2.25745E+07 5.43652E+05-2.27890E+08-5.04417E+06-2.21896E+06
 -1      2190 1.10092E+09 3.26549E+07-3.78069E+05-1.83659E+08-7.59861E+06-2.25452E+06
 -1      2192 1.10092E+09 3.26549E+07-3.78069E+05-1.83659E+08-7.59861E+06-2.25452E+06
 -1      2193 1.37078E+09 4.57885E+07 9.27344E+05-1.23386E+08-1.00626E+07-1.99463E+06
 -1      2195 1.37078E+09 4.57885E+07 9.27344E+05-1.23386E+08-1.00626E+07-1.99463E+06
 -1      2196 1.51960E+09 3.70451E+07-5.79892E+05-3.75536E+07-1.23317E+07-2.30443E+06
 -1      2198 1.51960E+09 3.70451E+07-5.79892E+05-3.75536E+07-1.23317E+07-2.30443E+06
 -1      2199 1.50186E+09 7.62967E+07 1.07640E+06 6.97076E+07-1.56099E+07-1.67290E+06
 -1      2201 1.50186E+09 7.62967E+07 1.07640E+06 6.97076E+07-1.56099E+07-1.67290E+06
 -1      2202 1.25780E+09-9.57412E+06 4.07435E+04 2.25099E+08-1.81164E+07-2.78662E+06
 -1      2204 1.25780E+09-9.57412E+06 4.07435E+04 2.25099E+08-1.81164E+07-2.78662E+06
 -1      2205 7.72912E+08 1.23147E+08-1.62902E+06 4.10929E+08-2.71534E+07-1.16368E+06
 -1      2207 7.72912E+08 1.23147E+08-1.62902E+06 4.10929E+08-2.71534E+07-1.16368E+06
 -1      2208-5.20656E+09-3.14761E+08-1.17148E+06 1.31549E+09-8.30530E+05-1.34497E+07
 -1      2210-5.20656E+09-3.14761E+08-1.17148E+06 1.31549E+09-8.30530E+05-1.34497E+07
 -1      2211-3.29751E+09-5.82254E+05-5.82335E+04 9.99410E+08-1.02887E+07 5.90707E+06
 -1      2213-3.29751E+09-5.82254E+05-5.82335E+04 9.99410E+08-1.02887E+07 5.90707E+06
 -1      2214-1.76827E+09-6.67482E+07-2.36684E+04 7.78460E+08-6.13979E+06-4.58715E+06
 -1      2216-1.76827E+09-6.67482E+07-2.36684E+04 7.78460E+08-6.13979E+06-4.58715E+06
 -1      2217-5.99423E+08-1.60631E+06-3.07372E+05 6.18504E+08-3.84429E+06-3.92217E+05
 -1      2219-5.99423E+08-1.60631E+06-3.07372E+05 6.18504E+08-3.84429E+06-3.92217E+05
 -1      2220 3.52337E+08 1.24552E+07 3.99639E+05 4.93727E+08-6.20330E+05-2.67756E+06
 -1      2222 3.52337E+08 1.24552E+07 3.99639E+05 4.93727E+08-6.20330E+05-2.67756E+06
 -1      2223 1.10835E+09 3.52421E+07-4.54018E+04 3.97667E+08 3.15186E+06-1.70506E+06
 -1      2225 1.10835E+09 3.52421E+07-4.54018E+04 3.97667E+08 3.15186E+06-1.70506E+06
 -1      2226 1.71760E+09 5.08292E+07 4.17685E+05 3.14572E+08 5.85394E+06-1.93894E+06
 -1      2228 1.71760E+09 5.08292E+07 4.17685E+05 3.14572E+08 5.85394E+06-1.93894E+06
 -1      2229 2.19373E+09 6.41789E+07 2.56457E+05 2.43237E+08 8.92772E+06-1.52426E+06
 -1      2231 2.19373E+09 6.41789E+07 2.56457E+05 2.43237E+08 8.92772E+06-1.52426E+06
 -1      2232 2.55328E+09 7.36625E+07 3.86073E+05 1.76536E+08 1.08748E+07-1.23926E+06
 -1      2234 2.55328E+09 7.36625E+07 3.86073E+05 1.76536E+08 1.08748E+07-1.23926E+06
 -1      2235 2.80228E+09 8.08720E+07 4.41192E+05 1.14675E+08 1.27929E+07-8.61120E+05
 -1      2237 2.80228E+09 8.08720E+07 4.41192E+05 1.14675E+08 1.27929E+07-8.61120E+05
 -1      2238 2.94746E+09 8.45546E+07 3.64226E+05 5.50853E+07 1.37775E+07-4.49683E+05
 -1      2240 2.94746E+09 8.45546E+07 3.64226E+05 5.50853E+07 1.37775E+07-4.49683E+05
 -1      2241 2.99266E+09 8.59928E+07 5.12819E+05-1.36233E+06 1.44823E+07-5.45997E+04
 -1      2243 2.99266E+09 8.59928E+07 5.12819E+05-1.36233E+06 1.44823E+07-5.45997E+04
 -1      2244 2.94315E+09 8.43150E+07 3.31382E+05-5.50970E+07 1.44370E+07 3.63843E+05
 -1      2246 2.94315E+09 8.43150E+07 3.31382E+05-5.50970E+07 1.44370E+07 3.63843E+05
 -1      2247 2.80427E+09 8.04393E+07 5.02961E+05-1.04928E+08 1.40069E+07 7.40620E+05
 -1      2249 2.80427E+09 8.04393E+07 5.02961E+05-1.04928E+08 1.40069E+07 7.40620E+05
 -1      2250 2.58322E+09 7.39590E+07 2.64930E+05-1.50381E+08 1.29972E+07 1.11101E+06
 -1      2252 2.58322E+09 7.39590E+07 2.64930E+05-1.50381E+08 1.29972E+07 1.11101E+06
 -1      2253 2.28857E+09 6.55579E+07 4.41328E+05-1.90163E+08 1.15982E+07 1.42640E+06
 -1      2255 2.28857E+09 6.55579E+07 4.41328E+05-1.90163E+08 1.15982E+07 1.42640E+06
 -1      2256 1.93069E+09 5.52074E+07 1.52390E+05-2.23533E+08 9.79862E+06 1.71227E+06
 -1      2258 1.93069E+09 5.52074E+07 1.52390E+05-2.23533E+08 9.79862E+06 1.71227E+06
 -1      2259 1.52178E+09 4.34380E+07 3.56987E+05-2.49180E+08 7.66847E+06 1.93324E+06
 -1      2261 1.52178E+09 4.34380E+07 3.56987E+05-2.49180E+08 7.66847E+06 1.93324E+06
 -1      2262 1.07557E+09 3.05944E+07-1.29367E+04-2.66427E+08 5.33507E+06 2.10959E+06
 -1      2264 1.07557E+09 3.05944E+07-1.29367E+04-2.66427E+08 5.33507E+06 2.10959E+06
 -1      2265 6.07966E+08 1.69487E+07 2.84776E+05-2.73834E+08 2.76416E+06 2.22215E+06
 -1      2267 6.07966E+08 1.69487E+07 2.84776E+05-2.73834E+08 2.76416E+06 2.22215E+06
 -1      2268 1.35897E+08 3.42953E+06-2.39427E+05-2.70930E+08 1.95201E+05 2.27494E+06
 -1      2270 1.35897E+08 3.42953E+06-2.39427E+05-2.70930E+08 1.95201E+05 2.27494E+06
 -1      2271-3.20815E+08-1.02408E+07 2.72008E+05-2.55693E+08-2.50658E+06 2.30044E+06
 -1      2273-3.20815E+08-1.02408E+07 2.72008E+05-2.55693E+08-2.50658E+06 2.30044E+06
 -1      2274-7.41280E+08-2.25745E+07-5.43652E+05-2.27890E+08-5.04417E+06 2.21896E+06
 -1      2276-7.41280E+08-2.25745E+07-5.43652E+05-2.27890E+08-5.04417E+06 2.21896E+06
 -1      2277-1.10092E+09-3.26549E+07 3.78069E+05-1.83659E+08-7.59861E+06 2.25452E+06
 -1      2279-1.10092E+09-3.26549E+07 3.78069E+05-1.83659E+08-7.59861E+06 2.25452E+06
 -1      2280-1.37078E+09-4.57885E+07-9.27344E+05-1.23386E+08-1.00626E+07 1.99463E+06
 -1      2282-1.37078E+09-4.57885E+07-9.27344E+05-1.23386E+08-1.00626E+07 1.99463E+06
 -1      2283-1.51960E+09-3.70451E+07 5.79892E+05-3.75536E+07-1.23317E+07 2.30443E+06
 -1      2285-1.51960E+09-3.70451E+07 5.79892E+05-3.75536E+07-1.23317E+07 2.30443E+06
 -1      2286-1.50186E+09-7.62967E+07-1.07640E+06 6.97076E+07-1.56099E+07 1.67290E+06
 -1      2288-1.50186E+09-7.62967E+07-1.07640E+06 6.97076E+07-1.56099E+07 1.67290E+06
 -1      2289-1.25780E+09 9.57412E+06-4.07435E+04 2.25099E+08-1.81164E+07 2.78662E+06
 -1      2291-1.25780E+09 9.57412E+06-4.07435E+04 2.25099E+08-1.81164E+07 2.78662E+06
 -1      2292-7.72912E+08-1.23147E+08 1.62902E+06 4.10929E+08-2.71534E+07 1.16368E+06
 -1      2294-7.72912E+08-1.23147E+08 1.62902E+06 4.10929E+08-2.71534E+07 1.16368E+06
 -3
    1PSTEP                        27           1           1          
    1PGM                1.000000E+00                                  
    1PGK                2.544398E+06                                  
    1PHID                         -1                                  
    1PSUBC                         0                                  
    1PMODE                         7                                  
  100CL  107 253.8707414         930                     2    7MODAL      1
 -4  FORC        4    1
 -5  F1          1    2    1    0
 -5  F2          1    2    2    0
 -5  F3          1    2    3    0
 -5  ALL         1    2    0    0    1ALL
 -1       404-1.90279E+06 5.93420E+05 1.18681E+05
 -1       406-2.22943E+06 5.41901E+05 1.18681E+05
 -1       407-1.08694E+03 2.04035E+04 4.02827E+03
 -1       409-1.08694E+03 2.04035E+04 4.02827E+03
 -1       410 7.56240E-07-3.57073E+05 1.66912E-06
 -1       412 5.88017E-07-1.09093E+06-4.20367E-06
 -1       413-3.76814E-07 7.87089E+05 5.75989E+05
 -1       415-1.14313E-07 7.87089E+05-5.75989E+05
 -1       424 1.13939E-05 1.29885E+05 2.14119E-07
 -1       426 4.86969E-06 1.05218E+05 3.46304E-07
 -1       427 3.82292E+05 3.82891E+05 5.35114E+03
 -1       429-3.82292E+05 3.82891E+05-5.35114E+03
 -1       438 1.08694E+03 2.04035E+04-4.02827E+03
 -1       440 1.08694E+03 2.04035E+04-4.02827E+03
 -1       441 1.90279E+06 5.93420E+05-1.18681E+05
 -1       443 2.22943E+06 5.41901E+05-1.18681E+05
 -1       444-3.82292E+05-3.82891E+05 5.35114E+03
 -1       446 3.82292E+05-3.82891E+05-5.35114E+03
 -1       447-1.21524E-05-1.29885E+05-2.08422E-08
 -1       449-4.29123E-06-1.05218E+05 2.74657E-07
 -1       458-1.79713E-07-7.87089E+05 5.75989E+05
 -1       460-5.51662E-07-7.87089E+05-5.75989E+05
 -1       461-2.44651E-07 3.57073E+05 1.51738E-06
 -1       463-1.45495E-07 1.09093E+06 1.76566E-06
 -1       472-1.90279E+06-5.93420E+05-1.18681E+05
 -1       474-2.22943E+06-5.41901E+05-1.18681E+05
 -1       475-1.08694E+03-2.04035E+04-4.02827E+03
 -1       477-1.08694E+03-2.04035E+04-4.02827E+03
 -1       478 1.08694E+03-2.04035E+04 4.02827E+03
 -1       480 1.08694E+03-2.04035E+04 4.02827E+03
 -1       481 1.90279E+06-5.93420E+05 1.18681E+05
 -1       483 2.22943E+06-5.41901E+05 1.18681E+05
 -1       484 1.22036E+03-2.01423E+03-8.21842E+02
 -1       486 1.22036E+03-2.01423E+03-8.21842E+02
 -1       487 2.12879E+03-4.97043E+03-1.78330E+03
 -1       489 2.12879E+03-4.97043E+03-1.78330E+03
 -1       490 2.67075E+03-8.88071E+03-2.79520E+03
 -1       492 2.67075E+03-8.88071E+03-2.79520E+03
 -1       493 2.92351E+03-1.33068E+04-3.80684E+03
 -1       495 2.92351E+03-1.33068E+04-3.80684E+03
 -1       496 2.94852E+03-1.78802E+04-4.79793E+03
 -1       498 2.94852E+03-1.78802E+04-4.79793E+03
 -1       499 2.79056E+03-2.23108E+04-5.72414E+03
 -1       501 2.79056E+03-2.23108E+04-5.72414E+03
 -1       502 2.48601E+03-2.63628E+04-6.55295E+03
 -1       504 2.48601E+03-2.63628E+04-6.55295E+03
 -1       505 2.06499E+03-2.98462E+04-7.25053E+03
 -1       507 2.06499E+03-2.98462E+04-7.25053E+03
 -1       508 1.55427E+03-3.26116E+04-7.79033E+03
 -1       510 1.55427E+03-3.26116E+04-7.79033E+03
 -1       511 9.78222E+02-3.45461E+04-8.15024E+03
 -1       513 9.78222E+02-3.45461E+04-8.15024E+03
 -1       514 3.59867E+02-3.55715E+04-8.31478E+03
 -1       516 3.59867E+02-3.55715E+04-8.31478E+03
 -1       517-2.78911E+02-3.56423E+04-8.27453E+03
 -1       519-2.78911E+02-3.56423E+04-8.27453E+03
 -1       520-9.17183E+02-3.47449E+04-8.02664E+03
 -1       522-9.17183E+02-3.47449E+04-8.02664E+03
 -1       523-1.53518E+03-3.28962E+04-7.57454E+03
 -1       525-1.53518E+03-3.28962E+04-7.57454E+03
 -1       526-2.11445E+03-3.01414E+04-6.92782E+03
 -1       528-2.11445E+03-3.01414E+04-6.92782E+03
 -1       529-2.63826E+03-2.65524E+04-6.10184E+03
 -1       531-2.63826E+03-2.65524E+04-6.10184E+03
 -1       532-3.09189E+03-2.22247E+04-5.11718E+03
 -1       534-3.09189E+03-2.22247E+04-5.11718E+03
 -1       535-3.46307E+03-1.72741E+04-3.99900E+03
 -1       537-3.46307E+03-1.72741E+04-3.99900E+03
 -1       538-3.74229E+03-1.18331E+04-2.77627E+03
 -1       540-3.74229E+03-1.18331E+04-2.77627E+03
 -1       541-3.92323E+03-6.04631E+03-1.48090E+03
 -1       543-3.92323E+03-6.04631E+03-1.48090E+03
 -1       544-4.00311E+03-6.54236E+01-1.46762E+02
 -1       546-4.00311E+03-6.54236E+01-1.46762E+02
 -1       547-3.98309E+03 5.95619E+03 1.19124E+03
 -1       549-3.98309E+03 5.95619E+03 1.19124E+03
 -1       550-3.86867E+03 1.18695E+04 2.49827E+03
 -1       552-3.86867E+03 1.18695E+04 2.49827E+03
 -1       553-3.67033E+03 1.75367E+04 3.74031E+03
 -1       555-3.67033E+03 1.75367E+04 3.74031E+03
 -1       556-3.40411E+03 2.28387E+04 4.88524E+03
 -1       558-3.40411E+03 2.28387E+04 4.88524E+03
 -1       559-3.09269E+03 2.76830E+04 5.90272E+03
 -1       561-3.09269E+03 2.76830E+04 5.90272E+03
 -1       562-2.76728E+03 3.20184E+04 6.76442E+03
 -1       564-2.76728E+03 3.20184E+04 6.76442E+03
 -1       565-2.46791E+03 3.58334E+04 7.44026E+03
 -1       567-2.46791E+03 3.58334E+04 7.44026E+03
 -1       568-2.25208E+03 3.92090E+04 7.89203E+03
 -1       570-2.25208E+03 3.92090E+04 7.89203E+03
 -1       571-1.45033E+03 4.07988E+04 5.48195E+03
 -1       573-1.45033E+03 4.07988E+04 5.48195E+03
 -1       574-6.17536E-06-3.31555E+05-2.29976E-06
 -1       576-6.16215E-06-5.12865E+05-1.86721E-06
 -1       577 6.42131E-06 4.16225E+05 1.42307E+05
 -1       579 6.42786E-06 4.16225E+05-1.42307E+05
 -1       588-6.80771E-06-1.40637E+05-7.96471E-08
 -1       590-6.77308E-06-4.67875E+05 5.18093E-08
 -1       591 6.30317E-06 2.89070E+05 2.56844E+05
 -1       593 6.31000E-06 2.89070E+05-2.56844E+05
 -1       602-6.90194E-06-3.01950E+04-2.65967E-07
 -1       604-6.86509E-06-2.69272E+05-5.76588E-07
 -1       605 6.14728E-06 1.22351E+05 1.87648E+05
 -1       607 6.13810E-06 1.22351E+05-1.87648E+05
 -1       616-6.32006E-06-4.69920E+04 1.36715E-06
 -1       618-6.25500E-06-1.64847E+05 1.67487E-06
 -1       619 6.42424E-06 6.48044E+04 9.25024E+04
 -1       621 6.43683E-06 6.48044E+04-9.25024E+04
 -1       630-5.52260E-06-1.87629E+04 2.15771E-06
 -1       632-5.48698E-06-1.59058E+03 1.58337E-06
 -1       633 5.93003E-06-4.51232E+04-1.34783E+04
 -1       635 5.91968E-06-4.51232E+04 1.34783E+04
 -1       644-5.52132E-06-6.35596E+04 1.52629E-06
 -1       646-5.48358E-06 9.94564E+04 4.22128E-07
 -1       647 5.41270E-06-8.69802E+04-1.27949E+05
 -1       649 5.37887E-06-8.69802E+04 1.27949E+05
 -1       658-5.86291E-06-7.09795E+04-6.57272E-07
 -1       660-5.86343E-06 2.15518E+05 5.56544E-07
 -1       661 4.79006E-06-1.53857E+05-2.24867E+05
 -1       663 4.75625E-06-1.53857E+05 2.24867E+05
 -1       672-6.01747E-06-1.09374E+05-1.24505E-06
 -1       674-5.95958E-06 2.92934E+05 1.17082E-06
 -1       675 4.64357E-06-1.84160E+05-3.15764E+05
 -1       677 4.65918E-06-1.84160E+05 3.15764E+05
 -1       686-4.95661E-06-1.24627E+05-6.98550E-07
 -1       688-4.87577E-06 3.66728E+05 1.30697E-06
 -1       689 4.51379E-06-2.21999E+05-3.85657E+05
 -1       691 4.06299E-06-2.21999E+05 3.85657E+05
 -1       700-3.57567E-06-1.49572E+05 7.06292E-07
 -1       702-3.54630E-06 4.13096E+05 1.81225E-06
 -1       703 3.29430E-06-2.38705E+05-4.41629E+05
 -1       705 3.41407E-06-2.38705E+05 4.41629E+05
 -1       714-2.49506E-06-1.59498E+05 7.22128E-07
 -1       716-2.71147E-06 4.48183E+05-3.15144E-07
 -1       717 2.51044E-06-2.54465E+05-4.76959E+05
 -1       719 2.30280E-06-2.54465E+05 4.76959E+05
 -1       728-2.45819E-06-1.69619E+05 6.83289E-08
 -1       730-2.57529E-06 4.61582E+05-2.10763E-06
 -1       731 2.68261E-06-2.56325E+05-4.95420E+05
 -1       733 2.49614E-06-2.56325E+05 4.95420E+05
 -1       742-1.91113E-06-1.69104E+05 6.49285E-07
 -1       744-1.87942E-06 4.61056E+05-2.27436E-06
 -1       745 2.49571E-06-2.53542E+05-4.94602E+05
 -1       747 2.43448E-06-2.53542E+05 4.94602E+05
 -1       756-1.88364E-06-1.65009E+05 4.38243E-07
 -1       758-1.96719E-06 4.42977E+05-2.71859E-06
 -1       759 2.32792E-06-2.40826E+05-4.77199E+05
 -1       761 2.31505E-06-2.40826E+05 4.77199E+05
 -1       770-1.58683E-06-1.53162E+05 6.26690E-07
 -1       772-1.79669E-06 4.11125E+05 2.12025E-06
 -1       773 1.72666E-06-2.22291E+05-4.42900E+05
 -1       775 1.88729E-06-2.22291E+05 4.42900E+05
 -1       784-2.31713E-07-1.36659E+05 6.11303E-07
 -1       786-6.21247E-07 3.66026E+05 1.77862E-06
 -1       787 8.86905E-07-1.96877E+05-3.94549E+05
 -1       789 8.43533E-07-1.96877E+05 3.94549E+05
 -1       798 7.27753E-07-1.14960E+05-1.73148E-07
 -1       800 4.88322E-07 3.09037E+05 2.51123E-06
 -1       801-9.50267E-08-1.65825E+05-3.32788E+05
 -1       803-5.54083E-07-1.65825E+05 3.32788E+05
 -1       812 1.19606E-06-8.86212E+04 7.72488E-07
 -1       814 1.14796E-06 2.44131E+05 5.18128E-06
 -1       815-1.95234E-06-1.31205E+05-2.61172E+05
 -1       817-2.11204E-06-1.31205E+05 2.61172E+05
 -1       826 2.04951E-06-5.98988E+04-1.55916E-06
 -1       828 2.14132E-06 1.70036E+05 4.08337E-07
 -1       829-3.33000E-06-9.16631E+04-1.80472E+05
 -1       831-3.32403E-06-9.16631E+04 1.80472E+05
 -1       840 2.61112E-06-2.64405E+04 1.08849E-06
 -1       842 2.62793E-06 9.49777E+04-1.25688E-06
 -1       843-3.96932E-06-5.29350E+04-9.52992E+04
 -1       845-3.63450E-06-5.29350E+04 9.52992E+04
 -1       854 2.78787E-06 5.99361E+03-7.95915E-07
 -1       856 2.44078E-06 1.29737E+04 1.11102E-06
 -1       857-3.07317E-06-9.62032E+03-5.47858E+03
 -1       859-3.52071E-06-9.62032E+03 5.47858E+03
 -1       868 2.57117E-06 4.48783E+04-1.17588E-06
 -1       870 3.06021E-06-6.04929E+04 2.34923E-07
 -1       871-2.98109E-06 2.63263E+04 8.27042E+04
 -1       873-3.27035E-06 2.63263E+04-8.27042E+04
 -1       882 3.26720E-06 7.84120E+04 3.23069E-06
 -1       884 3.22558E-06-1.41660E+05 7.38808E-07
 -1       885-3.31828E-06 6.84625E+04 1.72731E+05
 -1       887-3.19738E-06 6.84625E+04-1.72731E+05
 -1       896 4.17718E-06 1.24744E+05-6.30211E-06
 -1       898 3.71246E-06-1.99533E+05 1.65650E-06
 -1       899-3.16546E-06 9.17886E+04 2.54520E+05
 -1       901-3.18914E-06 9.17886E+04-2.54520E+05
 -1       910 3.75820E-06 1.59502E+05-5.59283E-06
 -1       912 3.46991E-06-2.76467E+05-4.16746E-06
 -1       913-2.93188E-06 1.29295E+05 3.42185E+05
 -1       915-2.93578E-06 1.29295E+05-3.42185E+05
 -1       924 2.13674E-06 2.27491E+05-4.00233E-06
 -1       926 2.19161E-06-2.99843E+05-2.11870E-06
 -1       927-2.00099E-06 1.21988E+05 4.13896E+05
 -1       929-1.40349E-06 1.21988E+05-4.13896E+05
 -1       938 1.28616E-06 2.71408E+05-2.76187E-06
 -1       940 1.62341E-06-3.94390E+05 2.10466E-06
 -1       941-1.24623E-06 1.60699E+05 5.22574E+05
 -1       943-1.19660E-06 1.60699E+05-5.22574E+05
 -1       952 1.37956E-06 4.18068E+05 1.02908E-06
 -1       954 1.46337E-06-3.54303E+05-1.52858E-06
 -1       955-1.26552E-06 7.91197E+04 6.06222E+05
 -1       957-1.00200E-06 7.91197E+04-6.06222E+05
 -1       966 1.73477E-06 5.26334E+05 4.67011E-07
 -1       968 1.19621E-06-5.87606E+05-1.48263E-06
 -1       969-4.03808E-07 1.51983E+05 8.74313E+05
 -1       971-1.90492E-07 1.51983E+05-8.74313E+05
 -1       980-1.81042E+06 3.13185E+05-2.94775E+03
 -1       982-2.12692E+06 2.49333E+05-2.94775E+03
 -1       983 1.45033E+03 4.07988E+04-5.48195E+03
 -1       985 1.45033E+03 4.07988E+04-5.48195E+03
 -1       986-1.22036E+03-2.01423E+03 8.21842E+02
 -1       988-1.22036E+03-2.01423E+03 8.21842E+02
 -1       989-2.12879E+03-4.97043E+03 1.78330E+03
 -1       991-2.12879E+03-4.97043E+03 1.78330E+03
 -1       992-2.67075E+03-8.88071E+03 2.79520E+03
 -1       994-2.67075E+03-8.88071E+03 2.79520E+03
 -1       995-2.92351E+03-1.33068E+04 3.80684E+03
 -1       997-2.92351E+03-1.33068E+04 3.80684E+03
 -1       998-2.94852E+03-1.78802E+04 4.79793E+03
 -1      1000-2.94852E+03-1.78802E+04 4.79793E+03
 -1      1001-2.79056E+03-2.23108E+04 5.72414E+03
 -1      1003-2.79056E+03-2.23108E+04 5.72414E+03
 -1      1004-2.48601E+03-2.63628E+04 6.55295E+03
 -1      1006-2.48601E+03-2.63628E+04 6.55295E+03
 -1      1007-2.06499E+03-2.98462E+04 7.25053E+03
 -1      1009-2.06499E+03-2.98462E+04 7.25053E+03
 -1      1010-1.55427E+03-3.26116E+04 7.79033E+03
 -1      1012-1.55427E+03-3.26116E+04 7.79033E+03
 -1      1013-9.78222E+02-3.45461E+04 8.15024E+03
 -1      1015-9.78222E+02-3.45461E+04 8.15024E+03
 -1      1016-3.59867E+02-3.55715E+04 8.31478E+03
 -1      1018-3.59867E+02-3.55715E+04 8.31478E+03
 -1      1019 2.78911E+02-3.56423E+04 8.27453E+03
 -1      1021 2.78911E+02-3.56423E+04 8.27453E+03
 -1      1022 9.17183E+02-3.47449E+04 8.02664E+03
 -1      1024 9.17183E+02-3.47449E+04 8.02664E+03
 -1      1025 1.53518E+03-3.28962E+04 7.57454E+03
 -1      1027 1.53518E+03-3.28962E+04 7.57454E+03
 -1      1028 2.11445E+03-3.01414E+04 6.92782E+03
 -1      1030 2.11445E+03-3.01414E+04 6.92782E+03
 -1      1031 2.63826E+03-2.65524E+04 6.10184E+03
 -1      1033 2.63826E+03-2.65524E+04 6.10184E+03
 -1      1034 3.09189E+03-2.22247E+04 5.11718E+03
 -1      1036 3.09189E+03-2.22247E+04 5.11718E+03
 -1      1037 3.46307E+03-1.72741E+04 3.99900E+03
 -1      1039 3.46307E+03-1.72741E+04 3.99900E+03
 -1      1040 3.74229E+03-1.18331E+04 2.77627E+03
 -1      1042 3.74229E+03-1.18331E+04 2.77627E+03
 -1      1043 3.92323E+03-6.04631E+03 1.48090E+03
 -1      1045 3.92323E+03-6.04631E+03 1.48090E+03
 -1      1046 4.00311E+03-6.54236E+01 1.46762E+02
 -1      1048 4.00311E+03-6.54236E+01 1.46762E+02
 -1      1049 3.98309E+03 5.95619E+03-1.19124E+03
 -1      1051 3.98309E+03 5.95619E+03-1.19124E+03
 -1      1052 3.86867E+03 1.18695E+04-2.49827E+03
 -1      1054 3.86867E+03 1.18695E+04-2.49827E+03
 -1      1055 3.67033E+03 1.75367E+04-3.74031E+03
 -1      1057 3.67033E+03 1.75367E+04-3.74031E+03
 -1      1058 3.40411E+03 2.28387E+04-4.88524E+03
 -1      1060 3.40411E+03 2.28387E+04-4.88524E+03
 -1      1061 3.09269E+03 2.76830E+04-5.90272E+03
 -1      1063 3.09269E+03 2.76830E+04-5.90272E+03
 -1      1064 2.76728E+03 3.20184E+04-6.76442E+03
 -1      1066 2.76728E+03 3.20184E+04-6.76442E+03
 -1      1067 2.46791E+03 3.58334E+04-7.44026E+03
 -1      1069 2.46791E+03 3.58334E+04-7.44026E+03
 -1      1070 2.25208E+03 3.92090E+04-7.89203E+03
 -1      1072 2.25208E+03 3.92090E+04-7.89203E+03
 -1      1073 1.81042E+06 3.13185E+05 2.94775E+03
 -1      1075 2.12692E+06 2.49333E+05 2.94775E+03
 -1      1076 4.84485E+05 1.40045E+05-1.71740E+04
 -1      1078-4.84485E+05 1.40045E+05 1.71740E+04
 -1      1079-5.04603E-05-1.92540E-05-4.50502E+04
 -1      1081 5.04466E-05-2.00756E-05 4.50502E+04
 -1      1082-4.84485E+05-1.40045E+05-1.71740E+04
 -1      1084 4.84485E+05-1.40045E+05 1.71740E+04
 -1      1085-6.64124E-06-4.16225E+05 1.42307E+05
 -1      1087-6.64088E-06-4.16225E+05-1.42307E+05
 -1      1088 7.60986E-06 3.31555E+05-1.84866E-06
 -1      1090 7.59612E-06 5.12865E+05-1.51452E-06
 -1      1099-6.62165E-06-2.89070E+05 2.56844E+05
 -1      1101-6.62301E-06-2.89070E+05-2.56844E+05
 -1      1102 7.25974E-06 1.40637E+05 9.00224E-07
 -1      1104 7.17947E-06 4.67875E+05 1.35278E-06
 -1      1113-6.41543E-06-1.22351E+05 1.87648E+05
 -1      1115-6.42807E-06-1.22351E+05-1.87648E+05
 -1      1116 6.41334E-06 3.01950E+04-3.05341E-07
 -1      1118 6.26488E-06 2.69272E+05-1.73562E-07
 -1      1127-6.29446E-06-6.48044E+04 9.25024E+04
 -1      1129-6.35017E-06-6.48044E+04-9.25024E+04
 -1      1130 6.39735E-06 4.69920E+04 1.08158E-07
 -1      1132 6.34874E-06 1.64847E+05 4.75752E-07
 -1      1141-5.92310E-06 4.51232E+04-1.34783E+04
 -1      1143-5.98895E-06 4.51232E+04 1.34783E+04
 -1      1144 6.20096E-06 1.87629E+04-1.18291E-06
 -1      1146 6.33019E-06 1.59058E+03-8.50418E-08
 -1      1155-5.68165E-06 8.69802E+04-1.27949E+05
 -1      1157-5.81938E-06 8.69802E+04 1.27949E+05
 -1      1158 6.37330E-06 6.35596E+04-1.34730E-06
 -1      1160 6.55710E-06-9.94564E+04-4.22093E-07
 -1      1169-5.71865E-06 1.53857E+05-2.24867E+05
 -1      1171-5.89249E-06 1.53857E+05 2.24867E+05
 -1      1172 6.57473E-06 7.09795E+04 5.65038E-07
 -1      1174 6.71733E-06-2.15518E+05-9.53632E-07
 -1      1183-5.28493E-06 1.84160E+05-3.15764E+05
 -1      1185-5.44065E-06 1.84160E+05 3.15764E+05
 -1      1186 5.53131E-06 1.09374E+05 2.24332E-06
 -1      1188 5.56872E-06-2.92934E+05-3.95678E-08
 -1      1197-4.43142E-06 2.21999E+05-3.85657E+05
 -1      1199-4.68423E-06 2.21999E+05 3.85657E+05
 -1      1200 4.66954E-06 1.24627E+05 1.75050E-06
 -1      1202 4.49058E-06-3.66728E+05 1.64390E-07
 -1      1211-3.23055E-06 2.38705E+05-4.41629E+05
 -1      1213-3.49953E-06 2.38705E+05 4.41629E+05
 -1      1214 4.23139E-06 1.49572E+05-3.58050E-07
 -1      1216 4.23340E-06-4.13096E+05-2.14201E-07
 -1      1225-3.25144E-06 2.54465E+05-4.76959E+05
 -1      1227-3.01634E-06 2.54465E+05 4.76959E+05
 -1      1228 3.55753E-06 1.59498E+05-1.08434E-06
 -1      1230 3.57921E-06-4.48183E+05 1.65370E-06
 -1      1239-3.24410E-06 2.56325E+05-4.95420E+05
 -1      1241-2.89003E-06 2.56325E+05 4.95420E+05
 -1      1242 2.32716E-06 1.69619E+05 2.04132E-06
 -1      1244 2.40949E-06-4.61582E+05 1.34490E-06
 -1      1253-2.94539E-06 2.53542E+05-4.94602E+05
 -1      1255-2.81319E-06 2.53542E+05 4.94602E+05
 -1      1256 1.88255E-06 1.69104E+05 3.48835E-06
 -1      1258 1.87867E-06-4.61056E+05 8.93284E-07
 -1      1267-1.69523E-06 2.40826E+05-4.77199E+05
 -1      1269-2.10005E-06 2.40826E+05 4.77199E+05
 -1      1270 1.57354E-06 1.65009E+05 3.16478E-06
 -1      1272 1.65032E-06-4.42977E+05 2.81926E-06
 -1      1281-7.15867E-07 2.22291E+05-4.42900E+05
 -1      1283-1.01654E-06 2.22291E+05 4.42900E+05
 -1      1284 1.28945E-06 1.53162E+05 3.32425E-06
 -1      1286 1.45975E-06-4.11125E+05 3.49876E-06
 -1      1295-2.26895E-07 1.96877E+05-3.94549E+05
 -1      1297-2.55099E-07 1.96877E+05 3.94549E+05
 -1      1298 9.14599E-07 1.36659E+05 1.92748E-06
 -1      1300 1.16297E-06-3.66026E+05 3.97331E-06
 -1      1309 1.49990E-06 1.65825E+05-3.32788E+05
 -1      1311 1.38674E-06 1.65825E+05 3.32788E+05
 -1      1312-3.13651E-07 1.14960E+05 1.05425E-06
 -1      1314-3.51037E-07-3.09037E+05 3.96157E-06
 -1      1323 2.57171E-06 1.31205E+05-2.61172E+05
 -1      1325 2.72757E-06 1.31205E+05 2.61172E+05
 -1      1326-1.78494E-06 8.86212E+04 1.95986E-06
 -1      1328-1.72990E-06-2.44131E+05-8.33576E-08
 -1      1337 3.27146E-06 9.16631E+04-1.80472E+05
 -1      1339 3.12492E-06 9.16631E+04 1.80472E+05
 -1      1340-3.06894E-06 5.98988E+04-2.36121E-07
 -1      1342-3.28155E-06-1.70036E+05 1.10074E-06
 -1      1351 3.34848E-06 5.29350E+04-9.52992E+04
 -1      1353 3.11900E-06 5.29350E+04 9.52992E+04
 -1      1354-3.90616E-06 2.64405E+04 1.00977E-06
 -1      1356-3.94241E-06-9.49777E+04 6.89978E-07
 -1      1365 3.25931E-06 9.62032E+03-5.47858E+03
 -1      1367 2.84425E-06 9.62032E+03 5.47858E+03
 -1      1368-4.16876E-06-5.99361E+03-5.79741E-07
 -1      1370-4.05888E-06-1.29737E+04-7.92338E-09
 -1      1379 2.65577E-06-2.63263E+04 8.27042E+04
 -1      1381 2.48868E-06-2.63263E+04-8.27042E+04
 -1      1382-4.23472E-06-4.48783E+04 3.62299E-07
 -1      1384-3.94463E-06 6.04929E+04 8.08752E-07
 -1      1393 2.86457E-06-6.84625E+04 1.72731E+05
 -1      1395 2.89037E-06-6.84625E+04-1.72731E+05
 -1      1396-4.50051E-06-7.84120E+04 5.95411E-07
 -1      1398-4.10815E-06 1.41660E+05 2.87313E-06
 -1      1407 3.50862E-06-9.17886E+04 2.54520E+05
 -1      1409 3.86380E-06-9.17886E+04-2.54520E+05
 -1      1410-3.84394E-06-1.24744E+05 7.69504E-06
 -1      1412-4.37983E-06 1.99533E+05-3.85225E-06
 -1      1421 3.01745E-06-1.29295E+05 3.42185E+05
 -1      1423 3.03195E-06-1.29295E+05-3.42185E+05
 -1      1424-2.84947E-06-1.59502E+05 2.42017E-06
 -1      1426-3.03816E-06 2.76467E+05 2.15834E-06
 -1      1435 2.86538E-06-1.21988E+05 4.13896E+05
 -1      1437 2.68649E-06-1.21988E+05-4.13896E+05
 -1      1438-2.70208E-06-2.27491E+05 8.73039E-07
 -1      1440-2.97110E-06 2.99843E+05 1.58001E-06
 -1      1449 1.66677E-06-1.60699E+05 5.22574E+05
 -1      1451 2.06770E-06-1.60699E+05-5.22574E+05
 -1      1452-2.12069E-06-2.71408E+05-7.72751E-07
 -1      1454-1.91499E-06 3.94390E+05-4.22121E-07
 -1      1463 1.52070E-06-7.91197E+04 6.06222E+05
 -1      1465 1.65351E-06-7.91197E+04-6.06222E+05
 -1      1466-2.32295E-06-4.18068E+05-1.58425E-06
 -1      1468-2.30241E-06 3.54303E+05-8.75708E-07
 -1      1477 4.57391E-07-1.51983E+05 8.74313E+05
 -1      1479 1.09737E-07-1.51983E+05-8.74313E+05
 -1      1480-1.31273E-06-5.26334E+05-5.81618E-07
 -1      1482-1.29973E-06 5.87606E+05-3.91792E-06
 -1      1491-1.26620E-08 3.01674E+04-4.33858E-07
 -1      1493 4.91931E-07 3.01674E+04 1.15220E-06
 -1      1494 6.67189E-07-3.14779E-06-1.42934E-06
 -1      1496 6.45685E-07 1.14588E-05 6.62929E-07
 -1      1497-2.30925E-07-3.01674E+04-1.69841E-06
 -1      1499-1.82199E-08-3.01674E+04-1.41370E-06
 -1      1500 1.22036E+03 2.01423E+03 8.21842E+02
 -1      1502 1.22036E+03 2.01423E+03 8.21842E+02
 -1      1503 2.12879E+03 4.97043E+03 1.78330E+03
 -1      1505 2.12879E+03 4.97043E+03 1.78330E+03
 -1      1506 2.67075E+03 8.88071E+03 2.79520E+03
 -1      1508 2.67075E+03 8.88071E+03 2.79520E+03
 -1      1509 2.92351E+03 1.33068E+04 3.80684E+03
 -1      1511 2.92351E+03 1.33068E+04 3.80684E+03
 -1      1512 2.94852E+03 1.78802E+04 4.79793E+03
 -1      1514 2.94852E+03 1.78802E+04 4.79793E+03
 -1      1515 2.79056E+03 2.23108E+04 5.72414E+03
 -1      1517 2.79056E+03 2.23108E+04 5.72414E+03
 -1      1518 2.48601E+03 2.63628E+04 6.55295E+03
 -1      1520 2.48601E+03 2.63628E+04 6.55295E+03
 -1      1521 2.06499E+03 2.98462E+04 7.25053E+03
 -1      1523 2.06499E+03 2.98462E+04 7.25053E+03
 -1      1524 1.55427E+03 3.26116E+04 7.79033E+03
 -1      1526 1.55427E+03 3.26116E+04 7.79033E+03
 -1      1527 9.78222E+02 3.45461E+04 8.15024E+03
 -1      1529 9.78222E+02 3.45461E+04 8.15024E+03
 -1      1530 3.59867E+02 3.55715E+04 8.31478E+03
 -1      1532 3.59867E+02 3.55715E+04 8.31478E+03
 -1      1533-2.78911E+02 3.56423E+04 8.27453E+03
 -1      1535-2.78911E+02 3.56423E+04 8.27453E+03
 -1      1536-9.17183E+02 3.47449E+04 8.02664E+03
 -1      1538-9.17183E+02 3.47449E+04 8.02664E+03
 -1      1539-1.53518E+03 3.28962E+04 7.57454E+03
 -1      1541-1.53518E+03 3.28962E+04 7.57454E+03
 -1      1542-2.11445E+03 3.01414E+04 6.92782E+03
 -1      1544-2.11445E+03 3.01414E+04 6.92782E+03
 -1      1545-2.63826E+03 2.65524E+04 6.10184E+03
 -1      1547-2.63826E+03 2.65524E+04 6.10184E+03
 -1      1548-3.09189E+03 2.22247E+04 5.11718E+03
 -1      1550-3.09189E+03 2.22247E+04 5.11718E+03
 -1      1551-3.46307E+03 1.72741E+04 3.99900E+03
 -1      1553-3.46307E+03 1.72741E+04 3.99900E+03
 -1      1554-3.74229E+03 1.18331E+04 2.77627E+03
 -1      1556-3.74229E+03 1.18331E+04 2.77627E+03
 -1      1557-3.92323E+03 6.04631E+03 1.48090E+03
 -1      1559-3.92323E+03 6.04631E+03 1.48090E+03
 -1      1560-4.00311E+03 6.54236E+01 1.46762E+02
 -1      1562-4.00311E+03 6.54236E+01 1.46762E+02
 -1      1563-3.98309E+03-5.95619E+03-1.19124E+03
 -1      1565-3.98309E+03-5.95619E+03-1.19124E+03
 -1      1566-3.86867E+03-1.18695E+04-2.49827E+03
 -1      1568-3.86867E+03-1.18695E+04-2.49827E+03
 -1      1569-3.67033E+03-1.75367E+04-3.74031E+03
 -1      1571-3.67033E+03-1.75367E+04-3.74031E+03
 -1      1572-3.40411E+03-2.28387E+04-4.88524E+03
 -1      1574-3.40411E+03-2.28387E+04-4.88524E+03
 -1      1575-3.09269E+03-2.76830E+04-5.90272E+03
 -1      1577-3.09269E+03-2.76830E+04-5.90272E+03
 -1      1578-2.76728E+03-3.20184E+04-6.76442E+03
 -1      1580-2.76728E+03-3.20184E+04-6.76442E+03
 -1      1581-2.46791E+03-3.58334E+04-7.44026E+03
 -1      1583-2.46791E+03-3.58334E+04-7.44026E+03
 -1      1584-2.25208E+03-3.92090E+04-7.89203E+03
 -1      1586-2.25208E+03-3.92090E+04-7.89203E+03
 -1      1587-1.45033E+03-4.07988E+04-5.48195E+03
 -1      1589-1.45033E+03-4.07988E+04-5.48195E+03
 -1      1590-1.81042E+06-3.13185E+05 2.94775E+03
 -1      1592-2.12692E+06-2.49333E+05 2.94775E+03
 -1      1593 1.45033E+03-4.07988E+04 5.48195E+03
 -1      1595 1.45033E+03-4.07988E+04 5.48195E+03
 -1      1596-1.22036E+03 2.01423E+03-8.21842E+02
 -1      1598-1.22036E+03 2.01423E+03-8.21842E+02
 -1      1599-2.12879E+03 4.97043E+03-1.78330E+03
 -1      1601-2.12879E+03 4.97043E+03-1.78330E+03
 -1      1602-2.67075E+03 8.88071E+03-2.79520E+03
 -1      1604-2.67075E+03 8.88071E+03-2.79520E+03
 -1      1605-2.92351E+03 1.33068E+04-3.80684E+03
 -1      1607-2.92351E+03 1.33068E+04-3.80684E+03
 -1      1608-2.94852E+03 1.78802E+04-4.79793E+03
 -1      1610-2.94852E+03 1.78802E+04-4.79793E+03
 -1      1611-2.79056E+03 2.23108E+04-5.72414E+03
 -1      1613-2.79056E+03 2.23108E+04-5.72414E+03
 -1      1614-2.48601E+03 2.63628E+04-6.55295E+03
 -1      1616-2.48601E+03 2.63628E+04-6.55295E+03
 -1      1617-2.06499E+03 2.98462E+04-7.25053E+03
 -1      1619-2.06499E+03 2.98462E+04-7.25053E+03
 -1      1620-1.55427E+03 3.26116E+04-7.79033E+03
 -1      1622-1.55427E+03 3.26116E+04-7.79033E+03
 -1      1623-9.78222E+02 3.45461E+04-8.15024E+03
 -1      1625-9.78222E+02 3.45461E+04-8.15024E+03
 -1      1626-3.59867E+02 3.55715E+04-8.31478E+03
 -1      1628-3.59867E+02 3.55715E+04-8.31478E+03
 -1      1629 2.78911E+02 3.56423E+04-8.27453E+03
 -1      1631 2.78911E+02 3.56423E+04-8.27453E+03
 -1      1632 9.17183E+02 3.47449E+04-8.02664E+03
 -1      1634 9.17183E+02 3.47449E+04-8.02664E+03
 -1      1635 1.53518E+03 3.28962E+04-7.57454E+03
 -1      1637 1.53518E+03 3.28962E+04-7.57454E+03
 -1      1638 2.11445E+03 3.01414E+04-6.92782E+03
 -1      1640 2.11445E+03 3.01414E+04-6.92782E+03
 -1      1641 2.63826E+03 2.65524E+04-6.10184E+03
 -1      1643 2.63826E+03 2.65524E+04-6.10184E+03
 -1      1644 3.09189E+03 2.22247E+04-5.11718E+03
 -1      1646 3.09189E+03 2.22247E+04-5.11718E+03
 -1      1647 3.46307E+03 1.72741E+04-3.99900E+03
 -1      1649 3.46307E+03 1.72741E+04-3.99900E+03
 -1      1650 3.74229E+03 1.18331E+04-2.77627E+03
 -1      1652 3.74229E+03 1.18331E+04-2.77627E+03
 -1      1653 3.92323E+03 6.04631E+03-1.48090E+03
 -1      1655 3.92323E+03 6.04631E+03-1.48090E+03
 -1      1656 4.00311E+03 6.54236E+01-1.46762E+02
 -1      1658 4.00311E+03 6.54236E+01-1.46762E+02
 -1      1659 3.98309E+03-5.95619E+03 1.19124E+03
 -1      1661 3.98309E+03-5.95619E+03 1.19124E+03
 -1      1662 3.86867E+03-1.18695E+04 2.49827E+03
 -1      1664 3.86867E+03-1.18695E+04 2.49827E+03
 -1      1665 3.67033E+03-1.75367E+04 3.74031E+03
 -1      1667 3.67033E+03-1.75367E+04 3.74031E+03
 -1      1668 3.40411E+03-2.28387E+04 4.88524E+03
 -1      1670 3.40411E+03-2.28387E+04 4.88524E+03
 -1      1671 3.09269E+03-2.76830E+04 5.90272E+03
 -1      1673 3.09269E+03-2.76830E+04 5.90272E+03
 -1      1674 2.76728E+03-3.20184E+04 6.76442E+03
 -1      1676 2.76728E+03-3.20184E+04 6.76442E+03
 -1      1677 2.46791E+03-3.58334E+04 7.44026E+03
 -1      1679 2.46791E+03-3.58334E+04 7.44026E+03
 -1      1680 2.25208E+03-3.92090E+04 7.89203E+03
 -1      1682 2.25208E+03-3.92090E+04 7.89203E+03
 -1      1683 1.81042E+06-3.13185E+05-2.94775E+03
 -1      1685 2.12692E+06-2.49333E+05-2.94775E+03
 -1      1686 1.60334E+03-3.94736E+03-1.08028E+03
 -1      1688 1.60334E+03-3.94736E+03-1.08028E+03
 -1      1689 2.81805E+03-9.87658E+03-2.35976E+03
 -1      1691 2.81805E+03-9.87658E+03-2.35976E+03
 -1      1692 3.54688E+03-1.77313E+04-3.71727E+03
 -1      1694 3.54688E+03-1.77313E+04-3.71727E+03
 -1      1695 3.88592E+03-2.66019E+04-5.08229E+03
 -1      1697 3.88592E+03-2.66019E+04-5.08229E+03
 -1      1698 3.92209E+03-3.57664E+04-6.42529E+03
 -1      1700 3.92209E+03-3.57664E+04-6.42529E+03
 -1      1701 3.71317E+03-4.46410E+04-7.68374E+03
 -1      1703 3.71317E+03-4.46410E+04-7.68374E+03
 -1      1704 3.30871E+03-5.27557E+04-8.81208E+03
 -1      1706 3.30871E+03-5.27557E+04-8.81208E+03
 -1      1707 2.74872E+03-5.97310E+04-9.76334E+03
 -1      1709 2.74872E+03-5.97310E+04-9.76334E+03
 -1      1710 2.06901E+03-6.52682E+04-1.05009E+04
 -1      1712 2.06901E+03-6.52682E+04-1.05009E+04
 -1      1713 1.30213E+03-6.91417E+04-1.09946E+04
 -1      1715 1.30213E+03-6.91417E+04-1.09946E+04
 -1      1716 4.78772E+02-7.11949E+04-1.12231E+04
 -1      1718 4.78772E+02-7.11949E+04-1.12231E+04
 -1      1719-3.71859E+02-7.13373E+04-1.11738E+04
 -1      1721-3.71859E+02-7.13373E+04-1.11738E+04
 -1      1722-1.22188E+03-6.95418E+04-1.08428E+04
 -1      1724-1.22188E+03-6.95418E+04-1.08428E+04
 -1      1725-2.04492E+03-6.58419E+04-1.02346E+04
 -1      1727-2.04492E+03-6.58419E+04-1.02346E+04
 -1      1728-2.81643E+03-6.03285E+04-9.36258E+03
 -1      1730-2.81643E+03-6.03285E+04-9.36258E+03
 -1      1731-3.51409E+03-5.31453E+04-8.24740E+03
 -1      1733-3.51409E+03-5.31453E+04-8.24740E+03
 -1      1734-4.11831E+03-4.44834E+04-6.91705E+03
 -1      1736-4.11831E+03-4.44834E+04-6.91705E+03
 -1      1737-4.61273E+03-3.45751E+04-5.40564E+03
 -1      1739-4.61273E+03-3.45751E+04-5.40564E+03
 -1      1740-4.98470E+03-2.36852E+04-3.75243E+03
 -1      1742-4.98470E+03-2.36852E+04-3.75243E+03
 -1      1743-5.22581E+03-1.21034E+04-2.00059E+03
 -1      1745-5.22581E+03-1.21034E+04-2.00059E+03
 -1      1746-5.33238E+03-1.33270E+02-1.95920E+02
 -1      1748-5.33238E+03-1.33270E+02-1.95920E+02
 -1      1749-5.30596E+03 1.19180E+04 1.61448E+03
 -1      1751-5.30596E+03 1.19180E+04 1.61448E+03
 -1      1752-5.15397E+03 2.37520E+04 3.38372E+03
 -1      1754-5.15397E+03 2.37520E+04 3.38372E+03
 -1      1755-4.89027E+03 3.50927E+04 5.06621E+03
 -1      1757-4.89027E+03 3.50927E+04 5.06621E+03
 -1      1758-4.53665E+03 4.57012E+04 6.61912E+03
 -1      1760-4.53665E+03 4.57012E+04 6.61912E+03
 -1      1761-4.12274E+03 5.53933E+04 8.00226E+03
 -1      1763-4.12274E+03 5.53933E+04 8.00226E+03
 -1      1764-3.69122E+03 6.40612E+04 9.17823E+03
 -1      1766-3.69122E+03 6.40612E+04 9.17823E+03
 -1      1767-3.29552E+03 7.16919E+04 1.01068E+04
 -1      1769-3.29552E+03 7.16919E+04 1.01068E+04
 -1      1770-3.00703E+03 7.84251E+04 1.07337E+04
 -1      1772-3.00703E+03 7.84251E+04 1.07337E+04
 -1      1773-1.60334E+03-3.94736E+03 1.08028E+03
 -1      1775-1.60334E+03-3.94736E+03 1.08028E+03
 -1      1776-2.81805E+03-9.87658E+03 2.35976E+03
 -1      1778-2.81805E+03-9.87658E+03 2.35976E+03
 -1      1779-3.54688E+03-1.77313E+04 3.71727E+03
 -1      1781-3.54688E+03-1.77313E+04 3.71727E+03
 -1      1782-3.88592E+03-2.66019E+04 5.08229E+03
 -1      1784-3.88592E+03-2.66019E+04 5.08229E+03
 -1      1785-3.92209E+03-3.57664E+04 6.42529E+03
 -1      1787-3.92209E+03-3.57664E+04 6.42529E+03
 -1      1788-3.71317E+03-4.46410E+04 7.68374E+03
 -1      1790-3.71317E+03-4.46410E+04 7.68374E+03
 -1      1791-3.30871E+03-5.27557E+04 8.81208E+03
 -1      1793-3.30871E+03-5.27557E+04 8.81208E+03
 -1      1794-2.74872E+03-5.97310E+04 9.76334E+03
 -1      1796-2.74872E+03-5.97310E+04 9.76334E+03
 -1      1797-2.06901E+03-6.52682E+04 1.05009E+04
 -1      1799-2.06901E+03-6.52682E+04 1.05009E+04
 -1      1800-1.30213E+03-6.91417E+04 1.09946E+04
 -1      1802-1.30213E+03-6.91417E+04 1.09946E+04
 -1      1803-4.78772E+02-7.11949E+04 1.12231E+04
 -1      1805-4.78772E+02-7.11949E+04 1.12231E+04
 -1      1806 3.71859E+02-7.13373E+04 1.11738E+04
 -1      1808 3.71859E+02-7.13373E+04 1.11738E+04
 -1      1809 1.22188E+03-6.95418E+04 1.08428E+04
 -1      1811 1.22188E+03-6.95418E+04 1.08428E+04
 -1      1812 2.04492E+03-6.58419E+04 1.02346E+04
 -1      1814 2.04492E+03-6.58419E+04 1.02346E+04
 -1      1815 2.81643E+03-6.03285E+04 9.36258E+03
 -1      1817 2.81643E+03-6.03285E+04 9.36258E+03
 -1      1818 3.51409E+03-5.31453E+04 8.24740E+03
 -1      1820 3.51409E+03-5.31453E+04 8.24740E+03
 -1      1821 4.11831E+03-4.44834E+04 6.91705E+03
 -1      1823 4.11831E+03-4.44834E+04 6.91705E+03
 -1      1824 4.61273E+03-3.45751E+04 5.40564E+03
 -1      1826 4.61273E+03-3.45751E+04 5.40564E+03
 -1      1827 4.98470E+03-2.36852E+04 3.75243E+03
 -1      1829 4.98470E+03-2.36852E+04 3.75243E+03
 -1      1830 5.22581E+03-1.21034E+04 2.00059E+03
 -1      1832 5.22581E+03-1.21034E+04 2.00059E+03
 -1      1833 5.33238E+03-1.33270E+02 1.95920E+02
 -1      1835 5.33238E+03-1.33270E+02 1.95920E+02
 -1      1836 5.30596E+03 1.19180E+04-1.61448E+03
 -1      1838 5.30596E+03 1.19180E+04-1.61448E+03
 -1      1839 5.15397E+03 2.37520E+04-3.38372E+03
 -1      1841 5.15397E+03 2.37520E+04-3.38372E+03
 -1      1842 4.89027E+03 3.50927E+04-5.06621E+03
 -1      1844 4.89027E+03 3.50927E+04-5.06621E+03
 -1      1845 4.53665E+03 4.57012E+04-6.61912E+03
 -1      1847 4.53665E+03 4.57012E+04-6.61912E+03
 -1      1848 4.12274E+03 5.53933E+04-8.00226E+03
 -1      1850 4.12274E+03 5.53933E+04-8.00226E+03
 -1      1851 3.69122E+03 6.40612E+04-9.17823E+03
 -1      1853 3.69122E+03 6.40612E+04-9.17823E+03
 -1      1854 3.29552E+03 7.16919E+04-1.01068E+04
 -1      1856 3.29552E+03 7.16919E+04-1.01068E+04
 -1      1857 3.00703E+03 7.84251E+04-1.07337E+04
 -1      1859 3.00703E+03 7.84251E+04-1.07337E+04
 -1      1860-1.46087E-07-2.87893E+03 6.17383E-08
 -1      1862-1.12206E-07-2.87893E+03 2.38226E-07
 -1      1863-3.50194E-07-7.28525E+03-3.24203E-07
 -1      1865-3.00288E-07-7.28525E+03 1.27180E-07
 -1      1866-3.06454E-07-1.31021E+04-1.72463E-07
 -1      1868-2.76047E-07-1.31021E+04-3.46894E-07
 -1      1869 3.52704E-07-1.96404E+04 2.41797E-07
 -1      1871 3.72730E-07-1.96404E+04-6.02844E-07
 -1      1872 6.03172E-07-2.63940E+04 7.13887E-08
 -1      1874 5.92077E-07-2.63940E+04-3.93539E-07
 -1      1875 1.49486E-07-3.29344E+04-4.26430E-08
 -1      1877 2.79644E-07-3.29344E+04-3.99893E-07
 -1      1878-1.07466E-07-3.89173E+04 6.11500E-07
 -1      1880-2.35268E-08-3.89173E+04-5.55279E-07
 -1      1881-1.35555E-07-4.40629E+04 1.14732E-06
 -1      1883-4.19859E-07-4.40629E+04-8.49959E-07
 -1      1884 7.07807E-07-4.81499E+04-8.39638E-07
 -1      1886 3.38408E-07-4.81499E+04-9.52632E-07
 -1      1887 3.84844E-07-5.10105E+04-1.26917E-06
 -1      1889 1.43144E-07-5.10105E+04-2.42478E-07
 -1      1890 6.38101E-08-5.25281E+04-4.38135E-07
 -1      1892-2.87513E-07-5.25281E+04 7.98132E-07
 -1      1893-6.46287E-08-5.26343E+04-3.48340E-07
 -1      1895 1.61504E-07-5.26343E+04 1.23100E-06
 -1      1896 1.80684E-07-5.13082E+04 3.24186E-07
 -1      1898 3.88838E-07-5.13082E+04-5.87356E-07
 -1      1899-4.28918E-09-4.85739E+04 1.16253E-06
 -1      1901-1.55622E-07-4.85739E+04 1.50931E-07
 -1      1902-1.32408E-06-4.44978E+04-1.89626E-07
 -1      1904-1.54670E-07-4.44978E+04 1.37939E-06
 -1      1905-1.01423E-06-3.91857E+04-4.65065E-07
 -1      1907-7.43739E-07-3.91857E+04 1.41821E-07
 -1      1908-8.09941E-08-3.27784E+04-8.13139E-07
 -1      1910-6.82445E-07-3.27784E+04-4.13620E-08
 -1      1911-4.03287E-07-2.54474E+04 4.77115E-07
 -1      1913-8.83511E-07-2.54474E+04-1.32587E-06
 -1      1914-7.22713E-07-1.73885E+04 3.28542E-07
 -1      1916-7.12945E-07-1.73885E+04-2.03424E-06
 -1      1917-8.39798E-07-8.81567E+03-4.06923E-07
 -1      1919-6.75875E-07-8.81567E+03 7.67775E-07
 -1      1920-3.79708E-07 4.64676E+01-2.55950E-06
 -1      1922-4.67596E-07 4.64676E+01 4.38310E-06
 -1      1923 2.72303E-08 8.97037E+03 1.02284E-06
 -1      1925 2.76094E-07 8.97037E+03 5.79294E-07
 -1      1926 1.35118E-07 1.77349E+04 3.25916E-06
 -1      1928 3.56573E-07 1.77349E+04-5.41023E-07
 -1      1929 3.41990E-07 2.61348E+04 4.13629E-06
 -1      1931 5.89644E-07 2.61348E+04-1.97471E-06
 -1      1932 4.37110E-07 3.39903E+04 7.71919E-07
 -1      1934 8.45264E-07 3.39903E+04 1.70710E-07
 -1      1935 1.21163E-08 4.11648E+04 2.87929E-06
 -1      1937 4.68392E-07 4.11648E+04 2.27731E-06
 -1      1938 2.32621E-07 4.75631E+04 1.81204E-07
 -1      1940 3.45939E-07 4.75631E+04-1.25906E-06
 -1      1941 4.51104E-07 5.31851E+04 7.26795E-07
 -1      1943-1.76278E-07 5.31851E+04 3.32071E-07
 -1      1944-1.32080E-07 5.80734E+04 8.13363E-07
 -1      1946 2.32088E-07 5.80734E+04 3.91864E-06
 -1      1947-3.08191E-07 1.93147E-06-4.95666E-07
 -1      1949-2.44862E-07-4.20746E-07-3.42434E-07
 -1      1950-8.99418E-08 1.23213E-06-8.90718E-07
 -1      1952-9.41945E-08-2.62626E-07-6.74813E-07
 -1      1953-3.13595E-08 3.89026E-07-3.46588E-07
 -1      1955-2.96151E-08 2.88511E-07-4.00410E-08
 -1      1956 5.26024E-08 2.11260E-06-6.22431E-08
 -1      1958 1.96413E-07-3.48980E-06-3.23474E-07
 -1      1959 1.53273E-07 6.86959E-06-1.42003E-07
 -1      1961 2.47334E-07-4.57994E-06-2.19954E-07
 -1      1962-3.54621E-08 1.28623E-06 2.01730E-08
 -1      1964-2.01062E-08-2.05876E-06-8.64274E-07
 -1      1965 4.80080E-07-6.91356E-06-5.85082E-08
 -1      1967 2.11790E-07 8.62184E-06-1.00029E-06
 -1      1968 9.27173E-07-3.36773E-06 3.84489E-09
 -1      1970 6.19335E-07 8.17801E-06-3.34577E-07
 -1      1971 5.14383E-07 4.89097E-06-4.02142E-07
 -1      1973 5.62504E-07-2.89875E-06-9.27713E-07
 -1      1974 6.06413E-07 9.98648E-06-9.95580E-07
 -1      1976-7.24867E-09-1.75562E-06 2.84046E-07
 -1      1977 2.07427E-07-4.73043E-07-5.78338E-07
 -1      1979 5.57942E-07 3.08494E-06-5.07255E-07
 -1      1980 5.43496E-08-5.66867E-06-9.25719E-07
 -1      1982 4.10719E-07 7.97666E-06 3.43937E-07
 -1      1983 3.49579E-07-2.89087E-06 4.08713E-07
 -1      1985-1.69070E-07 1.13864E-05-2.06656E-07
 -1      1986-2.02983E-07 4.43447E-06-1.03632E-07
 -1      1988-4.12396E-07-6.39328E-07-2.95272E-07
 -1      1989-8.57934E-07 2.73661E-07 5.03302E-07
 -1      1991-2.80212E-07 4.46328E-06-4.30220E-07
 -1      1992-5.72605E-07-1.05692E-06 7.40555E-07
 -1      1994-9.60727E-07 1.75052E-06-4.68744E-07
 -1      1995 4.10600E-08-6.65057E-06-1.60889E-06
 -1      1997-4.99766E-07 3.51760E-06-5.52809E-07
 -1      1998 3.03988E-07-2.19802E-06-7.01923E-07
 -1      2000 1.08303E-08 8.01297E-06-1.11976E-06
 -1      2001-1.23906E-07 1.26417E-06-1.03309E-06
 -1      2003-3.05719E-07 7.41203E-06-1.59050E-06
 -1      2004-3.81254E-07 3.94549E-07-2.41382E-06
 -1      2006-5.09702E-07 6.39917E-07 1.19269E-06
 -1      2007 1.11169E-07 3.70949E-06 2.02300E-06
 -1      2009-2.87558E-07-2.73603E-06 1.19208E-06
 -1      2010 1.07603E-07 2.23250E-06 2.89150E-06
 -1      2012 1.05620E-07-3.90794E-06-1.88240E-06
 -1      2013-2.80260E-07 7.25406E-06-8.14537E-07
 -1      2015 2.99714E-07 1.24030E-06-2.03160E-06
 -1      2016-1.12053E-07-5.40081E-07 1.19693E-06
 -1      2018 5.86024E-07 3.76921E-06-1.67008E-06
 -1      2019 6.15741E-07-1.49849E-06-1.36757E-06
 -1      2021 3.71469E-07 3.60118E-06-2.06317E-06
 -1      2022 9.06512E-08-8.30445E-06 1.32638E-06
 -1      2024 1.59362E-07 1.02029E-05 5.67749E-07
 -1      2025 4.38648E-07-5.41965E-06-1.99885E-06
 -1      2027 6.32400E-07 4.75096E-06 9.09801E-07
 -1      2028 1.73565E-07 1.11124E-06-1.41027E-06
 -1      2030 1.40092E-07-5.32944E-06 9.15014E-07
 -1      2031 4.08581E-08-3.30768E-06-1.95658E-06
 -1      2033-5.53100E-07 8.97023E-06 2.96304E-06
 -1      2034 6.27409E-07 2.87893E+03-6.93523E-07
 -1      2036 6.64922E-07 2.87893E+03-6.34616E-07
 -1      2037 5.89924E-07 7.28525E+03-7.57469E-07
 -1      2039 5.49531E-07 7.28525E+03-7.14184E-07
 -1      2040-5.89669E-08 1.31021E+04-3.10622E-07
 -1      2042-1.39397E-07 1.31021E+04 4.28263E-07
 -1      2043-2.03426E-07 1.96404E+04-3.91708E-07
 -1      2045-1.53295E-07 1.96404E+04 9.93070E-07
 -1      2046-9.37689E-08 2.63940E+04-2.30530E-07
 -1      2048 3.56049E-08 2.63940E+04 8.49304E-08
 -1      2049 1.77424E-08 3.29344E+04-3.75789E-07
 -1      2051-1.99630E-07 3.29344E+04-2.36945E-07
 -1      2052 5.44136E-07 3.89173E+04-8.40984E-07
 -1      2054 1.58718E-07 3.89173E+04-6.32321E-07
 -1      2055 7.77999E-07 4.40629E+04-1.86638E-06
 -1      2057 5.90861E-07 4.40629E+04-1.08173E-06
 -1      2058 4.97261E-07 4.81499E+04-1.74169E-06
 -1      2060 6.29789E-08 4.81499E+04-8.57152E-07
 -1      2061 7.06075E-07 5.10105E+04-1.98333E-06
 -1      2063 3.99670E-07 5.10105E+04 8.22054E-07
 -1      2064 5.23152E-07 5.25281E+04-2.25773E-06
 -1      2066 5.72720E-07 5.25281E+04 9.72123E-07
 -1      2067-3.02587E-07 5.26343E+04-2.63683E-07
 -1      2069 2.59237E-07 5.26343E+04 3.40488E-07
 -1      2070-1.91765E-07 5.13082E+04 4.71725E-07
 -1      2072-2.75573E-07 5.13082E+04-1.00951E-06
 -1      2073 2.94096E-07 4.85739E+04-7.89154E-07
 -1      2075-2.29707E-07 4.85739E+04-9.38982E-07
 -1      2076 7.11880E-08 4.44978E+04 3.91932E-07
 -1      2078 3.95041E-07 4.44978E+04-8.33408E-07
 -1      2079 5.72212E-07 3.91857E+04 6.49225E-07
 -1      2081 5.04882E-07 3.91857E+04-1.62202E-06
 -1      2082 8.71732E-07 3.27784E+04-1.58446E-06
 -1      2084 5.44705E-07 3.27784E+04-2.59039E-06
 -1      2085 6.00634E-07 2.54474E+04 4.30999E-07
 -1      2087 4.61132E-07 2.54474E+04 2.02817E-07
 -1      2088 3.68307E-07 1.73885E+04-1.84172E-06
 -1      2090-8.64293E-09 1.73885E+04 8.72446E-07
 -1      2091 4.11910E-09 8.81567E+03 1.42224E-06
 -1      2093-7.68790E-07 8.81567E+03 1.06105E-06
 -1      2094-3.83586E-07-4.64676E+01 6.97411E-07
 -1      2096-6.47957E-07-4.64676E+01 2.55128E-07
 -1      2097-6.64845E-07-8.97037E+03 1.65185E-06
 -1      2099-9.72528E-07-8.97037E+03 2.29185E-07
 -1      2100-9.60175E-07-1.77349E+04-1.15196E-06
 -1      2102-6.98151E-07-1.77349E+04-3.27849E-06
 -1      2103-5.53314E-07-2.61348E+04 2.67233E-06
 -1      2105 2.46864E-08-2.61348E+04-1.87342E-06
 -1      2106 5.40986E-08-3.39903E+04 2.29877E-06
 -1      2108-1.31546E-07-3.39903E+04-5.74029E-07
 -1      2109 2.40841E-07-4.11648E+04 6.18205E-07
 -1      2111-2.43017E-08-4.11648E+04-9.12347E-07
 -1      2112-1.28575E-07-4.75631E+04-3.02008E-06
 -1      2114 3.42941E-07-4.75631E+04-3.61344E-07
 -1      2115-9.35564E-07-5.31851E+04-1.94376E-06
 -1      2117-7.33302E-07-5.31851E+04-9.56643E-08
 -1      2118-5.46231E-07-5.80734E+04-3.62852E-08
 -1      2120-1.13393E-06-5.80734E+04-1.51391E-07
 -1      2121 1.60334E+03 3.94736E+03 1.08028E+03
 -1      2123 1.60334E+03 3.94736E+03 1.08028E+03
 -1      2124 2.81805E+03 9.87658E+03 2.35976E+03
 -1      2126 2.81805E+03 9.87658E+03 2.35976E+03
 -1      2127 3.54688E+03 1.77313E+04 3.71727E+03
 -1      2129 3.54688E+03 1.77313E+04 3.71727E+03
 -1      2130 3.88592E+03 2.66019E+04 5.08229E+03
 -1      2132 3.88592E+03 2.66019E+04 5.08229E+03
 -1      2133 3.92209E+03 3.57664E+04 6.42529E+03
 -1      2135 3.92209E+03 3.57664E+04 6.42529E+03
 -1      2136 3.71317E+03 4.46410E+04 7.68374E+03
 -1      2138 3.71317E+03 4.46410E+04 7.68374E+03
 -1      2139 3.30871E+03 5.27557E+04 8.81208E+03
 -1      2141 3.30871E+03 5.27557E+04 8.81208E+03
 -1      2142 2.74872E+03 5.97310E+04 9.76334E+03
 -1      2144 2.74872E+03 5.97310E+04 9.76334E+03
 -1      2145 2.06901E+03 6.52682E+04 1.05009E+04
 -1      2147 2.06901E+03 6.52682E+04 1.05009E+04
 -1      2148 1.30213E+03 6.91417E+04 1.09946E+04
 -1      2150 1.30213E+03 6.91417E+04 1.09946E+04
 -1      2151 4.78772E+02 7.11949E+04 1.12231E+04
 -1      2153 4.78772E+02 7.11949E+04 1.12231E+04
 -1      2154-3.71859E+02 7.13373E+04 1.11738E+04
 -1      2156-3.71859E+02 7.13373E+04 1.11738E+04
 -1      2157-1.22188E+03 6.95418E+04 1.08428E+04
 -1      2159-1.22188E+03 6.95418E+04 1.08428E+04
 -1      2160-2.04492E+03 6.58419E+04 1.02346E+04
 -1      2162-2.04492E+03 6.58419E+04 1.02346E+04
 -1      2163-2.81643E+03 6.03285E+04 9.36258E+03
 -1      2165-2.81643E+03 6.03285E+04 9.36258E+03
 -1      2166-3.51409E+03 5.31453E+04 8.24740E+03
 -1      2168-3.51409E+03 5.31453E+04 8.24740E+03
 -1      2169-4.11831E+03 4.44834E+04 6.91705E+03
 -1      2171-4.11831E+03 4.44834E+04 6.91705E+03
 -1      2172-4.61273E+03 3.45751E+04 5.40564E+03
 -1      2174-4.61273E+03 3.45751E+04 5.40564E+03
 -1      2175-4.98470E+03 2.36852E+04 3.75243E+03
 -1      2177-4.98470E+03 2.36852E+04 3.75243E+03
 -1      2178-5.22581E+03 1.21034E+04 2.00059E+03
 -1      2180-5.22581E+03 1.21034E+04 2.00059E+03
 -1      2181-5.33238E+03 1.33270E+02 1.95920E+02
 -1      2183-5.33238E+03 1.33270E+02 1.95920E+02
 -1      2184-5.30596E+03-1.19180E+04-1.61448E+03
 -1      2186-5.30596E+03-1.19180E+04-1.61448E+03
 -1      2187-5.15397E+03-2.37520E+04-3.38372E+03
 -1      2189-5.15397E+03-2.37520E+04-3.38372E+03
 -1      2190-4.89027E+03-3.50927E+04-5.06621E+03
 -1      2192-4.89027E+03-3.50927E+04-5.06621E+03
 -1      2193-4.53665E+03-4.57012E+04-6.61912E+03
 -1      2195-4.53665E+03-4.57012E+04-6.61912E+03
 -1      2196-4.12274E+03-5.53933E+04-8.00226E+03
 -1      2198-4.12274E+03-5.53933E+04-8.00226E+03
 -1      2199-3.69122E+03-6.40612E+04-9.17823E+03
 -1      2201-3.69122E+03-6.40612E+04-9.17823E+03
 -1      2202-3.29552E+03-7.16919E+04-1.01068E+04
 -1      2204-3.29552E+03-7.16919E+04-1.01068E+04
 -1      2205-3.00703E+03-7.84251E+04-1.07337E+04
 -1      2207-3.00703E+03-7.84251E+04-1.07337E+04
 -1      2208-1.60334E+03 3.94736E+03-1.08028E+03
 -1      2210-1.60334E+03 3.94736E+03-1.08028E+03
 -1      2211-2.81805E+03 9.87658E+03-2.35976E+03
 -1      2213-2.81805E+03 9.87658E+03-2.35976E+03
 -1      2214-3.54688E+03 1.77313E+04-3.71727E+03
 -1      2216-3.54688E+03 1.77313E+04-3.71727E+03
 -1      2217-3.88592E+03 2.66019E+04-5.08229E+03
 -1      2219-3.88592E+03 2.66019E+04-5.08229E+03
 -1      2220-3.92209E+03 3.57664E+04-6.42529E+03
 -1      2222-3.92209E+03 3.57664E+04-6.42529E+03
 -1      2223-3.71317E+03 4.46410E+04-7.68374E+03
 -1      2225-3.71317E+03 4.46410E+04-7.68374E+03
 -1      2226-3.30871E+03 5.27557E+04-8.81208E+03
 -1      2228-3.30871E+03 5.27557E+04-8.81208E+03
 -1      2229-2.74872E+03 5.97310E+04-9.76334E+03
 -1      2231-2.74872E+03 5.97310E+04-9.76334E+03
 -1      2232-2.06901E+03 6.52682E+04-1.05009E+04
 -1      2234-2.06901E+03 6.52682E+04-1.05009E+04
 -1      2235-1.30213E+03 6.91417E+04-1.09946E+04
 -1      2237-1.30213E+03 6.91417E+04-1.09946E+04
 -1      2238-4.78772E+02 7.11949E+04-1.12231E+04
 -1      2240-4.78772E+02 7.11949E+04-1.12231E+04
 -1      2241 3.71859E+02 7.13373E+04-1.11738E+04
 -1      2243 3.71859E+02 7.13373E+04-1.11738E+04
 -1      2244 1.22188E+03 6.95418E+04-1.08428E+04
 -1      2246 1.22188E+03 6.95418E+04-1.08428E+04
 -1      2247 2.04492E+03 6.58419E+04-1.02346E+04
 -1      2249 2.04492E+03 6.58419E+04-1.02346E+04
 -1      2250 2.81643E+03 6.03285E+04-9.36258E+03
 -1      2252 2.81643E+03 6.03285E+04-9.36258E+03
 -1      2253 3.51409E+03 5.31453E+04-8.24740E+03
 -1      2255 3.51409E+03 5.31453E+04-8.24740E+03
 -1      2256 4.11831E+03 4.44834E+04-6.91705E+03
 -1      2258 4.11831E+03 4.44834E+04-6.91705E+03
 -1      2259 4.61273E+03 3.45751E+04-5.40564E+03
 -1      2261 4.61273E+03 3.45751E+04-5.40564E+03
 -1      2262 4.98470E+03 2.36852E+04-3.75243E+03
 -1      2264 4.98470E+03 2.36852E+04-3.75243E+03
 -1      2265 5.22581E+03 1.21034E+04-2.00059E+03
 -1      2267 5.22581E+03 1.21034E+04-2.00059E+03
 -1      2268 5.33238E+03 1.33270E+02-1.95920E+02
 -1      2270 5.33238E+03 1.33270E+02-1.95920E+02
 -1      2271 5.30596E+03-1.19180E+04 1.61448E+03
 -1      2273 5.30596E+03-1.19180E+04 1.61448E+03
 -1      2274 5.15397E+03-2.37520E+04 3.38372E+03
 -1      2276 5.15397E+03-2.37520E+04 3.38372E+03
 -1      2277 4.89027E+03-3.50927E+04 5.06621E+03
 -1      2279 4.89027E+03-3.50927E+04 5.06621E+03
 -1      2280 4.53665E+03-4.57012E+04 6.61912E+03
 -1      2282 4.53665E+03-4.57012E+04 6.61912E+03
 -1      2283 4.12274E+03-5.53933E+04 8.00226E+03
 -1      2285 4.12274E+03-5.53933E+04 8.00226E+03
 -1      2286 3.69122E+03-6.40612E+04 9.17823E+03
 -1      2288 3.69122E+03-6.40612E+04 9.17823E+03
 -1      2289 3.29552E+03-7.16919E+04 1.01068E+04
 -1      2291 3.29552E+03-7.16919E+04 1.01068E+04
 -1      2292 3.00703E+03-7.84251E+04 1.07337E+04
 -1      2294 3.00703E+03-7.84251E+04 1.07337E+04
 -3
    1PSTEP                        28           1           1          
    1PGM                1.000000E+00                                  
    1PGK                2.544398E+06                                  
    1PHID                         -1                                  
    1PSUBC                         0                                  
    1PMODE                         7                                  
  100CL  107 253.8707414         930                     2    7MODAL      1
 -4  ERROR       1    1
 -5  STR(%)      1    1    0    0
 -1       404 0.00000E+00
 -1       406 0.00000E+00
 -1       407 0.00000E+00
 -1       409 0.00000E+00
 -1       410 0.00000E+00
 -1       412 0.00000E+00
 -1       413 0.00000E+00
 -1       415 0.00000E+00
 -1       424 0.00000E+00
 -1       426 0.00000E+00
 -1       427 0.00000E+00
 -1       429 0.00000E+00
 -1       438 0.00000E+00
 -1       440 0.00000E+00
 -1       441 0.00000E+00
 -1       443 0.00000E+00
 -1       444 0.00000E+00
 -1       446 0.00000E+00
 -1       447 0.00000E+00
 -1       449 0.00000E+00
 -1       458 0.00000E+00
 -1       460 0.00000E+00
 -1       461 0.00000E+00
 -1       463 0.00000E+00
 -1       472 0.00000E+00
 -1       474 0.00000E+00
 -1       475 0.00000E+00
 -1       477 0.00000E+00
 -1       478 0.00000E+00
 -1       480 0.00000E+00
 -1       481 0.00000E+00
 -1       483 0.00000E+00
 -1       484 0.00000E+00
 -1       486 0.00000E+00
 -1       487 0.00000E+00
 -1       489 0.00000E+00
 -1       490 0.00000E+00
 -1       492 0.00000E+00
 -1       493 0.00000E+00
 -1       495 0.00000E+00
 -1       496 0.00000E+00
 -1       498 0.00000E+00
 -1       499 0.00000E+00
 -1       501 0.00000E+00
 -1       502 0.00000E+00
 -1       504 0.00000E+00
 -1       505 0.00000E+00
 -1       507 0.00000E+00
 -1       508 0.00000E+00
 -1       510 0.00000E+00
 -1       511 0.00000E+00
 -1       513 0.00000E+00
 -1       514 0.00000E+00
 -1       516 0.00000E+00
 -1       517 0.00000E+00
 -1       519 0.00000E+00
 -1       520 0.00000E+00
 -1       522 0.00000E+00
 -1       523 0.00000E+00
 -1       525 0.00000E+00
 -1       526 0.00000E+00
 -1       528 0.00000E+00
 -1       529 0.00000E+00
 -1       531 0.00000E+00
 -1       532 0.00000E+00
 -1       534 0.00000E+00
 -1       535 0.00000E+00
 -1       537 0.00000E+00
 -1       538 0.00000E+00
 -1       540 0.00000E+00
 -1       541 0.00000E+00
 -1       543 0.00000E+00
 -1       544 0.00000E+00
 -1       546 0.00000E+00
 -1       547 0.00000E+00
 -1       549 0.00000E+00
 -1       550 0.00000E+00
 -1       552 0.00000E+00
 -1       553 0.00000E+00
 -1       555 0.00000E+00
 -1       556 0.00000E+00
 -1       558 0.00000E+00
 -1       559 0.00000E+00
 -1       561 0.00000E+00
 -1       562 0.00000E+00
 -1       564 0.00000E+00
 -1       565 0.00000E+00
 -1       567 0.00000E+00
 -1       568 0.00000E+00
 -1       570 0.00000E+00
 -1       571 0.00000E+00
 -1       573 0.00000E+00
 -1       574 0.00000E+00
 -1       576 0.00000E+00
 -1       577 0.00000E+00
 -1       579 0.00000E+00
 -1       588 0.00000E+00
 -1       590 0.00000E+00
 -1       591 0.00000E+00
 -1       593 0.00000E+00
 -1       602 0.00000E+00
 -1       604 0.00000E+00
 -1       605 0.00000E+00
 -1       607 0.00000E+00
 -1       616 0.00000E+00
 -1       618 0.00000E+00
 -1       619 0.00000E+00
 -1       621 0.00000E+00
 -1       630 0.00000E+00
 -1       632 0.00000E+00
 -1       633 0.00000E+00
 -1       635 0.00000E+00
 -1       644 0.00000E+00
 -1       646 0.00000E+00
 -1       647 0.00000E+00
 -1       649 0.00000E+00
 -1       658 0.00000E+00
 -1       660 0.00000E+00
 -1       661 0.00000E+00
 -1       663 0.00000E+00
 -1       672 0.00000E+00
 -1       674 0.00000E+00
 -1       675 0.00000E+00
 -1       677 0.00000E+00
 -1       686 0.00000E+00
 -1       688 0.00000E+00
 -1       689 0.00000E+00
 -1       691 0.00000E+00
 -1       700 0.00000E+00
 -1       702 0.00000E+00
 -1       703 0.00000E+00
 -1       705 0.00000E+00
 -1       714 0.00000E+00
 -1       716 0.00000E+00
 -1       717 0.00000E+00
 -1       719 0.00000E+00
 -1       728 0.00000E+00
 -1       730 0.00000E+00
 -1       731 0.00000E+00
 -1       733 0.00000E+00
 -1       742 0.00000E+00
 -1       744 0.00000E+00
 -1       745 0.00000E+00
 -1       747 0.00000E+00
 -1       756 0.00000E+00
 -1       758 0.00000E+00
 -1       759 0.00000E+00
 -1       761 0.00000E+00
 -1       770 0.00000E+00
 -1       772 0.00000E+00
 -1       773 0.00000E+00
 -1       775 0.00000E+00
 -1       784 0.00000E+00
 -1       786 0.00000E+00
 -1       787 0.00000E+00
 -1       789 0.00000E+00
 -1       798 0.00000E+00
 -1       800 0.00000E+00
 -1       801 0.00000E+00
 -1       803 0.00000E+00
 -1       812 0.00000E+00
 -1       814 0.00000E+00
 -1       815 0.00000E+00
 -1       817 0.00000E+00
 -1       826 0.00000E+00
 -1       828 0.00000E+00
 -1       829 0.00000E+00
 -1       831 0.00000E+00
 -1       840 0.00000E+00
 -1       842 0.00000E+00
 -1       843 0.00000E+00
 -1       845 0.00000E+00
 -1       854 0.00000E+00
 -1       856 0.00000E+00
 -1       857 0.00000E+00
 -1       859 0.00000E+00
 -1       868 0.00000E+00
 -1       870 0.00000E+00
 -1       871 0.00000E+00
 -1       873 0.00000E+00
 -1       882 0.00000E+00
 -1       884 0.00000E+00
 -1       885 0.00000E+00
 -1       887 0.00000E+00
 -1       896 0.00000E+00
 -1       898 0.00000E+00
 -1       899 0.00000E+00
 -1       901 0.00000E+00
 -1       910 0.00000E+00
 -1       912 0.00000E+00
 -1       913 0.00000E+00
 -1       915 0.00000E+00
 -1       924 0.00000E+00
 -1       926 0.00000E+00
 -1       927 0.00000E+00
 -1       929 0.00000E+00
 -1       938 0.00000E+00
 -1       940 0.00000E+00
 -1       941 0.00000E+00
 -1       943 0.00000E+00
 -1       952 0.00000E+00
 -1       954 0.00000E+00
 -1       955 0.00000E+00
 -1       957 0.00000E+00
 -1       966 0.00000E+00
 -1       968 0.00000E+00
 -1       969 0.00000E+00
 -1       971 0.00000E+00
 -1       980 0.00000E+00
 -1       982 0.00000E+00
 -1       983 0.00000E+00
 -1       985 0.00000E+00
 -1       986 0.00000E+00
 -1       988 0.00000E+00
 -1       989 0.00000E+00
 -1       991 0.00000E+00
 -1       992 0.00000E+00
 -1       994 0.00000E+00
 -1       995 0.00000E+00
 -1       997 0.00000E+00
 -1       998 0.00000E+00
 -1      1000 0.00000E+00
 -1      1001 0.00000E+00
 -1      1003 0.00000E+00
 -1      1004 0.00000E+00
 -1      1006 0.00000E+00
 -1      1007 0.00000E+00
 -1      1009 0.00000E+00
 -1      1010 0.00000E+00
 -1      1012 0.00000E+00
 -1      1013 0.00000E+00
 -1      1015 0.00000E+00
 -1      1016 0.00000E+00
 -1      1018 0.00000E+00
 -1      1019 0.00000E+00
 -1      1021 0.00000E+00
 -1      1022 0.00000E+00
 -1      1024 0.00000E+00
 -1      1025 0.00000E+00
 -1      1027 0.00000E+00
 -1      1028 0.00000E+00
 -1      1030 0.00000E+00
 -1      1031 0.00000E+00
 -1      1033 0.00000E+00
 -1      1034 0.00000E+00
 -1      1036 0.00000E+00
 -1      1037 0.00000E+00
 -1      1039 0.00000E+00
 -1      1040 0.00000E+00
 -1      1042 0.00000E+00
 -1      1043 0.00000E+00
 -1      1045 0.00000E+00
 -1      1046 0.00000E+00
 -1      1048 0.00000E+00
 -1      1049 0.00000E+00
 -1      1051 0.00000E+00
 -1      1052 0.00000E+00
 -1      1054 0.00000E+00
 -1      1055 0.00000E+00
 -1      1057 0.00000E+00
 -1      1058 0.00000E+00
 -1      1060 0.00000E+00
 -1      1061 0.00000E+00
 -1      1063 0.00000E+00
 -1      1064 0.00000E+00
 -1      1066 0.00000E+00
 -1      1067 0.00000E+00
 -1      1069 0.00000E+00
 -1      1070 0.00000E+00
 -1      1072 0.00000E+00
 -1      1073 0.00000E+00
 -1      1075 0.00000E+00
 -1      1076 0.00000E+00
 -1      1078 0.00000E+00
 -1      1079 0.00000E+00
 -1      1081 0.00000E+00
 -1      1082 0.00000E+00
 -1      1084 0.00000E+00
 -1      1085 0.00000E+00
 -1      1087 0.00000E+00
 -1      1088 0.00000E+00
 -1      1090 0.00000E+00
 -1      1099 0.00000E+00
 -1      1101 0.00000E+00
 -1      1102 0.00000E+00
 -1      1104 0.00000E+00
 -1      1113 0.00000E+00
 -1      1115 0.00000E+00
 -1      1116 0.00000E+00
 -1      1118 0.00000E+00
 -1      1127 0.00000E+00
 -1      1129 0.00000E+00
 -1      1130 0.00000E+00
 -1      1132 0.00000E+00
 -1      1141 0.00000E+00
 -1      1143 0.00000E+00
 -1      1144 0.00000E+00
 -1      1146 0.00000E+00
 -1      1155 0.00000E+00
 -1      1157 0.00000E+00
 -1      1158 0.00000E+00
 -1      1160 0.00000E+00
 -1      1169 0.00000E+00
 -1      1171 0.00000E+00
 -1      1172 0.00000E+00
 -1      1174 0.00000E+00
 -1      1183 0.00000E+00
 -1      1185 0.00000E+00
 -1      1186 0.00000E+00
 -1      1188 0.00000E+00
 -1      1197 0.00000E+00
 -1      1199 0.00000E+00
 -1      1200 0.00000E+00
 -1      1202 0.00000E+00
 -1      1211 0.00000E+00
 -1      1213 0.00000E+00
 -1      1214 0.00000E+00
 -1      1216 0.00000E+00
 -1      1225 0.00000E+00
 -1      1227 0.00000E+00
 -1      1228 0.00000E+00
 -1      1230 0.00000E+00
 -1      1239 0.00000E+00
 -1      1241 0.00000E+00
 -1      1242 0.00000E+00
 -1      1244 0.00000E+00
 -1      1253 0.00000E+00
 -1      1255 0.00000E+00
 -1      1256 0.00000E+00
 -1      1258 0.00000E+00
 -1      1267 0.00000E+00
 -1      1269 0.00000E+00
 -1      1270 0.00000E+00
 -1      1272 0.00000E+00
 -1      1281 0.00000E+00
 -1      1283 0.00000E+00
 -1      1284 0.00000E+00
 -1      1286 0.00000E+00
 -1      1295 0.00000E+00
 -1      1297 0.00000E+00
 -1      1298 0.00000E+00
 -1      1300 0.00000E+00
 -1      1309 0.00000E+00
 -1      1311 0.00000E+00
 -1      1312 0.00000E+00
 -1      1314 0.00000E+00
 -1      1323 0.00000E+00
 -1      1325 0.00000E+00
 -1      1326 0.00000E+00
 -1      1328 0.00000E+00
 -1      1337 0.00000E+00
 -1      1339 0.00000E+00
 -1      1340 0.00000E+00
 -1      1342 0.00000E+00
 -1      1351 0.00000E+00
 -1      1353 0.00000E+00
 -1      1354 0.00000E+00
 -1      1356 0.00000E+00
 -1      1365 0.00000E+00
 -1      1367 0.00000E+00
 -1      1368 0.00000E+00
 -1      1370 0.00000E+00
 -1      1379 0.00000E+00
 -1      1381 0.00000E+00
 -1      1382 0.00000E+00
 -1      1384 0.00000E+00
 -1      1393 0.00000E+00
 -1      1395 0.00000E+00
 -1      1396 0.00000E+00
 -1      1398 0.00000E+00
 -1      1407 0.00000E+00
 -1      1409 0.00000E+00
 -1      1410 0.00000E+00
 -1      1412 0.00000E+00
 -1      1421 0.00000E+00
 -1      1423 0.00000E+00
 -1      1424 0.00000E+00
 -1      1426 0.00000E+00
 -1      1435 0.00000E+00
 -1      1437 0.00000E+00
 -1      1438 0.00000E+00
 -1      1440 0.00000E+00
 -1      1449 0.00000E+00
 -1      1451 0.00000E+00
 -1      1452 0.00000E+00
 -1      1454 0.00000E+00
 -1      1463 0.00000E+00
 -1      1465 0.00000E+00
 -1      1466 0.00000E+00
 -1      1468 0.00000E+00
 -1      1477 0.00000E+00
 -1      1479 0.00000E+00
 -1      1480 0.00000E+00
 -1      1482 0.00000E+00
 -1      1491 0.00000E+00
 -1      1493 0.00000E+00
 -1      1494 0.00000E+00
 -1      1496 0.00000E+00
 -1      1497 0.00000E+00
 -1      1499 0.00000E+00
 -1      1500 0.00000E+00
 -1      1502 0.00000E+00
 -1      1503 0.00000E+00
 -1      1505 0.00000E+00
 -1      1506 0.00000E+00
 -1      1508 0.00000E+00
 -1      1509 0.00000E+00
 -1      1511 0.00000E+00
 -1      1512 0.00000E+00
 -1      1514 0.00000E+00
 -1      1515 0.00000E+00
 -1      1517 0.00000E+00
 -1      1518 0.00000E+00
 -1      1520 0.00000E+00
 -1      1521 0.00000E+00
 -1      1523 0.00000E+00
 -1      1524 0.00000E+00
 -1      1526 0.00000E+00
 -1      1527 0.00000E+00
 -1      1529 0.00000E+00
 -1      1530 0.00000E+00
 -1      1532 0.00000E+00
 -1      1533 0.00000E+00
 -1      1535 0.00000E+00
 -1      1536 0.00000E+00
 -1      1538 0.00000E+00
 -1      1539 0.00000E+00
 -1      1541 0.00000E+00
 -1      1542 0.00000E+00
 -1      1544 0.00000E+00
 -1      1545 0.00000E+00
 -1      1547 0.00000E+00
 -1      1548 0.00000E+00
 -1      1550 0.00000E+00
 -1      1551 0.00000E+00
 -1      1553 0.00000E+00
 -1      1554 0.00000E+00
 -1      1556 0.00000E+00
 -1      1557 0.00000E+00
 -1      1559 0.00000E+00
 -1      1560 0.00000E+00
 -1      1562 0.00000E+00
 -1      1563 0.00000E+00
 -1      1565 0.00000E+00
 -1      1566 0.00000E+00
 -1      1568 0.00000E+00
 -1      1569 0.00000E+00
 -1      1571 0.00000E+00
 -1      1572 0.00000E+00
 -1      1574 0.00000E+00
 -1      1575 0.00000E+00
 -1      1577 0.00000E+00
 -1      1578 0.00000E+00
 -1      1580 0.00000E+00
 -1      1581 0.00000E+00
 -1      1583 0.00000E+00
 -1      1584 0.00000E+00
 -1      1586 0.00000E+00
 -1      1587 0.00000E+00
 -1      1589 0.00000E+00
 -1      1590 0.00000E+00
 -1      1592 0.00000E+00
 -1      1593 0.00000E+00
 -1      1595 0.00000E+00
 -1      1596 0.00000E+00
 -1      1598 0.00000E+00
 -1      1599 0.00000E+00
 -1      1601 0.00000E+00
 -1      1602 0.00000E+00
 -1      1604 0.00000E+00
 -1      1605 0.00000E+00
 -1      1607 0.00000E+00
 -1      1608 0.00000E+00
 -1      1610 0.00000E+00
 -1      1611 0.00000E+00
 -1      1613 0.00000E+00
 -1      1614 0.00000E+00
 -1      1616 0.00000E+00
 -1      1617 0.00000E+00
 -1      1619 0.00000E+00
 -1      1620 0.00000E+00
 -1      1622 0.00000E+00
 -1      1623 0.00000E+00
 -1      1625 0.00000E+00
 -1      1626 0.00000E+00
 -1      1628 0.00000E+00
 -1      1629 0.00000E+00
 -1      1631 0.00000E+00
 -1      1632 0.00000E+00
 -1      1634 0.00000E+00
 -1      1635 0.00000E+00
 -1      1637 0.00000E+00
 -1      1638 0.00000E+00
 -1      1640 0.00000E+00
 -1      1641 0.00000E+00
 -1      1643 0.00000E+00
 -1      1644 0.00000E+00
 -1      1646 0.00000E+00
 -1      1647 0.00000E+00
 -1      1649 0.00000E+00
 -1      1650 0.00000E+00
 -1      1652 0.00000E+00
 -1      1653 0.00000E+00
 -1      1655 0.00000E+00
 -1      1656 0.00000E+00
 -1      1658 0.00000E+00
 -1      1659 0.00000E+00
 -1      1661 0.00000E+00
 -1      1662 0.00000E+00
 -1      1664 0.00000E+00
 -1      1665 0.00000E+00
 -1      1667 0.00000E+00
 -1      1668 0.00000E+00
 -1      1670 0.00000E+00
 -1      1671 0.00000E+00
 -1      1673 0.00000E+00
 -1      1674 0.00000E+00
 -1      1676 0.00000E+00
 -1      1677 0.00000E+00
 -1      1679 0.00000E+00
 -1      1680 0.00000E+00
 -1      1682 0.00000E+00
 -1      1683 0.00000E+00
 -1      1685 0.00000E+00
 -1      1686 0.00000E+00
 -1      1688 0.00000E+00
 -1      1689 0.00000E+00
 -1      1691 0.00000E+00
 -1      1692 0.00000E+00
 -1      1694 0.00000E+00
 -1      1695 0.00000E+00
 -1      1697 0.00000E+00
 -1      1698 0.00000E+00
 -1      1700 0.00000E+00
 -1      1701 0.00000E+00
 -1      1703 0.00000E+00
 -1      1704 0.00000E+00
 -1      1706 0.00000E+00
 -1      1707 0.00000E+00
 -1      1709 0.00000E+00
 -1      1710 0.00000E+00
 -1      1712 0.00000E+00
 -1      1713 0.00000E+00
 -1      1715 0.00000E+00
 -1      1716 0.00000E+00
 -1      1718 0.00000E+00
 -1      1719 0.00000E+00
 -1      1721 0.00000E+00
 -1      1722 0.00000E+00
 -1      1724 0.00000E+00
 -1      1725 0.00000E+00
 -1      1727 0.00000E+00
 -1      1728 0.00000E+00
 -1      1730 0.00000E+00
 -1      1731 0.00000E+00
 -1      1733 0.00000E+00
 -1      1734 0.00000E+00
 -1      1736 0.00000E+00
 -1      1737 0.00000E+00
 -1      1739 0.00000E+00
 -1      1740 0.00000E+00
 -1      1742 0.00000E+00
 -1      1743 0.00000E+00
 -1      1745 0.00000E+00
 -1      1746 0.00000E+00
 -1      1748 0.00000E+00
 -1      1749 0.00000E+00
 -1      1751 0.00000E+00
 -1      1752 0.00000E+00
 -1      1754 0.00000E+00
 -1      1755 0.00000E+00
 -1      1757 0.00000E+00
 -1      1758 0.00000E+00
 -1      1760 0.00000E+00
 -1      1761 0.00000E+00
 -1      1763 0.00000E+00
 -1      1764 0.00000E+00
 -1      1766 0.00000E+00
 -1      1767 0.00000E+00
 -1      1769 0.00000E+00
 -1      1770 0.00000E+00
 -1      1772 0.00000E+00
 -1      1773 0.00000E+00
 -1      1775 0.00000E+00
 -1      1776 0.00000E+00
 -1      1778 0.00000E+00
 -1      1779 0.00000E+00
 -1      1781 0.00000E+00
 -1      1782 0.00000E+00
 -1      1784 0.00000E+00
 -1      1785 0.00000E+00
 -1      1787 0.00000E+00
 -1      1788 0.00000E+00
 -1      1790 0.00000E+00
 -1      1791 0.00000E+00
 -1      1793 0.00000E+00
 -1      1794 0.00000E+00
 -1      1796 0.00000E+00
 -1      1797 0.00000E+00
 -1      1799 0.00000E+00
 -1      1800 0.00000E+00
 -1      1802 0.00000E+00
 -1      1803 0.00000E+00
 -1      1805 0.00000E+00
 -1      1806 0.00000E+00
 -1      1808 0.00000E+00
 -1      1809 0.00000E+00
 -1      1811 0.00000E+00
 -1      1812 0.00000E+00
 -1      1814 0.00000E+00
 -1      1815 0.00000E+00
 -1      1817 0.00000E+00
 -1      1818 0.00000E+00
 -1      1820 0.00000E+00
 -1      1821 0.00000E+00
 -1      1823 0.00000E+00
 -1      1824 0.00000E+00
 -1      1826 0.00000E+00
 -1      1827 0.00000E+00
 -1      1829 0.00000E+00
 -1      1830 0.00000E+00
 -1      1832 0.00000E+00
 -1      1833 0.00000E+00
 -1      1835 0.00000E+00
 -1      1836 0.00000E+00
 -1      1838 0.00000E+00
 -1      1839 0.00000E+00
 -1      1841 0.00000E+00
 -1      1842 0.00000E+00
 -1      1844 0.00000E+00
 -1      1845 0.00000E+00
 -1      1847 0.00000E+00
 -1      1848 0.00000E+00
 -1      1850 0.00000E+00
 -1      1851 0.00000E+00
 -1      1853 0.00000E+00
 -1      1854 0.00000E+00
 -1      1856 0.00000E+00
 -1      1857 0.00000E+00
 -1      1859 0.00000E+00
 -1      1860 0.00000E+00
 -1      1862 0.00000E+00
 -1      1863 0.00000E+00
 -1      1865 0.00000E+00
 -1      1866 0.00000E+00
 -1      1868 0.00000E+00
 -1      1869 0.00000E+00
 -1      1871 0.00000E+00
 -1      1872 0.00000E+00
 -1      1874 0.00000E+00
 -1      1875 0.00000E+00
 -1      1877 0.00000E+00
 -1      1878 0.00000E+00
 -1      1880 0.00000E+00
 -1      1881 0.00000E+00
 -1      1883 0.00000E+00
 -1      1884 0.00000E+00
 -1      1886 0.00000E+00
 -1      1887 0.00000E+00
 -1      1889 0.00000E+00
 -1      1890 0.00000E+00
 -1      1892 0.00000E+00
 -1      1893 0.00000E+00
 -1      1895 0.00000E+00
 -1      1896 0.00000E+00
 -1      1898 0.00000E+00
 -1      1899 0.00000E+00
 -1      1901 0.00000E+00
 -1      1902 0.00000E+00
 -1      1904 0.00000E+00
 -1      1905 0.00000E+00
 -1      1907 0.00000E+00
 -1      1908 0.00000E+00
 -1      1910 0.00000E+00
 -1      1911 0.00000E+00
 -1      1913 0.00000E+00
 -1      1914 0.00000E+00
 -1      1916 0.00000E+00
 -1      1917 0.00000E+00
 -1      1919 0.00000E+00
 -1      1920 0.00000E+00
 -1      1922 0.00000E+00
 -1      1923 0.00000E+00
 -1      1925 0.00000E+00
 -1      1926 0.00000E+00
 -1      1928 0.00000E+00
 -1      1929 0.00000E+00
 -1      1931 0.00000E+00
 -1      1932 0.00000E+00
 -1      1934 0.00000E+00
 -1      1935 0.00000E+00
 -1      1937 0.00000E+00
 -1      1938 0.00000E+00
 -1      1940 0.00000E+00
 -1      1941 0.00000E+00
 -1      1943 0.00000E+00
 -1      1944 0.00000E+00
 -1      1946 0.00000E+00
 -1      1947 0.00000E+00
 -1      1949 0.00000E+00
 -1      1950 0.00000E+00
 -1      1952 0.00000E+00
 -1      1953 0.00000E+00
 -1      1955 0.00000E+00
 -1      1956 0.00000E+00
 -1      1958 0.00000E+00
 -1      1959 0.00000E+00
 -1      1961 0.00000E+00
 -1      1962 0.00000E+00
 -1      1964 0.00000E+00
 -1      1965 0.00000E+00
 -1      1967 0.00000E+00
 -1      1968 0.00000E+00
 -1      1970 0.00000E+00
 -1      1971 0.00000E+00
 -1      1973 0.00000E+00
 -1      1974 0.00000E+00
 -1      1976 0.00000E+00
 -1      1977 0.00000E+00
 -1      1979 0.00000E+00
 -1      1980 0.00000E+00
 -1      1982 0.00000E+00
 -1      1983 0.00000E+00
 -1      1985 0.00000E+00
 -1      1986 0.00000E+00
 -1      1988 0.00000E+00
 -1      1989 0.00000E+00
 -1      1991 0.00000E+00
 -1      1992 0.00000E+00
 -1      1994 0.00000E+00
 -1      1995 0.00000E+00
 -1      1997 0.00000E+00
 -1      1998 0.00000E+00
 -1      2000 0.00000E+00
 -1      2001 0.00000E+00
 -1      2003 0.00000E+00
 -1      2004 0.00000E+00
 -1      2006 0.00000E+00
 -1      2007 0.00000E+00
 -1      2009 0.00000E+00
 -1      2010 0.00000E+00
 -1      2012 0.00000E+00
 -1      2013 0.00000E+00
 -1      2015 0.00000E+00
 -1      2016 0.00000E+00
 -1      2018 0.00000E+00
 -1      2019 0.00000E+00
 -1      2021 0.00000E+00
 -1      2022 0.00000E+00
 -1      2024 0.00000E+00
 -1      2025 0.00000E+00
 -1      2027 0.00000E+00
 -1      2028 0.00000E+00
 -1      2030 0.00000E+00
 -1      2031 0.00000E+00
 -1      2033 0.00000E+00
 -1      2034 0.00000E+00
 -1      2036 0.00000E+00
 -1      2037 0.00000E+00
 -1      2039 0.00000E+00
 -1      2040 0.00000E+00
 -1      2042 0.00000E+00
 -1      2043 0.00000E+00
 -1      2045 0.00000E+00
 -1      2046 0.00000E+00
 -1      2048 0.00000E+00
 -1      2049 0.00000E+00
 -1      2051 0.00000E+00
 -1      2052 0.00000E+00
 -1      2054 0.00000E+00
 -1      2055 0.00000E+00
 -1      2057 0.00000E+00
 -1      2058 0.00000E+00
 -1      2060 0.00000E+00
 -1      2061 0.00000E+00
 -1      2063 0.00000E+00
 -1      2064 0.00000E+00
 -1      2066 0.00000E+00
 -1      2067 0.00000E+00
 -1      2069 0.00000E+00
 -1      2070 0.00000E+00
 -1      2072 0.00000E+00
 -1      2073 0.00000E+00
 -1      2075 0.00000E+00
 -1      2076 0.00000E+00
 -1      2078 0.00000E+00
 -1      2079 0.00000E+00
 -1      2081 0.00000E+00
 -1      2082 0.00000E+00
 -1      2084 0.00000E+00
 -1      2085 0.00000E+00
 -1      2087 0.00000E+00
 -1      2088 0.00000E+00
 -1      2090 0.00000E+00
 -1      2091 0.00000E+00
 -1      2093 0.00000E+00
 -1      2094 0.00000E+00
 -1      2096 0.00000E+00
 -1      2097 0.00000E+00
 -1      2099 0.00000E+00
 -1      2100 0.00000E+00
 -1      2102 0.00000E+00
 -1      2103 0.00000E+00
 -1      2105 0.00000E+00
 -1      2106 0.00000E+00
 -1      2108 0.00000E+00
 -1      2109 0.00000E+00
 -1      2111 0.00000E+00
 -1      2112 0.00000E+00
 -1      2114 0.00000E+00
 -1      2115 0.00000E+00
 -1      2117 0.00000E+00
 -1      2118 0.00000E+00
 -1      2120 0.00000E+00
 -1      2121 0.00000E+00
 -1      2123 0.00000E+00
 -1      2124 0.00000E+00
 -1      2126 0.00000E+00
 -1      2127 0.00000E+00
 -1      2129 0.00000E+00
 -1      2130 0.00000E+00
 -1      2132 0.00000E+00
 -1      2133 0.00000E+00
 -1      2135 0.00000E+00
 -1      2136 0.00000E+00
 -1      2138 0.00000E+00
 -1      2139 0.00000E+00
 -1      2141 0.00000E+00
 -1      2142 0.00000E+00
 -1      2144 0.00000E+00
 -1      2145 0.00000E+00
 -1      2147 0.00000E+00
 -1      2148 0.00000E+00
 -1      2150 0.00000E+00
 -1      2151 0.00000E+00
 -1      2153 0.00000E+00
 -1      2154 0.00000E+00
 -1      2156 0.00000E+00
 -1      2157 0.00000E+00
 -1      2159 0.00000E+00
 -1      2160 0.00000E+00
 -1      2162 0.00000E+00
 -1      2163 0.00000E+00
 -1      2165 0.00000E+00
 -1      2166 0.00000E+00
 -1      2168 0.00000E+00
 -1      2169 0.00000E+00
 -1      2171 0.00000E+00
 -1      2172 0.00000E+00
 -1      2174 0.00000E+00
 -1      2175 0.00000E+00
 -1      2177 0.00000E+00
 -1      2178 0.00000E+00
 -1      2180 0.00000E+00
 -1      2181 0.00000E+00
 -1      2183 0.00000E+00
 -1      2184 0.00000E+00
 -1      2186 0.00000E+00
 -1      2187 0.00000E+00
 -1      2189 0.00000E+00
 -1      2190 0.00000E+00
 -1      2192 0.00000E+00
 -1      2193 0.00000E+00
 -1      2195 0.00000E+00
 -1      2196 0.00000E+00
 -1      2198 0.00000E+00
 -1      2199 0.00000E+00
 -1      2201 0.00000E+00
 -1      2202 0.00000E+00
 -1      2204 0.00000E+00
 -1      2205 0.00000E+00
 -1      2207 0.00000E+00
 -1      2208 0.00000E+00
 -1      2210 0.00000E+00
 -1      2211 0.00000E+00
 -1      2213 0.00000E+00
 -1      2214 0.00000E+00
 -1      2216 0.00000E+00
 -1      2217 0.00000E+00
 -1      2219 0.00000E+00
 -1      2220 0.00000E+00
 -1      2222 0.00000E+00
 -1      2223 0.00000E+00
 -1      2225 0.00000E+00
 -1      2226 0.00000E+00
 -1      2228 0.00000E+00
 -1      2229 0.00000E+00
 -1      2231 0.00000E+00
 -1      2232 0.00000E+00
 -1      2234 0.00000E+00
 -1      2235 0.00000E+00
 -1      2237 0.00000E+00
 -1      2238 0.00000E+00
 -1      2240 0.00000E+00
 -1      2241 0.00000E+00
 -1      2243 0.00000E+00
 -1      2244 0.00000E+00
 -1      2246 0.00000E+00
 -1      2247 0.00000E+00
 -1      2249 0.00000E+00
 -1      2250 0.00000E+00
 -1      2252 0.00000E+00
 -1      2253 0.00000E+00
 -1      2255 0.00000E+00
 -1      2256 0.00000E+00
 -1      2258 0.00000E+00
 -1      2259 0.00000E+00
 -1      2261 0.00000E+00
 -1      2262 0.00000E+00
 -1      2264 0.00000E+00
 -1      2265 0.00000E+00
 -1      2267 0.00000E+00
 -1      2268 0.00000E+00
 -1      2270 0.00000E+00
 -1      2271 0.00000E+00
 -1      2273 0.00000E+00
 -1      2274 0.00000E+00
 -1      2276 0.00000E+00
 -1      2277 0.00000E+00
 -1      2279 0.00000E+00
 -1      2280 0.00000E+00
 -1      2282 0.00000E+00
 -1      2283 0.00000E+00
 -1      2285 0.00000E+00
 -1      2286 0.00000E+00
 -1      2288 0.00000E+00
 -1      2289 0.00000E+00
 -1      2291 0.00000E+00
 -1      2292 0.00000E+00
 -1      2294 0.00000E+00
 -3
    1PSTEP                        29           1           1          
    1PGM                1.000000E+00                                  
    1PGK                2.561743E+06                                  
    1PHID                         -1                                  
    1PSUBC                         0                                  
    1PMODE                         8                                  
  100CL  108 254.7345895         930                     2    8MODAL      1
 -4  DISP        4    1
 -5  D1          1    2    1    0
 -5  D2          1    2    2    0
 -5  D3          1    2    3    0
 -5  ALL         1    2    0    0    1ALL
 -1       404 0.00000E+00 0.00000E+00 9.57357E-05
 -1       406 0.00000E+00-0.00000E+00-9.57357E-05
 -1       407-3.33308E-02-1.48762E-03-1.33495E-01
 -1       409-3.11014E-02 1.43027E-03-1.33513E-01
 -1       410-3.34054E-02 8.59671E-13-1.18938E-01
 -1       412-3.12089E-02 1.11464E-12-1.18952E-01
 -1       413-3.23072E-02 4.25781E-06-1.18945E-01
 -1       415-3.23072E-02-4.25780E-06-1.18945E-01
 -1       424 0.00000E+00 0.00000E+00 1.08538E-04
 -1       426 0.00000E+00 0.00000E+00-1.08538E-04
 -1       427 0.00000E+00 6.91429E-05 0.00000E+00
 -1       429 0.00000E+00-6.91429E-05 0.00000E+00
 -1       438-3.33308E-02 1.48762E-03-1.33495E-01
 -1       440-3.11014E-02-1.43027E-03-1.33513E-01
 -1       441 0.00000E+00 0.00000E+00 9.57357E-05
 -1       443 0.00000E+00-0.00000E+00-9.57357E-05
 -1       444 0.00000E+00-6.91429E-05 0.00000E+00
 -1       446 0.00000E+00 6.91429E-05 0.00000E+00
 -1       447 0.00000E+00 0.00000E+00 1.08538E-04
 -1       449 0.00000E+00 0.00000E+00-1.08538E-04
 -1       458 3.23072E-02-4.25781E-06-1.18945E-01
 -1       460 3.23072E-02 4.25780E-06-1.18945E-01
 -1       461 3.34054E-02-4.18900E-13-1.18938E-01
 -1       463 3.12089E-02-1.04334E-13-1.18952E-01
 -1       472 0.00000E+00 0.00000E+00 9.57357E-05
 -1       474 0.00000E+00 0.00000E+00-9.57357E-05
 -1       475 3.33308E-02-1.48762E-03-1.33495E-01
 -1       477 3.11014E-02 1.43027E-03-1.33513E-01
 -1       478 3.33308E-02 1.48762E-03-1.33495E-01
 -1       480 3.11014E-02-1.43027E-03-1.33513E-01
 -1       481 0.00000E+00 0.00000E+00 9.57357E-05
 -1       483 0.00000E+00 0.00000E+00-9.57357E-05
 -1       484 3.88261E-03-7.62677E-04 7.59038E-03
 -1       486 1.95636E-03-1.31314E-03 7.48940E-03
 -1       487 5.83116E-03-1.32138E-04 1.96252E-02
 -1       489 4.53573E-03-1.01589E-03 1.95347E-02
 -1       490 7.99940E-03 2.86289E-04 3.06594E-02
 -1       492 6.37401E-03-1.11632E-03 3.05955E-02
 -1       493 9.25702E-03 7.01189E-04 4.29876E-02
 -1       495 7.61651E-03-1.21317E-03 4.29599E-02
 -1       496 9.91139E-03 1.09811E-03 5.52220E-02
 -1       498 8.29909E-03-1.28922E-03 5.52076E-02
 -1       499 9.99473E-03 1.48996E-03 6.73041E-02
 -1       501 8.40163E-03-1.36394E-03 6.73249E-02
 -1       502 9.46879E-03 1.83499E-03 7.87537E-02
 -1       504 8.01534E-03-1.42915E-03 7.87877E-02
 -1       505 8.44612E-03 2.15557E-03 8.91992E-02
 -1       507 7.12349E-03-1.48151E-03 8.92618E-02
 -1       508 6.92161E-03 2.42570E-03 9.83232E-02
 -1       510 5.81498E-03-1.51887E-03 9.83977E-02
 -1       511 4.99010E-03 2.65172E-03 1.05789E-01
 -1       513 4.10913E-03-1.53782E-03 1.05885E-01
 -1       514 2.68537E-03 2.82081E-03 1.11356E-01
 -1       516 2.08197E-03-1.53609E-03 1.11461E-01
 -1       517 9.14303E-05 2.93370E-03 1.14783E-01
 -1       519-2.21241E-04-1.51108E-03 1.14903E-01
 -1       520-2.73608E-03 2.98406E-03 1.15919E-01
 -1       522-2.73067E-03-1.46126E-03 1.16042E-01
 -1       523-5.71845E-03 2.97247E-03 1.14636E-01
 -1       525-5.38880E-03-1.38516E-03 1.14767E-01
 -1       526-8.79138E-03 2.89688E-03 1.10884E-01
 -1       528-8.12981E-03-1.28232E-03 1.11015E-01
 -1       529-1.18818E-02 2.75981E-03 1.04655E-01
 -1       531-1.08940E-02-1.15273E-03 1.04787E-01
 -1       532-1.49264E-02 2.56277E-03 9.60081E-02
 -1       534-1.36215E-02-9.97209E-04 9.61337E-02
 -1       535-1.78613E-02 2.31102E-03 8.50451E-02
 -1       537-1.62580E-02-8.17367E-04 8.51659E-02
 -1       538-2.06319E-02 2.00933E-03 7.19289E-02
 -1       540-1.87536E-02-6.15463E-04 7.20395E-02
 -1       541-2.31881E-02 1.66595E-03 5.68616E-02
 -1       543-2.10655E-02-3.94833E-04 5.69628E-02
 -1       544-2.54902E-02 1.28860E-03 4.00938E-02
 -1       546-2.31582E-02-1.59356E-04 4.01816E-02
 -1       547-2.75066E-02 8.88673E-04 2.19072E-02
 -1       549-2.50051E-02 8.59099E-05 2.19827E-02
 -1       550-2.92171E-02 4.76436E-04 2.61883E-03
 -1       552-2.65891E-02 3.34973E-04 2.67920E-03
 -1       553-3.06123E-02 6.67087E-05-1.74356E-02
 -1       555-2.79037E-02 5.81373E-04-1.73885E-02
 -1       556-3.16944E-02-3.28341E-04-3.78970E-02
 -1       558-2.89530E-02 8.15373E-04-3.78649E-02
 -1       559-3.24799E-02-6.88705E-04-5.84062E-02
 -1       561-2.97523E-02 1.03134E-03-5.83862E-02
 -1       562-3.29893E-02-1.00410E-03-7.85777E-02
 -1       564-3.03295E-02 1.20979E-03-7.85706E-02
 -1       565-3.32834E-02-1.24512E-03-9.80761E-02
 -1       567-3.07233E-02 1.35208E-03-9.80776E-02
 -1       568-3.33567E-02-1.39326E-03-1.16446E-01
 -1       570-3.09874E-02 1.44376E-03-1.16456E-01
 -1       571-3.33580E-02-1.46643E-03-1.23844E-01
 -1       573-3.11451E-02 1.41441E-03-1.23825E-01
 -1       574 4.23690E-03-1.50031E-14 6.74878E-03
 -1       576 2.61788E-03 2.71085E-15 6.60906E-03
 -1       577 3.42739E-03 4.45030E-05 6.67892E-03
 -1       579 3.42739E-03-4.45030E-05 6.67892E-03
 -1       588 6.42797E-03-4.02755E-14 1.55018E-02
 -1       590 5.60786E-03-1.14968E-15 1.54283E-02
 -1       591 6.01791E-03 2.34201E-05 1.54651E-02
 -1       593 6.01791E-03-2.34201E-05 1.54651E-02
 -1       602 8.63779E-03-8.17645E-14 2.44088E-02
 -1       604 7.17275E-03-2.81059E-14 2.43448E-02
 -1       605 7.90527E-03 2.04019E-05 2.43768E-02
 -1       607 7.90527E-03-2.04019E-05 2.43768E-02
 -1       616 9.74296E-03-1.19521E-13 3.43352E-02
 -1       618 8.53116E-03-4.86779E-14 3.43038E-02
 -1       619 9.13706E-03 1.00103E-05 3.43195E-02
 -1       621 9.13706E-03-1.00103E-05 3.43195E-02
 -1       630 1.04901E-02-1.64136E-13 4.43306E-02
 -1       632 9.07781E-03-7.29801E-14 4.43227E-02
 -1       633 9.78395E-03 2.50396E-06 4.43267E-02
 -1       635 9.78395E-03-2.50396E-06 4.43267E-02
 -1       644 1.04616E-02-2.23451E-13 5.43228E-02
 -1       646 9.20180E-03-1.10282E-13 5.43398E-02
 -1       647 9.83171E-03-5.40689E-06 5.43313E-02
 -1       649 9.83171E-03 5.40689E-06 5.43313E-02
 -1       658 9.95647E-03-2.94456E-13 6.38128E-02
 -1       660 8.70511E-03-1.60097E-13 6.38529E-02
 -1       661 9.33079E-03-1.27757E-05 6.38328E-02
 -1       663 9.33079E-03 1.27757E-05 6.38328E-02
 -1       672 8.85796E-03-3.72099E-13 7.25581E-02
 -1       674 7.77587E-03-2.17527E-13 7.26186E-02
 -1       675 8.31692E-03-1.92650E-05 7.25884E-02
 -1       677 8.31692E-03 1.92650E-05 7.25884E-02
 -1       686 7.31559E-03-4.60281E-13 8.02134E-02
 -1       688 6.36466E-03-2.86871E-13 8.02931E-02
 -1       689 6.84012E-03-2.53971E-05 8.02533E-02
 -1       691 6.84012E-03 2.53971E-05 8.02533E-02
 -1       700 5.32241E-03-5.48028E-13 8.65420E-02
 -1       702 4.58443E-03-3.56984E-13 8.66375E-02
 -1       703 4.95342E-03-3.04171E-05 8.65898E-02
 -1       705 4.95342E-03 3.04171E-05 8.65898E-02
 -1       714 2.98099E-03-6.23451E-13 9.12970E-02
 -1       716 2.45246E-03-4.11610E-13 9.14064E-02
 -1       717 2.71672E-03-3.48379E-05 9.13517E-02
 -1       719 2.71672E-03 3.48379E-05 9.13517E-02
 -1       728 3.31195E-04-6.85989E-13 9.43015E-02
 -1       730 5.47811E-05-4.53044E-13 9.44213E-02
 -1       731 1.92988E-04-3.81500E-05 9.43614E-02
 -1       733 1.92988E-04 3.81500E-05 9.43614E-02
 -1       742-2.54064E-03-7.54739E-13 9.54028E-02
 -1       744-2.56173E-03-5.06225E-13 9.55304E-02
 -1       745-2.55118E-03-4.06491E-05 9.54666E-02
 -1       747-2.55118E-03 4.06491E-05 9.54666E-02
 -1       756-5.57459E-03-8.46865E-13 9.45059E-02
 -1       758-5.32151E-03-5.89042E-13 9.46381E-02
 -1       759-5.44805E-03-4.20925E-05 9.45720E-02
 -1       761-5.44805E-03 4.20925E-05 9.45720E-02
 -1       770-8.69224E-03-9.53857E-13 9.15541E-02
 -1       772-8.16648E-03-6.92354E-13 9.16879E-02
 -1       773-8.42936E-03-4.26296E-05 9.16210E-02
 -1       775-8.42936E-03 4.26296E-05 9.16210E-02
 -1       784-1.18283E-02-1.05823E-12 8.65424E-02
 -1       786-1.10283E-02-7.98427E-13 8.66749E-02
 -1       787-1.14283E-02-4.22000E-05 8.66086E-02
 -1       789-1.14283E-02 4.22000E-05 8.66086E-02
 -1       798-1.49127E-02-1.14271E-12 7.95077E-02
 -1       800-1.38488E-02-8.85861E-13 7.96361E-02
 -1       801-1.43808E-02-4.08967E-05 7.95719E-02
 -1       803-1.43808E-02 4.08967E-05 7.95719E-02
 -1       812-1.78847E-02-1.19662E-12 7.05328E-02
 -1       814-1.65688E-02-9.38417E-13 7.06544E-02
 -1       815-1.72267E-02-3.87622E-05 7.05936E-02
 -1       817-1.72267E-02 3.87622E-05 7.05936E-02
 -1       826-2.06860E-02-1.21525E-12 5.97393E-02
 -1       828-1.91379E-02-9.54759E-13 5.98520E-02
 -1       829-1.99119E-02-3.58993E-05 5.97957E-02
 -1       831-1.99119E-02 3.58993E-05 5.97957E-02
 -1       840-2.32678E-02-1.19810E-12 4.72867E-02
 -1       842-2.15100E-02-9.35085E-13 4.73884E-02
 -1       843-2.23889E-02-3.23927E-05 4.73376E-02
 -1       845-2.23889E-02 3.23927E-05 4.73376E-02
 -1       854-2.55886E-02-1.13975E-12 3.33654E-02
 -1       856-2.36486E-02-8.77373E-13 3.34545E-02
 -1       857-2.46186E-02-2.83967E-05 3.34099E-02
 -1       859-2.46186E-02 2.83967E-05 3.34099E-02
 -1       868-2.76172E-02-1.04497E-12 1.81926E-02
 -1       870-2.55246E-02-7.82842E-13 1.82679E-02
 -1       871-2.65709E-02-2.39941E-05 1.82302E-02
 -1       873-2.65709E-02 2.39941E-05 1.82302E-02
 -1       882-2.93326E-02-9.15810E-13 2.00493E-03
 -1       884-2.71201E-02-6.52075E-13 2.06587E-03
 -1       885-2.82263E-02-1.94092E-05 2.03540E-03
 -1       887-2.82263E-02 1.94092E-05 2.03540E-03
 -1       896-3.07259E-02-7.49094E-13-1.49471E-02
 -1       898-2.84262E-02-4.84975E-13-1.49009E-02
 -1       899-2.95760E-02-1.46998E-05-1.49240E-02
 -1       901-2.95760E-02 1.46998E-05-1.49240E-02
 -1       910-3.17993E-02-5.36953E-13-3.24074E-02
 -1       912-2.94469E-02-2.73413E-13-3.23756E-02
 -1       913-3.06231E-02-1.01445E-05-3.23915E-02
 -1       915-3.06231E-02 1.01445E-05-3.23915E-02
 -1       924-3.25697E-02-2.79528E-13-5.01226E-02
 -1       926-3.01954E-02-1.70819E-14-5.01044E-02
 -1       927-3.13826E-02-5.80607E-06-5.01135E-02
 -1       929-3.13826E-02 5.80607E-06-5.01135E-02
 -1       938-3.30621E-02 1.35320E-15-6.78447E-02
 -1       940-3.07001E-02 2.63832E-13-6.78387E-02
 -1       941-3.18811E-02-1.91327E-06-6.78417E-02
 -1       943-3.18811E-02 1.91327E-06-6.78417E-02
 -1       952-3.33223E-02 2.87886E-13-8.53553E-02
 -1       954-3.09926E-02 5.50749E-13-8.53596E-02
 -1       955-3.21575E-02 1.38465E-06-8.53574E-02
 -1       957-3.21575E-02-1.38465E-06-8.53574E-02
 -1       966-3.33967E-02 5.76537E-13-1.02427E-01
 -1       968-3.11410E-02 8.34529E-13-1.02439E-01
 -1       969-3.22688E-02 3.86921E-06-1.02433E-01
 -1       971-3.22688E-02-3.86921E-06-1.02433E-01
 -1       980 0.00000E+00 0.00000E+00 7.24621E-05
 -1       982 0.00000E+00-0.00000E+00-7.24621E-05
 -1       983-3.33580E-02 1.46643E-03-1.23844E-01
 -1       985-3.11451E-02-1.41441E-03-1.23825E-01
 -1       986 3.88261E-03 7.62677E-04 7.59038E-03
 -1       988 1.95636E-03 1.31314E-03 7.48940E-03
 -1       989 5.83116E-03 1.32138E-04 1.96252E-02
 -1       991 4.53573E-03 1.01589E-03 1.95347E-02
 -1       992 7.99940E-03-2.86289E-04 3.06594E-02
 -1       994 6.37401E-03 1.11632E-03 3.05955E-02
 -1       995 9.25702E-03-7.01189E-04 4.29876E-02
 -1       997 7.61651E-03 1.21317E-03 4.29599E-02
 -1       998 9.91139E-03-1.09811E-03 5.52220E-02
 -1      1000 8.29909E-03 1.28922E-03 5.52076E-02
 -1      1001 9.99473E-03-1.48996E-03 6.73041E-02
 -1      1003 8.40163E-03 1.36394E-03 6.73249E-02
 -1      1004 9.46879E-03-1.83499E-03 7.87537E-02
 -1      1006 8.01534E-03 1.42915E-03 7.87877E-02
 -1      1007 8.44612E-03-2.15557E-03 8.91992E-02
 -1      1009 7.12349E-03 1.48151E-03 8.92618E-02
 -1      1010 6.92161E-03-2.42570E-03 9.83232E-02
 -1      1012 5.81498E-03 1.51887E-03 9.83977E-02
 -1      1013 4.99010E-03-2.65172E-03 1.05789E-01
 -1      1015 4.10913E-03 1.53782E-03 1.05885E-01
 -1      1016 2.68537E-03-2.82081E-03 1.11356E-01
 -1      1018 2.08197E-03 1.53609E-03 1.11461E-01
 -1      1019 9.14303E-05-2.93370E-03 1.14783E-01
 -1      1021-2.21241E-04 1.51108E-03 1.14903E-01
 -1      1022-2.73608E-03-2.98406E-03 1.15919E-01
 -1      1024-2.73067E-03 1.46126E-03 1.16042E-01
 -1      1025-5.71845E-03-2.97247E-03 1.14636E-01
 -1      1027-5.38880E-03 1.38516E-03 1.14767E-01
 -1      1028-8.79138E-03-2.89688E-03 1.10884E-01
 -1      1030-8.12981E-03 1.28232E-03 1.11015E-01
 -1      1031-1.18818E-02-2.75981E-03 1.04655E-01
 -1      1033-1.08940E-02 1.15273E-03 1.04787E-01
 -1      1034-1.49264E-02-2.56277E-03 9.60081E-02
 -1      1036-1.36215E-02 9.97209E-04 9.61337E-02
 -1      1037-1.78613E-02-2.31102E-03 8.50451E-02
 -1      1039-1.62580E-02 8.17367E-04 8.51659E-02
 -1      1040-2.06319E-02-2.00933E-03 7.19289E-02
 -1      1042-1.87536E-02 6.15463E-04 7.20395E-02
 -1      1043-2.31881E-02-1.66595E-03 5.68616E-02
 -1      1045-2.10655E-02 3.94833E-04 5.69628E-02
 -1      1046-2.54902E-02-1.28860E-03 4.00938E-02
 -1      1048-2.31582E-02 1.59356E-04 4.01816E-02
 -1      1049-2.75066E-02-8.88673E-04 2.19072E-02
 -1      1051-2.50051E-02-8.59099E-05 2.19827E-02
 -1      1052-2.92171E-02-4.76436E-04 2.61883E-03
 -1      1054-2.65891E-02-3.34973E-04 2.67920E-03
 -1      1055-3.06123E-02-6.67087E-05-1.74356E-02
 -1      1057-2.79037E-02-5.81373E-04-1.73885E-02
 -1      1058-3.16944E-02 3.28341E-04-3.78970E-02
 -1      1060-2.89530E-02-8.15373E-04-3.78649E-02
 -1      1061-3.24799E-02 6.88705E-04-5.84062E-02
 -1      1063-2.97523E-02-1.03134E-03-5.83862E-02
 -1      1064-3.29893E-02 1.00410E-03-7.85777E-02
 -1      1066-3.03295E-02-1.20979E-03-7.85706E-02
 -1      1067-3.32834E-02 1.24512E-03-9.80761E-02
 -1      1069-3.07233E-02-1.35208E-03-9.80776E-02
 -1      1070-3.33567E-02 1.39326E-03-1.16446E-01
 -1      1072-3.09874E-02-1.44376E-03-1.16456E-01
 -1      1073 0.00000E+00 0.00000E+00 7.24621E-05
 -1      1075 0.00000E+00-0.00000E+00-7.24621E-05
 -1      1076 0.00000E+00 2.50075E-05 0.00000E+00
 -1      1078 0.00000E+00-2.50075E-05 0.00000E+00
 -1      1079 0.00000E+00-1.47723E-18 0.00000E+00
 -1      1081 0.00000E+00 1.47723E-18 0.00000E+00
 -1      1082 0.00000E+00-2.50075E-05 0.00000E+00
 -1      1084 0.00000E+00 2.50075E-05 0.00000E+00
 -1      1085-3.42739E-03-4.45030E-05 6.67892E-03
 -1      1087-3.42739E-03 4.45030E-05 6.67892E-03
 -1      1088-4.23690E-03 2.04614E-15 6.74878E-03
 -1      1090-2.61788E-03 1.38634E-14 6.60906E-03
 -1      1099-6.01791E-03-2.34201E-05 1.54651E-02
 -1      1101-6.01791E-03 2.34201E-05 1.54651E-02
 -1      1102-6.42797E-03 2.06285E-14 1.55018E-02
 -1      1104-5.60786E-03 4.80926E-14 1.54283E-02
 -1      1113-7.90527E-03-2.04019E-05 2.43768E-02
 -1      1115-7.90527E-03 2.04019E-05 2.43768E-02
 -1      1116-8.63779E-03 4.84301E-14 2.44088E-02
 -1      1118-7.17275E-03 8.71801E-14 2.43448E-02
 -1      1127-9.13706E-03-1.00103E-05 3.43195E-02
 -1      1129-9.13706E-03 1.00103E-05 3.43195E-02
 -1      1130-9.74296E-03 1.09644E-13 3.43352E-02
 -1      1132-8.53116E-03 1.59209E-13 3.43038E-02
 -1      1141-9.78395E-03-2.50396E-06 4.43267E-02
 -1      1143-9.78395E-03 2.50396E-06 4.43267E-02
 -1      1144-1.04901E-02 1.99920E-13 4.43306E-02
 -1      1146-9.07781E-03 2.58352E-13 4.43227E-02
 -1      1155-9.83171E-03 5.40689E-06 5.43313E-02
 -1      1157-9.83171E-03-5.40689E-06 5.43313E-02
 -1      1158-1.04616E-02 3.06701E-13 5.43228E-02
 -1      1160-9.20180E-03 3.71617E-13 5.43398E-02
 -1      1169-9.33079E-03 1.27757E-05 6.38328E-02
 -1      1171-9.33079E-03-1.27757E-05 6.38328E-02
 -1      1172-9.95647E-03 4.17063E-13 6.38128E-02
 -1      1174-8.70511E-03 4.87949E-13 6.38529E-02
 -1      1183-8.31692E-03 1.92650E-05 7.25884E-02
 -1      1185-8.31692E-03-1.92650E-05 7.25884E-02
 -1      1186-8.85796E-03 5.06990E-13 7.25581E-02
 -1      1188-7.77587E-03 5.85636E-13 7.26186E-02
 -1      1197-6.84012E-03 2.53971E-05 8.02533E-02
 -1      1199-6.84012E-03-2.53971E-05 8.02533E-02
 -1      1200-7.31559E-03 5.61401E-13 8.02134E-02
 -1      1202-6.36466E-03 6.48527E-13 8.02931E-02
 -1      1211-4.95342E-03 3.04171E-05 8.65898E-02
 -1      1213-4.95342E-03-3.04171E-05 8.65898E-02
 -1      1214-5.32241E-03 5.89306E-13 8.65420E-02
 -1      1216-4.58443E-03 6.85164E-13 8.66375E-02
 -1      1225-2.71672E-03 3.48379E-05 9.13517E-02
 -1      1227-2.71672E-03-3.48379E-05 9.13517E-02
 -1      1228-2.98099E-03 5.93284E-13 9.12970E-02
 -1      1230-2.45246E-03 6.98821E-13 9.14064E-02
 -1      1239-1.92988E-04 3.81500E-05 9.43614E-02
 -1      1241-1.92988E-04-3.81500E-05 9.43614E-02
 -1      1242-3.31195E-04 5.62704E-13 9.43015E-02
 -1      1244-5.47811E-05 6.79032E-13 9.44213E-02
 -1      1253 2.55118E-03 4.06491E-05 9.54666E-02
 -1      1255 2.55118E-03-4.06491E-05 9.54666E-02
 -1      1256 2.54064E-03 4.71277E-13 9.54028E-02
 -1      1258 2.56173E-03 5.99880E-13 9.55304E-02
 -1      1267 5.44805E-03 4.20925E-05 9.45720E-02
 -1      1269 5.44805E-03-4.20925E-05 9.45720E-02
 -1      1270 5.57459E-03 3.12975E-13 9.45059E-02
 -1      1272 5.32151E-03 4.52621E-13 9.46381E-02
 -1      1281 8.42936E-03 4.26296E-05 9.16210E-02
 -1      1283 8.42936E-03-4.26296E-05 9.16210E-02
 -1      1284 8.69224E-03 1.06508E-13 9.15541E-02
 -1      1286 8.16648E-03 2.59894E-13 9.16879E-02
 -1      1295 1.14283E-02 4.22000E-05 8.66086E-02
 -1      1297 1.14283E-02-4.22000E-05 8.66086E-02
 -1      1298 1.18283E-02-1.26031E-13 8.65424E-02
 -1      1300 1.10283E-02 4.72742E-14 8.66749E-02
 -1      1309 1.43808E-02 4.08967E-05 7.95719E-02
 -1      1311 1.43808E-02-4.08967E-05 7.95719E-02
 -1      1312 1.49127E-02-3.73374E-13 7.95077E-02
 -1      1314 1.38488E-02-1.79545E-13 7.96361E-02
 -1      1323 1.72267E-02 3.87622E-05 7.05936E-02
 -1      1325 1.72267E-02-3.87622E-05 7.05936E-02
 -1      1326 1.78847E-02-6.24007E-13 7.05328E-02
 -1      1328 1.65688E-02-4.07800E-13 7.06544E-02
 -1      1337 1.99119E-02 3.58993E-05 5.97957E-02
 -1      1339 1.99119E-02-3.58993E-05 5.97957E-02
 -1      1340 2.06860E-02-8.64887E-13 5.97393E-02
 -1      1342 1.91379E-02-6.29656E-13 5.98520E-02
 -1      1351 2.23889E-02 3.23927E-05 4.73376E-02
 -1      1353 2.23889E-02-3.23927E-05 4.73376E-02
 -1      1354 2.32678E-02-1.08992E-12 4.72867E-02
 -1      1356 2.15100E-02-8.40857E-13 4.73884E-02
 -1      1365 2.46186E-02 2.83967E-05 3.34099E-02
 -1      1367 2.46186E-02-2.83967E-05 3.34099E-02
 -1      1368 2.55886E-02-1.27989E-12 3.33654E-02
 -1      1370 2.36486E-02-1.02090E-12 3.34545E-02
 -1      1379 2.65709E-02 2.39941E-05 1.82302E-02
 -1      1381 2.65709E-02-2.39941E-05 1.82302E-02
 -1      1382 2.76172E-02-1.40520E-12 1.81926E-02
 -1      1384 2.55246E-02-1.13653E-12 1.82679E-02
 -1      1393 2.82263E-02 1.94092E-05 2.03540E-03
 -1      1395 2.82263E-02-1.94092E-05 2.03540E-03
 -1      1396 2.93326E-02-1.46496E-12 2.00493E-03
 -1      1398 2.71201E-02-1.18550E-12 2.06587E-03
 -1      1407 2.95760E-02 1.46998E-05-1.49240E-02
 -1      1409 2.95760E-02-1.46998E-05-1.49240E-02
 -1      1410 3.07259E-02-1.47185E-12-1.49471E-02
 -1      1412 2.84262E-02-1.18505E-12-1.49009E-02
 -1      1421 3.06231E-02 1.01445E-05-3.23915E-02
 -1      1423 3.06231E-02-1.01445E-05-3.23915E-02
 -1      1424 3.17993E-02-1.41741E-12-3.24074E-02
 -1      1426 2.94469E-02-1.12880E-12-3.23756E-02
 -1      1435 3.13826E-02 5.80607E-06-5.01135E-02
 -1      1437 3.13826E-02-5.80607E-06-5.01135E-02
 -1      1438 3.25697E-02-1.29606E-12-5.01226E-02
 -1      1440 3.01954E-02-1.00264E-12-5.01044E-02
 -1      1449 3.18811E-02 1.91327E-06-6.78417E-02
 -1      1451 3.18811E-02-1.91327E-06-6.78417E-02
 -1      1452 3.30621E-02-1.11614E-12-6.78447E-02
 -1      1454 3.07001E-02-8.15363E-13-6.78387E-02
 -1      1463 3.21575E-02-1.38465E-06-8.53574E-02
 -1      1465 3.21575E-02 1.38465E-06-8.53574E-02
 -1      1466 3.33223E-02-8.94853E-13-8.53553E-02
 -1      1468 3.09926E-02-5.87866E-13-8.53596E-02
 -1      1477 3.22688E-02-3.86921E-06-1.02433E-01
 -1      1479 3.22688E-02 3.86921E-06-1.02433E-01
 -1      1480 3.33967E-02-6.56812E-13-1.02427E-01
 -1      1482 3.11410E-02-3.44977E-13-1.02439E-01
 -1      1491-1.61623E-02 2.65468E-06-1.18701E-01
 -1      1493-1.61623E-02-2.65468E-06-1.18701E-01
 -1      1494 6.45450E-14 2.73612E-12-1.18611E-01
 -1      1496 4.12565E-14 2.73655E-12-1.18611E-01
 -1      1497 1.61623E-02-2.65468E-06-1.18701E-01
 -1      1499 1.61623E-02 2.65468E-06-1.18701E-01
 -1      1500-3.88261E-03-7.62677E-04 7.59038E-03
 -1      1502-1.95636E-03-1.31314E-03 7.48940E-03
 -1      1503-5.83116E-03-1.32138E-04 1.96252E-02
 -1      1505-4.53573E-03-1.01589E-03 1.95347E-02
 -1      1506-7.99940E-03 2.86289E-04 3.06594E-02
 -1      1508-6.37401E-03-1.11632E-03 3.05955E-02
 -1      1509-9.25702E-03 7.01189E-04 4.29876E-02
 -1      1511-7.61651E-03-1.21317E-03 4.29599E-02
 -1      1512-9.91139E-03 1.09811E-03 5.52220E-02
 -1      1514-8.29909E-03-1.28922E-03 5.52076E-02
 -1      1515-9.99473E-03 1.48996E-03 6.73041E-02
 -1      1517-8.40163E-03-1.36394E-03 6.73249E-02
 -1      1518-9.46879E-03 1.83499E-03 7.87537E-02
 -1      1520-8.01534E-03-1.42915E-03 7.87877E-02
 -1      1521-8.44612E-03 2.15557E-03 8.91992E-02
 -1      1523-7.12349E-03-1.48151E-03 8.92618E-02
 -1      1524-6.92161E-03 2.42570E-03 9.83232E-02
 -1      1526-5.81498E-03-1.51887E-03 9.83977E-02
 -1      1527-4.99010E-03 2.65172E-03 1.05789E-01
 -1      1529-4.10913E-03-1.53782E-03 1.05885E-01
 -1      1530-2.68537E-03 2.82081E-03 1.11356E-01
 -1      1532-2.08197E-03-1.53609E-03 1.11461E-01
 -1      1533-9.14303E-05 2.93370E-03 1.14783E-01
 -1      1535 2.21241E-04-1.51108E-03 1.14903E-01
 -1      1536 2.73608E-03 2.98406E-03 1.15919E-01
 -1      1538 2.73067E-03-1.46126E-03 1.16042E-01
 -1      1539 5.71845E-03 2.97247E-03 1.14636E-01
 -1      1541 5.38880E-03-1.38516E-03 1.14767E-01
 -1      1542 8.79138E-03 2.89688E-03 1.10884E-01
 -1      1544 8.12981E-03-1.28232E-03 1.11015E-01
 -1      1545 1.18818E-02 2.75981E-03 1.04655E-01
 -1      1547 1.08940E-02-1.15273E-03 1.04787E-01
 -1      1548 1.49264E-02 2.56277E-03 9.60081E-02
 -1      1550 1.36215E-02-9.97209E-04 9.61337E-02
 -1      1551 1.78613E-02 2.31102E-03 8.50451E-02
 -1      1553 1.62580E-02-8.17367E-04 8.51659E-02
 -1      1554 2.06319E-02 2.00933E-03 7.19289E-02
 -1      1556 1.87536E-02-6.15463E-04 7.20395E-02
 -1      1557 2.31881E-02 1.66595E-03 5.68616E-02
 -1      1559 2.10655E-02-3.94833E-04 5.69628E-02
 -1      1560 2.54902E-02 1.28860E-03 4.00938E-02
 -1      1562 2.31582E-02-1.59356E-04 4.01816E-02
 -1      1563 2.75066E-02 8.88673E-04 2.19072E-02
 -1      1565 2.50051E-02 8.59099E-05 2.19827E-02
 -1      1566 2.92171E-02 4.76436E-04 2.61883E-03
 -1      1568 2.65891E-02 3.34973E-04 2.67920E-03
 -1      1569 3.06123E-02 6.67087E-05-1.74356E-02
 -1      1571 2.79037E-02 5.81373E-04-1.73885E-02
 -1      1572 3.16944E-02-3.28341E-04-3.78970E-02
 -1      1574 2.89530E-02 8.15373E-04-3.78649E-02
 -1      1575 3.24799E-02-6.88705E-04-5.84062E-02
 -1      1577 2.97523E-02 1.03134E-03-5.83862E-02
 -1      1578 3.29893E-02-1.00410E-03-7.85777E-02
 -1      1580 3.03295E-02 1.20979E-03-7.85706E-02
 -1      1581 3.32834E-02-1.24512E-03-9.80761E-02
 -1      1583 3.07233E-02 1.35208E-03-9.80776E-02
 -1      1584 3.33567E-02-1.39326E-03-1.16446E-01
 -1      1586 3.09874E-02 1.44376E-03-1.16456E-01
 -1      1587 3.33580E-02-1.46643E-03-1.23844E-01
 -1      1589 3.11451E-02 1.41441E-03-1.23825E-01
 -1      1590 0.00000E+00 0.00000E+00 7.24621E-05
 -1      1592 0.00000E+00 0.00000E+00-7.24621E-05
 -1      1593 3.33580E-02 1.46643E-03-1.23844E-01
 -1      1595 3.11451E-02-1.41441E-03-1.23825E-01
 -1      1596-3.88261E-03 7.62677E-04 7.59038E-03
 -1      1598-1.95636E-03 1.31314E-03 7.48940E-03
 -1      1599-5.83116E-03 1.32138E-04 1.96252E-02
 -1      1601-4.53573E-03 1.01589E-03 1.95347E-02
 -1      1602-7.99940E-03-2.86289E-04 3.06594E-02
 -1      1604-6.37401E-03 1.11632E-03 3.05955E-02
 -1      1605-9.25702E-03-7.01189E-04 4.29876E-02
 -1      1607-7.61651E-03 1.21317E-03 4.29599E-02
 -1      1608-9.91139E-03-1.09811E-03 5.52220E-02
 -1      1610-8.29909E-03 1.28922E-03 5.52076E-02
 -1      1611-9.99473E-03-1.48996E-03 6.73041E-02
 -1      1613-8.40163E-03 1.36394E-03 6.73249E-02
 -1      1614-9.46879E-03-1.83499E-03 7.87537E-02
 -1      1616-8.01534E-03 1.42915E-03 7.87877E-02
 -1      1617-8.44612E-03-2.15557E-03 8.91992E-02
 -1      1619-7.12349E-03 1.48151E-03 8.92618E-02
 -1      1620-6.92161E-03-2.42570E-03 9.83232E-02
 -1      1622-5.81498E-03 1.51887E-03 9.83977E-02
 -1      1623-4.99010E-03-2.65172E-03 1.05789E-01
 -1      1625-4.10913E-03 1.53782E-03 1.05885E-01
 -1      1626-2.68537E-03-2.82081E-03 1.11356E-01
 -1      1628-2.08197E-03 1.53609E-03 1.11461E-01
 -1      1629-9.14303E-05-2.93370E-03 1.14783E-01
 -1      1631 2.21241E-04 1.51108E-03 1.14903E-01
 -1      1632 2.73608E-03-2.98406E-03 1.15919E-01
 -1      1634 2.73067E-03 1.46126E-03 1.16042E-01
 -1      1635 5.71845E-03-2.97247E-03 1.14636E-01
 -1      1637 5.38880E-03 1.38516E-03 1.14767E-01
 -1      1638 8.79138E-03-2.89688E-03 1.10884E-01
 -1      1640 8.12981E-03 1.28232E-03 1.11015E-01
 -1      1641 1.18818E-02-2.75981E-03 1.04655E-01
 -1      1643 1.08940E-02 1.15273E-03 1.04787E-01
 -1      1644 1.49264E-02-2.56277E-03 9.60081E-02
 -1      1646 1.36215E-02 9.97209E-04 9.61337E-02
 -1      1647 1.78613E-02-2.31102E-03 8.50451E-02
 -1      1649 1.62580E-02 8.17367E-04 8.51659E-02
 -1      1650 2.06319E-02-2.00933E-03 7.19289E-02
 -1      1652 1.87536E-02 6.15463E-04 7.20395E-02
 -1      1653 2.31881E-02-1.66595E-03 5.68616E-02
 -1      1655 2.10655E-02 3.94833E-04 5.69628E-02
 -1      1656 2.54902E-02-1.28860E-03 4.00938E-02
 -1      1658 2.31582E-02 1.59356E-04 4.01816E-02
 -1      1659 2.75066E-02-8.88673E-04 2.19072E-02
 -1      1661 2.50051E-02-8.59099E-05 2.19827E-02
 -1      1662 2.92171E-02-4.76436E-04 2.61883E-03
 -1      1664 2.65891E-02-3.34973E-04 2.67920E-03
 -1      1665 3.06123E-02-6.67087E-05-1.74356E-02
 -1      1667 2.79037E-02-5.81373E-04-1.73885E-02
 -1      1668 3.16944E-02 3.28341E-04-3.78970E-02
 -1      1670 2.89530E-02-8.15373E-04-3.78649E-02
 -1      1671 3.24799E-02 6.88705E-04-5.84062E-02
 -1      1673 2.97523E-02-1.03134E-03-5.83862E-02
 -1      1674 3.29893E-02 1.00410E-03-7.85777E-02
 -1      1676 3.03295E-02-1.20979E-03-7.85706E-02
 -1      1677 3.32834E-02 1.24512E-03-9.80761E-02
 -1      1679 3.07233E-02-1.35208E-03-9.80776E-02
 -1      1680 3.33567E-02 1.39326E-03-1.16446E-01
 -1      1682 3.09874E-02-1.44376E-03-1.16456E-01
 -1      1683 0.00000E+00 0.00000E+00 7.24621E-05
 -1      1685 0.00000E+00 0.00000E+00-7.24621E-05
 -1      1686 3.74862E-03-5.05431E-04 6.61864E-03
 -1      1688 1.97599E-03-5.18325E-04 6.52327E-03
 -1      1689 6.08177E-03 5.63067E-05 1.69040E-02
 -1      1691 5.02399E-03-7.02578E-04 1.68159E-02
 -1      1692 8.13797E-03 4.13279E-04 2.63238E-02
 -1      1694 6.59275E-03-7.75021E-04 2.62512E-02
 -1      1695 9.37080E-03 6.67735E-04 3.71179E-02
 -1      1697 7.94464E-03-9.45865E-04 3.70765E-02
 -1      1698 1.00651E-02 9.95073E-04 4.77834E-02
 -1      1700 8.55279E-03-1.07367E-03 4.77600E-02
 -1      1701 1.01034E-02 1.25423E-03 5.84745E-02
 -1      1703 8.67691E-03-1.19177E-03 5.84764E-02
 -1      1704 9.59639E-03 1.52357E-03 6.85830E-02
 -1      1706 8.24398E-03-1.31027E-03 6.86013E-02
 -1      1707 8.54699E-03 1.74686E-03 7.78860E-02
 -1      1709 7.34464E-03-1.40417E-03 7.79262E-02
 -1      1710 7.02546E-03 1.95051E-03 8.60140E-02
 -1      1712 5.99668E-03-1.48725E-03 8.60676E-02
 -1      1713 5.07644E-03 2.10983E-03 9.27155E-02
 -1      1715 4.26696E-03-1.54443E-03 9.27862E-02
 -1      1716 2.76733E-03 2.23272E-03 9.77356E-02
 -1      1718 2.20137E-03-1.58008E-03 9.78161E-02
 -1      1719 1.60167E-04 2.30826E-03 1.00882E-01
 -1      1721-1.34376E-04-1.58723E-03 1.00974E-01
 -1      1722-2.67459E-03 2.33829E-03 1.01999E-01
 -1      1724-2.68243E-03-1.56646E-03 1.02097E-01
 -1      1725-5.66776E-03 2.31864E-03 1.00982E-01
 -1      1727-5.37640E-03-1.51508E-03 1.01087E-01
 -1      1728-8.74844E-03 2.25033E-03 9.77776E-02
 -1      1730-8.15478E-03-1.43313E-03 9.78835E-02
 -1      1731-1.18477E-02 2.13322E-03 9.23778E-02
 -1      1733-1.09538E-02-1.32056E-03 9.24850E-02
 -1      1734-1.48991E-02 1.96957E-03 8.48270E-02
 -1      1736-1.37147E-02-1.17820E-03 8.49313E-02
 -1      1737-1.78408E-02 1.76231E-03 7.52140E-02
 -1      1739-1.63812E-02-1.00804E-03 7.53152E-02
 -1      1740-2.06165E-02 1.51558E-03 6.36736E-02
 -1      1742-1.89034E-02-8.12168E-04 6.37683E-02
 -1      1743-2.31772E-02 1.23501E-03 5.03783E-02
 -1      1745-2.12370E-02-5.94510E-04 5.04665E-02
 -1      1746-2.54824E-02 9.26690E-04 3.55377E-02
 -1      1748-2.33464E-02-3.58340E-04 3.56170E-02
 -1      1749-2.75009E-02 5.98809E-04 1.93890E-02
 -1      1751-2.52039E-02-1.09782E-04 1.94595E-02
 -1      1752-2.92123E-02 2.59191E-04 2.19438E-03
 -1      1754-2.67920E-02 1.47120E-04 2.25502E-03
 -1      1755-3.06076E-02-8.13519E-05-1.57699E-02
 -1      1757-2.81035E-02 4.03255E-04-1.57186E-02
 -1      1758-3.16892E-02-4.13542E-04-3.42144E-02
 -1      1760-2.91423E-02 6.54618E-04-3.41724E-02
 -1      1761-3.24733E-02-7.23232E-04-5.28556E-02
 -1      1763-2.99223E-02 8.87856E-04-5.28219E-02
 -1      1764-3.29854E-02-1.00033E-03-7.13972E-02
 -1      1766-3.04745E-02 1.09858E-03-7.13700E-02
 -1      1767-3.32687E-02-1.22795E-03-8.95944E-02
 -1      1769-3.08238E-02 1.26689E-03-8.95730E-02
 -1      1770-3.33663E-02-1.36869E-03-1.07116E-01
 -1      1772-3.10538E-02 1.39949E-03-1.07098E-01
 -1      1773 3.74862E-03 5.05431E-04 6.61864E-03
 -1      1775 1.97599E-03 5.18325E-04 6.52327E-03
 -1      1776 6.08177E-03-5.63067E-05 1.69040E-02
 -1      1778 5.02399E-03 7.02578E-04 1.68159E-02
 -1      1779 8.13797E-03-4.13279E-04 2.63238E-02
 -1      1781 6.59275E-03 7.75021E-04 2.62512E-02
 -1      1782 9.37080E-03-6.67735E-04 3.71179E-02
 -1      1784 7.94464E-03 9.45865E-04 3.70765E-02
 -1      1785 1.00651E-02-9.95073E-04 4.77834E-02
 -1      1787 8.55279E-03 1.07367E-03 4.77600E-02
 -1      1788 1.01034E-02-1.25423E-03 5.84745E-02
 -1      1790 8.67691E-03 1.19177E-03 5.84764E-02
 -1      1791 9.59639E-03-1.52357E-03 6.85830E-02
 -1      1793 8.24398E-03 1.31027E-03 6.86013E-02
 -1      1794 8.54699E-03-1.74686E-03 7.78860E-02
 -1      1796 7.34464E-03 1.40417E-03 7.79262E-02
 -1      1797 7.02546E-03-1.95051E-03 8.60140E-02
 -1      1799 5.99668E-03 1.48725E-03 8.60676E-02
 -1      1800 5.07644E-03-2.10983E-03 9.27155E-02
 -1      1802 4.26696E-03 1.54443E-03 9.27862E-02
 -1      1803 2.76733E-03-2.23272E-03 9.77356E-02
 -1      1805 2.20137E-03 1.58008E-03 9.78161E-02
 -1      1806 1.60167E-04-2.30826E-03 1.00882E-01
 -1      1808-1.34376E-04 1.58723E-03 1.00974E-01
 -1      1809-2.67459E-03-2.33829E-03 1.01999E-01
 -1      1811-2.68243E-03 1.56646E-03 1.02097E-01
 -1      1812-5.66776E-03-2.31864E-03 1.00982E-01
 -1      1814-5.37640E-03 1.51508E-03 1.01087E-01
 -1      1815-8.74844E-03-2.25033E-03 9.77776E-02
 -1      1817-8.15478E-03 1.43313E-03 9.78835E-02
 -1      1818-1.18477E-02-2.13322E-03 9.23778E-02
 -1      1820-1.09538E-02 1.32056E-03 9.24850E-02
 -1      1821-1.48991E-02-1.96957E-03 8.48270E-02
 -1      1823-1.37147E-02 1.17820E-03 8.49313E-02
 -1      1824-1.78408E-02-1.76231E-03 7.52140E-02
 -1      1826-1.63812E-02 1.00804E-03 7.53152E-02
 -1      1827-2.06165E-02-1.51558E-03 6.36736E-02
 -1      1829-1.89034E-02 8.12168E-04 6.37683E-02
 -1      1830-2.31772E-02-1.23501E-03 5.03783E-02
 -1      1832-2.12370E-02 5.94510E-04 5.04665E-02
 -1      1833-2.54824E-02-9.26690E-04 3.55377E-02
 -1      1835-2.33464E-02 3.58340E-04 3.56170E-02
 -1      1836-2.75009E-02-5.98809E-04 1.93890E-02
 -1      1838-2.52039E-02 1.09782E-04 1.94595E-02
 -1      1839-2.92123E-02-2.59191E-04 2.19438E-03
 -1      1841-2.67920E-02-1.47120E-04 2.25502E-03
 -1      1842-3.06076E-02 8.13519E-05-1.57699E-02
 -1      1844-2.81035E-02-4.03255E-04-1.57186E-02
 -1      1845-3.16892E-02 4.13542E-04-3.42144E-02
 -1      1847-2.91423E-02-6.54618E-04-3.41724E-02
 -1      1848-3.24733E-02 7.23232E-04-5.28556E-02
 -1      1850-2.99223E-02-8.87856E-04-5.28219E-02
 -1      1851-3.29854E-02 1.00033E-03-7.13972E-02
 -1      1853-3.04745E-02-1.09858E-03-7.13700E-02
 -1      1854-3.32687E-02 1.22795E-03-8.95944E-02
 -1      1856-3.08238E-02-1.26689E-03-8.95730E-02
 -1      1857-3.33663E-02 1.36869E-03-1.07116E-01
 -1      1859-3.10538E-02-1.39949E-03-1.07098E-01
 -1      1860 1.28830E-03 2.19091E-05 6.35805E-03
 -1      1862 1.28830E-03-2.19091E-05 6.35805E-03
 -1      1863 2.56326E-03 1.50773E-05 1.47600E-02
 -1      1865 2.56326E-03-1.50773E-05 1.47600E-02
 -1      1866 3.56757E-03 9.20848E-06 2.40414E-02
 -1      1868 3.56757E-03-9.20848E-06 2.40414E-02
 -1      1869 4.20875E-03 5.21153E-06 3.39933E-02
 -1      1871 4.20875E-03-5.21153E-06 3.39933E-02
 -1      1872 4.54917E-03 1.08276E-06 4.41726E-02
 -1      1874 4.54917E-03-1.08276E-06 4.41726E-02
 -1      1875 4.59381E-03-2.99380E-06 5.42557E-02
 -1      1877 4.59381E-03 2.99380E-06 5.42557E-02
 -1      1878 4.36797E-03-6.56881E-06 6.38732E-02
 -1      1880 4.36797E-03 6.56881E-06 6.38732E-02
 -1      1881 3.88873E-03-1.00527E-05 7.27110E-02
 -1      1883 3.88873E-03 1.00527E-05 7.27110E-02
 -1      1884 3.18190E-03-1.30170E-05 8.04637E-02
 -1      1886 3.18190E-03 1.30171E-05 8.04637E-02
 -1      1887 2.27284E-03-1.56795E-05 8.68691E-02
 -1      1889 2.27284E-03 1.56795E-05 8.68691E-02
 -1      1890 1.19128E-03-1.78513E-05 9.16950E-02
 -1      1892 1.19128E-03 1.78513E-05 9.16950E-02
 -1      1893-3.22163E-05-1.95719E-05 9.47543E-02
 -1      1895-3.22163E-05 1.95719E-05 9.47543E-02
 -1      1896-1.36496E-03-2.08160E-05 9.59003E-02
 -1      1898-1.36496E-03 2.08160E-05 9.59003E-02
 -1      1899-2.77400E-03-2.15432E-05 9.50338E-02
 -1      1901-2.77400E-03 2.15432E-05 9.50338E-02
 -1      1902-4.22598E-03-2.18090E-05 9.21011E-02
 -1      1904-4.22598E-03 2.18090E-05 9.21011E-02
 -1      1905-5.68841E-03-2.15645E-05 8.70959E-02
 -1      1907-5.68841E-03 2.15645E-05 8.70959E-02
 -1      1908-7.13000E-03-2.08929E-05 8.00571E-02
 -1      1910-7.13000E-03 2.08929E-05 8.00571E-02
 -1      1911-8.52165E-03-1.97784E-05 7.10676E-02
 -1      1913-8.52165E-03 1.97784E-05 7.10676E-02
 -1      1914-9.83693E-03-1.82988E-05 6.02511E-02
 -1      1916-9.83693E-03 1.82988E-05 6.02511E-02
 -1      1917-1.10529E-02-1.64948E-05 4.77679E-02
 -1      1919-1.10529E-02 1.64948E-05 4.77679E-02
 -1      1920-1.21506E-02-1.44154E-05 3.38106E-02
 -1      1922-1.21506E-02 1.44154E-05 3.38106E-02
 -1      1923-1.31156E-02-1.21714E-05 1.85981E-02
 -1      1925-1.31156E-02 1.21714E-05 1.85981E-02
 -1      1926-1.39384E-02-9.76560E-06 2.36948E-03
 -1      1928-1.39384E-02 9.76560E-06 2.36948E-03
 -1      1929-1.46153E-02-7.38195E-06-1.46229E-02
 -1      1931-1.46153E-02 7.38195E-06-1.46229E-02
 -1      1932-1.51479E-02-4.97301E-06-3.21206E-02
 -1      1934-1.51479E-02 4.97301E-06-3.21206E-02
 -1      1935-1.55441E-02-2.77414E-06-4.98668E-02
 -1      1937-1.55441E-02 2.77414E-06-4.98668E-02
 -1      1938-1.58179E-02-7.21829E-07-6.76138E-02
 -1      1940-1.58179E-02 7.21832E-07-6.76138E-02
 -1      1941-1.59924E-02 9.61956E-07-8.51312E-02
 -1      1943-1.59924E-02-9.61952E-07-8.51312E-02
 -1      1944-1.60961E-02 2.00484E-06-1.02211E-01
 -1      1946-1.60961E-02-2.00484E-06-1.02211E-01
 -1      1947 1.12291E-14 1.10991E-13 6.30339E-03
 -1      1949-8.65323E-15 1.11050E-13 6.30339E-03
 -1      1950 8.13802E-15 2.35895E-13 1.45510E-02
 -1      1952 3.19449E-15 2.35791E-13 1.45510E-02
 -1      1953 1.54985E-14 3.29896E-13 2.39015E-02
 -1      1955 2.77317E-15 3.29806E-13 2.39015E-02
 -1      1956 1.73633E-14 4.74364E-13 3.38879E-02
 -1      1958 2.80711E-15 4.74183E-13 3.38879E-02
 -1      1959 1.80026E-14 6.46302E-13 4.41118E-02
 -1      1961 9.70144E-16 6.46275E-13 4.41118E-02
 -1      1962 1.65107E-14 8.21176E-13 5.42264E-02
 -1      1964 1.18568E-15 8.21038E-13 5.42264E-02
 -1      1965 1.94718E-14 1.00056E-12 6.38780E-02
 -1      1967 1.94549E-15 1.00067E-12 6.38780E-02
 -1      1968 2.10075E-14 1.16701E-12 7.27442E-02
 -1      1970 7.85201E-15 1.16687E-12 7.27442E-02
 -1      1971 2.13666E-14 1.29151E-12 8.05240E-02
 -1      1973 1.10585E-14 1.29161E-12 8.05240E-02
 -1      1974 1.97854E-14 1.39413E-12 8.69523E-02
 -1      1976 1.05038E-14 1.39436E-12 8.69523E-02
 -1      1977 1.70731E-14 1.48098E-12 9.17985E-02
 -1      1979 9.15240E-15 1.48107E-12 9.17985E-02
 -1      1980 1.59352E-14 1.55825E-12 9.48742E-02
 -1      1982 8.20871E-15 1.55807E-12 9.48742E-02
 -1      1983 1.23374E-14 1.59190E-12 9.60334E-02
 -1      1985 1.21882E-14 1.59236E-12 9.60334E-02
 -1      1986 8.77076E-15 1.53598E-12 9.51765E-02
 -1      1988 1.69274E-14 1.53560E-12 9.51765E-02
 -1      1989 8.15320E-15 1.41855E-12 9.22502E-02
 -1      1991 1.87714E-14 1.41939E-12 9.22502E-02
 -1      1992 1.00614E-14 1.28732E-12 8.72480E-02
 -1      1994 2.06085E-14 1.28716E-12 8.72480E-02
 -1      1995 1.54286E-14 1.17130E-12 8.02092E-02
 -1      1997 2.33008E-14 1.17147E-12 8.02092E-02
 -1      1998 1.98886E-14 1.09576E-12 7.12171E-02
 -1      2000 2.34257E-14 1.09587E-12 7.12171E-02
 -1      2001 1.87090E-14 1.04688E-12 6.03956E-02
 -1      2003 2.19894E-14 1.04723E-12 6.03956E-02
 -1      2004 1.63029E-14 9.97168E-13 4.79056E-02
 -1      2006 2.02893E-14 9.97296E-13 4.79056E-02
 -1      2007 1.82424E-14 9.67837E-13 3.39400E-02
 -1      2009 1.85477E-14 9.67677E-13 3.39400E-02
 -1      2010 2.33494E-14 9.97327E-13 1.87183E-02
 -1      2012 1.70489E-14 9.97175E-13 1.87183E-02
 -1      2013 2.95666E-14 1.08751E-12 2.48028E-03
 -1      2015 1.97134E-14 1.08680E-12 2.48028E-03
 -1      2016 3.71144E-14 1.20413E-12-1.45212E-02
 -1      2018 2.62394E-14 1.20414E-12-1.45212E-02
 -1      2019 4.68982E-14 1.36380E-12-3.20268E-02
 -1      2021 3.00558E-14 1.36344E-12-3.20268E-02
 -1      2022 5.37573E-14 1.58404E-12-4.97792E-02
 -1      2024 3.23040E-14 1.58455E-12-4.97792E-02
 -1      2025 5.80213E-14 1.84701E-12-6.75292E-02
 -1      2027 3.38911E-14 1.84708E-12-6.75292E-02
 -1      2028 6.19071E-14 2.14221E-12-8.50453E-02
 -1      2030 3.47822E-14 2.14163E-12-8.50453E-02
 -1      2031 6.39224E-14 2.45033E-12-1.02123E-01
 -1      2033 3.78655E-14 2.45129E-12-1.02123E-01
 -1      2034-1.28830E-03-2.19091E-05 6.35805E-03
 -1      2036-1.28830E-03 2.19091E-05 6.35805E-03
 -1      2037-2.56326E-03-1.50773E-05 1.47600E-02
 -1      2039-2.56326E-03 1.50773E-05 1.47600E-02
 -1      2040-3.56757E-03-9.20848E-06 2.40414E-02
 -1      2042-3.56757E-03 9.20848E-06 2.40414E-02
 -1      2043-4.20875E-03-5.21153E-06 3.39933E-02
 -1      2045-4.20875E-03 5.21153E-06 3.39933E-02
 -1      2046-4.54917E-03-1.08276E-06 4.41726E-02
 -1      2048-4.54917E-03 1.08276E-06 4.41726E-02
 -1      2049-4.59381E-03 2.99380E-06 5.42557E-02
 -1      2051-4.59381E-03-2.99380E-06 5.42557E-02
 -1      2052-4.36797E-03 6.56881E-06 6.38732E-02
 -1      2054-4.36797E-03-6.56881E-06 6.38732E-02
 -1      2055-3.88873E-03 1.00527E-05 7.27110E-02
 -1      2057-3.88873E-03-1.00527E-05 7.27110E-02
 -1      2058-3.18190E-03 1.30171E-05 8.04637E-02
 -1      2060-3.18190E-03-1.30170E-05 8.04637E-02
 -1      2061-2.27284E-03 1.56795E-05 8.68691E-02
 -1      2063-2.27284E-03-1.56795E-05 8.68691E-02
 -1      2064-1.19128E-03 1.78513E-05 9.16950E-02
 -1      2066-1.19128E-03-1.78513E-05 9.16950E-02
 -1      2067 3.22163E-05 1.95719E-05 9.47543E-02
 -1      2069 3.22163E-05-1.95719E-05 9.47543E-02
 -1      2070 1.36496E-03 2.08160E-05 9.59003E-02
 -1      2072 1.36496E-03-2.08160E-05 9.59003E-02
 -1      2073 2.77400E-03 2.15432E-05 9.50338E-02
 -1      2075 2.77400E-03-2.15432E-05 9.50338E-02
 -1      2076 4.22598E-03 2.18090E-05 9.21011E-02
 -1      2078 4.22598E-03-2.18090E-05 9.21011E-02
 -1      2079 5.68841E-03 2.15645E-05 8.70959E-02
 -1      2081 5.68841E-03-2.15645E-05 8.70959E-02
 -1      2082 7.13000E-03 2.08929E-05 8.00571E-02
 -1      2084 7.13000E-03-2.08929E-05 8.00571E-02
 -1      2085 8.52165E-03 1.97784E-05 7.10676E-02
 -1      2087 8.52165E-03-1.97784E-05 7.10676E-02
 -1      2088 9.83693E-03 1.82988E-05 6.02511E-02
 -1      2090 9.83693E-03-1.82988E-05 6.02511E-02
 -1      2091 1.10529E-02 1.64948E-05 4.77679E-02
 -1      2093 1.10529E-02-1.64948E-05 4.77679E-02
 -1      2094 1.21506E-02 1.44154E-05 3.38106E-02
 -1      2096 1.21506E-02-1.44154E-05 3.38106E-02
 -1      2097 1.31156E-02 1.21714E-05 1.85981E-02
 -1      2099 1.31156E-02-1.21714E-05 1.85981E-02
 -1      2100 1.39384E-02 9.76560E-06 2.36948E-03
 -1      2102 1.39384E-02-9.76560E-06 2.36948E-03
 -1      2103 1.46153E-02 7.38195E-06-1.46229E-02
 -1      2105 1.46153E-02-7.38195E-06-1.46229E-02
 -1      2106 1.51479E-02 4.97301E-06-3.21206E-02
 -1      2108 1.51479E-02-4.97301E-06-3.21206E-02
 -1      2109 1.55441E-02 2.77414E-06-4.98668E-02
 -1      2111 1.55441E-02-2.77414E-06-4.98668E-02
 -1      2112 1.58179E-02 7.21832E-07-6.76138E-02
 -1      2114 1.58179E-02-7.21830E-07-6.76138E-02
 -1      2115 1.59924E-02-9.61953E-07-8.51312E-02
 -1      2117 1.59924E-02 9.61955E-07-8.51312E-02
 -1      2118 1.60961E-02-2.00484E-06-1.02211E-01
 -1      2120 1.60961E-02 2.00484E-06-1.02211E-01
 -1      2121-3.74862E-03-5.05431E-04 6.61864E-03
 -1      2123-1.97599E-03-5.18325E-04 6.52327E-03
 -1      2124-6.08177E-03 5.63067E-05 1.69040E-02
 -1      2126-5.02399E-03-7.02578E-04 1.68159E-02
 -1      2127-8.13797E-03 4.13279E-04 2.63238E-02
 -1      2129-6.59275E-03-7.75021E-04 2.62512E-02
 -1      2130-9.37080E-03 6.67735E-04 3.71179E-02
 -1      2132-7.94464E-03-9.45865E-04 3.70765E-02
 -1      2133-1.00651E-02 9.95073E-04 4.77834E-02
 -1      2135-8.55279E-03-1.07367E-03 4.77600E-02
 -1      2136-1.01034E-02 1.25423E-03 5.84745E-02
 -1      2138-8.67691E-03-1.19177E-03 5.84764E-02
 -1      2139-9.59639E-03 1.52357E-03 6.85830E-02
 -1      2141-8.24398E-03-1.31027E-03 6.86013E-02
 -1      2142-8.54699E-03 1.74686E-03 7.78860E-02
 -1      2144-7.34464E-03-1.40417E-03 7.79262E-02
 -1      2145-7.02546E-03 1.95051E-03 8.60140E-02
 -1      2147-5.99668E-03-1.48725E-03 8.60676E-02
 -1      2148-5.07644E-03 2.10983E-03 9.27155E-02
 -1      2150-4.26696E-03-1.54443E-03 9.27862E-02
 -1      2151-2.76733E-03 2.23272E-03 9.77356E-02
 -1      2153-2.20137E-03-1.58008E-03 9.78161E-02
 -1      2154-1.60167E-04 2.30826E-03 1.00882E-01
 -1      2156 1.34376E-04-1.58723E-03 1.00974E-01
 -1      2157 2.67459E-03 2.33829E-03 1.01999E-01
 -1      2159 2.68243E-03-1.56646E-03 1.02097E-01
 -1      2160 5.66776E-03 2.31864E-03 1.00982E-01
 -1      2162 5.37640E-03-1.51508E-03 1.01087E-01
 -1      2163 8.74844E-03 2.25033E-03 9.77776E-02
 -1      2165 8.15478E-03-1.43313E-03 9.78835E-02
 -1      2166 1.18477E-02 2.13322E-03 9.23778E-02
 -1      2168 1.09538E-02-1.32056E-03 9.24850E-02
 -1      2169 1.48991E-02 1.96957E-03 8.48270E-02
 -1      2171 1.37147E-02-1.17820E-03 8.49313E-02
 -1      2172 1.78408E-02 1.76231E-03 7.52140E-02
 -1      2174 1.63812E-02-1.00804E-03 7.53152E-02
 -1      2175 2.06165E-02 1.51558E-03 6.36736E-02
 -1      2177 1.89034E-02-8.12168E-04 6.37683E-02
 -1      2178 2.31772E-02 1.23501E-03 5.03783E-02
 -1      2180 2.12370E-02-5.94510E-04 5.04665E-02
 -1      2181 2.54824E-02 9.26690E-04 3.55377E-02
 -1      2183 2.33464E-02-3.58340E-04 3.56170E-02
 -1      2184 2.75009E-02 5.98809E-04 1.93890E-02
 -1      2186 2.52039E-02-1.09782E-04 1.94595E-02
 -1      2187 2.92123E-02 2.59191E-04 2.19438E-03
 -1      2189 2.67920E-02 1.47120E-04 2.25502E-03
 -1      2190 3.06076E-02-8.13519E-05-1.57699E-02
 -1      2192 2.81035E-02 4.03255E-04-1.57186E-02
 -1      2193 3.16892E-02-4.13542E-04-3.42144E-02
 -1      2195 2.91423E-02 6.54618E-04-3.41724E-02
 -1      2196 3.24733E-02-7.23232E-04-5.28556E-02
 -1      2198 2.99223E-02 8.87856E-04-5.28219E-02
 -1      2199 3.29854E-02-1.00033E-03-7.13972E-02
 -1      2201 3.04745E-02 1.09858E-03-7.13700E-02
 -1      2202 3.32687E-02-1.22795E-03-8.95944E-02
 -1      2204 3.08238E-02 1.26689E-03-8.95730E-02
 -1      2205 3.33663E-02-1.36869E-03-1.07116E-01
 -1      2207 3.10538E-02 1.39949E-03-1.07098E-01
 -1      2208-3.74862E-03 5.05431E-04 6.61864E-03
 -1      2210-1.97599E-03 5.18325E-04 6.52327E-03
 -1      2211-6.08177E-03-5.63067E-05 1.69040E-02
 -1      2213-5.02399E-03 7.02578E-04 1.68159E-02
 -1      2214-8.13797E-03-4.13279E-04 2.63238E-02
 -1      2216-6.59275E-03 7.75021E-04 2.62512E-02
 -1      2217-9.37080E-03-6.67735E-04 3.71179E-02
 -1      2219-7.94464E-03 9.45865E-04 3.70765E-02
 -1      2220-1.00651E-02-9.95073E-04 4.77834E-02
 -1      2222-8.55279E-03 1.07367E-03 4.77600E-02
 -1      2223-1.01034E-02-1.25423E-03 5.84745E-02
 -1      2225-8.67691E-03 1.19177E-03 5.84764E-02
 -1      2226-9.59639E-03-1.52357E-03 6.85830E-02
 -1      2228-8.24398E-03 1.31027E-03 6.86013E-02
 -1      2229-8.54699E-03-1.74686E-03 7.78860E-02
 -1      2231-7.34464E-03 1.40417E-03 7.79262E-02
 -1      2232-7.02546E-03-1.95051E-03 8.60140E-02
 -1      2234-5.99668E-03 1.48725E-03 8.60676E-02
 -1      2235-5.07644E-03-2.10983E-03 9.27155E-02
 -1      2237-4.26696E-03 1.54443E-03 9.27862E-02
 -1      2238-2.76733E-03-2.23272E-03 9.77356E-02
 -1      2240-2.20137E-03 1.58008E-03 9.78161E-02
 -1      2241-1.60167E-04-2.30826E-03 1.00882E-01
 -1      2243 1.34376E-04 1.58723E-03 1.00974E-01
 -1      2244 2.67459E-03-2.33829E-03 1.01999E-01
 -1      2246 2.68243E-03 1.56646E-03 1.02097E-01
 -1      2247 5.66776E-03-2.31864E-03 1.00982E-01
 -1      2249 5.37640E-03 1.51508E-03 1.01087E-01
 -1      2250 8.74844E-03-2.25033E-03 9.77776E-02
 -1      2252 8.15478E-03 1.43313E-03 9.78835E-02
 -1      2253 1.18477E-02-2.13322E-03 9.23778E-02
 -1      2255 1.09538E-02 1.32056E-03 9.24850E-02
 -1      2256 1.48991E-02-1.96957E-03 8.48270E-02
 -1      2258 1.37147E-02 1.17820E-03 8.49313E-02
 -1      2259 1.78408E-02-1.76231E-03 7.52140E-02
 -1      2261 1.63812E-02 1.00804E-03 7.53152E-02
 -1      2262 2.06165E-02-1.51558E-03 6.36736E-02
 -1      2264 1.89034E-02 8.12168E-04 6.37683E-02
 -1      2265 2.31772E-02-1.23501E-03 5.03783E-02
 -1      2267 2.12370E-02 5.94510E-04 5.04665E-02
 -1      2268 2.54824E-02-9.26690E-04 3.55377E-02
 -1      2270 2.33464E-02 3.58340E-04 3.56170E-02
 -1      2271 2.75009E-02-5.98809E-04 1.93890E-02
 -1      2273 2.52039E-02 1.09782E-04 1.94595E-02
 -1      2274 2.92123E-02-2.59191E-04 2.19438E-03
 -1      2276 2.67920E-02-1.47120E-04 2.25502E-03
 -1      2277 3.06076E-02 8.13519E-05-1.57699E-02
 -1      2279 2.81035E-02-4.03255E-04-1.57186E-02
 -1      2280 3.16892E-02 4.13542E-04-3.42144E-02
 -1      2282 2.91423E-02-6.54618E-04-3.41724E-02
 -1      2283 3.24733E-02 7.23232E-04-5.28556E-02
 -1      2285 2.99223E-02-8.87856E-04-5.28219E-02
 -1      2286 3.29854E-02 1.00033E-03-7.13972E-02
 -1      2288 3.04745E-02-1.09858E-03-7.13700E-02
 -1      2289 3.32687E-02 1.22795E-03-8.95944E-02
 -1      2291 3.08238E-02-1.26689E-03-8.95730E-02
 -1      2292 3.33663E-02 1.36869E-03-1.07116E-01
 -1      2294 3.10538E-02-1.39949E-03-1.07098E-01
 -3
    1PSTEP                        30           1           1          
    1PGM                1.000000E+00                                  
    1PGK                2.561743E+06                                  
    1PHID                         -1                                  
    1PSUBC                         0                                  
    1PMODE                         8                                  
  100CL  108 254.7345895         930                     2    8MODAL      1
 -4  STRESS      6    1
 -5  SXX         1    4    1    1
 -5  SYY         1    4    2    2
 -5  SZZ         1    4    3    3
 -5  SXY         1    4    1    2
 -5  SYZ         1    4    2    3
 -5  SZX         1    4    3    1
 -1       404 6.26897E+09 6.54907E+08 5.41056E+06-5.74563E+08 2.69246E+07 1.66094E+08
 -1       406 6.26897E+09 6.54907E+08 5.41056E+06-5.74563E+08 2.69246E+07 1.66094E+08
 -1       407-9.24038E+07-1.03959E+07 1.87343E+06 2.74027E+07-6.21127E+06 4.79517E+06
 -1       409-9.24038E+07-1.03959E+07 1.87343E+06 2.74027E+07-6.21127E+06 4.79517E+06
 -1       410-1.02402E+08-5.69552E+07-4.95253E+06 1.47501E-03 1.82144E-04 4.44834E+06
 -1       412-1.02402E+08-5.69552E+07-4.95253E+06 1.47501E-03 1.82144E-04 4.44834E+06
 -1       413 4.50940E+07 9.39442E+06 5.06603E+08-3.92303E-05 1.96043E-03-2.76259E+08
 -1       415 4.50940E+07 9.39442E+06 5.06603E+08-3.92303E-05 1.96043E-03-2.76259E+08
 -1       424 6.86156E+09 8.62669E+08-4.72428E+06-9.00626E-04 1.02659E-03 2.77935E+08
 -1       426 6.86156E+09 8.62669E+08-4.72428E+06-9.00626E-04 1.02659E-03 2.77935E+08
 -1       427 5.34010E+09 2.33062E+07 1.27211E+09 4.25175E-04 5.68140E-04 4.40106E+09
 -1       429 5.34010E+09 2.33062E+07 1.27211E+09 4.25175E-04 5.68140E-04 4.40106E+09
 -1       438-9.24038E+07-1.03959E+07 1.87343E+06-2.74027E+07 6.21127E+06 4.79517E+06
 -1       440-9.24038E+07-1.03959E+07 1.87343E+06-2.74027E+07 6.21127E+06 4.79517E+06
 -1       441 6.26897E+09 6.54907E+08 5.41056E+06 5.74563E+08-2.69246E+07 1.66094E+08
 -1       443 6.26897E+09 6.54907E+08 5.41056E+06 5.74563E+08-2.69246E+07 1.66094E+08
 -1       444-5.34010E+09-2.33062E+07-1.27211E+09 6.63525E-05-5.18274E-04 4.40106E+09
 -1       446-5.34010E+09-2.33062E+07-1.27211E+09 6.63525E-05-5.18274E-04 4.40106E+09
 -1       447-6.86156E+09-8.62669E+08 4.72428E+06 5.19872E-04-8.67851E-04 2.77935E+08
 -1       449-6.86156E+09-8.62669E+08 4.72428E+06 5.19872E-04-8.67851E-04 2.77935E+08
 -1       458-4.50940E+07-9.39442E+06-5.06603E+08-1.53871E-04-5.33356E-03-2.76259E+08
 -1       460-4.50940E+07-9.39442E+06-5.06603E+08-1.53871E-04-5.33356E-03-2.76259E+08
 -1       461 1.02402E+08 5.69552E+07 4.95253E+06 5.51769E-03-2.03446E-04 4.44834E+06
 -1       463 1.02402E+08 5.69552E+07 4.95253E+06 5.51769E-03-2.03446E-04 4.44834E+06
 -1       472-6.26897E+09-6.54907E+08-5.41056E+06-5.74563E+08-2.69246E+07 1.66094E+08
 -1       474-6.26897E+09-6.54907E+08-5.41056E+06-5.74563E+08-2.69246E+07 1.66094E+08
 -1       475 9.24038E+07 1.03959E+07-1.87343E+06 2.74027E+07 6.21127E+06 4.79517E+06
 -1       477 9.24038E+07 1.03959E+07-1.87343E+06 2.74027E+07 6.21127E+06 4.79517E+06
 -1       478 9.24038E+07 1.03959E+07-1.87343E+06-2.74027E+07-6.21127E+06 4.79517E+06
 -1       480 9.24038E+07 1.03959E+07-1.87343E+06-2.74027E+07-6.21127E+06 4.79517E+06
 -1       481-6.26897E+09-6.54907E+08-5.41056E+06 5.74563E+08 2.69246E+07 1.66094E+08
 -1       483-6.26897E+09-6.54907E+08-5.41056E+06 5.74563E+08 2.69246E+07 1.66094E+08
 -1       484 5.69240E+09 1.87276E+08-1.15960E+06-2.95616E+08 1.89639E+07 6.56628E+07
 -1       486 5.69240E+09 1.87276E+08-1.15960E+06-2.95616E+08 1.89639E+07 6.56628E+07
 -1       487 4.57459E+09-9.97602E+07 3.99733E+05-1.93440E+08 7.31546E+06-1.40680E+07
 -1       489 4.57459E+09-9.97602E+07 3.99733E+05-1.93440E+08 7.31546E+06-1.40680E+07
 -1       490 3.34655E+09 2.84895E+07-1.07500E+05-3.23864E+08 1.00772E+07 1.44112E+07
 -1       492 3.34655E+09 2.84895E+07-1.07500E+05-3.23864E+08 1.00772E+07 1.44112E+07
 -1       493 2.02605E+09-4.12194E+06-1.05711E+06-2.76764E+08 1.40626E+07 8.07116E+06
 -1       495 2.02605E+09-4.12194E+06-1.05711E+06-2.76764E+08 1.40626E+07 8.07116E+06
 -1       496 7.85773E+08 5.11152E+06-8.05490E+04-2.69283E+08 1.57643E+07 6.53263E+06
 -1       498 7.85773E+08 5.11152E+06-8.05490E+04-2.69283E+08 1.57643E+07 6.53263E+06
 -1       499-3.94497E+08 2.11376E+06-1.23313E+06-2.53859E+08 1.94625E+07 8.99486E+06
 -1       501-3.94497E+08 2.11376E+06-1.23313E+06-2.53859E+08 1.94625E+07 8.99486E+06
 -1       502-1.49888E+09 5.19587E+06-4.86680E+05-2.34614E+08 2.12241E+07 5.46918E+06
 -1       504-1.49888E+09 5.19587E+06-4.86680E+05-2.34614E+08 2.12241E+07 5.46918E+06
 -1       505-2.51015E+09 4.21085E+06-1.33696E+06-2.12673E+08 2.36718E+07 6.84341E+06
 -1       507-2.51015E+09 4.21085E+06-1.33696E+06-2.12673E+08 2.36718E+07 6.84341E+06
 -1       508-3.41591E+09 5.72815E+06-8.11389E+05-1.88268E+08 2.50625E+07 4.25572E+06
 -1       510-3.41591E+09 5.72815E+06-8.11389E+05-1.88268E+08 2.50625E+07 4.25572E+06
 -1       511-4.20472E+09 5.53689E+06-1.42295E+06-1.61537E+08 2.64163E+07 4.20196E+06
 -1       513-4.20472E+09 5.53689E+06-1.42295E+06-1.61537E+08 2.64163E+07 4.20196E+06
 -1       514-4.86693E+09 6.26369E+06-1.03387E+06-1.33169E+08 2.70555E+07 2.21396E+06
 -1       516-4.86693E+09 6.26369E+06-1.03387E+06-1.33169E+08 2.70555E+07 2.21396E+06
 -1       517-5.39552E+09 6.20190E+06-1.45154E+06-1.03547E+08 2.73590E+07 1.33617E+06
 -1       519-5.39552E+09 6.20190E+06-1.45154E+06-1.03547E+08 2.73590E+07 1.33617E+06
 -1       520-5.78584E+09 6.47006E+06-1.14040E+06-7.33402E+07 2.70444E+07-3.98697E+05
 -1       522-5.78584E+09 6.47006E+06-1.14040E+06-7.33402E+07 2.70444E+07-3.98697E+05
 -1       523-6.03621E+09 6.27702E+06-1.39877E+06-4.31109E+07 2.62883E+07-1.65205E+06
 -1       525-6.03621E+09 6.27702E+06-1.39877E+06-4.31109E+07 2.62883E+07-1.65205E+06
 -1       526-6.14774E+09 6.19054E+06-1.12313E+06-1.35393E+07 2.49543E+07-3.24108E+06
 -1       528-6.14774E+09 6.19054E+06-1.12313E+06-1.35393E+07 2.49543E+07-3.24108E+06
 -1       529-6.12469E+09 5.77568E+06-1.25152E+06 1.47473E+07 2.31748E+07-4.57716E+06
 -1       531-6.12469E+09 5.77568E+06-1.25152E+06 1.47473E+07 2.31748E+07-4.57716E+06
 -1       532-5.97424E+09 5.38136E+06-9.83121E+05 4.10842E+07 2.08777E+07-5.98601E+06
 -1       534-5.97424E+09 5.38136E+06-9.83121E+05 4.10842E+07 2.08777E+07-5.98601E+06
 -1       535-5.70659E+09 4.72359E+06-1.00761E+06 6.48557E+07 1.82095E+07-7.19287E+06
 -1       537-5.70659E+09 4.72359E+06-1.00761E+06 6.48557E+07 1.82095E+07-7.19287E+06
 -1       538-5.33473E+09 4.06924E+06-7.29997E+05 8.54593E+07 1.51332E+07-8.32493E+06
 -1       540-5.33473E+09 4.06924E+06-7.29997E+05 8.54593E+07 1.51332E+07-8.32493E+06
 -1       541-4.87433E+09 3.17811E+06-6.75379E+05 1.02348E+08 1.18371E+07-9.23039E+06
 -1       543-4.87433E+09 3.17811E+06-6.75379E+05 1.02348E+08 1.18371E+07-9.23039E+06
 -1       544-4.34344E+09 2.33729E+06-3.81075E+05 1.15032E+08 8.30826E+06-9.96760E+06
 -1       546-4.34344E+09 2.33729E+06-3.81075E+05 1.15032E+08 8.30826E+06-9.96760E+06
 -1       547-3.76226E+09 1.22045E+06-2.71971E+05 1.23069E+08 4.79068E+06-1.04219E+07
 -1       549-3.76226E+09 1.22045E+06-2.71971E+05 1.23069E+08 4.79068E+06-1.04219E+07
 -1       550-3.15269E+09 3.30709E+05 3.96560E+04 1.26150E+08 1.30594E+06-1.06357E+07
 -1       552-3.15269E+09 3.30709E+05 3.96560E+04 1.26150E+08 1.30594E+06-1.06357E+07
 -1       553-2.53822E+09-1.09057E+06 1.79974E+05 1.23891E+08-1.86151E+06-1.05162E+07
 -1       555-2.53822E+09-1.09057E+06 1.79974E+05 1.23891E+08-1.86151E+06-1.05162E+07
 -1       556-1.94304E+09-1.70015E+06 5.02682E+05 1.16318E+08-4.58978E+06-1.00204E+07
 -1       558-1.94304E+09-1.70015E+06 5.02682E+05 1.16318E+08-4.58978E+06-1.00204E+07
 -1       559-1.39203E+09-3.58724E+06 6.50808E+05 1.03426E+08-6.65349E+06-9.33551E+06
 -1       561-1.39203E+09-3.58724E+06 6.50808E+05 1.03426E+08-6.65349E+06-9.33551E+06
 -1       562-9.12296E+08-4.52835E+06 9.94868E+05 8.27309E+07-7.68592E+06-7.58229E+06
 -1       564-9.12296E+08-4.52835E+06 9.94868E+05 8.27309E+07-7.68592E+06-7.58229E+06
 -1       565-5.21671E+08-2.65123E+06 1.08159E+06 6.47416E+07-7.83794E+06-7.17215E+06
 -1       567-5.21671E+08-2.65123E+06 1.08159E+06 6.47416E+07-7.83794E+06-7.17215E+06
 -1       568-2.20975E+08-6.33225E+06 1.34727E+06 4.34879E+07-6.90383E+06-1.66310E+06
 -1       570-2.20975E+08-6.33225E+06 1.34727E+06 4.34879E+07-6.90383E+06-1.66310E+06
 -1       571-9.74031E+07-3.36756E+07-1.53955E+06 5.66956E+07-6.95467E+07 4.62175E+06
 -1       573-9.74031E+07-3.36756E+07-1.53955E+06 5.66956E+07-6.95467E+07 4.62175E+06
 -1       574 6.15605E+09 2.74482E+08-3.19970E+06-7.67797E-04 1.59093E-04 4.97885E+07
 -1       576 6.15605E+09 2.74482E+08-3.19970E+06-7.67797E-04 1.59093E-04 4.97885E+07
 -1       577 4.72167E+09 9.57326E+06 7.12282E+08-1.79684E-04 1.45287E-04 4.54170E+09
 -1       579 4.72167E+09 9.57326E+06 7.12282E+08-1.79684E-04 1.45287E-04 4.54170E+09
 -1       588 4.66625E+09-1.62351E+08-1.17984E+05-3.08761E-03-1.07466E-03-4.17339E+07
 -1       590 4.66625E+09-1.62351E+08-1.17984E+05-3.08761E-03-1.07466E-03-4.17339E+07
 -1       591 3.54021E+09-1.10432E+06-2.31945E+07-5.51865E-04-1.05784E-03 4.44132E+09
 -1       593 3.54021E+09-1.10432E+06-2.31945E+07-5.51865E-04-1.05784E-03 4.44132E+09
 -1       602 3.27457E+09 2.15974E+07 1.64784E+06-2.11984E-03-1.05771E-03 1.37381E+07
 -1       604 3.27457E+09 2.15974E+07 1.64784E+06-2.11984E-03-1.05771E-03 1.37381E+07
 -1       605 2.45396E+09-5.73685E+05-1.57675E+08-4.15031E-04-1.62709E-03 4.24631E+09
 -1       607 2.45396E+09-5.73685E+05-1.57675E+08-4.15031E-04-1.62709E-03 4.24631E+09
 -1       616 2.01413E+09 2.33301E+07 1.47841E+06 2.45202E-03-6.18871E-04-1.75945E+07
 -1       618 2.01413E+09 2.33301E+07 1.47841E+06 2.45202E-03-6.18871E-04-1.75945E+07
 -1       619 1.45141E+09-2.55937E+06-1.64922E+08-4.96161E-04-9.16256E-04 4.17011E+09
 -1       621 1.45141E+09-2.55937E+06-1.64922E+08-4.96161E-04-9.16256E-04 4.17011E+09
 -1       630 7.52318E+08 8.68823E+06 1.66430E+06 2.12020E-03-4.76098E-04 1.44823E+06
 -1       632 7.52318E+08 8.68823E+06 1.66430E+06 2.12020E-03-4.76098E-04 1.44823E+06
 -1       633 4.98723E+08-3.02967E+06-2.24049E+08-5.84288E-04-1.93648E-04 3.96546E+09
 -1       635 4.98723E+08-3.02967E+06-2.24049E+08-5.84288E-04-1.93648E-04 3.96546E+09
 -1       644-4.34794E+08 2.17052E+07 2.32749E+06-1.94311E-04-6.08083E-04-9.54085E+06
 -1       646-4.34794E+08 2.17052E+07 2.32749E+06-1.94311E-04-6.08083E-04-9.54085E+06
 -1       647-4.13889E+08-4.80681E+06-2.64676E+08-7.05345E-04 2.02630E-04 3.74232E+09
 -1       649-4.13889E+08-4.80681E+06-2.64676E+08-7.05345E-04 2.02630E-04 3.74232E+09
 -1       658-1.54617E+09 2.20806E+07 2.49228E+06-5.57095E-04-4.08012E-04-1.94205E+06
 -1       660-1.54617E+09 2.20806E+07 2.49228E+06-5.57095E-04-4.08012E-04-1.94205E+06
 -1       661-1.26105E+09-5.76605E+06-3.12969E+08-6.51540E-04 7.61996E-04 3.45705E+09
 -1       663-1.26105E+09-5.76605E+06-3.12969E+08-6.51540E-04 7.61996E-04 3.45705E+09
 -1       672-2.56363E+09 2.62469E+07 2.92704E+06-1.81216E-03-9.80496E-06-5.75161E+06
 -1       674-2.56363E+09 2.62469E+07 2.92704E+06-1.81216E-03-9.80496E-06-5.75161E+06
 -1       675-2.03829E+09-6.88347E+06-3.53138E+08-6.32203E-04 1.46063E-03 3.13657E+09
 -1       677-2.03829E+09-6.88347E+06-3.53138E+08-6.32203E-04 1.46063E-03 3.13657E+09
 -1       686-3.47523E+09 2.85650E+07 3.15361E+06-4.25452E-03 2.84433E-04-2.13379E+06
 -1       688-3.47523E+09 2.85650E+07 3.15361E+06-4.25452E-03 2.84433E-04-2.13379E+06
 -1       689-2.73369E+09-7.86728E+06-3.90497E+08-6.74207E-04 2.04081E-03 2.77326E+09
 -1       691-2.73369E+09-7.86728E+06-3.90497E+08-6.74207E-04 2.04081E-03 2.77326E+09
 -1       700-4.26847E+09 3.10580E+07 3.41842E+06-1.85062E-03 6.55729E-04-3.07776E+06
 -1       702-4.26847E+09 3.10580E+07 3.41842E+06-1.85062E-03 6.55729E-04-3.07776E+06
 -1       703-3.33847E+09-8.60987E+06-4.20099E+08-5.15695E-04 2.64048E-03 2.37964E+09
 -1       705-3.33847E+09-8.60987E+06-4.20099E+08-5.15695E-04 2.64048E-03 2.37964E+09
 -1       714-4.93424E+09 3.26264E+07 3.57819E+06 4.66844E-03 1.08726E-04-9.18841E+05
 -1       716-4.93424E+09 3.26264E+07 3.57819E+06 4.66844E-03 1.08726E-04-9.18841E+05
 -1       717-3.84502E+09-9.29025E+06-4.42854E+08-3.94663E-04 2.50261E-03 1.95869E+09
 -1       719-3.84502E+09-9.29025E+06-4.42854E+08-3.94663E-04 2.50261E-03 1.95869E+09
 -1       728-5.46492E+09 3.37741E+07 3.68606E+06 6.73670E-03-9.23060E-04-6.26751E+05
 -1       730-5.46492E+09 3.37741E+07 3.68606E+06 6.73670E-03-9.23060E-04-6.26751E+05
 -1       731-4.24759E+09-9.66950E+06-4.56697E+08-1.93994E-04 1.51425E-03 1.52059E+09
 -1       733-4.24759E+09-9.66950E+06-4.56697E+08-1.93994E-04 1.51425E-03 1.52059E+09
 -1       742-5.85605E+09 3.41215E+07 3.72373E+06 6.43626E-04-1.54684E-03 9.78671E+05
 -1       744-5.85605E+09 3.41215E+07 3.72373E+06 6.43626E-04-1.54684E-03 9.78671E+05
 -1       745-4.54246E+09-9.93984E+06-4.61646E+08-1.57213E-04 7.33416E-04 1.07250E+09
 -1       747-4.54246E+09-9.93984E+06-4.61646E+08-1.57213E-04 7.33416E-04 1.07250E+09
 -1       756-6.10567E+09 3.38225E+07 3.66865E+06-7.64154E-03-1.92682E-03 1.79557E+06
 -1       758-6.10567E+09 3.38225E+07 3.66865E+06-7.64154E-03-1.92682E-03 1.79557E+06
 -1       759-4.72809E+09-9.91341E+06-4.56776E+08-8.07775E-05 2.13031E-05 6.24540E+08
 -1       761-4.72809E+09-9.91341E+06-4.56776E+08-8.07775E-05 2.13031E-05 6.24540E+08
 -1       770-6.21503E+09 3.27507E+07 3.55669E+06-1.22297E-02-2.10392E-03 3.14635E+06
 -1       772-6.21503E+09 3.27507E+07 3.55669E+06-1.22297E-02-2.10392E-03 3.14635E+06
 -1       773-4.80527E+09-9.73791E+06-4.42137E+08 2.17180E-05-5.92594E-04 1.85659E+08
 -1       775-4.80527E+09-9.73791E+06-4.42137E+08 2.17180E-05-5.92594E-04 1.85659E+08
 -1       784-6.18824E+09 3.09666E+07 3.33965E+06-1.10287E-02-1.41261E-03 4.12456E+06
 -1       786-6.18824E+09 3.09666E+07 3.33965E+06-1.10287E-02-1.41261E-03 4.12456E+06
 -1       787-4.77713E+09-9.28891E+06-4.17500E+08 5.74488E-05-2.28723E-04-2.34074E+08
 -1       789-4.77713E+09-9.28891E+06-4.17500E+08 5.74488E-05-2.28723E-04-2.34074E+08
 -1       798-6.03260E+09 2.84464E+07 3.06920E+06-5.79969E-03-8.51322E-04 5.27449E+06
 -1       800-6.03260E+09 2.84464E+07 3.06920E+06-5.79969E-03-8.51322E-04 5.27449E+06
 -1       801-4.64918E+09-8.67456E+06-3.83201E+08 8.09887E-05 1.11463E-04-6.25314E+08
 -1       803-4.64918E+09-8.67456E+06-3.83201E+08 8.09887E-05 1.11463E-04-6.25314E+08
 -1       812-5.75831E+09 2.52486E+07 2.70254E+06-1.69673E-03-1.15369E-03 6.19052E+06
 -1       814-5.75831E+09 2.52486E+07 2.70254E+06-1.69673E-03-1.15369E-03 6.19052E+06
 -1       815-4.42921E+09-7.82435E+06-3.39551E+08 1.19277E-04-1.81842E-04-9.78584E+08
 -1       817-4.42921E+09-7.82435E+06-3.39551E+08 1.19277E-04-1.81842E-04-9.78584E+08
 -1       826-5.37851E+09 2.13887E+07 2.28033E+06 1.44243E-04-1.30669E-03 7.09279E+06
 -1       828-5.37851E+09 2.13887E+07 2.28033E+06 1.44243E-04-1.30669E-03 7.09279E+06
 -1       829-4.12727E+09-6.81472E+06-2.87224E+08 1.43203E-04-2.71423E-04-1.28517E+09
 -1       831-4.12727E+09-6.81472E+06-2.87224E+08 1.43203E-04-2.71423E-04-1.28517E+09
 -1       840-4.90894E+09 1.69662E+07 1.78880E+06 1.65845E-03-1.34003E-03 7.78224E+06
 -1       842-4.90894E+09 1.69662E+07 1.78880E+06 1.65845E-03-1.34003E-03 7.78224E+06
 -1       843-3.75543E+09-5.62319E+06-2.26966E+08 1.36256E-04-1.62301E-04-1.53686E+09
 -1       845-3.75543E+09-5.62319E+06-2.26966E+08 1.36256E-04-1.62301E-04-1.53686E+09
 -1       854-4.36784E+09 1.19837E+07 1.23340E+06 2.42224E-03-1.07746E-03 8.35017E+06
 -1       856-4.36784E+09 1.19837E+07 1.23340E+06 2.42224E-03-1.07746E-03 8.35017E+06
 -1       857-3.32765E+09-4.29168E+06-1.59744E+08 1.64852E-04 2.31311E-04-1.72639E+09
 -1       859-3.32765E+09-4.29168E+06-1.59744E+08 1.64852E-04 2.31311E-04-1.72639E+09
 -1       868-3.77549E+09 6.63277E+06 6.53908E+05 1.99093E-03-1.33639E-03 8.67188E+06
 -1       870-3.77549E+09 6.63277E+06 6.53908E+05 1.99093E-03-1.33639E-03 8.67188E+06
 -1       871-2.85956E+09-2.85417E+06-8.66506E+07 1.21676E-04-9.33774E-05-1.84742E+09
 -1       873-2.85956E+09-2.85417E+06-8.66506E+07 1.21676E-04-9.33774E-05-1.84742E+09
 -1       882-3.15412E+09 8.32584E+05-8.73619E+03 1.26521E-03-2.15013E-03 8.80522E+06
 -1       884-3.15412E+09 8.32584E+05-8.73619E+03 1.26521E-03-2.15013E-03 8.80522E+06
 -1       885-2.36811E+09-1.29396E+06-8.81509E+06 1.28495E-04-1.15190E-03-1.89474E+09
 -1       887-2.36811E+09-1.29396E+06-8.81509E+06 1.28495E-04-1.15190E-03-1.89474E+09
 -1       896-2.52716E+09-5.14140E+06-6.28797E+05 2.89640E-03-2.18635E-03 8.61225E+06
 -1       898-2.52716E+09-5.14140E+06-6.28797E+05 2.89640E-03-2.18635E-03 8.61225E+06
 -1       899-1.87147E+09 2.63275E+05 7.23714E+07 2.55345E-05-1.22210E-03-1.86427E+09
 -1       901-1.87147E+09 2.63275E+05 7.23714E+07 2.55345E-05-1.22210E-03-1.86427E+09
 -1       910-1.91936E+09-1.11565E+07-1.37399E+06 7.93344E-03-1.67497E-03 8.22056E+06
 -1       912-1.91936E+09-1.11565E+07-1.37399E+06 7.93344E-03-1.67497E-03 8.22056E+06
 -1       913-1.38864E+09 1.95963E+06 1.55989E+08 1.37462E-04-2.96941E-04-1.75349E+09
 -1       915-1.38864E+09 1.95963E+06 1.55989E+08 1.37462E-04-2.96941E-04-1.75349E+09
 -1       924-1.35620E+09-1.74418E+07-1.95591E+06 1.09629E-02-1.43588E-03 7.28748E+06
 -1       926-1.35620E+09-1.74418E+07-1.95591E+06 1.09629E-02-1.43588E-03 7.28748E+06
 -1       927-9.39107E+08 3.44569E+06 2.40152E+08 2.14395E-04 4.19117E-05-1.56046E+09
 -1       929-9.39107E+08 3.44569E+06 2.40152E+08 2.14395E-04 4.19117E-05-1.56046E+09
 -1       938-8.60826E+08-2.57198E+07-2.82680E+06 8.67354E-03-2.21293E-03 6.38293E+06
 -1       940-8.60826E+08-2.57198E+07-2.82680E+06 8.67354E-03-2.21293E-03 6.38293E+06
 -1       941-5.42719E+08 5.29750E+06 3.26288E+08 1.23238E-04-8.91103E-04-1.28794E+09
 -1       943-5.42719E+08 5.29750E+06 3.26288E+08 1.23238E-04-8.91103E-04-1.28794E+09
 -1       952-4.62286E+08-1.89521E+07-3.25708E+06 5.27839E-03-2.26001E-03 4.08722E+06
 -1       954-4.62286E+08-1.89521E+07-3.25708E+06 5.27839E-03-2.26001E-03 4.08722E+06
 -1       955-2.25254E+08 6.46627E+06 4.08218E+08 6.91881E-05-9.93438E-04-9.33391E+08
 -1       957-2.25254E+08 6.46627E+06 4.08218E+08 6.91881E-05-9.93438E-04-9.33391E+08
 -1       966-1.97111E+08-3.19655E+07-3.79757E+06 2.80903E-03-7.12335E-04 3.18654E+06
 -1       968-1.97111E+08-3.19655E+07-3.79757E+06 2.80903E-03-7.12335E-04 3.18654E+06
 -1       969-2.25821E+07 7.83739E+06 4.76179E+08 1.73777E-05 7.87414E-04-5.05139E+08
 -1       971-2.25821E+07 7.83739E+06 4.76179E+08 1.73777E-05 7.87414E-04-5.05139E+08
 -1       980 6.56527E+09 7.58788E+08 3.43139E+05-6.44206E+08-4.46259E+07 2.22014E+08
 -1       982 6.56527E+09 7.58788E+08 3.43139E+05-6.44206E+08-4.46259E+07 2.22014E+08
 -1       983-9.74031E+07-3.36756E+07-1.53955E+06-5.66956E+07 6.95467E+07 4.62175E+06
 -1       985-9.74031E+07-3.36756E+07-1.53955E+06-5.66956E+07 6.95467E+07 4.62175E+06
 -1       986 5.69240E+09 1.87276E+08-1.15960E+06 2.95616E+08-1.89639E+07 6.56628E+07
 -1       988 5.69240E+09 1.87276E+08-1.15960E+06 2.95616E+08-1.89639E+07 6.56628E+07
 -1       989 4.57459E+09-9.97602E+07 3.99733E+05 1.93440E+08-7.31546E+06-1.40680E+07
 -1       991 4.57459E+09-9.97602E+07 3.99733E+05 1.93440E+08-7.31546E+06-1.40680E+07
 -1       992 3.34655E+09 2.84895E+07-1.07500E+05 3.23864E+08-1.00772E+07 1.44112E+07
 -1       994 3.34655E+09 2.84895E+07-1.07500E+05 3.23864E+08-1.00772E+07 1.44112E+07
 -1       995 2.02605E+09-4.12194E+06-1.05711E+06 2.76764E+08-1.40626E+07 8.07116E+06
 -1       997 2.02605E+09-4.12194E+06-1.05711E+06 2.76764E+08-1.40626E+07 8.07116E+06
 -1       998 7.85773E+08 5.11152E+06-8.05490E+04 2.69283E+08-1.57643E+07 6.53263E+06
 -1      1000 7.85773E+08 5.11152E+06-8.05490E+04 2.69283E+08-1.57643E+07 6.53263E+06
 -1      1001-3.94497E+08 2.11376E+06-1.23313E+06 2.53859E+08-1.94625E+07 8.99486E+06
 -1      1003-3.94497E+08 2.11376E+06-1.23313E+06 2.53859E+08-1.94625E+07 8.99486E+06
 -1      1004-1.49888E+09 5.19587E+06-4.86680E+05 2.34614E+08-2.12241E+07 5.46918E+06
 -1      1006-1.49888E+09 5.19587E+06-4.86680E+05 2.34614E+08-2.12241E+07 5.46918E+06
 -1      1007-2.51015E+09 4.21085E+06-1.33696E+06 2.12673E+08-2.36718E+07 6.84341E+06
 -1      1009-2.51015E+09 4.21085E+06-1.33696E+06 2.12673E+08-2.36718E+07 6.84341E+06
 -1      1010-3.41591E+09 5.72815E+06-8.11389E+05 1.88268E+08-2.50625E+07 4.25572E+06
 -1      1012-3.41591E+09 5.72815E+06-8.11389E+05 1.88268E+08-2.50625E+07 4.25572E+06
 -1      1013-4.20472E+09 5.53689E+06-1.42295E+06 1.61537E+08-2.64163E+07 4.20196E+06
 -1      1015-4.20472E+09 5.53689E+06-1.42295E+06 1.61537E+08-2.64163E+07 4.20196E+06
 -1      1016-4.86693E+09 6.26369E+06-1.03387E+06 1.33169E+08-2.70555E+07 2.21396E+06
 -1      1018-4.86693E+09 6.26369E+06-1.03387E+06 1.33169E+08-2.70555E+07 2.21396E+06
 -1      1019-5.39552E+09 6.20190E+06-1.45154E+06 1.03547E+08-2.73590E+07 1.33617E+06
 -1      1021-5.39552E+09 6.20190E+06-1.45154E+06 1.03547E+08-2.73590E+07 1.33617E+06
 -1      1022-5.78584E+09 6.47006E+06-1.14040E+06 7.33402E+07-2.70444E+07-3.98697E+05
 -1      1024-5.78584E+09 6.47006E+06-1.14040E+06 7.33402E+07-2.70444E+07-3.98697E+05
 -1      1025-6.03621E+09 6.27702E+06-1.39877E+06 4.31109E+07-2.62883E+07-1.65205E+06
 -1      1027-6.03621E+09 6.27702E+06-1.39877E+06 4.31109E+07-2.62883E+07-1.65205E+06
 -1      1028-6.14774E+09 6.19054E+06-1.12313E+06 1.35393E+07-2.49543E+07-3.24108E+06
 -1      1030-6.14774E+09 6.19054E+06-1.12313E+06 1.35393E+07-2.49543E+07-3.24108E+06
 -1      1031-6.12469E+09 5.77568E+06-1.25152E+06-1.47473E+07-2.31748E+07-4.57716E+06
 -1      1033-6.12469E+09 5.77568E+06-1.25152E+06-1.47473E+07-2.31748E+07-4.57716E+06
 -1      1034-5.97424E+09 5.38136E+06-9.83121E+05-4.10842E+07-2.08777E+07-5.98601E+06
 -1      1036-5.97424E+09 5.38136E+06-9.83121E+05-4.10842E+07-2.08777E+07-5.98601E+06
 -1      1037-5.70659E+09 4.72359E+06-1.00761E+06-6.48557E+07-1.82095E+07-7.19287E+06
 -1      1039-5.70659E+09 4.72359E+06-1.00761E+06-6.48557E+07-1.82095E+07-7.19287E+06
 -1      1040-5.33473E+09 4.06924E+06-7.29997E+05-8.54593E+07-1.51332E+07-8.32493E+06
 -1      1042-5.33473E+09 4.06924E+06-7.29997E+05-8.54593E+07-1.51332E+07-8.32493E+06
 -1      1043-4.87433E+09 3.17811E+06-6.75379E+05-1.02348E+08-1.18371E+07-9.23039E+06
 -1      1045-4.87433E+09 3.17811E+06-6.75379E+05-1.02348E+08-1.18371E+07-9.23039E+06
 -1      1046-4.34344E+09 2.33729E+06-3.81075E+05-1.15032E+08-8.30826E+06-9.96760E+06
 -1      1048-4.34344E+09 2.33729E+06-3.81075E+05-1.15032E+08-8.30826E+06-9.96760E+06
 -1      1049-3.76226E+09 1.22045E+06-2.71971E+05-1.23069E+08-4.79068E+06-1.04219E+07
 -1      1051-3.76226E+09 1.22045E+06-2.71971E+05-1.23069E+08-4.79068E+06-1.04219E+07
 -1      1052-3.15269E+09 3.30709E+05 3.96560E+04-1.26150E+08-1.30594E+06-1.06357E+07
 -1      1054-3.15269E+09 3.30709E+05 3.96560E+04-1.26150E+08-1.30594E+06-1.06357E+07
 -1      1055-2.53822E+09-1.09057E+06 1.79974E+05-1.23891E+08 1.86151E+06-1.05162E+07
 -1      1057-2.53822E+09-1.09057E+06 1.79974E+05-1.23891E+08 1.86151E+06-1.05162E+07
 -1      1058-1.94304E+09-1.70015E+06 5.02682E+05-1.16318E+08 4.58978E+06-1.00204E+07
 -1      1060-1.94304E+09-1.70015E+06 5.02682E+05-1.16318E+08 4.58978E+06-1.00204E+07
 -1      1061-1.39203E+09-3.58724E+06 6.50808E+05-1.03426E+08 6.65349E+06-9.33551E+06
 -1      1063-1.39203E+09-3.58724E+06 6.50808E+05-1.03426E+08 6.65349E+06-9.33551E+06
 -1      1064-9.12296E+08-4.52835E+06 9.94868E+05-8.27309E+07 7.68592E+06-7.58229E+06
 -1      1066-9.12296E+08-4.52835E+06 9.94868E+05-8.27309E+07 7.68592E+06-7.58229E+06
 -1      1067-5.21671E+08-2.65123E+06 1.08159E+06-6.47416E+07 7.83794E+06-7.17215E+06
 -1      1069-5.21671E+08-2.65123E+06 1.08159E+06-6.47416E+07 7.83794E+06-7.17215E+06
 -1      1070-2.20975E+08-6.33225E+06 1.34727E+06-4.34879E+07 6.90383E+06-1.66310E+06
 -1      1072-2.20975E+08-6.33225E+06 1.34727E+06-4.34879E+07 6.90383E+06-1.66310E+06
 -1      1073 6.56527E+09 7.58788E+08 3.43139E+05 6.44206E+08 4.46259E+07 2.22014E+08
 -1      1075 6.56527E+09 7.58788E+08 3.43139E+05 6.44206E+08 4.46259E+07 2.22014E+08
 -1      1076 3.39874E+09-2.47488E+05 8.22393E+08 3.24889E-03-5.63333E-05 4.49703E+09
 -1      1078 3.39874E+09-2.47488E+05 8.22393E+08 3.24889E-03-5.63333E-05 4.49703E+09
 -1      1079 2.41542E-03 9.17017E-05-4.08271E-03 5.36698E-03-9.56272E-05 4.59300E+09
 -1      1081 2.41542E-03 9.17017E-05-4.08271E-03 5.36698E-03-9.56272E-05 4.59300E+09
 -1      1082-3.39874E+09 2.47488E+05-8.22393E+08 2.36386E-03-1.43610E-05 4.49703E+09
 -1      1084-3.39874E+09 2.47488E+05-8.22393E+08 2.36386E-03-1.43610E-05 4.49703E+09
 -1      1085-4.72167E+09-9.57326E+06-7.12282E+08-5.30095E-05-6.25516E-05 4.54170E+09
 -1      1087-4.72167E+09-9.57326E+06-7.12282E+08-5.30095E-05-6.25516E-05 4.54170E+09
 -1      1088-6.15605E+09-2.74482E+08 3.19970E+06 9.82076E-04-2.22077E-04 4.97885E+07
 -1      1090-6.15605E+09-2.74482E+08 3.19970E+06 9.82076E-04-2.22077E-04 4.97885E+07
 -1      1099-3.54021E+09 1.10432E+06 2.31945E+07-3.12288E-04 1.41771E-03 4.44132E+09
 -1      1101-3.54021E+09 1.10432E+06 2.31945E+07-3.12288E-04 1.41771E-03 4.44132E+09
 -1      1102-4.66625E+09 1.62351E+08 1.17984E+05-1.50183E-03 1.08307E-03-4.17339E+07
 -1      1104-4.66625E+09 1.62351E+08 1.17984E+05-1.50183E-03 1.08307E-03-4.17339E+07
 -1      1113-2.45396E+09 5.73685E+05 1.57675E+08-2.32551E-04 2.40097E-03 4.24631E+09
 -1      1115-2.45396E+09 5.73685E+05 1.57675E+08-2.32551E-04 2.40097E-03 4.24631E+09
 -1      1116-3.27457E+09-2.15974E+07-1.64784E+06-5.77688E-04 1.62194E-03 1.37381E+07
 -1      1118-3.27457E+09-2.15974E+07-1.64784E+06-5.77688E-04 1.62194E-03 1.37381E+07
 -1      1127-1.45141E+09 2.55937E+06 1.64922E+08-1.40299E-04 1.70600E-03 4.17011E+09
 -1      1129-1.45141E+09 2.55937E+06 1.64922E+08-1.40299E-04 1.70600E-03 4.17011E+09
 -1      1130-2.01413E+09-2.33301E+07-1.47841E+06 6.64425E-03 1.35937E-03-1.75945E+07
 -1      1132-2.01413E+09-2.33301E+07-1.47841E+06 6.64425E-03 1.35937E-03-1.75945E+07
 -1      1141-4.98723E+08 3.02967E+06 2.24049E+08-1.47290E-04 5.11030E-04 3.96546E+09
 -1      1143-4.98723E+08 3.02967E+06 2.24049E+08-1.47290E-04 5.11030E-04 3.96546E+09
 -1      1144-7.52318E+08-8.68823E+06-1.66430E+06 1.14489E-02 8.16571E-04 1.44823E+06
 -1      1146-7.52318E+08-8.68823E+06-1.66430E+06 1.14489E-02 8.16571E-04 1.44823E+06
 -1      1155 4.13889E+08 4.80681E+06 2.64676E+08-1.38971E-04-5.50894E-04 3.74232E+09
 -1      1157 4.13889E+08 4.80681E+06 2.64676E+08-1.38971E-04-5.50894E-04 3.74232E+09
 -1      1158 4.34794E+08-2.17052E+07-2.32749E+06 1.40902E-02 1.81306E-04-9.54085E+06
 -1      1160 4.34794E+08-2.17052E+07-2.32749E+06 1.40902E-02 1.81306E-04-9.54085E+06
 -1      1169 1.26105E+09 5.76605E+06 3.12969E+08-7.42421E-05-1.65466E-03 3.45705E+09
 -1      1171 1.26105E+09 5.76605E+06 3.12969E+08-7.42421E-05-1.65466E-03 3.45705E+09
 -1      1172 1.54617E+09-2.20806E+07-2.49228E+06 1.27483E-02-5.21783E-04-1.94205E+06
 -1      1174 1.54617E+09-2.20806E+07-2.49228E+06 1.27483E-02-5.21783E-04-1.94205E+06
 -1      1183 2.03829E+09 6.88347E+06 3.53138E+08-1.90116E-04-2.39596E-03 3.13657E+09
 -1      1185 2.03829E+09 6.88347E+06 3.53138E+08-1.90116E-04-2.39596E-03 3.13657E+09
 -1      1186 2.56363E+09-2.62469E+07-2.92704E+06 5.86170E-03-7.91918E-04-5.75161E+06
 -1      1188 2.56363E+09-2.62469E+07-2.92704E+06 5.86170E-03-7.91918E-04-5.75161E+06
 -1      1197 2.73369E+09 7.86728E+06 3.90497E+08-2.00555E-04-2.14598E-03 2.77326E+09
 -1      1199 2.73369E+09 7.86728E+06 3.90497E+08-2.00555E-04-2.14598E-03 2.77326E+09
 -1      1200 3.47523E+09-2.85650E+07-3.15361E+06 1.70062E-03-4.94029E-04-2.13379E+06
 -1      1202 3.47523E+09-2.85650E+07-3.15361E+06 1.70062E-03-4.94029E-04-2.13379E+06
 -1      1211 3.33847E+09 8.60987E+06 4.20099E+08-1.80943E-04-1.79119E-03 2.37964E+09
 -1      1213 3.33847E+09 8.60987E+06 4.20099E+08-1.80943E-04-1.79119E-03 2.37964E+09
 -1      1214 4.26847E+09-3.10580E+07-3.41842E+06 5.16021E-03-3.11051E-04-3.07776E+06
 -1      1216 4.26847E+09-3.10580E+07-3.41842E+06 5.16021E-03-3.11051E-04-3.07776E+06
 -1      1225 3.84502E+09 9.29025E+06 4.42854E+08-1.59619E-04-2.14347E-03 1.95869E+09
 -1      1227 3.84502E+09 9.29025E+06 4.42854E+08-1.59619E-04-2.14347E-03 1.95869E+09
 -1      1228 4.93424E+09-3.26264E+07-3.57819E+06 1.01733E-02-4.80302E-04-9.18841E+05
 -1      1230 4.93424E+09-3.26264E+07-3.57819E+06 1.01733E-02-4.80302E-04-9.18841E+05
 -1      1239 4.24759E+09 9.66950E+06 4.56697E+08-1.93596E-04-3.20599E-03 1.52059E+09
 -1      1241 4.24759E+09 9.66950E+06 4.56697E+08-1.93596E-04-3.20599E-03 1.52059E+09
 -1      1242 5.46492E+09-3.37741E+07-3.68606E+06 7.16292E-03-1.03908E-03-6.26751E+05
 -1      1244 5.46492E+09-3.37741E+07-3.68606E+06 7.16292E-03-1.03908E-03-6.26751E+05
 -1      1253 4.54246E+09 9.93984E+06 4.61646E+08-3.29065E-04-4.16146E-03 1.07250E+09
 -1      1255 4.54246E+09 9.93984E+06 4.61646E+08-3.29065E-04-4.16146E-03 1.07250E+09
 -1      1256 5.85605E+09-3.41215E+07-3.72373E+06-3.60220E-03-1.55693E-03 9.78671E+05
 -1      1258 5.85605E+09-3.41215E+07-3.72373E+06-3.60220E-03-1.55693E-03 9.78671E+05
 -1      1267 4.72809E+09 9.91341E+06 4.56776E+08-3.84677E-04-4.39402E-03 6.24540E+08
 -1      1269 4.72809E+09 9.91341E+06 4.56776E+08-3.84677E-04-4.39402E-03 6.24540E+08
 -1      1270 6.10567E+09-3.38225E+07-3.66865E+06-1.06909E-02-1.89936E-03 1.79557E+06
 -1      1272 6.10567E+09-3.38225E+07-3.66865E+06-1.06909E-02-1.89936E-03 1.79557E+06
 -1      1281 4.80527E+09 9.73791E+06 4.42137E+08-3.43890E-04-3.46537E-03 1.85659E+08
 -1      1283 4.80527E+09 9.73791E+06 4.42137E+08-3.43890E-04-3.46537E-03 1.85659E+08
 -1      1284 6.21503E+09-3.27507E+07-3.55669E+06-9.99404E-03-1.27670E-03 3.14635E+06
 -1      1286 6.21503E+09-3.27507E+07-3.55669E+06-9.99404E-03-1.27670E-03 3.14635E+06
 -1      1295 4.77713E+09 9.28891E+06 4.17500E+08-3.59742E-04-1.92331E-03-2.34074E+08
 -1      1297 4.77713E+09 9.28891E+06 4.17500E+08-3.59742E-04-1.92331E-03-2.34074E+08
 -1      1298 6.18824E+09-3.09666E+07-3.33965E+06-8.58374E-03-3.64296E-05 4.12456E+06
 -1      1300 6.18824E+09-3.09666E+07-3.33965E+06-8.58374E-03-3.64296E-05 4.12456E+06
 -1      1309 4.64918E+09 8.67456E+06 3.83201E+08-5.06722E-04-8.35209E-04-6.25314E+08
 -1      1311 4.64918E+09 8.67456E+06 3.83201E+08-5.06722E-04-8.35209E-04-6.25314E+08
 -1      1312 6.03260E+09-2.84464E+07-3.06920E+06-9.25752E-03 8.60009E-04 5.27449E+06
 -1      1314 6.03260E+09-2.84464E+07-3.06920E+06-9.25752E-03 8.60009E-04 5.27449E+06
 -1      1323 4.42921E+09 7.82435E+06 3.39551E+08-4.94290E-04 3.58505E-04-9.78584E+08
 -1      1325 4.42921E+09 7.82435E+06 3.39551E+08-4.94290E-04 3.58505E-04-9.78584E+08
 -1      1326 5.75831E+09-2.52486E+07-2.70254E+06-9.35839E-03 1.88507E-03 6.19052E+06
 -1      1328 5.75831E+09-2.52486E+07-2.70254E+06-9.35839E-03 1.88507E-03 6.19052E+06
 -1      1337 4.12727E+09 6.81472E+06 2.87224E+08-4.78983E-04 6.82954E-04-1.28517E+09
 -1      1339 4.12727E+09 6.81472E+06 2.87224E+08-4.78983E-04 6.82954E-04-1.28517E+09
 -1      1340 5.37851E+09-2.13887E+07-2.28033E+06-1.13872E-02 2.22554E-03 7.09279E+06
 -1      1342 5.37851E+09-2.13887E+07-2.28033E+06-1.13872E-02 2.22554E-03 7.09279E+06
 -1      1351 3.75543E+09 5.62319E+06 2.26966E+08-5.30299E-04 1.05917E-04-1.53686E+09
 -1      1353 3.75543E+09 5.62319E+06 2.26966E+08-5.30299E-04 1.05917E-04-1.53686E+09
 -1      1354 4.90894E+09-1.69662E+07-1.78880E+06-1.40638E-02 1.78517E-03 7.78224E+06
 -1      1356 4.90894E+09-1.69662E+07-1.78880E+06-1.40638E-02 1.78517E-03 7.78224E+06
 -1      1365 3.32765E+09 4.29168E+06 1.59744E+08-4.97269E-04-3.65123E-04-1.72639E+09
 -1      1367 3.32765E+09 4.29168E+06 1.59744E+08-4.97269E-04-3.65123E-04-1.72639E+09
 -1      1368 4.36784E+09-1.19837E+07-1.23340E+06-9.09479E-03 1.34087E-03 8.35017E+06
 -1      1370 4.36784E+09-1.19837E+07-1.23340E+06-9.09479E-03 1.34087E-03 8.35017E+06
 -1      1379 2.85956E+09 2.85417E+06 8.66506E+07-3.27874E-04-6.32620E-04-1.84742E+09
 -1      1381 2.85956E+09 2.85417E+06 8.66506E+07-3.27874E-04-6.32620E-04-1.84742E+09
 -1      1382 3.77549E+09-6.63277E+06-6.53908E+05 1.73852E-04 1.09988E-03 8.67188E+06
 -1      1384 3.77549E+09-6.63277E+06-6.53908E+05 1.73852E-04 1.09988E-03 8.67188E+06
 -1      1393 2.36811E+09 1.29396E+06 8.81509E+06-3.15545E-04-2.42014E-04-1.89474E+09
 -1      1395 2.36811E+09 1.29396E+06 8.81509E+06-3.15545E-04-2.42014E-04-1.89474E+09
 -1      1396 3.15412E+09-8.32584E+05 8.73619E+03 1.83010E-03 1.65257E-03 8.80522E+06
 -1      1398 3.15412E+09-8.32584E+05 8.73619E+03 1.83010E-03 1.65257E-03 8.80522E+06
 -1      1407 1.87147E+09-2.63275E+05-7.23714E+07-3.30397E-04-2.48763E-04-1.86427E+09
 -1      1409 1.87147E+09-2.63275E+05-7.23714E+07-3.30397E-04-2.48763E-04-1.86427E+09
 -1      1410 2.52716E+09 5.14140E+06 6.28797E+05-1.02359E-03 1.73986E-03 8.61225E+06
 -1      1412 2.52716E+09 5.14140E+06 6.28797E+05-1.02359E-03 1.73986E-03 8.61225E+06
 -1      1421 1.38864E+09-1.95963E+06-1.55989E+08-2.55366E-04-1.81811E-03-1.75349E+09
 -1      1423 1.38864E+09-1.95963E+06-1.55989E+08-2.55366E-04-1.81811E-03-1.75349E+09
 -1      1424 1.91936E+09 1.11565E+07 1.37399E+06 1.92867E-03 8.22317E-04 8.22056E+06
 -1      1426 1.91936E+09 1.11565E+07 1.37399E+06 1.92867E-03 8.22317E-04 8.22056E+06
 -1      1435 9.39107E+08-3.44569E+06-2.40152E+08-2.18166E-04-2.72361E-03-1.56046E+09
 -1      1437 9.39107E+08-3.44569E+06-2.40152E+08-2.18166E-04-2.72361E-03-1.56046E+09
 -1      1438 1.35620E+09 1.74418E+07 1.95591E+06 8.50065E-03 2.75042E-04 7.28748E+06
 -1      1440 1.35620E+09 1.74418E+07 1.95591E+06 8.50065E-03 2.75042E-04 7.28748E+06
 -1      1449 5.42719E+08-5.29750E+06-3.26288E+08-1.74099E-04-2.60300E-03-1.28794E+09
 -1      1451 5.42719E+08-5.29750E+06-3.26288E+08-1.74099E-04-2.60300E-03-1.28794E+09
 -1      1452 8.60826E+08 2.57198E+07 2.82680E+06 1.30062E-02 6.66656E-04 6.38293E+06
 -1      1454 8.60826E+08 2.57198E+07 2.82680E+06 1.30062E-02 6.66656E-04 6.38293E+06
 -1      1463 2.25254E+08-6.46627E+06-4.08218E+08-1.27917E-04-3.61702E-03-9.33391E+08
 -1      1465 2.25254E+08-6.46627E+06-4.08218E+08-1.27917E-04-3.61702E-03-9.33391E+08
 -1      1466 4.62286E+08 1.89521E+07 3.25708E+06 1.30402E-02 2.78264E-04 4.08722E+06
 -1      1468 4.62286E+08 1.89521E+07 3.25708E+06 1.30402E-02 2.78264E-04 4.08722E+06
 -1      1477 2.25821E+07-7.83739E+06-4.76179E+08-2.05128E-04-4.91918E-03-5.05139E+08
 -1      1479 2.25821E+07-7.83739E+06-4.76179E+08-2.05128E-04-4.91918E-03-5.05139E+08
 -1      1480 1.97111E+08 3.19655E+07 3.79757E+06 8.52587E-03-3.81105E-04 3.18654E+06
 -1      1482 1.97111E+08 3.19655E+07 3.79757E+06 8.52587E-03-3.81105E-04 3.18654E+06
 -1      1491 1.31434E+07 1.26471E+05 3.42285E+08-7.90228E-05 1.04130E-03-2.83336E+08
 -1      1493 1.31434E+07 1.26471E+05 3.42285E+08-7.90228E-05 1.04130E-03-2.83336E+08
 -1      1494 9.36102E-04 7.30772E-04-9.68845E-03-9.53587E-05 5.37204E-04-2.90413E+08
 -1      1496 9.36102E-04 7.30772E-04-9.68845E-03-9.53587E-05 5.37204E-04-2.90413E+08
 -1      1497-1.31434E+07-1.26471E+05-3.42285E+08-1.12886E-04-2.19067E-03-2.83336E+08
 -1      1499-1.31434E+07-1.26471E+05-3.42285E+08-1.12886E-04-2.19067E-03-2.83336E+08
 -1      1500-5.69240E+09-1.87276E+08 1.15960E+06-2.95616E+08-1.89639E+07 6.56628E+07
 -1      1502-5.69240E+09-1.87276E+08 1.15960E+06-2.95616E+08-1.89639E+07 6.56628E+07
 -1      1503-4.57459E+09 9.97602E+07-3.99733E+05-1.93440E+08-7.31546E+06-1.40680E+07
 -1      1505-4.57459E+09 9.97602E+07-3.99733E+05-1.93440E+08-7.31546E+06-1.40680E+07
 -1      1506-3.34655E+09-2.84895E+07 1.07500E+05-3.23864E+08-1.00772E+07 1.44112E+07
 -1      1508-3.34655E+09-2.84895E+07 1.07500E+05-3.23864E+08-1.00772E+07 1.44112E+07
 -1      1509-2.02605E+09 4.12194E+06 1.05711E+06-2.76764E+08-1.40626E+07 8.07116E+06
 -1      1511-2.02605E+09 4.12194E+06 1.05711E+06-2.76764E+08-1.40626E+07 8.07116E+06
 -1      1512-7.85773E+08-5.11152E+06 8.05490E+04-2.69283E+08-1.57643E+07 6.53263E+06
 -1      1514-7.85773E+08-5.11152E+06 8.05490E+04-2.69283E+08-1.57643E+07 6.53263E+06
 -1      1515 3.94497E+08-2.11376E+06 1.23313E+06-2.53859E+08-1.94625E+07 8.99486E+06
 -1      1517 3.94497E+08-2.11376E+06 1.23313E+06-2.53859E+08-1.94625E+07 8.99486E+06
 -1      1518 1.49888E+09-5.19587E+06 4.86680E+05-2.34614E+08-2.12241E+07 5.46918E+06
 -1      1520 1.49888E+09-5.19587E+06 4.86680E+05-2.34614E+08-2.12241E+07 5.46918E+06
 -1      1521 2.51015E+09-4.21085E+06 1.33696E+06-2.12673E+08-2.36718E+07 6.84341E+06
 -1      1523 2.51015E+09-4.21085E+06 1.33696E+06-2.12673E+08-2.36718E+07 6.84341E+06
 -1      1524 3.41591E+09-5.72815E+06 8.11389E+05-1.88268E+08-2.50625E+07 4.25572E+06
 -1      1526 3.41591E+09-5.72815E+06 8.11389E+05-1.88268E+08-2.50625E+07 4.25572E+06
 -1      1527 4.20472E+09-5.53689E+06 1.42295E+06-1.61537E+08-2.64163E+07 4.20196E+06
 -1      1529 4.20472E+09-5.53689E+06 1.42295E+06-1.61537E+08-2.64163E+07 4.20196E+06
 -1      1530 4.86693E+09-6.26369E+06 1.03387E+06-1.33169E+08-2.70555E+07 2.21396E+06
 -1      1532 4.86693E+09-6.26369E+06 1.03387E+06-1.33169E+08-2.70555E+07 2.21396E+06
 -1      1533 5.39552E+09-6.20190E+06 1.45154E+06-1.03547E+08-2.73590E+07 1.33617E+06
 -1      1535 5.39552E+09-6.20190E+06 1.45154E+06-1.03547E+08-2.73590E+07 1.33617E+06
 -1      1536 5.78584E+09-6.47006E+06 1.14040E+06-7.33402E+07-2.70444E+07-3.98697E+05
 -1      1538 5.78584E+09-6.47006E+06 1.14040E+06-7.33402E+07-2.70444E+07-3.98697E+05
 -1      1539 6.03621E+09-6.27702E+06 1.39877E+06-4.31109E+07-2.62883E+07-1.65205E+06
 -1      1541 6.03621E+09-6.27702E+06 1.39877E+06-4.31109E+07-2.62883E+07-1.65205E+06
 -1      1542 6.14774E+09-6.19054E+06 1.12313E+06-1.35393E+07-2.49543E+07-3.24108E+06
 -1      1544 6.14774E+09-6.19054E+06 1.12313E+06-1.35393E+07-2.49543E+07-3.24108E+06
 -1      1545 6.12469E+09-5.77568E+06 1.25152E+06 1.47473E+07-2.31748E+07-4.57716E+06
 -1      1547 6.12469E+09-5.77568E+06 1.25152E+06 1.47473E+07-2.31748E+07-4.57716E+06
 -1      1548 5.97424E+09-5.38136E+06 9.83121E+05 4.10842E+07-2.08777E+07-5.98601E+06
 -1      1550 5.97424E+09-5.38136E+06 9.83121E+05 4.10842E+07-2.08777E+07-5.98601E+06
 -1      1551 5.70659E+09-4.72359E+06 1.00761E+06 6.48557E+07-1.82095E+07-7.19287E+06
 -1      1553 5.70659E+09-4.72359E+06 1.00761E+06 6.48557E+07-1.82095E+07-7.19287E+06
 -1      1554 5.33473E+09-4.06924E+06 7.29997E+05 8.54593E+07-1.51332E+07-8.32493E+06
 -1      1556 5.33473E+09-4.06924E+06 7.29997E+05 8.54593E+07-1.51332E+07-8.32493E+06
 -1      1557 4.87433E+09-3.17811E+06 6.75379E+05 1.02348E+08-1.18371E+07-9.23039E+06
 -1      1559 4.87433E+09-3.17811E+06 6.75379E+05 1.02348E+08-1.18371E+07-9.23039E+06
 -1      1560 4.34344E+09-2.33729E+06 3.81075E+05 1.15032E+08-8.30826E+06-9.96760E+06
 -1      1562 4.34344E+09-2.33729E+06 3.81075E+05 1.15032E+08-8.30826E+06-9.96760E+06
 -1      1563 3.76226E+09-1.22045E+06 2.71971E+05 1.23069E+08-4.79068E+06-1.04219E+07
 -1      1565 3.76226E+09-1.22045E+06 2.71971E+05 1.23069E+08-4.79068E+06-1.04219E+07
 -1      1566 3.15269E+09-3.30709E+05-3.96560E+04 1.26150E+08-1.30594E+06-1.06357E+07
 -1      1568 3.15269E+09-3.30709E+05-3.96560E+04 1.26150E+08-1.30594E+06-1.06357E+07
 -1      1569 2.53822E+09 1.09057E+06-1.79974E+05 1.23891E+08 1.86151E+06-1.05162E+07
 -1      1571 2.53822E+09 1.09057E+06-1.79974E+05 1.23891E+08 1.86151E+06-1.05162E+07
 -1      1572 1.94304E+09 1.70015E+06-5.02682E+05 1.16318E+08 4.58978E+06-1.00204E+07
 -1      1574 1.94304E+09 1.70015E+06-5.02682E+05 1.16318E+08 4.58978E+06-1.00204E+07
 -1      1575 1.39203E+09 3.58724E+06-6.50808E+05 1.03426E+08 6.65349E+06-9.33551E+06
 -1      1577 1.39203E+09 3.58724E+06-6.50808E+05 1.03426E+08 6.65349E+06-9.33551E+06
 -1      1578 9.12296E+08 4.52835E+06-9.94868E+05 8.27309E+07 7.68592E+06-7.58229E+06
 -1      1580 9.12296E+08 4.52835E+06-9.94868E+05 8.27309E+07 7.68592E+06-7.58229E+06
 -1      1581 5.21671E+08 2.65123E+06-1.08159E+06 6.47416E+07 7.83794E+06-7.17215E+06
 -1      1583 5.21671E+08 2.65123E+06-1.08159E+06 6.47416E+07 7.83794E+06-7.17215E+06
 -1      1584 2.20975E+08 6.33225E+06-1.34727E+06 4.34879E+07 6.90383E+06-1.66310E+06
 -1      1586 2.20975E+08 6.33225E+06-1.34727E+06 4.34879E+07 6.90383E+06-1.66310E+06
 -1      1587 9.74031E+07 3.36756E+07 1.53955E+06 5.66956E+07 6.95467E+07 4.62175E+06
 -1      1589 9.74031E+07 3.36756E+07 1.53955E+06 5.66956E+07 6.95467E+07 4.62175E+06
 -1      1590-6.56527E+09-7.58788E+08-3.43139E+05-6.44206E+08 4.46259E+07 2.22014E+08
 -1      1592-6.56527E+09-7.58788E+08-3.43139E+05-6.44206E+08 4.46259E+07 2.22014E+08
 -1      1593 9.74031E+07 3.36756E+07 1.53955E+06-5.66956E+07-6.95467E+07 4.62175E+06
 -1      1595 9.74031E+07 3.36756E+07 1.53955E+06-5.66956E+07-6.95467E+07 4.62175E+06
 -1      1596-5.69240E+09-1.87276E+08 1.15960E+06 2.95616E+08 1.89639E+07 6.56628E+07
 -1      1598-5.69240E+09-1.87276E+08 1.15960E+06 2.95616E+08 1.89639E+07 6.56628E+07
 -1      1599-4.57459E+09 9.97602E+07-3.99733E+05 1.93440E+08 7.31546E+06-1.40680E+07
 -1      1601-4.57459E+09 9.97602E+07-3.99733E+05 1.93440E+08 7.31546E+06-1.40680E+07
 -1      1602-3.34655E+09-2.84895E+07 1.07500E+05 3.23864E+08 1.00772E+07 1.44112E+07
 -1      1604-3.34655E+09-2.84895E+07 1.07500E+05 3.23864E+08 1.00772E+07 1.44112E+07
 -1      1605-2.02605E+09 4.12194E+06 1.05711E+06 2.76764E+08 1.40626E+07 8.07116E+06
 -1      1607-2.02605E+09 4.12194E+06 1.05711E+06 2.76764E+08 1.40626E+07 8.07116E+06
 -1      1608-7.85773E+08-5.11152E+06 8.05490E+04 2.69283E+08 1.57643E+07 6.53263E+06
 -1      1610-7.85773E+08-5.11152E+06 8.05490E+04 2.69283E+08 1.57643E+07 6.53263E+06
 -1      1611 3.94497E+08-2.11376E+06 1.23313E+06 2.53859E+08 1.94625E+07 8.99486E+06
 -1      1613 3.94497E+08-2.11376E+06 1.23313E+06 2.53859E+08 1.94625E+07 8.99486E+06
 -1      1614 1.49888E+09-5.19587E+06 4.86680E+05 2.34614E+08 2.12241E+07 5.46918E+06
 -1      1616 1.49888E+09-5.19587E+06 4.86680E+05 2.34614E+08 2.12241E+07 5.46918E+06
 -1      1617 2.51015E+09-4.21085E+06 1.33696E+06 2.12673E+08 2.36718E+07 6.84341E+06
 -1      1619 2.51015E+09-4.21085E+06 1.33696E+06 2.12673E+08 2.36718E+07 6.84341E+06
 -1      1620 3.41591E+09-5.72815E+06 8.11389E+05 1.88268E+08 2.50625E+07 4.25572E+06
 -1      1622 3.41591E+09-5.72815E+06 8.11389E+05 1.88268E+08 2.50625E+07 4.25572E+06
 -1      1623 4.20472E+09-5.53689E+06 1.42295E+06 1.61537E+08 2.64163E+07 4.20196E+06
 -1      1625 4.20472E+09-5.53689E+06 1.42295E+06 1.61537E+08 2.64163E+07 4.20196E+06
 -1      1626 4.86693E+09-6.26369E+06 1.03387E+06 1.33169E+08 2.70555E+07 2.21396E+06
 -1      1628 4.86693E+09-6.26369E+06 1.03387E+06 1.33169E+08 2.70555E+07 2.21396E+06
 -1      1629 5.39552E+09-6.20190E+06 1.45154E+06 1.03547E+08 2.73590E+07 1.33617E+06
 -1      1631 5.39552E+09-6.20190E+06 1.45154E+06 1.03547E+08 2.73590E+07 1.33617E+06
 -1      1632 5.78584E+09-6.47006E+06 1.14040E+06 7.33402E+07 2.70444E+07-3.98697E+05
 -1      1634 5.78584E+09-6.47006E+06 1.14040E+06 7.33402E+07 2.70444E+07-3.98697E+05
 -1      1635 6.03621E+09-6.27702E+06 1.39877E+06 4.31109E+07 2.62883E+07-1.65205E+06
 -1      1637 6.03621E+09-6.27702E+06 1.39877E+06 4.31109E+07 2.62883E+07-1.65205E+06
 -1      1638 6.14774E+09-6.19054E+06 1.12313E+06 1.35393E+07 2.49543E+07-3.24108E+06
 -1      1640 6.14774E+09-6.19054E+06 1.12313E+06 1.35393E+07 2.49543E+07-3.24108E+06
 -1      1641 6.12469E+09-5.77568E+06 1.25152E+06-1.47473E+07 2.31748E+07-4.57716E+06
 -1      1643 6.12469E+09-5.77568E+06 1.25152E+06-1.47473E+07 2.31748E+07-4.57716E+06
 -1      1644 5.97424E+09-5.38136E+06 9.83121E+05-4.10842E+07 2.08777E+07-5.98601E+06
 -1      1646 5.97424E+09-5.38136E+06 9.83121E+05-4.10842E+07 2.08777E+07-5.98601E+06
 -1      1647 5.70659E+09-4.72359E+06 1.00761E+06-6.48557E+07 1.82095E+07-7.19287E+06
 -1      1649 5.70659E+09-4.72359E+06 1.00761E+06-6.48557E+07 1.82095E+07-7.19287E+06
 -1      1650 5.33473E+09-4.06924E+06 7.29997E+05-8.54593E+07 1.51332E+07-8.32493E+06
 -1      1652 5.33473E+09-4.06924E+06 7.29997E+05-8.54593E+07 1.51332E+07-8.32493E+06
 -1      1653 4.87433E+09-3.17811E+06 6.75379E+05-1.02348E+08 1.18371E+07-9.23039E+06
 -1      1655 4.87433E+09-3.17811E+06 6.75379E+05-1.02348E+08 1.18371E+07-9.23039E+06
 -1      1656 4.34344E+09-2.33729E+06 3.81075E+05-1.15032E+08 8.30826E+06-9.96760E+06
 -1      1658 4.34344E+09-2.33729E+06 3.81075E+05-1.15032E+08 8.30826E+06-9.96760E+06
 -1      1659 3.76226E+09-1.22045E+06 2.71971E+05-1.23069E+08 4.79068E+06-1.04219E+07
 -1      1661 3.76226E+09-1.22045E+06 2.71971E+05-1.23069E+08 4.79068E+06-1.04219E+07
 -1      1662 3.15269E+09-3.30709E+05-3.96560E+04-1.26150E+08 1.30594E+06-1.06357E+07
 -1      1664 3.15269E+09-3.30709E+05-3.96560E+04-1.26150E+08 1.30594E+06-1.06357E+07
 -1      1665 2.53822E+09 1.09057E+06-1.79974E+05-1.23891E+08-1.86151E+06-1.05162E+07
 -1      1667 2.53822E+09 1.09057E+06-1.79974E+05-1.23891E+08-1.86151E+06-1.05162E+07
 -1      1668 1.94304E+09 1.70015E+06-5.02682E+05-1.16318E+08-4.58978E+06-1.00204E+07
 -1      1670 1.94304E+09 1.70015E+06-5.02682E+05-1.16318E+08-4.58978E+06-1.00204E+07
 -1      1671 1.39203E+09 3.58724E+06-6.50808E+05-1.03426E+08-6.65349E+06-9.33551E+06
 -1      1673 1.39203E+09 3.58724E+06-6.50808E+05-1.03426E+08-6.65349E+06-9.33551E+06
 -1      1674 9.12296E+08 4.52835E+06-9.94868E+05-8.27309E+07-7.68592E+06-7.58229E+06
 -1      1676 9.12296E+08 4.52835E+06-9.94868E+05-8.27309E+07-7.68592E+06-7.58229E+06
 -1      1677 5.21671E+08 2.65123E+06-1.08159E+06-6.47416E+07-7.83794E+06-7.17215E+06
 -1      1679 5.21671E+08 2.65123E+06-1.08159E+06-6.47416E+07-7.83794E+06-7.17215E+06
 -1      1680 2.20975E+08 6.33225E+06-1.34727E+06-4.34879E+07-6.90383E+06-1.66310E+06
 -1      1682 2.20975E+08 6.33225E+06-1.34727E+06-4.34879E+07-6.90383E+06-1.66310E+06
 -1      1683-6.56527E+09-7.58788E+08-3.43139E+05 6.44206E+08-4.46259E+07 2.22014E+08
 -1      1685-6.56527E+09-7.58788E+08-3.43139E+05 6.44206E+08-4.46259E+07 2.22014E+08
 -1      1686 5.92423E+09 2.30879E+08-2.17965E+06-5.38331E+08-1.94222E+07 5.77257E+07
 -1      1688 5.92423E+09 2.30879E+08-2.17965E+06-5.38331E+08-1.94222E+07 5.77257E+07
 -1      1689 4.62042E+09-1.31056E+08 1.40874E+05-5.19887E+08 1.73099E+07-2.79010E+07
 -1      1691 4.62042E+09-1.31056E+08 1.40874E+05-5.19887E+08 1.73099E+07-2.79010E+07
 -1      1692 3.31056E+09 2.50434E+07 7.70169E+05-5.97496E+08 2.26918E+07 1.40746E+07
 -1      1694 3.31056E+09 2.50434E+07 7.70169E+05-5.97496E+08 2.26918E+07 1.40746E+07
 -1      1695 2.02009E+09 9.60410E+06 2.10650E+05-5.66887E+08 3.03451E+07-4.76169E+06
 -1      1697 2.02009E+09 9.60410E+06 2.10650E+05-5.66887E+08 3.03451E+07-4.76169E+06
 -1      1698 7.69045E+08 6.89987E+06 7.91875E+05-5.37214E+08 4.15558E+07 3.99043E+06
 -1      1700 7.69045E+08 6.89987E+06 7.91875E+05-5.37214E+08 4.15558E+07 3.99043E+06
 -1      1701-4.14646E+08 1.19095E+07 5.47179E+05-5.09034E+08 4.75009E+07-2.72996E+05
 -1      1703-4.14646E+08 1.19095E+07 5.47179E+05-5.09034E+08 4.75009E+07-2.72996E+05
 -1      1704-1.52252E+09 1.36382E+07 1.00280E+06-4.69737E+08 5.68141E+07 1.76357E+06
 -1      1706-1.52252E+09 1.36382E+07 1.00280E+06-4.69737E+08 5.68141E+07 1.76357E+06
 -1      1707-2.53689E+09 1.52289E+07 7.95042E+05-4.26185E+08 6.25775E+07 5.45900E+05
 -1      1709-2.53689E+09 1.52289E+07 7.95042E+05-4.26185E+08 6.25775E+07 5.45900E+05
 -1      1710-3.44557E+09 1.71466E+07 1.17111E+06-3.77009E+08 6.91950E+07 1.06097E+06
 -1      1712-3.44557E+09 1.71466E+07 1.17111E+06-3.77009E+08 6.91950E+07 1.06097E+06
 -1      1713-4.23660E+09 1.82974E+07 9.97732E+05-3.23583E+08 7.35036E+07 5.62100E+05
 -1      1715-4.23660E+09 1.82974E+07 9.97732E+05-3.23583E+08 7.35036E+07 5.62100E+05
 -1      1716-4.90058E+09 1.94451E+07 1.27216E+06-2.66611E+08 7.71959E+07 6.47559E+05
 -1      1718-4.90058E+09 1.94451E+07 1.27216E+06-2.66611E+08 7.71959E+07 6.47559E+05
 -1      1719-5.43022E+09 1.99880E+07 1.11726E+06-2.07269E+08 7.90126E+07 3.54712E+05
 -1      1721-5.43022E+09 1.99880E+07 1.11726E+06-2.07269E+08 7.90126E+07 3.54712E+05
 -1      1722-5.82095E+09 2.02958E+07 1.29166E+06-1.46652E+08 7.95142E+07 2.89987E+05
 -1      1724-5.82095E+09 2.02958E+07 1.29166E+06-1.46652E+08 7.95142E+07 2.89987E+05
 -1      1725-6.07094E+09 2.00498E+07 1.13494E+06-8.60439E+07 7.82549E+07 7.17569E+04
 -1      1727-6.07094E+09 2.00498E+07 1.13494E+06-8.60439E+07 7.82549E+07 7.17569E+04
 -1      1728-6.18138E+09 1.94706E+07 1.21678E+06-2.67092E+07 7.54090E+07-4.73645E+04
 -1      1730-6.18138E+09 1.94706E+07 1.21678E+06-2.67092E+07 7.54090E+07-4.73645E+04
 -1      1731-6.15646E+09 1.83711E+07 1.04407E+06 3.00286E+07 7.08877E+07-2.26300E+05
 -1      1733-6.15646E+09 1.83711E+07 1.04407E+06 3.00286E+07 7.08877E+07-2.26300E+05
 -1      1734-6.00342E+09 1.69139E+07 1.04304E+06 8.28790E+07 6.47693E+07-3.55758E+05
 -1      1736-6.00342E+09 1.69139E+07 1.04304E+06 8.28790E+07 6.47693E+07-3.55758E+05
 -1      1737-5.73245E+09 1.49861E+07 8.47466E+05 1.30579E+08 5.71553E+07-5.01174E+05
 -1      1739-5.73245E+09 1.49861E+07 8.47466E+05 1.30579E+08 5.71553E+07-5.01174E+05
 -1      1740-5.35662E+09 1.27290E+07 7.75167E+05 1.71936E+08 4.81210E+07-6.16069E+05
 -1      1742-5.35662E+09 1.27290E+07 7.75167E+05 1.71936E+08 4.81210E+07-6.16069E+05
 -1      1743-4.89164E+09 1.00721E+07 5.56713E+05 2.05852E+08 3.79099E+07-7.24077E+05
 -1      1745-4.89164E+09 1.00721E+07 5.56713E+05 2.05852E+08 3.79099E+07-7.24077E+05
 -1      1746-4.35564E+09 7.16051E+06 4.26164E+05 2.31325E+08 2.65984E+07-8.08717E+05
 -1      1748-4.35564E+09 7.16051E+06 4.26164E+05 2.31325E+08 2.65984E+07-8.08717E+05
 -1      1749-3.76887E+09 3.92661E+06 1.90968E+05 2.47521E+08 1.45849E+07-8.75031E+05
 -1      1751-3.76887E+09 3.92661E+06 1.90968E+05 2.47521E+08 1.45849E+07-8.75031E+05
 -1      1752-3.15341E+09 5.81646E+05 1.54599E+04 2.53708E+08 1.89052E+06-9.15228E+05
 -1      1754-3.15341E+09 5.81646E+05 1.54599E+04 2.53708E+08 1.89052E+06-9.15228E+05
 -1      1755-2.53269E+09-3.11598E+06-2.24411E+05 2.49327E+08-1.08578E+07-9.51962E+05
 -1      1757-2.53269E+09-3.11598E+06-2.24411E+05 2.49327E+08-1.08578E+07-9.51962E+05
 -1      1758-1.93120E+09-6.42832E+06-4.35654E+05 2.34164E+08-2.38121E+07-8.99939E+05
 -1      1760-1.93120E+09-6.42832E+06-4.35654E+05 2.34164E+08-2.38121E+07-8.99939E+05
 -1      1761-1.37411E+09-1.05145E+07-6.52553E+05 2.07848E+08-3.59770E+07-1.02401E+06
 -1      1763-1.37411E+09-1.05145E+07-6.52553E+05 2.07848E+08-3.59770E+07-1.02401E+06
 -1      1764-8.86561E+08-1.51240E+07-9.15964E+05 1.69260E+08-4.77472E+07-5.99680E+05
 -1      1766-8.86561E+08-1.51240E+07-9.15964E+05 1.69260E+08-4.77472E+07-5.99680E+05
 -1      1767-4.91979E+08-1.08017E+07-1.08774E+06 1.25976E+08-5.77760E+07-1.54247E+06
 -1      1769-4.91979E+08-1.08017E+07-1.08774E+06 1.25976E+08-5.77760E+07-1.54247E+06
 -1      1770-2.09043E+08-1.91489E+07-1.22515E+06 8.09747E+07-6.54284E+07 7.61718E+05
 -1      1772-2.09043E+08-1.91489E+07-1.22515E+06 8.09747E+07-6.54284E+07 7.61718E+05
 -1      1773 5.92423E+09 2.30879E+08-2.17965E+06 5.38331E+08 1.94222E+07 5.77257E+07
 -1      1775 5.92423E+09 2.30879E+08-2.17965E+06 5.38331E+08 1.94222E+07 5.77257E+07
 -1      1776 4.62042E+09-1.31056E+08 1.40874E+05 5.19887E+08-1.73099E+07-2.79010E+07
 -1      1778 4.62042E+09-1.31056E+08 1.40874E+05 5.19887E+08-1.73099E+07-2.79010E+07
 -1      1779 3.31056E+09 2.50434E+07 7.70169E+05 5.97496E+08-2.26918E+07 1.40746E+07
 -1      1781 3.31056E+09 2.50434E+07 7.70169E+05 5.97496E+08-2.26918E+07 1.40746E+07
 -1      1782 2.02009E+09 9.60410E+06 2.10650E+05 5.66887E+08-3.03451E+07-4.76169E+06
 -1      1784 2.02009E+09 9.60410E+06 2.10650E+05 5.66887E+08-3.03451E+07-4.76169E+06
 -1      1785 7.69045E+08 6.89987E+06 7.91875E+05 5.37214E+08-4.15558E+07 3.99043E+06
 -1      1787 7.69045E+08 6.89987E+06 7.91875E+05 5.37214E+08-4.15558E+07 3.99043E+06
 -1      1788-4.14646E+08 1.19095E+07 5.47179E+05 5.09034E+08-4.75009E+07-2.72996E+05
 -1      1790-4.14646E+08 1.19095E+07 5.47179E+05 5.09034E+08-4.75009E+07-2.72996E+05
 -1      1791-1.52252E+09 1.36382E+07 1.00280E+06 4.69737E+08-5.68141E+07 1.76357E+06
 -1      1793-1.52252E+09 1.36382E+07 1.00280E+06 4.69737E+08-5.68141E+07 1.76357E+06
 -1      1794-2.53689E+09 1.52289E+07 7.95042E+05 4.26185E+08-6.25775E+07 5.45900E+05
 -1      1796-2.53689E+09 1.52289E+07 7.95042E+05 4.26185E+08-6.25775E+07 5.45900E+05
 -1      1797-3.44557E+09 1.71466E+07 1.17111E+06 3.77009E+08-6.91950E+07 1.06097E+06
 -1      1799-3.44557E+09 1.71466E+07 1.17111E+06 3.77009E+08-6.91950E+07 1.06097E+06
 -1      1800-4.23660E+09 1.82974E+07 9.97732E+05 3.23583E+08-7.35036E+07 5.62100E+05
 -1      1802-4.23660E+09 1.82974E+07 9.97732E+05 3.23583E+08-7.35036E+07 5.62100E+05
 -1      1803-4.90058E+09 1.94451E+07 1.27216E+06 2.66611E+08-7.71959E+07 6.47559E+05
 -1      1805-4.90058E+09 1.94451E+07 1.27216E+06 2.66611E+08-7.71959E+07 6.47559E+05
 -1      1806-5.43022E+09 1.99880E+07 1.11726E+06 2.07269E+08-7.90126E+07 3.54712E+05
 -1      1808-5.43022E+09 1.99880E+07 1.11726E+06 2.07269E+08-7.90126E+07 3.54712E+05
 -1      1809-5.82095E+09 2.02958E+07 1.29166E+06 1.46652E+08-7.95142E+07 2.89987E+05
 -1      1811-5.82095E+09 2.02958E+07 1.29166E+06 1.46652E+08-7.95142E+07 2.89987E+05
 -1      1812-6.07094E+09 2.00498E+07 1.13494E+06 8.60439E+07-7.82549E+07 7.17569E+04
 -1      1814-6.07094E+09 2.00498E+07 1.13494E+06 8.60439E+07-7.82549E+07 7.17569E+04
 -1      1815-6.18138E+09 1.94706E+07 1.21678E+06 2.67092E+07-7.54090E+07-4.73645E+04
 -1      1817-6.18138E+09 1.94706E+07 1.21678E+06 2.67092E+07-7.54090E+07-4.73645E+04
 -1      1818-6.15646E+09 1.83711E+07 1.04407E+06-3.00286E+07-7.08877E+07-2.26300E+05
 -1      1820-6.15646E+09 1.83711E+07 1.04407E+06-3.00286E+07-7.08877E+07-2.26300E+05
 -1      1821-6.00342E+09 1.69139E+07 1.04304E+06-8.28790E+07-6.47693E+07-3.55758E+05
 -1      1823-6.00342E+09 1.69139E+07 1.04304E+06-8.28790E+07-6.47693E+07-3.55758E+05
 -1      1824-5.73245E+09 1.49861E+07 8.47466E+05-1.30579E+08-5.71553E+07-5.01174E+05
 -1      1826-5.73245E+09 1.49861E+07 8.47466E+05-1.30579E+08-5.71553E+07-5.01174E+05
 -1      1827-5.35662E+09 1.27290E+07 7.75167E+05-1.71936E+08-4.81210E+07-6.16069E+05
 -1      1829-5.35662E+09 1.27290E+07 7.75167E+05-1.71936E+08-4.81210E+07-6.16069E+05
 -1      1830-4.89164E+09 1.00721E+07 5.56713E+05-2.05852E+08-3.79099E+07-7.24077E+05
 -1      1832-4.89164E+09 1.00721E+07 5.56713E+05-2.05852E+08-3.79099E+07-7.24077E+05
 -1      1833-4.35564E+09 7.16051E+06 4.26164E+05-2.31325E+08-2.65984E+07-8.08717E+05
 -1      1835-4.35564E+09 7.16051E+06 4.26164E+05-2.31325E+08-2.65984E+07-8.08717E+05
 -1      1836-3.76887E+09 3.92661E+06 1.90968E+05-2.47521E+08-1.45849E+07-8.75031E+05
 -1      1838-3.76887E+09 3.92661E+06 1.90968E+05-2.47521E+08-1.45849E+07-8.75031E+05
 -1      1839-3.15341E+09 5.81646E+05 1.54599E+04-2.53708E+08-1.89052E+06-9.15228E+05
 -1      1841-3.15341E+09 5.81646E+05 1.54599E+04-2.53708E+08-1.89052E+06-9.15228E+05
 -1      1842-2.53269E+09-3.11598E+06-2.24411E+05-2.49327E+08 1.08578E+07-9.51962E+05
 -1      1844-2.53269E+09-3.11598E+06-2.24411E+05-2.49327E+08 1.08578E+07-9.51962E+05
 -1      1845-1.93120E+09-6.42832E+06-4.35654E+05-2.34164E+08 2.38121E+07-8.99939E+05
 -1      1847-1.93120E+09-6.42832E+06-4.35654E+05-2.34164E+08 2.38121E+07-8.99939E+05
 -1      1848-1.37411E+09-1.05145E+07-6.52553E+05-2.07848E+08 3.59770E+07-1.02401E+06
 -1      1850-1.37411E+09-1.05145E+07-6.52553E+05-2.07848E+08 3.59770E+07-1.02401E+06
 -1      1851-8.86561E+08-1.51240E+07-9.15964E+05-1.69260E+08 4.77472E+07-5.99680E+05
 -1      1853-8.86561E+08-1.51240E+07-9.15964E+05-1.69260E+08 4.77472E+07-5.99680E+05
 -1      1854-4.91979E+08-1.08017E+07-1.08774E+06-1.25976E+08 5.77760E+07-1.54247E+06
 -1      1856-4.91979E+08-1.08017E+07-1.08774E+06-1.25976E+08 5.77760E+07-1.54247E+06
 -1      1857-2.09043E+08-1.91489E+07-1.22515E+06-8.09747E+07 6.54284E+07 7.61718E+05
 -1      1859-2.09043E+08-1.91489E+07-1.22515E+06-8.09747E+07 6.54284E+07 7.61718E+05
 -1      1860 3.07065E+09 1.95157E+04 4.84100E+08 7.95878E-04-4.40923E-05 4.71120E+09
 -1      1862 3.07065E+09 1.95157E+04 4.84100E+08 7.95878E-04-4.40923E-05 4.71120E+09
 -1      1863 2.37488E+09 1.15867E+05 9.26856E+06-4.66660E-04-7.99854E-05 4.77489E+09
 -1      1865 2.37488E+09 1.15867E+05 9.26856E+06-4.66660E-04-7.99854E-05 4.77489E+09
 -1      1866 1.65034E+09-7.18869E+04-1.07668E+08 1.10750E-04-6.38724E-05 4.61318E+09
 -1      1868 1.65034E+09-7.18869E+04-1.07668E+08 1.10750E-04-6.38724E-05 4.61318E+09
 -1      1869 9.73810E+08-1.61869E+04-1.15601E+08-3.16423E-06 9.54557E-05 4.48867E+09
 -1      1871 9.73810E+08-1.61869E+04-1.15601E+08-3.16423E-06 9.54557E-05 4.48867E+09
 -1      1872 3.38903E+08-1.75739E+04-1.51978E+08 1.03393E-04 2.16327E-04 4.27456E+09
 -1      1874 3.38903E+08-1.75739E+04-1.51978E+08 1.03393E-04 2.16327E-04 4.27456E+09
 -1      1875-2.68135E+08-6.45130E+04-1.80089E+08-8.04344E-05 2.90887E-04 4.02791E+09
 -1      1877-2.68135E+08-6.45130E+04-1.80089E+08-8.04344E-05 2.90887E-04 4.02791E+09
 -1      1878-8.31536E+08-4.18538E+04-2.12413E+08 1.19507E-04 5.17187E-04 3.72298E+09
 -1      1880-8.31536E+08-4.18538E+04-2.12413E+08 1.19507E-04 5.17187E-04 3.72298E+09
 -1      1881-1.34847E+09-7.93561E+04-2.39872E+08 1.80663E-05 7.83417E-04 3.37642E+09
 -1      1883-1.34847E+09-7.93561E+04-2.39872E+08 1.80663E-05 7.83417E-04 3.37642E+09
 -1      1884-1.81081E+09-7.11166E+04-2.65097E+08-2.99630E-05 9.76989E-04 2.98594E+09
 -1      1886-1.81081E+09-7.11166E+04-2.65097E+08-2.99630E-05 9.76989E-04 2.98594E+09
 -1      1887-2.21308E+09-8.91991E+04-2.85282E+08 3.48122E-05 1.24308E-03 2.56159E+09
 -1      1889-2.21308E+09-8.91991E+04-2.85282E+08 3.48122E-05 1.24308E-03 2.56159E+09
 -1      1890-2.55000E+09-9.12252E+04-3.00677E+08-1.28356E-05 1.20674E-03 2.10849E+09
 -1      1892-2.55000E+09-9.12252E+04-3.00677E+08-1.28356E-05 1.20674E-03 2.10849E+09
 -1      1893-2.81791E+09-9.57594E+04-3.10114E+08 1.82790E-04 9.52303E-04 1.63646E+09
 -1      1895-2.81791E+09-9.57594E+04-3.10114E+08 1.82790E-04 9.52303E-04 1.63646E+09
 -1      1896-3.01428E+09-1.00428E+05-3.13450E+08 1.65297E-05 7.46342E-04 1.15393E+09
 -1      1898-3.01428E+09-1.00428E+05-3.13450E+08 1.65297E-05 7.46342E-04 1.15393E+09
 -1      1899-3.13813E+09-9.68232E+04-3.10161E+08-1.48661E-04 5.18173E-04 6.71344E+08
 -1      1901-3.13813E+09-9.68232E+04-3.10161E+08-1.48661E-04 5.18173E-04 6.71344E+08
 -1      1902-3.18998E+09-9.90765E+04-3.00209E+08-9.28942E-05 3.50811E-04 1.98630E+08
 -1      1904-3.18998E+09-9.90765E+04-3.00209E+08-9.28942E-05 3.50811E-04 1.98630E+08
 -1      1905-3.17193E+09-9.08057E+04-2.83489E+08-1.45926E-04 4.85670E-04-2.53554E+08
 -1      1907-3.17193E+09-9.08057E+04-2.83489E+08-1.45926E-04 4.85670E-04-2.53554E+08
 -1      1908-3.08762E+09-8.79434E+04-2.60193E+08-1.06974E-04 7.08025E-04-6.75013E+08
 -1      1910-3.08762E+09-8.79434E+04-2.60193E+08-1.06974E-04 7.08025E-04-6.75013E+08
 -1      1911-2.94226E+09-7.73462E+04-2.30559E+08 7.14518E-05 7.69832E-04-1.05562E+09
 -1      1913-2.94226E+09-7.73462E+04-2.30559E+08 7.14518E-05 7.69832E-04-1.05562E+09
 -1      1914-2.74251E+09-6.81401E+04-1.95024E+08 4.23530E-05 7.43895E-04-1.38595E+09
 -1      1916-2.74251E+09-6.81401E+04-1.95024E+08 4.23530E-05 7.43895E-04-1.38595E+09
 -1      1917-2.49641E+09-5.71618E+04-1.54109E+08-6.25932E-05 7.02004E-04-1.65717E+09
 -1      1919-2.49641E+09-5.71618E+04-1.54109E+08-6.25932E-05 7.02004E-04-1.65717E+09
 -1      1920-2.21322E+09-4.12415E+04-1.08462E+08-3.02941E-05 6.42033E-04-1.86145E+09
 -1      1922-2.21322E+09-4.12415E+04-1.08462E+08-3.02941E-05 6.42033E-04-1.86145E+09
 -1      1923-1.90333E+09-3.16980E+04-5.88240E+07 4.90214E-05 4.52974E-04-1.99196E+09
 -1      1925-1.90333E+09-3.16980E+04-5.88240E+07 4.90214E-05 4.52974E-04-1.99196E+09
 -1      1926-1.57803E+09-9.47753E+03-5.97277E+06 8.85571E-05 3.24691E-04-2.04308E+09
 -1      1928-1.57803E+09-9.47753E+03-5.97277E+06 8.85571E-05 3.24691E-04-2.04308E+09
 -1      1929-1.24935E+09-2.54756E+03 4.91881E+07-8.01513E-05 2.94239E-04-2.01042E+09
 -1      1931-1.24935E+09-2.54756E+03 4.91881E+07-8.01513E-05 2.94239E-04-2.01042E+09
 -1      1932-9.30010E+08 2.38670E+04 1.05970E+08 6.08495E-05 3.50692E-04-1.89107E+09
 -1      1934-9.30010E+08 2.38670E+04 1.05970E+08 6.08495E-05 3.50692E-04-1.89107E+09
 -1      1935-6.32927E+08 2.95211E+04 1.63414E+08 1.05225E-04 3.61068E-04-1.68299E+09
 -1      1937-6.32927E+08 2.95211E+04 1.63414E+08 1.05225E-04 3.61068E-04-1.68299E+09
 -1      1938-3.72129E+08 5.35448E+04 2.22136E+08-3.30968E-05 2.08773E-04-1.38687E+09
 -1      1940-3.72129E+08 5.35448E+04 2.22136E+08-3.30968E-05 2.08773E-04-1.38687E+09
 -1      1941-1.64449E+08 7.09212E+04 2.78019E+08 1.55738E-05 2.03948E-04-1.00098E+09
 -1      1943-1.64449E+08 7.09212E+04 2.78019E+08 1.55738E-05 2.03948E-04-1.00098E+09
 -1      1944-3.15467E+07 5.74402E+04 3.23067E+08 4.25260E-05 6.81007E-04-5.34041E+08
 -1      1946-3.15467E+07 5.74402E+04 3.23067E+08 4.25260E-05 6.81007E-04-5.34041E+08
 -1      1947 3.93081E-03 1.13308E-04-6.41026E-03 1.48189E-03-1.29957E-04 4.88070E+09
 -1      1949 3.93081E-03 1.13308E-04-6.41026E-03 1.48189E-03-1.29957E-04 4.88070E+09
 -1      1950 5.12612E-03 7.09817E-05-6.60103E-03-4.44414E-04-2.08560E-04 5.10847E+09
 -1      1952 5.12612E-03 7.09817E-05-6.60103E-03-4.44414E-04-2.08560E-04 5.10847E+09
 -1      1953 4.46683E-03-1.06394E-04 5.97402E-04 5.19221E-04-2.13774E-04 4.98005E+09
 -1      1955 4.46683E-03-1.06394E-04 5.97402E-04 5.19221E-04-2.13774E-04 4.98005E+09
 -1      1956 3.56296E-03-1.38719E-04 8.57686E-03 3.60635E-04-1.91881E-04 4.80722E+09
 -1      1958 3.56296E-03-1.38719E-04 8.57686E-03 3.60635E-04-1.91881E-04 4.80722E+09
 -1      1959 2.01807E-03-2.93326E-04 1.02768E-02 5.50867E-04-1.57766E-04 4.58365E+09
 -1      1961 2.01807E-03-2.93326E-04 1.02768E-02 5.50867E-04-1.57766E-04 4.58365E+09
 -1      1962 1.79980E-03-5.04140E-04 4.70920E-03 3.03446E-04-8.99521E-05 4.31350E+09
 -1      1964 1.79980E-03-5.04140E-04 4.70920E-03 3.03446E-04-8.99521E-05 4.31350E+09
 -1      1965 3.47883E-03-1.66390E-04-3.53951E-03 6.52447E-04-7.14552E-06 3.98890E+09
 -1      1967 3.47883E-03-1.66390E-04-3.53951E-03 6.52447E-04-7.14552E-06 3.98890E+09
 -1      1968 3.44238E-03-2.69711E-05-6.63861E-03 3.59212E-04-7.45397E-05 3.61627E+09
 -1      1970 3.44238E-03-2.69711E-05-6.63861E-03 3.59212E-04-7.45397E-05 3.61627E+09
 -1      1971 6.77079E-04-6.29760E-04-2.52710E-03 3.24646E-04-2.57478E-04 3.19863E+09
 -1      1973 6.77079E-04-6.29760E-04-2.52710E-03 3.24646E-04-2.57478E-04 3.19863E+09
 -1      1974-2.43366E-03-6.07334E-04 2.70963E-04 3.43819E-04-4.06852E-04 2.74353E+09
 -1      1976-2.43366E-03-6.07334E-04 2.70963E-04 3.43819E-04-4.06852E-04 2.74353E+09
 -1      1977-4.14932E-03 9.75579E-05-4.73750E-03 3.02442E-04-3.99124E-04 2.25829E+09
 -1      1979-4.14932E-03 9.75579E-05-4.73750E-03 3.02442E-04-3.99124E-04 2.25829E+09
 -1      1980-3.93212E-03 6.37352E-04-1.28993E-02 5.73016E-04-4.58862E-05 1.75233E+09
 -1      1982-3.93212E-03 6.37352E-04-1.28993E-02 5.73016E-04-4.58862E-05 1.75233E+09
 -1      1983-3.34388E-03 6.70835E-04-1.80839E-02 2.54574E-04 1.65079E-04 1.23536E+09
 -1      1985-3.34388E-03 6.70835E-04-1.80839E-02 2.54574E-04 1.65079E-04 1.23536E+09
 -1      1986-3.53467E-03 1.48505E-04-1.92946E-02-5.69296E-05 3.69739E-04 7.18147E+08
 -1      1988-3.53467E-03 1.48505E-04-1.92946E-02-5.69296E-05 3.69739E-04 7.18147E+08
 -1      1989-2.44027E-03 2.79635E-04-1.88103E-02 1.46432E-05 3.52619E-04 2.11600E+08
 -1      1991-2.44027E-03 2.79635E-04-1.88103E-02 1.46432E-05 3.52619E-04 2.11600E+08
 -1      1992 3.45111E-05 2.33978E-04-1.89355E-02 1.64469E-06 1.03578E-04-2.73033E+08
 -1      1994 3.45111E-05 2.33978E-04-1.89355E-02 1.64469E-06 1.03578E-04-2.73033E+08
 -1      1995-1.75476E-04 9.79602E-05-1.66350E-02 1.01170E-04 9.94452E-05-7.24713E+08
 -1      1997-1.75476E-04 9.79602E-05-1.66350E-02 1.01170E-04 9.94452E-05-7.24713E+08
 -1      1998-3.50666E-03 1.14247E-04-9.68499E-03 3.40333E-04-4.26293E-05-1.13266E+09
 -1      2000-3.50666E-03 1.14247E-04-9.68499E-03 3.40333E-04-4.26293E-05-1.13266E+09
 -1      2001-4.16863E-03 9.15974E-05-1.65153E-03 2.03141E-04-1.54159E-04-1.48672E+09
 -1      2003-4.16863E-03 9.15974E-05-1.65153E-03 2.03141E-04-1.54159E-04-1.48672E+09
 -1      2004-5.19931E-04-1.44988E-04 3.38732E-03-4.09549E-05-2.08535E-05-1.77748E+09
 -1      2006-5.19931E-04-1.44988E-04 3.38732E-03-4.09549E-05-2.08535E-05-1.77748E+09
 -1      2007 3.16516E-03-3.60139E-04 3.58824E-03-3.92094E-05-1.40872E-04-1.99650E+09
 -1      2009 3.16516E-03-3.60139E-04 3.58824E-03-3.92094E-05-1.40872E-04-1.99650E+09
 -1      2010 5.97474E-03-2.68631E-04-1.75396E-03 1.85199E-04-1.69443E-04-2.13650E+09
 -1      2012 5.97474E-03-2.68631E-04-1.75396E-03 1.85199E-04-1.69443E-04-2.13650E+09
 -1      2013 9.27007E-03-1.79708E-04-1.00452E-02 1.76546E-04-1.01441E-04-2.19142E+09
 -1      2015 9.27007E-03-1.79708E-04-1.00452E-02 1.76546E-04-1.01441E-04-2.19142E+09
 -1      2016 1.00776E-02 1.48483E-04-1.56892E-02-1.01847E-04-2.00232E-04-2.15657E+09
 -1      2018 1.00776E-02 1.48483E-04-1.56892E-02-1.01847E-04-2.00232E-04-2.15657E+09
 -1      2019 6.50232E-03 2.51472E-04-1.72048E-02 9.22639E-05-1.18767E-04-2.02866E+09
 -1      2021 6.50232E-03 2.51472E-04-1.72048E-02 9.22639E-05-1.18767E-04-2.02866E+09
 -1      2022 2.35523E-03 4.37431E-04-1.70103E-02 1.63452E-04 7.66026E-06-1.80552E+09
 -1      2024 2.35523E-03 4.37431E-04-1.70103E-02 1.63452E-04 7.66026E-06-1.80552E+09
 -1      2025 2.65367E-04 3.39196E-04-1.67757E-02 9.09874E-05 3.27565E-04-1.48580E+09
 -1      2027 2.65367E-04 3.39196E-04-1.67757E-02 9.09874E-05 3.27565E-04-1.48580E+09
 -1      2028 8.86954E-05-1.52966E-04-1.54055E-02 2.32366E-04 6.50618E-04-1.06857E+09
 -1      2030 8.86954E-05-1.52966E-04-1.54055E-02 2.32366E-04 6.50618E-04-1.06857E+09
 -1      2031 7.13659E-04 1.52620E-04-1.18958E-02 1.29162E-04 6.37331E-04-5.62942E+08
 -1      2033 7.13659E-04 1.52620E-04-1.18958E-02 1.29162E-04 6.37331E-04-5.62942E+08
 -1      2034-3.07065E+09-1.95157E+04-4.84100E+08 5.69663E-04-4.44973E-05 4.71120E+09
 -1      2036-3.07065E+09-1.95157E+04-4.84100E+08 5.69663E-04-4.44973E-05 4.71120E+09
 -1      2037-2.37488E+09-1.15867E+05-9.26856E+06-4.09830E-04 5.13633E-05 4.77489E+09
 -1      2039-2.37488E+09-1.15867E+05-9.26856E+06-4.09830E-04 5.13633E-05 4.77489E+09
 -1      2040-1.65034E+09 7.18869E+04 1.07668E+08 8.46802E-05 2.37039E-04 4.61318E+09
 -1      2042-1.65034E+09 7.18869E+04 1.07668E+08 8.46802E-05 2.37039E-04 4.61318E+09
 -1      2043-9.73810E+08 1.61869E+04 1.15601E+08 4.55695E-05 1.07534E-04 4.48867E+09
 -1      2045-9.73810E+08 1.61869E+04 1.15601E+08 4.55695E-05 1.07534E-04 4.48867E+09
 -1      2046-3.38903E+08 1.75739E+04 1.51978E+08 8.16851E-05-2.15402E-04 4.27456E+09
 -1      2048-3.38903E+08 1.75739E+04 1.51978E+08 8.16851E-05-2.15402E-04 4.27456E+09
 -1      2049 2.68135E+08 6.45130E+04 1.80089E+08-3.82781E-05-5.54971E-04 4.02791E+09
 -1      2051 2.68135E+08 6.45130E+04 1.80089E+08-3.82781E-05-5.54971E-04 4.02791E+09
 -1      2052 8.31536E+08 4.18538E+04 2.12413E+08 1.70049E-04-9.70665E-04 3.72298E+09
 -1      2054 8.31536E+08 4.18538E+04 2.12413E+08 1.70049E-04-9.70665E-04 3.72298E+09
 -1      2055 1.34847E+09 7.93561E+04 2.39872E+08-7.00136E-05-1.32562E-03 3.37642E+09
 -1      2057 1.34847E+09 7.93561E+04 2.39872E+08-7.00136E-05-1.32562E-03 3.37642E+09
 -1      2058 1.81081E+09 7.11166E+04 2.65097E+08-8.27721E-05-1.28705E-03 2.98594E+09
 -1      2060 1.81081E+09 7.11166E+04 2.65097E+08-8.27721E-05-1.28705E-03 2.98594E+09
 -1      2061 2.21308E+09 8.91991E+04 2.85282E+08-3.93118E-05-1.22528E-03 2.56159E+09
 -1      2063 2.21308E+09 8.91991E+04 2.85282E+08-3.93118E-05-1.22528E-03 2.56159E+09
 -1      2064 2.55000E+09 9.12252E+04 3.00677E+08 3.81361E-05-1.42629E-03 2.10849E+09
 -1      2066 2.55000E+09 9.12252E+04 3.00677E+08 3.81361E-05-1.42629E-03 2.10849E+09
 -1      2067 2.81791E+09 9.57594E+04 3.10114E+08 1.96431E-04-1.84406E-03 1.63646E+09
 -1      2069 2.81791E+09 9.57594E+04 3.10114E+08 1.96431E-04-1.84406E-03 1.63646E+09
 -1      2070 3.01428E+09 1.00428E+05 3.13450E+08-5.09439E-06-2.29528E-03 1.15393E+09
 -1      2072 3.01428E+09 1.00428E+05 3.13450E+08-5.09439E-06-2.29528E-03 1.15393E+09
 -1      2073 3.13813E+09 9.68232E+04 3.10161E+08-1.40996E-04-2.33479E-03 6.71344E+08
 -1      2075 3.13813E+09 9.68232E+04 3.10161E+08-1.40996E-04-2.33479E-03 6.71344E+08
 -1      2076 3.18998E+09 9.90765E+04 3.00209E+08-5.35486E-05-2.02717E-03 1.98630E+08
 -1      2078 3.18998E+09 9.90765E+04 3.00209E+08-5.35486E-05-2.02717E-03 1.98630E+08
 -1      2079 3.17193E+09 9.08057E+04 2.83489E+08-3.57627E-06-1.45811E-03-2.53554E+08
 -1      2081 3.17193E+09 9.08057E+04 2.83489E+08-3.57627E-06-1.45811E-03-2.53554E+08
 -1      2082 3.08762E+09 8.79434E+04 2.60193E+08-4.72257E-06-9.70452E-04-6.75013E+08
 -1      2084 3.08762E+09 8.79434E+04 2.60193E+08-4.72257E-06-9.70452E-04-6.75013E+08
 -1      2085 2.94226E+09 7.73462E+04 2.30559E+08 8.13751E-05-7.24130E-04-1.05562E+09
 -1      2087 2.94226E+09 7.73462E+04 2.30559E+08 8.13751E-05-7.24130E-04-1.05562E+09
 -1      2088 2.74251E+09 6.81401E+04 1.95024E+08-7.10204E-06-6.92289E-04-1.38595E+09
 -1      2090 2.74251E+09 6.81401E+04 1.95024E+08-7.10204E-06-6.92289E-04-1.38595E+09
 -1      2091 2.49641E+09 5.71618E+04 1.54109E+08-1.75383E-04-7.51050E-04-1.65717E+09
 -1      2093 2.49641E+09 5.71618E+04 1.54109E+08-1.75383E-04-7.51050E-04-1.65717E+09
 -1      2094 2.21322E+09 4.12415E+04 1.08462E+08-1.75123E-04-8.49811E-04-1.86145E+09
 -1      2096 2.21322E+09 4.12415E+04 1.08462E+08-1.75123E-04-8.49811E-04-1.86145E+09
 -1      2097 1.90333E+09 3.16980E+04 5.88240E+07 3.30789E-05-9.85416E-04-1.99196E+09
 -1      2099 1.90333E+09 3.16980E+04 5.88240E+07 3.30789E-05-9.85416E-04-1.99196E+09
 -1      2100 1.57803E+09 9.47753E+03 5.97277E+06-5.53577E-06-1.12309E-03-2.04308E+09
 -1      2102 1.57803E+09 9.47753E+03 5.97277E+06-5.53577E-06-1.12309E-03-2.04308E+09
 -1      2103 1.24935E+09 2.54756E+03-4.91881E+07-1.74127E-04-1.22990E-03-2.01042E+09
 -1      2105 1.24935E+09 2.54756E+03-4.91881E+07-1.74127E-04-1.22990E-03-2.01042E+09
 -1      2106 9.30010E+08-2.38670E+04-1.05970E+08-2.75379E-05-1.52699E-03-1.89107E+09
 -1      2108 9.30010E+08-2.38670E+04-1.05970E+08-2.75379E-05-1.52699E-03-1.89107E+09
 -1      2109 6.32927E+08-2.95211E+04-1.63414E+08 5.63415E-05-1.69426E-03-1.68299E+09
 -1      2111 6.32927E+08-2.95211E+04-1.63414E+08 5.63415E-05-1.69426E-03-1.68299E+09
 -1      2112 3.72129E+08-5.35448E+04-2.22136E+08 9.86538E-05-1.62826E-03-1.38687E+09
 -1      2114 3.72129E+08-5.35448E+04-2.22136E+08 9.86538E-05-1.62826E-03-1.38687E+09
 -1      2115 1.64449E+08-7.09212E+04-2.78019E+08 1.87428E-04-1.85856E-03-1.00098E+09
 -1      2117 1.64449E+08-7.09212E+04-2.78019E+08 1.87428E-04-1.85856E-03-1.00098E+09
 -1      2118 3.15467E+07-5.74402E+04-3.23067E+08-7.23883E-06-2.10956E-03-5.34041E+08
 -1      2120 3.15467E+07-5.74402E+04-3.23067E+08-7.23883E-06-2.10956E-03-5.34041E+08
 -1      2121-5.92423E+09-2.30879E+08 2.17965E+06-5.38331E+08 1.94222E+07 5.77257E+07
 -1      2123-5.92423E+09-2.30879E+08 2.17965E+06-5.38331E+08 1.94222E+07 5.77257E+07
 -1      2124-4.62042E+09 1.31056E+08-1.40874E+05-5.19887E+08-1.73099E+07-2.79010E+07
 -1      2126-4.62042E+09 1.31056E+08-1.40874E+05-5.19887E+08-1.73099E+07-2.79010E+07
 -1      2127-3.31056E+09-2.50434E+07-7.70169E+05-5.97496E+08-2.26918E+07 1.40746E+07
 -1      2129-3.31056E+09-2.50434E+07-7.70169E+05-5.97496E+08-2.26918E+07 1.40746E+07
 -1      2130-2.02009E+09-9.60410E+06-2.10650E+05-5.66887E+08-3.03451E+07-4.76169E+06
 -1      2132-2.02009E+09-9.60410E+06-2.10650E+05-5.66887E+08-3.03451E+07-4.76169E+06
 -1      2133-7.69045E+08-6.89987E+06-7.91875E+05-5.37214E+08-4.15558E+07 3.99043E+06
 -1      2135-7.69045E+08-6.89987E+06-7.91875E+05-5.37214E+08-4.15558E+07 3.99043E+06
 -1      2136 4.14646E+08-1.19095E+07-5.47179E+05-5.09034E+08-4.75009E+07-2.72996E+05
 -1      2138 4.14646E+08-1.19095E+07-5.47179E+05-5.09034E+08-4.75009E+07-2.72996E+05
 -1      2139 1.52252E+09-1.36382E+07-1.00280E+06-4.69737E+08-5.68141E+07 1.76357E+06
 -1      2141 1.52252E+09-1.36382E+07-1.00280E+06-4.69737E+08-5.68141E+07 1.76357E+06
 -1      2142 2.53689E+09-1.52289E+07-7.95042E+05-4.26185E+08-6.25775E+07 5.45900E+05
 -1      2144 2.53689E+09-1.52289E+07-7.95042E+05-4.26185E+08-6.25775E+07 5.45900E+05
 -1      2145 3.44557E+09-1.71466E+07-1.17111E+06-3.77009E+08-6.91950E+07 1.06097E+06
 -1      2147 3.44557E+09-1.71466E+07-1.17111E+06-3.77009E+08-6.91950E+07 1.06097E+06
 -1      2148 4.23660E+09-1.82974E+07-9.97732E+05-3.23583E+08-7.35036E+07 5.62100E+05
 -1      2150 4.23660E+09-1.82974E+07-9.97732E+05-3.23583E+08-7.35036E+07 5.62100E+05
 -1      2151 4.90058E+09-1.94451E+07-1.27216E+06-2.66611E+08-7.71959E+07 6.47559E+05
 -1      2153 4.90058E+09-1.94451E+07-1.27216E+06-2.66611E+08-7.71959E+07 6.47559E+05
 -1      2154 5.43022E+09-1.99880E+07-1.11726E+06-2.07269E+08-7.90126E+07 3.54712E+05
 -1      2156 5.43022E+09-1.99880E+07-1.11726E+06-2.07269E+08-7.90126E+07 3.54712E+05
 -1      2157 5.82095E+09-2.02958E+07-1.29166E+06-1.46652E+08-7.95142E+07 2.89987E+05
 -1      2159 5.82095E+09-2.02958E+07-1.29166E+06-1.46652E+08-7.95142E+07 2.89987E+05
 -1      2160 6.07094E+09-2.00498E+07-1.13494E+06-8.60439E+07-7.82549E+07 7.17569E+04
 -1      2162 6.07094E+09-2.00498E+07-1.13494E+06-8.60439E+07-7.82549E+07 7.17569E+04
 -1      2163 6.18138E+09-1.94706E+07-1.21678E+06-2.67092E+07-7.54090E+07-4.73645E+04
 -1      2165 6.18138E+09-1.94706E+07-1.21678E+06-2.67092E+07-7.54090E+07-4.73645E+04
 -1      2166 6.15646E+09-1.83711E+07-1.04407E+06 3.00286E+07-7.08877E+07-2.26300E+05
 -1      2168 6.15646E+09-1.83711E+07-1.04407E+06 3.00286E+07-7.08877E+07-2.26300E+05
 -1      2169 6.00342E+09-1.69139E+07-1.04304E+06 8.28790E+07-6.47693E+07-3.55758E+05
 -1      2171 6.00342E+09-1.69139E+07-1.04304E+06 8.28790E+07-6.47693E+07-3.55758E+05
 -1      2172 5.73245E+09-1.49861E+07-8.47466E+05 1.30579E+08-5.71553E+07-5.01174E+05
 -1      2174 5.73245E+09-1.49861E+07-8.47466E+05 1.30579E+08-5.71553E+07-5.01174E+05
 -1      2175 5.35662E+09-1.27290E+07-7.75167E+05 1.71936E+08-4.81210E+07-6.16069E+05
 -1      2177 5.35662E+09-1.27290E+07-7.75167E+05 1.71936E+08-4.81210E+07-6.16069E+05
 -1      2178 4.89164E+09-1.00721E+07-5.56713E+05 2.05852E+08-3.79099E+07-7.24077E+05
 -1      2180 4.89164E+09-1.00721E+07-5.56713E+05 2.05852E+08-3.79099E+07-7.24077E+05
 -1      2181 4.35564E+09-7.16051E+06-4.26164E+05 2.31325E+08-2.65984E+07-8.08717E+05
 -1      2183 4.35564E+09-7.16051E+06-4.26164E+05 2.31325E+08-2.65984E+07-8.08717E+05
 -1      2184 3.76887E+09-3.92661E+06-1.90968E+05 2.47521E+08-1.45849E+07-8.75031E+05
 -1      2186 3.76887E+09-3.92661E+06-1.90968E+05 2.47521E+08-1.45849E+07-8.75031E+05
 -1      2187 3.15341E+09-5.81646E+05-1.54599E+04 2.53708E+08-1.89052E+06-9.15228E+05
 -1      2189 3.15341E+09-5.81646E+05-1.54599E+04 2.53708E+08-1.89052E+06-9.15228E+05
 -1      2190 2.53269E+09 3.11598E+06 2.24411E+05 2.49327E+08 1.08578E+07-9.51962E+05
 -1      2192 2.53269E+09 3.11598E+06 2.24411E+05 2.49327E+08 1.08578E+07-9.51962E+05
 -1      2193 1.93120E+09 6.42832E+06 4.35654E+05 2.34164E+08 2.38121E+07-8.99939E+05
 -1      2195 1.93120E+09 6.42832E+06 4.35654E+05 2.34164E+08 2.38121E+07-8.99939E+05
 -1      2196 1.37411E+09 1.05145E+07 6.52553E+05 2.07848E+08 3.59770E+07-1.02401E+06
 -1      2198 1.37411E+09 1.05145E+07 6.52553E+05 2.07848E+08 3.59770E+07-1.02401E+06
 -1      2199 8.86561E+08 1.51240E+07 9.15964E+05 1.69260E+08 4.77472E+07-5.99680E+05
 -1      2201 8.86561E+08 1.51240E+07 9.15964E+05 1.69260E+08 4.77472E+07-5.99680E+05
 -1      2202 4.91979E+08 1.08017E+07 1.08774E+06 1.25976E+08 5.77760E+07-1.54247E+06
 -1      2204 4.91979E+08 1.08017E+07 1.08774E+06 1.25976E+08 5.77760E+07-1.54247E+06
 -1      2205 2.09043E+08 1.91489E+07 1.22515E+06 8.09747E+07 6.54284E+07 7.61718E+05
 -1      2207 2.09043E+08 1.91489E+07 1.22515E+06 8.09747E+07 6.54284E+07 7.61718E+05
 -1      2208-5.92423E+09-2.30879E+08 2.17965E+06 5.38331E+08-1.94222E+07 5.77257E+07
 -1      2210-5.92423E+09-2.30879E+08 2.17965E+06 5.38331E+08-1.94222E+07 5.77257E+07
 -1      2211-4.62042E+09 1.31056E+08-1.40874E+05 5.19887E+08 1.73099E+07-2.79010E+07
 -1      2213-4.62042E+09 1.31056E+08-1.40874E+05 5.19887E+08 1.73099E+07-2.79010E+07
 -1      2214-3.31056E+09-2.50434E+07-7.70169E+05 5.97496E+08 2.26918E+07 1.40746E+07
 -1      2216-3.31056E+09-2.50434E+07-7.70169E+05 5.97496E+08 2.26918E+07 1.40746E+07
 -1      2217-2.02009E+09-9.60410E+06-2.10650E+05 5.66887E+08 3.03451E+07-4.76169E+06
 -1      2219-2.02009E+09-9.60410E+06-2.10650E+05 5.66887E+08 3.03451E+07-4.76169E+06
 -1      2220-7.69045E+08-6.89987E+06-7.91875E+05 5.37214E+08 4.15558E+07 3.99043E+06
 -1      2222-7.69045E+08-6.89987E+06-7.91875E+05 5.37214E+08 4.15558E+07 3.99043E+06
 -1      2223 4.14646E+08-1.19095E+07-5.47179E+05 5.09034E+08 4.75009E+07-2.72996E+05
 -1      2225 4.14646E+08-1.19095E+07-5.47179E+05 5.09034E+08 4.75009E+07-2.72996E+05
 -1      2226 1.52252E+09-1.36382E+07-1.00280E+06 4.69737E+08 5.68141E+07 1.76357E+06
 -1      2228 1.52252E+09-1.36382E+07-1.00280E+06 4.69737E+08 5.68141E+07 1.76357E+06
 -1      2229 2.53689E+09-1.52289E+07-7.95042E+05 4.26185E+08 6.25775E+07 5.45900E+05
 -1      2231 2.53689E+09-1.52289E+07-7.95042E+05 4.26185E+08 6.25775E+07 5.45900E+05
 -1      2232 3.44557E+09-1.71466E+07-1.17111E+06 3.77009E+08 6.91950E+07 1.06097E+06
 -1      2234 3.44557E+09-1.71466E+07-1.17111E+06 3.77009E+08 6.91950E+07 1.06097E+06
 -1      2235 4.23660E+09-1.82974E+07-9.97732E+05 3.23583E+08 7.35036E+07 5.62100E+05
 -1      2237 4.23660E+09-1.82974E+07-9.97732E+05 3.23583E+08 7.35036E+07 5.62100E+05
 -1      2238 4.90058E+09-1.94451E+07-1.27216E+06 2.66611E+08 7.71959E+07 6.47559E+05
 -1      2240 4.90058E+09-1.94451E+07-1.27216E+06 2.66611E+08 7.71959E+07 6.47559E+05
 -1      2241 5.43022E+09-1.99880E+07-1.11726E+06 2.07269E+08 7.90126E+07 3.54712E+05
 -1      2243 5.43022E+09-1.99880E+07-1.11726E+06 2.07269E+08 7.90126E+07 3.54712E+05
 -1      2244 5.82095E+09-2.02958E+07-1.29166E+06 1.46652E+08 7.95142E+07 2.89987E+05
 -1      2246 5.82095E+09-2.02958E+07-1.29166E+06 1.46652E+08 7.95142E+07 2.89987E+05
 -1      2247 6.07094E+09-2.00498E+07-1.13494E+06 8.60439E+07 7.82549E+07 7.17569E+04
 -1      2249 6.07094E+09-2.00498E+07-1.13494E+06 8.60439E+07 7.82549E+07 7.17569E+04
 -1      2250 6.18138E+09-1.94706E+07-1.21678E+06 2.67092E+07 7.54090E+07-4.73645E+04
 -1      2252 6.18138E+09-1.94706E+07-1.21678E+06 2.67092E+07 7.54090E+07-4.73645E+04
 -1      2253 6.15646E+09-1.83711E+07-1.04407E+06-3.00286E+07 7.08877E+07-2.26300E+05
 -1      2255 6.15646E+09-1.83711E+07-1.04407E+06-3.00286E+07 7.08877E+07-2.26300E+05
 -1      2256 6.00342E+09-1.69139E+07-1.04304E+06-8.28790E+07 6.47693E+07-3.55758E+05
 -1      2258 6.00342E+09-1.69139E+07-1.04304E+06-8.28790E+07 6.47693E+07-3.55758E+05
 -1      2259 5.73245E+09-1.49861E+07-8.47466E+05-1.30579E+08 5.71553E+07-5.01174E+05
 -1      2261 5.73245E+09-1.49861E+07-8.47466E+05-1.30579E+08 5.71553E+07-5.01174E+05
 -1      2262 5.35662E+09-1.27290E+07-7.75167E+05-1.71936E+08 4.81210E+07-6.16069E+05
 -1      2264 5.35662E+09-1.27290E+07-7.75167E+05-1.71936E+08 4.81210E+07-6.16069E+05
 -1      2265 4.89164E+09-1.00721E+07-5.56713E+05-2.05852E+08 3.79099E+07-7.24077E+05
 -1      2267 4.89164E+09-1.00721E+07-5.56713E+05-2.05852E+08 3.79099E+07-7.24077E+05
 -1      2268 4.35564E+09-7.16051E+06-4.26164E+05-2.31325E+08 2.65984E+07-8.08717E+05
 -1      2270 4.35564E+09-7.16051E+06-4.26164E+05-2.31325E+08 2.65984E+07-8.08717E+05
 -1      2271 3.76887E+09-3.92661E+06-1.90968E+05-2.47521E+08 1.45849E+07-8.75031E+05
 -1      2273 3.76887E+09-3.92661E+06-1.90968E+05-2.47521E+08 1.45849E+07-8.75031E+05
 -1      2274 3.15341E+09-5.81646E+05-1.54599E+04-2.53708E+08 1.89052E+06-9.15228E+05
 -1      2276 3.15341E+09-5.81646E+05-1.54599E+04-2.53708E+08 1.89052E+06-9.15228E+05
 -1      2277 2.53269E+09 3.11598E+06 2.24411E+05-2.49327E+08-1.08578E+07-9.51962E+05
 -1      2279 2.53269E+09 3.11598E+06 2.24411E+05-2.49327E+08-1.08578E+07-9.51962E+05
 -1      2280 1.93120E+09 6.42832E+06 4.35654E+05-2.34164E+08-2.38121E+07-8.99939E+05
 -1      2282 1.93120E+09 6.42832E+06 4.35654E+05-2.34164E+08-2.38121E+07-8.99939E+05
 -1      2283 1.37411E+09 1.05145E+07 6.52553E+05-2.07848E+08-3.59770E+07-1.02401E+06
 -1      2285 1.37411E+09 1.05145E+07 6.52553E+05-2.07848E+08-3.59770E+07-1.02401E+06
 -1      2286 8.86561E+08 1.51240E+07 9.15964E+05-1.69260E+08-4.77472E+07-5.99680E+05
 -1      2288 8.86561E+08 1.51240E+07 9.15964E+05-1.69260E+08-4.77472E+07-5.99680E+05
 -1      2289 4.91979E+08 1.08017E+07 1.08774E+06-1.25976E+08-5.77760E+07-1.54247E+06
 -1      2291 4.91979E+08 1.08017E+07 1.08774E+06-1.25976E+08-5.77760E+07-1.54247E+06
 -1      2292 2.09043E+08 1.91489E+07 1.22515E+06-8.09747E+07-6.54284E+07 7.61718E+05
 -1      2294 2.09043E+08 1.91489E+07 1.22515E+06-8.09747E+07-6.54284E+07 7.61718E+05
 -3
    1PSTEP                        31           1           1          
    1PGM                1.000000E+00                                  
    1PGK                2.561743E+06                                  
    1PHID                         -1                                  
    1PSUBC                         0                                  
    1PMODE                         8                                  
  100CL  108 254.7345895         930                     2    8MODAL      1
 -4  FORC        4    1
 -5  F1          1    2    1    0
 -5  F2          1    2    2    0
 -5  F3          1    2    3    0
 -5  ALL         1    2    0    0    1ALL
 -1       404-1.43242E+06 2.90762E+05-6.67307E+04
 -1       406-8.65577E+05 3.80757E+05-6.67307E+04
 -1       407-4.91909E+03-5.35583E-01-1.83592E+04
 -1       409-4.91909E+03-5.35583E-01-1.83592E+04
 -1       410-8.88158E+04 6.17268E-06 1.28099E+05
 -1       412-8.88158E+04-5.11211E-06 9.90780E+04
 -1       413 7.37299E+04-2.27781E+04-1.72028E+05
 -1       415 7.37299E+04 2.27781E+04-1.72028E+05
 -1       424-2.46381E+06-2.08934E-06 7.51324E+03
 -1       426-8.58917E+05-1.56995E-06-4.20694E+04
 -1       427-2.45112E+06-3.89166E+04-1.27325E+06
 -1       429-2.45112E+06 3.89166E+04-1.27325E+06
 -1       438-4.91909E+03 5.35583E-01-1.83592E+04
 -1       440-4.91909E+03 5.35583E-01-1.83592E+04
 -1       441-1.43242E+06-2.90762E+05-6.67307E+04
 -1       443-8.65577E+05-3.80757E+05-6.67307E+04
 -1       444 2.45112E+06 3.89166E+04-1.27325E+06
 -1       446 2.45112E+06-3.89166E+04-1.27325E+06
 -1       447 2.46381E+06-1.14457E-06 7.51324E+03
 -1       449 8.58917E+05-5.92638E-08-4.20694E+04
 -1       458-7.37299E+04 2.27781E+04-1.72028E+05
 -1       460-7.37299E+04-2.27781E+04-1.72028E+05
 -1       461 8.88158E+04 3.10861E-06 1.28099E+05
 -1       463 8.88158E+04 7.21832E-06 9.90780E+04
 -1       472 1.43242E+06 2.90762E+05-6.67307E+04
 -1       474 8.65577E+05 3.80757E+05-6.67307E+04
 -1       475 4.91909E+03-5.35583E-01-1.83592E+04
 -1       477 4.91909E+03-5.35583E-01-1.83592E+04
 -1       478 4.91909E+03 5.35583E-01-1.83592E+04
 -1       480 4.91909E+03 5.35583E-01-1.83592E+04
 -1       481 1.43242E+06-2.90762E+05-6.67307E+04
 -1       483 8.65577E+05-3.80757E+05-6.67307E+04
 -1       484 8.51342E+02-1.52583E+02 2.46858E+03
 -1       486 8.51342E+02-1.52583E+02 2.46858E+03
 -1       487 1.59605E+03-1.50416E+02 5.49388E+03
 -1       489 1.59605E+03-1.50416E+02 5.49388E+03
 -1       490 2.17360E+03-9.48309E+01 8.79371E+03
 -1       492 2.17360E+03-9.48309E+01 8.79371E+03
 -1       493 2.56378E+03-5.80614E+01 1.22183E+04
 -1       495 2.56378E+03-5.80614E+01 1.22183E+04
 -1       496 2.76826E+03-2.17808E+01 1.57226E+04
 -1       498 2.76826E+03-2.17808E+01 1.57226E+04
 -1       499 2.79658E+03 1.38655E+01 1.91621E+04
 -1       501 2.79658E+03 1.38655E+01 1.91621E+04
 -1       502 2.65878E+03 4.66426E+01 2.24348E+04
 -1       504 2.65878E+03 4.66426E+01 2.24348E+04
 -1       505 2.36708E+03 7.67872E+01 2.54273E+04
 -1       507 2.36708E+03 7.67872E+01 2.54273E+04
 -1       508 1.93598E+03 1.03769E+02 2.80420E+04
 -1       510 1.93598E+03 1.03769E+02 2.80420E+04
 -1       511 1.38163E+03 1.27245E+02 3.01889E+04
 -1       513 1.38163E+03 1.27245E+02 3.01889E+04
 -1       514 7.21749E+02 1.46937E+02 3.17910E+04
 -1       516 7.21749E+02 1.46937E+02 3.17910E+04
 -1       517-2.47343E+01 1.62620E+02 3.27846E+04
 -1       519-2.47343E+01 1.62620E+02 3.27846E+04
 -1       520-8.38041E+02 1.74159E+02 3.31210E+04
 -1       522-8.38041E+02 1.74159E+02 3.31210E+04
 -1       523-1.69794E+03 1.81496E+02 3.27665E+04
 -1       525-1.69794E+03 1.81496E+02 3.27665E+04
 -1       526-2.58415E+03 1.84664E+02 3.17040E+04
 -1       528-2.58415E+03 1.84664E+02 3.17040E+04
 -1       529-3.47679E+03 1.83787E+02 2.99321E+04
 -1       531-3.47679E+03 1.83787E+02 2.99321E+04
 -1       532-4.35679E+03 1.79079E+02 2.74654E+04
 -1       534-4.35679E+03 1.79079E+02 2.74654E+04
 -1       535-5.20638E+03 1.70843E+02 2.43338E+04
 -1       537-5.20638E+03 1.70843E+02 2.43338E+04
 -1       538-6.00943E+03 1.59467E+02 2.05818E+04
 -1       540-6.00943E+03 1.59467E+02 2.05818E+04
 -1       541-6.75194E+03 1.45418E+02 1.62668E+04
 -1       543-6.75194E+03 1.45418E+02 1.62668E+04
 -1       544-7.42234E+03 1.29237E+02 1.14582E+04
 -1       546-7.42234E+03 1.29237E+02 1.14582E+04
 -1       547-8.01183E+03 1.11525E+02 6.23534E+03
 -1       549-8.01183E+03 1.11525E+02 6.23534E+03
 -1       550-8.51470E+03 9.29425E+01 6.85672E+02
 -1       552-8.51470E+03 9.29425E+01 6.85672E+02
 -1       553-8.92852E+03 7.41740E+01-5.09713E+03
 -1       555-8.92852E+03 7.41740E+01-5.09713E+03
 -1       556-9.25435E+03 5.59954E+01-1.10156E+04
 -1       558-9.25435E+03 5.59954E+01-1.10156E+04
 -1       559-9.49678E+03 3.90661E+01-1.69697E+04
 -1       561-9.49678E+03 3.90661E+01-1.69697E+04
 -1       562-9.66420E+03 2.40716E+01-2.28608E+04
 -1       564-9.66420E+03 2.40716E+01-2.28608E+04
 -1       565-9.76836E+03 1.29239E+01-2.85883E+04
 -1       567-9.76836E+03 1.29239E+01-2.85883E+04
 -1       568-9.82222E+03 3.80146E+00-3.40582E+04
 -1       570-9.82222E+03 3.80146E+00-3.40582E+04
 -1       571-9.84536E+03-9.40510E-01-3.56274E+04
 -1       573-9.84536E+03-9.40511E-01-3.56274E+04
 -1       574 1.55247E+06-2.68043E-07 4.05727E+05
 -1       576 1.55247E+06-1.70457E-06 3.63984E+05
 -1       577-1.54965E+06-3.27633E+04-3.77321E+05
 -1       579-1.54965E+06 3.27633E+04-3.77321E+05
 -1       588 1.60074E+06 1.04078E-05-2.27982E+05
 -1       590 1.60074E+06-2.75510E-06-2.17899E+05
 -1       591-1.59552E+06 7.91393E+03 2.39345E+05
 -1       593-1.59552E+06-7.91393E+03 2.39345E+05
 -1       602 1.55915E+06 2.01887E-06 3.11459E+04
 -1       604 1.55915E+06-1.51880E-05 4.54839E+04
 -1       605-1.55216E+06 1.12537E+04-1.20980E+04
 -1       607-1.55216E+06-1.12537E+04-1.20980E+04
 -1       616 1.54782E+06 1.81653E-06-1.23954E+05
 -1       618 1.54782E+06-1.20684E-05-1.04156E+05
 -1       619-1.53964E+06 1.55391E+04 1.50645E+05
 -1       621-1.53964E+06-1.55391E+04 1.50645E+05
 -1       630 1.45981E+06 5.41175E-06-7.92043E+04
 -1       632 1.45981E+06-6.30059E-06-5.86213E+04
 -1       633-1.45102E+06 1.61553E+04 1.16170E+05
 -1       635-1.45102E+06-1.61553E+04 1.16170E+05
 -1       644 1.38277E+06 4.66829E-06-1.36940E+05
 -1       646 1.38277E+06-6.61324E-06-1.08592E+05
 -1       647-1.37391E+06 2.22501E+04 1.80558E+05
 -1       649-1.37391E+06-2.22501E+04 1.80558E+05
 -1       658 1.27626E+06 2.84171E-06-1.38892E+05
 -1       660 1.27626E+06-5.14985E-06-1.07642E+05
 -1       661-1.26784E+06 2.45274E+04 1.91118E+05
 -1       663-1.26784E+06-2.45274E+04 1.91118E+05
 -1       672 1.15816E+06 3.82816E-06-1.69256E+05
 -1       674 1.15816E+06 9.96553E-07-1.33422E+05
 -1       675-1.15066E+06 2.81252E+04 2.28422E+05
 -1       677-1.15066E+06-2.81252E+04 2.28422E+05
 -1       686 1.02381E+06 1.45106E-06-1.79806E+05
 -1       688 1.02381E+06 2.17469E-06-1.40511E+05
 -1       689-1.01766E+06 3.08413E+04 2.45336E+05
 -1       691-1.01766E+06-3.08413E+04 2.45336E+05
 -1       700 8.78210E+05-1.22525E-06-1.97701E+05
 -1       702 8.78210E+05 1.95695E-06-1.55611E+05
 -1       703-8.73790E+05 3.30354E+04 2.68508E+05
 -1       705-8.73790E+05-3.30354E+04 2.68508E+05
 -1       714 7.22435E+05 1.87469E-06-2.05688E+05
 -1       716 7.22435E+05-5.49823E-07-1.61275E+05
 -1       717-7.20068E+05 3.48585E+04 2.80348E+05
 -1       719-7.20068E+05-3.48585E+04 2.80348E+05
 -1       728 5.60217E+05 1.16857E-05-2.13706E+05
 -1       730 5.60217E+05-1.45013E-06-1.68173E+05
 -1       731-5.60171E+05 3.57381E+04 2.90960E+05
 -1       733-5.60171E+05-3.57381E+04 2.90960E+05
 -1       742 3.94295E+05 1.99670E-05-2.14942E+05
 -1       744 3.94295E+05-1.91569E-06-1.68814E+05
 -1       745-3.96774E+05 3.62053E+04 2.93039E+05
 -1       747-3.96774E+05-3.62053E+04 2.93039E+05
 -1       756 2.28318E+05 1.90617E-05-2.13264E+05
 -1       758 2.28318E+05-9.56803E-06-1.67870E+05
 -1       759-2.33466E+05 3.56295E+04 2.90750E+05
 -1       761-2.33466E+05-3.56295E+04 2.90750E+05
 -1       770 6.57115E+04 1.71301E-05-2.05991E+05
 -1       772 6.57115E+04-1.55756E-05-1.61968E+05
 -1       773-7.36074E+04 3.45527E+04 2.81009E+05
 -1       775-7.36074E+04-3.45527E+04 2.81009E+05
 -1       784-8.99033E+04 1.33521E-05-1.94708E+05
 -1       786-8.99033E+04-1.55084E-05-1.53351E+05
 -1       787 7.92412E+04 3.24606E+04 2.65724E+05
 -1       789 7.92412E+04-3.24606E+04 2.65724E+05
 -1       798-2.34952E+05 8.56804E-06-1.78522E+05
 -1       800-2.34952E+05-1.76795E-05-1.40536E+05
 -1       801 2.21565E+05 2.98148E+04 2.43747E+05
 -1       803 2.21565E+05-2.98148E+04 2.43747E+05
 -1       812-3.66040E+05 1.03825E-05-1.58234E+05
 -1       814-3.66040E+05-1.90769E-05-1.24758E+05
 -1       815 3.50023E+05 2.62743E+04 2.16184E+05
 -1       817 3.50023E+05-2.62743E+04 2.16184E+05
 -1       826-4.79815E+05 1.48404E-05-1.33735E+05
 -1       828-4.79815E+05-1.65172E-05-1.05488E+05
 -1       829 4.61315E+05 2.21700E+04 1.82846E+05
 -1       831 4.61315E+05-2.21700E+04 1.82846E+05
 -1       840-5.73381E+05 1.44096E-05-1.05684E+05
 -1       842-5.73381E+05-1.70038E-05-8.35377E+04
 -1       843 5.52589E+05 1.73821E+04 1.44639E+05
 -1       845 5.52589E+05-1.73821E+04 1.44639E+05
 -1       854-6.43873E+05 1.38405E-05-7.42522E+04
 -1       856-6.43873E+05-1.66991E-05-5.89181E+04
 -1       857 6.21012E+05 1.20355E+04 1.01856E+05
 -1       859 6.21012E+05-1.20355E+04 1.01856E+05
 -1       868-6.89181E+05 1.61709E-05-4.02750E+04
 -1       870-6.89181E+05-1.81420E-05-3.22152E+04
 -1       871 6.64507E+05 6.32603E+03 5.54397E+04
 -1       873 6.64507E+05-6.32603E+03 5.54397E+04
 -1       882-7.07055E+05 2.02241E-05-3.88019E+03
 -1       884-7.07055E+05-2.23652E-05-3.85602E+03
 -1       885 6.80837E+05 1.89680E+01 5.92173E+03
 -1       887 6.80837E+05-1.89680E+01 5.92173E+03
 -1       896-6.96423E+05 1.83711E-05 3.37962E+04
 -1       898-6.96423E+05-2.56064E-05 2.59263E+04
 -1       899 6.68940E+05-6.17699E+03-4.57455E+04
 -1       901 6.68940E+05 6.17699E+03-4.57455E+04
 -1       910-6.55930E+05 1.51544E-05 7.26700E+04
 -1       912-6.55930E+05-2.41307E-05 5.58814E+04
 -1       913 6.27459E+05-1.31771E+04-9.86196E+04
 -1       915 6.27459E+05 1.31771E+04-9.86196E+04
 -1       924-5.85105E+05 1.84341E-05 1.11974E+05
 -1       926-5.85105E+05-1.90672E-05 8.75728E+04
 -1       927 5.55907E+05-1.91524E+04-1.52824E+05
 -1       929 5.55907E+05 1.91524E+04-1.52824E+05
 -1       938-4.84536E+05 2.40139E-05 1.49710E+05
 -1       940-4.84536E+05-2.10250E-05 1.15155E+05
 -1       941 4.54847E+05-2.71217E+04-2.04170E+05
 -1       943 4.54847E+05 2.71217E+04-2.04170E+05
 -1       952-3.57590E+05 2.34094E-05 1.91741E+05
 -1       954-3.57590E+05-2.07907E-05 1.51216E+05
 -1       955 3.27609E+05-3.18068E+04-2.61632E+05
 -1       957 3.27609E+05 3.18068E+04-2.61632E+05
 -1       966-2.12318E+05 1.69952E-05 2.14653E+05
 -1       968-2.12318E+05-1.35170E-05 1.66839E+05
 -1       969 1.82191E+05-3.75280E+04-2.98817E+05
 -1       971 1.82191E+05 3.75280E+04-2.98817E+05
 -1       980-2.69336E+06 3.50422E+05-5.95039E+04
 -1       982-1.32407E+06 1.79694E+05-5.95039E+04
 -1       983-9.84536E+03 9.40511E-01-3.56274E+04
 -1       985-9.84536E+03 9.40511E-01-3.56274E+04
 -1       986 8.51342E+02 1.52583E+02 2.46858E+03
 -1       988 8.51342E+02 1.52583E+02 2.46858E+03
 -1       989 1.59605E+03 1.50416E+02 5.49388E+03
 -1       991 1.59605E+03 1.50416E+02 5.49388E+03
 -1       992 2.17360E+03 9.48309E+01 8.79371E+03
 -1       994 2.17360E+03 9.48309E+01 8.79371E+03
 -1       995 2.56378E+03 5.80614E+01 1.22183E+04
 -1       997 2.56378E+03 5.80614E+01 1.22183E+04
 -1       998 2.76826E+03 2.17808E+01 1.57226E+04
 -1      1000 2.76826E+03 2.17808E+01 1.57226E+04
 -1      1001 2.79658E+03-1.38655E+01 1.91621E+04
 -1      1003 2.79658E+03-1.38655E+01 1.91621E+04
 -1      1004 2.65878E+03-4.66426E+01 2.24348E+04
 -1      1006 2.65878E+03-4.66426E+01 2.24348E+04
 -1      1007 2.36708E+03-7.67872E+01 2.54273E+04
 -1      1009 2.36708E+03-7.67872E+01 2.54273E+04
 -1      1010 1.93598E+03-1.03769E+02 2.80420E+04
 -1      1012 1.93598E+03-1.03769E+02 2.80420E+04
 -1      1013 1.38163E+03-1.27245E+02 3.01889E+04
 -1      1015 1.38163E+03-1.27245E+02 3.01889E+04
 -1      1016 7.21749E+02-1.46937E+02 3.17910E+04
 -1      1018 7.21749E+02-1.46937E+02 3.17910E+04
 -1      1019-2.47343E+01-1.62620E+02 3.27846E+04
 -1      1021-2.47343E+01-1.62620E+02 3.27846E+04
 -1      1022-8.38041E+02-1.74159E+02 3.31210E+04
 -1      1024-8.38041E+02-1.74159E+02 3.31210E+04
 -1      1025-1.69794E+03-1.81496E+02 3.27665E+04
 -1      1027-1.69794E+03-1.81496E+02 3.27665E+04
 -1      1028-2.58415E+03-1.84664E+02 3.17040E+04
 -1      1030-2.58415E+03-1.84664E+02 3.17040E+04
 -1      1031-3.47679E+03-1.83787E+02 2.99321E+04
 -1      1033-3.47679E+03-1.83787E+02 2.99321E+04
 -1      1034-4.35679E+03-1.79079E+02 2.74654E+04
 -1      1036-4.35679E+03-1.79079E+02 2.74654E+04
 -1      1037-5.20638E+03-1.70843E+02 2.43338E+04
 -1      1039-5.20638E+03-1.70843E+02 2.43338E+04
 -1      1040-6.00943E+03-1.59467E+02 2.05818E+04
 -1      1042-6.00943E+03-1.59467E+02 2.05818E+04
 -1      1043-6.75194E+03-1.45418E+02 1.62668E+04
 -1      1045-6.75194E+03-1.45418E+02 1.62668E+04
 -1      1046-7.42234E+03-1.29237E+02 1.14582E+04
 -1      1048-7.42234E+03-1.29237E+02 1.14582E+04
 -1      1049-8.01183E+03-1.11525E+02 6.23534E+03
 -1      1051-8.01183E+03-1.11525E+02 6.23534E+03
 -1      1052-8.51470E+03-9.29425E+01 6.85672E+02
 -1      1054-8.51470E+03-9.29425E+01 6.85672E+02
 -1      1055-8.92852E+03-7.41740E+01-5.09713E+03
 -1      1057-8.92852E+03-7.41740E+01-5.09713E+03
 -1      1058-9.25435E+03-5.59954E+01-1.10156E+04
 -1      1060-9.25435E+03-5.59954E+01-1.10156E+04
 -1      1061-9.49678E+03-3.90661E+01-1.69697E+04
 -1      1063-9.49678E+03-3.90661E+01-1.69697E+04
 -1      1064-9.66420E+03-2.40716E+01-2.28608E+04
 -1      1066-9.66420E+03-2.40716E+01-2.28608E+04
 -1      1067-9.76836E+03-1.29239E+01-2.85883E+04
 -1      1069-9.76836E+03-1.29239E+01-2.85883E+04
 -1      1070-9.82222E+03-3.80146E+00-3.40582E+04
 -1      1072-9.82222E+03-3.80146E+00-3.40582E+04
 -1      1073-2.69336E+06-3.50422E+05-5.95039E+04
 -1      1075-1.32407E+06-1.79694E+05-5.95039E+04
 -1      1076-1.36082E+06-1.40478E-05-1.69595E+06
 -1      1078-1.36082E+06-1.31449E-05-1.69595E+06
 -1      1079-3.21691E-05-1.17816E-05-1.79650E+06
 -1      1081 3.19682E-05-1.08930E-05-1.79650E+06
 -1      1082 1.36082E+06-7.42814E-06-1.69595E+06
 -1      1084 1.36082E+06-7.58780E-06-1.69595E+06
 -1      1085 1.54965E+06 3.27633E+04-3.77321E+05
 -1      1087 1.54965E+06-3.27633E+04-3.77321E+05
 -1      1088-1.55247E+06-1.35449E-07 4.05727E+05
 -1      1090-1.55247E+06-8.41246E-07 3.63984E+05
 -1      1099 1.59552E+06-7.91393E+03 2.39345E+05
 -1      1101 1.59552E+06 7.91393E+03 2.39345E+05
 -1      1102-1.60074E+06 8.65980E-06-2.27982E+05
 -1      1104-1.60074E+06-4.72675E-06-2.17899E+05
 -1      1113 1.55216E+06-1.12537E+04-1.20980E+04
 -1      1115 1.55216E+06 1.12537E+04-1.20980E+04
 -1      1116-1.55915E+06 3.56092E-06 3.11459E+04
 -1      1118-1.55915E+06-1.73120E-05 4.54839E+04
 -1      1127 1.53964E+06-1.55391E+04 1.50645E+05
 -1      1129 1.53964E+06 1.55391E+04 1.50645E+05
 -1      1130-1.54782E+06 5.40758E-06-1.23954E+05
 -1      1132-1.54782E+06-1.24396E-05-1.04156E+05
 -1      1141 1.45102E+06-1.61553E+04 1.16170E+05
 -1      1143 1.45102E+06 1.61553E+04 1.16170E+05
 -1      1144-1.45981E+06 7.27152E-06-7.92043E+04
 -1      1146-1.45981E+06-3.77663E-06-5.86213E+04
 -1      1155 1.37391E+06-2.22501E+04 1.80558E+05
 -1      1157 1.37391E+06 2.22501E+04 1.80558E+05
 -1      1158-1.38277E+06 2.30797E-06-1.36940E+05
 -1      1160-1.38277E+06-1.28531E-06-1.08592E+05
 -1      1169 1.26784E+06-2.45274E+04 1.91118E+05
 -1      1171 1.26784E+06 2.45274E+04 1.91118E+05
 -1      1172-1.27626E+06 1.13168E-06-1.38892E+05
 -1      1174-1.27626E+06 5.28709E-06-1.07642E+05
 -1      1183 1.15066E+06-2.81252E+04 2.28422E+05
 -1      1185 1.15066E+06 2.81252E+04 2.28422E+05
 -1      1186-1.15816E+06 2.27236E-06-1.69256E+05
 -1      1188-1.15816E+06 1.02684E-05-1.33422E+05
 -1      1197 1.01766E+06-3.08413E+04 2.45336E+05
 -1      1199 1.01766E+06 3.08413E+04 2.45336E+05
 -1      1200-1.02381E+06-1.68599E-06-1.79806E+05
 -1      1202-1.02381E+06 3.94121E-06-1.40511E+05
 -1      1211 8.73790E+05-3.30354E+04 2.68508E+05
 -1      1213 8.73790E+05 3.30354E+04 2.68508E+05
 -1      1214-8.78210E+05-5.61149E-06-1.97701E+05
 -1      1216-8.78210E+05-1.71149E-06-1.55611E+05
 -1      1225 7.20068E+05-3.48585E+04 2.80348E+05
 -1      1227 7.20068E+05 3.48585E+04 2.80348E+05
 -1      1228-7.22435E+05-6.17304E-06-2.05688E+05
 -1      1230-7.22435E+05-1.59772E-07-1.61275E+05
 -1      1239 5.60171E+05-3.57381E+04 2.90960E+05
 -1      1241 5.60171E+05 3.57381E+04 2.90960E+05
 -1      1242-5.60217E+05-1.46168E-06-2.13706E+05
 -1      1244-5.60217E+05 1.04306E-05-1.68173E+05
 -1      1253 3.96774E+05-3.62053E+04 2.93039E+05
 -1      1255 3.96774E+05 3.62053E+04 2.93039E+05
 -1      1256-3.94295E+05-3.20200E-07-2.14942E+05
 -1      1258-3.94295E+05 1.72229E-05-1.68814E+05
 -1      1267 2.33466E+05-3.56295E+04 2.90750E+05
 -1      1269 2.33466E+05 3.56295E+04 2.90750E+05
 -1      1270-2.28318E+05-6.04541E-06-2.13264E+05
 -1      1272-2.28318E+05 1.23871E-05-1.67870E+05
 -1      1281 7.36074E+04-3.45527E+04 2.81009E+05
 -1      1283 7.36074E+04 3.45527E+04 2.81009E+05
 -1      1284-6.57115E+04-6.95353E-06-2.05991E+05
 -1      1286-6.57115E+04 1.73866E-06-1.61968E+05
 -1      1295-7.92412E+04-3.24606E+04 2.65724E+05
 -1      1297-7.92412E+04 3.24606E+04 2.65724E+05
 -1      1298 8.99033E+04 5.54456E-07-1.94708E+05
 -1      1300 8.99033E+04-4.92538E-06-1.53351E+05
 -1      1309-2.21565E+05-2.98148E+04 2.43747E+05
 -1      1311-2.21565E+05 2.98148E+04 2.43747E+05
 -1      1312 2.34952E+05 7.30120E-06-1.78522E+05
 -1      1314 2.34952E+05-1.04018E-05-1.40536E+05
 -1      1323-3.50023E+05-2.62743E+04 2.16184E+05
 -1      1325-3.50023E+05 2.62743E+04 2.16184E+05
 -1      1326 3.66040E+05 1.45893E-05-1.58234E+05
 -1      1328 3.66040E+05-1.42864E-05-1.24758E+05
 -1      1337-4.61315E+05-2.21700E+04 1.82846E+05
 -1      1339-4.61315E+05 2.21700E+04 1.82846E+05
 -1      1340 4.79815E+05 2.06827E-05-1.33735E+05
 -1      1342 4.79815E+05-1.25529E-05-1.05488E+05
 -1      1351-5.52589E+05-1.73821E+04 1.44639E+05
 -1      1353-5.52589E+05 1.73821E+04 1.44639E+05
 -1      1354 5.73381E+05 1.75661E-05-1.05684E+05
 -1      1356 5.73381E+05-1.23186E-05-8.35377E+04
 -1      1365-6.21012E+05-1.20355E+04 1.01856E+05
 -1      1367-6.21012E+05 1.20355E+04 1.01856E+05
 -1      1368 6.43873E+05 9.23207E-06-7.42522E+04
 -1      1370 6.43873E+05-1.70394E-05-5.89181E+04
 -1      1379-6.64507E+05-6.32603E+03 5.54397E+04
 -1      1381-6.64507E+05 6.32603E+03 5.54397E+04
 -1      1382 6.89181E+05 1.03229E-05-4.02750E+04
 -1      1384 6.89181E+05-1.35168E-05-3.22152E+04
 -1      1393-6.80837E+05-1.89680E+01 5.92173E+03
 -1      1395-6.80837E+05 1.89680E+01 5.92173E+03
 -1      1396 7.07055E+05 1.77392E-05-3.88019E+03
 -1      1398 7.07055E+05-9.31008E-06-3.85602E+03
 -1      1407-6.68940E+05 6.17699E+03-4.57455E+04
 -1      1409-6.68940E+05-6.17699E+03-4.57455E+04
 -1      1410 6.96423E+05 1.35426E-05 3.37962E+04
 -1      1412 6.96423E+05-1.20284E-05 2.59263E+04
 -1      1421-6.27459E+05 1.31771E+04-9.86196E+04
 -1      1423-6.27459E+05-1.31771E+04-9.86196E+04
 -1      1424 6.55930E+05 4.52914E-06 7.26700E+04
 -1      1426 6.55930E+05-1.14210E-05 5.58814E+04
 -1      1435-5.55907E+05 1.91524E+04-1.52824E+05
 -1      1437-5.55907E+05-1.91524E+04-1.52824E+05
 -1      1438 5.85105E+05 1.28364E-06 1.11974E+05
 -1      1440 5.85105E+05-6.25734E-06 8.75728E+04
 -1      1449-4.54847E+05 2.71217E+04-2.04170E+05
 -1      1451-4.54847E+05-2.71217E+04-2.04170E+05
 -1      1452 4.84536E+05 2.34112E-06 1.49710E+05
 -1      1454 4.84536E+05-4.99279E-06 1.15155E+05
 -1      1463-3.27609E+05 3.18068E+04-2.61632E+05
 -1      1465-3.27609E+05-3.18068E+04-2.61632E+05
 -1      1466 3.57590E+05 1.43324E-06 1.91741E+05
 -1      1468 3.57590E+05 6.76581E-07 1.51216E+05
 -1      1477-1.82191E+05 3.75280E+04-2.98817E+05
 -1      1479-1.82191E+05-3.75280E+04-2.98817E+05
 -1      1480 2.12318E+05 1.72577E-06 2.14653E+05
 -1      1482 2.12318E+05 9.75553E-06 1.66839E+05
 -1      1491-6.97680E+03-3.08712E-06-4.77721E+04
 -1      1493-6.97680E+03 4.05441E-06-4.77721E+04
 -1      1494 1.00716E-06-8.98814E-08-4.77372E+04
 -1      1496 1.06982E-06 7.60846E-06-4.77372E+04
 -1      1497 6.97680E+03 8.61013E-08-4.77721E+04
 -1      1499 6.97680E+03 3.08661E-06-4.77721E+04
 -1      1500-8.51342E+02-1.52583E+02 2.46858E+03
 -1      1502-8.51342E+02-1.52583E+02 2.46858E+03
 -1      1503-1.59605E+03-1.50416E+02 5.49388E+03
 -1      1505-1.59605E+03-1.50416E+02 5.49388E+03
 -1      1506-2.17360E+03-9.48309E+01 8.79371E+03
 -1      1508-2.17360E+03-9.48309E+01 8.79371E+03
 -1      1509-2.56378E+03-5.80614E+01 1.22183E+04
 -1      1511-2.56378E+03-5.80614E+01 1.22183E+04
 -1      1512-2.76826E+03-2.17808E+01 1.57226E+04
 -1      1514-2.76826E+03-2.17808E+01 1.57226E+04
 -1      1515-2.79658E+03 1.38655E+01 1.91621E+04
 -1      1517-2.79658E+03 1.38655E+01 1.91621E+04
 -1      1518-2.65878E+03 4.66426E+01 2.24348E+04
 -1      1520-2.65878E+03 4.66426E+01 2.24348E+04
 -1      1521-2.36708E+03 7.67872E+01 2.54273E+04
 -1      1523-2.36708E+03 7.67872E+01 2.54273E+04
 -1      1524-1.93598E+03 1.03769E+02 2.80420E+04
 -1      1526-1.93598E+03 1.03769E+02 2.80420E+04
 -1      1527-1.38163E+03 1.27245E+02 3.01889E+04
 -1      1529-1.38163E+03 1.27245E+02 3.01889E+04
 -1      1530-7.21749E+02 1.46937E+02 3.17910E+04
 -1      1532-7.21749E+02 1.46937E+02 3.17910E+04
 -1      1533 2.47343E+01 1.62620E+02 3.27846E+04
 -1      1535 2.47343E+01 1.62620E+02 3.27846E+04
 -1      1536 8.38041E+02 1.74159E+02 3.31210E+04
 -1      1538 8.38041E+02 1.74159E+02 3.31210E+04
 -1      1539 1.69794E+03 1.81496E+02 3.27665E+04
 -1      1541 1.69794E+03 1.81496E+02 3.27665E+04
 -1      1542 2.58415E+03 1.84664E+02 3.17040E+04
 -1      1544 2.58415E+03 1.84664E+02 3.17040E+04
 -1      1545 3.47679E+03 1.83787E+02 2.99321E+04
 -1      1547 3.47679E+03 1.83787E+02 2.99321E+04
 -1      1548 4.35679E+03 1.79079E+02 2.74654E+04
 -1      1550 4.35679E+03 1.79079E+02 2.74654E+04
 -1      1551 5.20638E+03 1.70843E+02 2.43338E+04
 -1      1553 5.20638E+03 1.70843E+02 2.43338E+04
 -1      1554 6.00943E+03 1.59467E+02 2.05818E+04
 -1      1556 6.00943E+03 1.59467E+02 2.05818E+04
 -1      1557 6.75194E+03 1.45418E+02 1.62668E+04
 -1      1559 6.75194E+03 1.45418E+02 1.62668E+04
 -1      1560 7.42234E+03 1.29237E+02 1.14582E+04
 -1      1562 7.42234E+03 1.29237E+02 1.14582E+04
 -1      1563 8.01183E+03 1.11525E+02 6.23534E+03
 -1      1565 8.01183E+03 1.11525E+02 6.23534E+03
 -1      1566 8.51470E+03 9.29425E+01 6.85672E+02
 -1      1568 8.51470E+03 9.29425E+01 6.85672E+02
 -1      1569 8.92852E+03 7.41740E+01-5.09713E+03
 -1      1571 8.92852E+03 7.41740E+01-5.09713E+03
 -1      1572 9.25435E+03 5.59954E+01-1.10156E+04
 -1      1574 9.25435E+03 5.59954E+01-1.10156E+04
 -1      1575 9.49678E+03 3.90661E+01-1.69697E+04
 -1      1577 9.49678E+03 3.90661E+01-1.69697E+04
 -1      1578 9.66420E+03 2.40716E+01-2.28608E+04
 -1      1580 9.66420E+03 2.40716E+01-2.28608E+04
 -1      1581 9.76836E+03 1.29239E+01-2.85883E+04
 -1      1583 9.76836E+03 1.29239E+01-2.85883E+04
 -1      1584 9.82222E+03 3.80146E+00-3.40582E+04
 -1      1586 9.82222E+03 3.80146E+00-3.40582E+04
 -1      1587 9.84536E+03-9.40510E-01-3.56274E+04
 -1      1589 9.84536E+03-9.40511E-01-3.56274E+04
 -1      1590 2.69336E+06 3.50422E+05-5.95039E+04
 -1      1592 1.32407E+06 1.79694E+05-5.95039E+04
 -1      1593 9.84536E+03 9.40511E-01-3.56274E+04
 -1      1595 9.84536E+03 9.40510E-01-3.56274E+04
 -1      1596-8.51342E+02 1.52583E+02 2.46858E+03
 -1      1598-8.51342E+02 1.52583E+02 2.46858E+03
 -1      1599-1.59605E+03 1.50416E+02 5.49388E+03
 -1      1601-1.59605E+03 1.50416E+02 5.49388E+03
 -1      1602-2.17360E+03 9.48309E+01 8.79371E+03
 -1      1604-2.17360E+03 9.48309E+01 8.79371E+03
 -1      1605-2.56378E+03 5.80614E+01 1.22183E+04
 -1      1607-2.56378E+03 5.80614E+01 1.22183E+04
 -1      1608-2.76826E+03 2.17808E+01 1.57226E+04
 -1      1610-2.76826E+03 2.17808E+01 1.57226E+04
 -1      1611-2.79658E+03-1.38655E+01 1.91621E+04
 -1      1613-2.79658E+03-1.38655E+01 1.91621E+04
 -1      1614-2.65878E+03-4.66426E+01 2.24348E+04
 -1      1616-2.65878E+03-4.66426E+01 2.24348E+04
 -1      1617-2.36708E+03-7.67872E+01 2.54273E+04
 -1      1619-2.36708E+03-7.67872E+01 2.54273E+04
 -1      1620-1.93598E+03-1.03769E+02 2.80420E+04
 -1      1622-1.93598E+03-1.03769E+02 2.80420E+04
 -1      1623-1.38163E+03-1.27245E+02 3.01889E+04
 -1      1625-1.38163E+03-1.27245E+02 3.01889E+04
 -1      1626-7.21749E+02-1.46937E+02 3.17910E+04
 -1      1628-7.21749E+02-1.46937E+02 3.17910E+04
 -1      1629 2.47343E+01-1.62620E+02 3.27846E+04
 -1      1631 2.47343E+01-1.62620E+02 3.27846E+04
 -1      1632 8.38041E+02-1.74159E+02 3.31210E+04
 -1      1634 8.38041E+02-1.74159E+02 3.31210E+04
 -1      1635 1.69794E+03-1.81496E+02 3.27665E+04
 -1      1637 1.69794E+03-1.81496E+02 3.27665E+04
 -1      1638 2.58415E+03-1.84664E+02 3.17040E+04
 -1      1640 2.58415E+03-1.84664E+02 3.17040E+04
 -1      1641 3.47679E+03-1.83787E+02 2.99321E+04
 -1      1643 3.47679E+03-1.83787E+02 2.99321E+04
 -1      1644 4.35679E+03-1.79079E+02 2.74654E+04
 -1      1646 4.35679E+03-1.79079E+02 2.74654E+04
 -1      1647 5.20638E+03-1.70843E+02 2.43338E+04
 -1      1649 5.20638E+03-1.70843E+02 2.43338E+04
 -1      1650 6.00943E+03-1.59467E+02 2.05818E+04
 -1      1652 6.00943E+03-1.59467E+02 2.05818E+04
 -1      1653 6.75194E+03-1.45418E+02 1.62668E+04
 -1      1655 6.75194E+03-1.45418E+02 1.62668E+04
 -1      1656 7.42234E+03-1.29237E+02 1.14582E+04
 -1      1658 7.42234E+03-1.29237E+02 1.14582E+04
 -1      1659 8.01183E+03-1.11525E+02 6.23534E+03
 -1      1661 8.01183E+03-1.11525E+02 6.23534E+03
 -1      1662 8.51470E+03-9.29425E+01 6.85672E+02
 -1      1664 8.51470E+03-9.29425E+01 6.85672E+02
 -1      1665 8.92852E+03-7.41740E+01-5.09713E+03
 -1      1667 8.92852E+03-7.41740E+01-5.09713E+03
 -1      1668 9.25435E+03-5.59954E+01-1.10156E+04
 -1      1670 9.25435E+03-5.59954E+01-1.10156E+04
 -1      1671 9.49678E+03-3.90661E+01-1.69697E+04
 -1      1673 9.49678E+03-3.90661E+01-1.69697E+04
 -1      1674 9.66420E+03-2.40716E+01-2.28608E+04
 -1      1676 9.66420E+03-2.40716E+01-2.28608E+04
 -1      1677 9.76836E+03-1.29239E+01-2.85883E+04
 -1      1679 9.76836E+03-1.29239E+01-2.85883E+04
 -1      1680 9.82222E+03-3.80146E+00-3.40582E+04
 -1      1682 9.82222E+03-3.80146E+00-3.40582E+04
 -1      1683 2.69336E+06-3.50422E+05-5.95039E+04
 -1      1685 1.32407E+06-1.79694E+05-5.95039E+04
 -1      1686 1.77332E+03-2.04003E+02 4.71434E+03
 -1      1688 1.77332E+03-2.04003E+02 4.71434E+03
 -1      1689 3.30263E+03-2.01536E+02 1.04021E+04
 -1      1691 3.30263E+03-2.01536E+02 1.04021E+04
 -1      1692 4.46067E+03-1.26287E+02 1.66227E+04
 -1      1694 4.46067E+03-1.26287E+02 1.66227E+04
 -1      1695 5.23438E+03-7.70850E+01 2.31215E+04
 -1      1697 5.23438E+03-7.70850E+01 2.31215E+04
 -1      1698 5.63926E+03-2.88983E+01 2.97877E+04
 -1      1700 5.63926E+03-2.88983E+01 2.97877E+04
 -1      1701 5.68992E+03 1.88213E+01 3.63470E+04
 -1      1703 5.68992E+03 1.88213E+01 3.63470E+04
 -1      1704 5.40700E+03 6.25193E+01 4.25980E+04
 -1      1706 5.40700E+03 6.25193E+01 4.25980E+04
 -1      1707 4.81528E+03 1.02784E+02 4.83223E+04
 -1      1709 4.81528E+03 1.02784E+02 4.83223E+04
 -1      1710 3.94372E+03 1.38789E+02 5.33314E+04
 -1      1712 3.94372E+03 1.38789E+02 5.33314E+04
 -1      1713 2.82481E+03 1.70131E+02 5.74512E+04
 -1      1715 2.82481E+03 1.70131E+02 5.74512E+04
 -1      1716 1.49419E+03 1.96408E+02 6.05339E+04
 -1      1718 1.49419E+03 1.96408E+02 6.05339E+04
 -1      1719-1.01068E+01 2.17338E+02 6.24566E+04
 -1      1721-1.01068E+01 2.17338E+02 6.24566E+04
 -1      1722-1.64830E+03 2.32728E+02 6.31252E+04
 -1      1724-1.64830E+03 2.32728E+02 6.31252E+04
 -1      1725-3.37967E+03 2.42506E+02 6.24751E+04
 -1      1727-3.37967E+03 2.42506E+02 6.24751E+04
 -1      1728-5.16343E+03 2.46714E+02 6.04723E+04
 -1      1730-5.16343E+03 2.46714E+02 6.04723E+04
 -1      1731-6.95955E+03 2.45517E+02 5.71134E+04
 -1      1733-6.95955E+03 2.45517E+02 5.71134E+04
 -1      1734-8.72966E+03 2.39202E+02 5.24255E+04
 -1      1736-8.72966E+03 2.39202E+02 5.24255E+04
 -1      1737-1.04380E+04 2.28172E+02 4.64644E+04
 -1      1739-1.04380E+04 2.28172E+02 4.64644E+04
 -1      1740-1.20520E+04 2.12945E+02 3.93134E+04
 -1      1742-1.20520E+04 2.12945E+02 3.93134E+04
 -1      1743-1.35435E+04 1.94147E+02 3.10804E+04
 -1      1745-1.35435E+04 1.94147E+02 3.10804E+04
 -1      1746-1.48892E+04 1.72496E+02 2.18954E+04
 -1      1748-1.48892E+04 1.72496E+02 2.18954E+04
 -1      1749-1.60713E+04 1.48800E+02 1.19068E+04
 -1      1751-1.60713E+04 1.48800E+02 1.19068E+04
 -1      1752-1.70783E+04 1.23934E+02 1.27766E+03
 -1      1754-1.70783E+04 1.23934E+02 1.27766E+03
 -1      1755-1.79051E+04 9.88209E+01-9.81815E+03
 -1      1757-1.79051E+04 9.88209E+01-9.81815E+03
 -1      1758-1.85539E+04 7.44860E+01-2.12008E+04
 -1      1760-1.85539E+04 7.44860E+01-2.12008E+04
 -1      1761-1.90338E+04 5.18282E+01-3.26878E+04
 -1      1763-1.90338E+04 5.18282E+01-3.26878E+04
 -1      1764-1.93614E+04 3.17084E+01-4.41003E+04
 -1      1766-1.93614E+04 3.17084E+01-4.41003E+04
 -1      1767-1.95607E+04 1.68740E+01-5.52606E+04
 -1      1769-1.95607E+04 1.68740E+01-5.52606E+04
 -1      1770-1.96612E+04 4.72776E+00-6.60048E+04
 -1      1772-1.96612E+04 4.72776E+00-6.60048E+04
 -1      1773 1.77332E+03 2.04003E+02 4.71434E+03
 -1      1775 1.77332E+03 2.04003E+02 4.71434E+03
 -1      1776 3.30263E+03 2.01536E+02 1.04021E+04
 -1      1778 3.30263E+03 2.01536E+02 1.04021E+04
 -1      1779 4.46067E+03 1.26287E+02 1.66227E+04
 -1      1781 4.46067E+03 1.26287E+02 1.66227E+04
 -1      1782 5.23438E+03 7.70850E+01 2.31215E+04
 -1      1784 5.23438E+03 7.70850E+01 2.31215E+04
 -1      1785 5.63926E+03 2.88983E+01 2.97877E+04
 -1      1787 5.63926E+03 2.88983E+01 2.97877E+04
 -1      1788 5.68992E+03-1.88213E+01 3.63470E+04
 -1      1790 5.68992E+03-1.88213E+01 3.63470E+04
 -1      1791 5.40700E+03-6.25193E+01 4.25980E+04
 -1      1793 5.40700E+03-6.25193E+01 4.25980E+04
 -1      1794 4.81528E+03-1.02784E+02 4.83223E+04
 -1      1796 4.81528E+03-1.02784E+02 4.83223E+04
 -1      1797 3.94372E+03-1.38789E+02 5.33314E+04
 -1      1799 3.94372E+03-1.38789E+02 5.33314E+04
 -1      1800 2.82481E+03-1.70131E+02 5.74512E+04
 -1      1802 2.82481E+03-1.70131E+02 5.74512E+04
 -1      1803 1.49419E+03-1.96408E+02 6.05339E+04
 -1      1805 1.49419E+03-1.96408E+02 6.05339E+04
 -1      1806-1.01068E+01-2.17338E+02 6.24566E+04
 -1      1808-1.01068E+01-2.17338E+02 6.24566E+04
 -1      1809-1.64830E+03-2.32728E+02 6.31252E+04
 -1      1811-1.64830E+03-2.32728E+02 6.31252E+04
 -1      1812-3.37967E+03-2.42506E+02 6.24751E+04
 -1      1814-3.37967E+03-2.42506E+02 6.24751E+04
 -1      1815-5.16343E+03-2.46714E+02 6.04723E+04
 -1      1817-5.16343E+03-2.46714E+02 6.04723E+04
 -1      1818-6.95955E+03-2.45517E+02 5.71134E+04
 -1      1820-6.95955E+03-2.45517E+02 5.71134E+04
 -1      1821-8.72966E+03-2.39202E+02 5.24255E+04
 -1      1823-8.72966E+03-2.39202E+02 5.24255E+04
 -1      1824-1.04380E+04-2.28172E+02 4.64644E+04
 -1      1826-1.04380E+04-2.28172E+02 4.64644E+04
 -1      1827-1.20520E+04-2.12945E+02 3.93134E+04
 -1      1829-1.20520E+04-2.12945E+02 3.93134E+04
 -1      1830-1.35435E+04-1.94147E+02 3.10804E+04
 -1      1832-1.35435E+04-1.94147E+02 3.10804E+04
 -1      1833-1.48892E+04-1.72496E+02 2.18954E+04
 -1      1835-1.48892E+04-1.72496E+02 2.18954E+04
 -1      1836-1.60713E+04-1.48800E+02 1.19068E+04
 -1      1838-1.60713E+04-1.48800E+02 1.19068E+04
 -1      1839-1.70783E+04-1.23934E+02 1.27766E+03
 -1      1841-1.70783E+04-1.23934E+02 1.27766E+03
 -1      1842-1.79051E+04-9.88209E+01-9.81815E+03
 -1      1844-1.79051E+04-9.88209E+01-9.81815E+03
 -1      1845-1.85539E+04-7.44860E+01-2.12008E+04
 -1      1847-1.85539E+04-7.44860E+01-2.12008E+04
 -1      1848-1.90338E+04-5.18282E+01-3.26878E+04
 -1      1850-1.90338E+04-5.18282E+01-3.26878E+04
 -1      1851-1.93614E+04-3.17084E+01-4.41003E+04
 -1      1853-1.93614E+04-3.17084E+01-4.41003E+04
 -1      1854-1.95607E+04-1.68740E+01-5.52606E+04
 -1      1856-1.95607E+04-1.68740E+01-5.52606E+04
 -1      1857-1.96612E+04-4.72776E+00-6.60048E+04
 -1      1859-1.96612E+04-4.72775E+00-6.60048E+04
 -1      1860 1.25127E+03 1.47820E-06 5.99534E+03
 -1      1862 1.25127E+03 3.36641E-06 5.99534E+03
 -1      1863 2.34194E+03 1.75749E-06 1.30319E+04
 -1      1865 2.34194E+03 2.74042E-06 1.30319E+04
 -1      1866 3.17674E+03-1.95371E-06 2.09938E+04
 -1      1868 3.17674E+03-1.12372E-06 2.09938E+04
 -1      1869 3.73081E+03-2.49894E-06 2.94832E+04
 -1      1871 3.73081E+03-2.20491E-06 2.94832E+04
 -1      1872 4.01761E+03 4.91937E-07 3.82005E+04
 -1      1874 4.01761E+03 4.75123E-08 3.82005E+04
 -1      1875 4.05269E+03 1.57254E-06 4.68233E+04
 -1      1877 4.05269E+03-1.05093E-06 4.68233E+04
 -1      1878 3.85054E+03-4.42137E-06 5.50575E+04
 -1      1880 3.85054E+03 2.97111E-06 5.50575E+04
 -1      1881 3.42965E+03-3.98607E-06 6.26201E+04
 -1      1883 3.42965E+03 3.90044E-06 6.26201E+04
 -1      1884 2.81040E+03 3.32096E-06 6.92554E+04
 -1      1886 2.81040E+03-1.67322E-06 6.92554E+04
 -1      1887 2.01595E+03 7.07976E-06 7.47334E+04
 -1      1889 2.01595E+03-4.66301E-06 7.47334E+04
 -1      1890 1.07150E+03 1.96457E-06 7.88570E+04
 -1      1892 1.07150E+03 3.13192E-06 7.88570E+04
 -1      1893 4.06965E+00-3.87221E-06 8.14633E+04
 -1      1895 4.06965E+00 6.88050E-06 8.14633E+04
 -1      1896-1.15816E+03 7.76380E-07 8.24270E+04
 -1      1898-1.15816E+03 5.68747E-06 8.24270E+04
 -1      1899-2.38632E+03 8.38301E-07 8.16620E+04
 -1      1901-2.38632E+03 1.07204E-06 8.16620E+04
 -1      1902-3.65147E+03 1.48239E-06 7.91222E+04
 -1      1904-3.65147E+03-3.01720E-07 7.91222E+04
 -1      1905-4.92523E+03 1.51414E-06 7.48015E+04
 -1      1907-4.92523E+03-1.91451E-06 7.48015E+04
 -1      1908-6.18038E+03-2.07518E-06 6.87333E+04
 -1      1910-6.18038E+03-2.24887E-06 6.87333E+04
 -1      1911-7.39152E+03-6.12889E-06 6.09885E+04
 -1      1913-7.39152E+03-1.89934E-06 6.09885E+04
 -1      1914-8.53563E+03 1.49135E-06 5.16729E+04
 -1      1916-8.53563E+03-2.34668E-06 5.16729E+04
 -1      1917-9.59267E+03-1.53391E-07 4.09239E+04
 -1      1919-9.59267E+03 6.42500E-07 4.09239E+04
 -1      1920-1.05461E+04 2.12803E-06 2.89067E+04
 -1      1922-1.05461E+04-4.63104E-07 2.89067E+04
 -1      1923-1.13833E+04-1.38408E-06 1.58089E+04
 -1      1925-1.13833E+04-4.93284E-07 1.58089E+04
 -1      1926-1.20960E+04-1.38750E-06 1.83553E+03
 -1      1928-1.20960E+04-1.25043E-06 1.83553E+03
 -1      1929-1.26808E+04 5.96010E-07-1.27971E+04
 -1      1931-1.26808E+04-1.98482E-07-1.27971E+04
 -1      1932-1.31391E+04 1.12055E-06-2.78675E+04
 -1      1934-1.31391E+04 5.87377E-07-2.78675E+04
 -1      1935-1.34775E+04-7.07627E-07-4.31553E+04
 -1      1937-1.34775E+04 4.61521E-06-4.31553E+04
 -1      1938-1.37083E+04-6.75433E-06-5.84488E+04
 -1      1940-1.37083E+04 7.18317E-06-5.84488E+04
 -1      1941-1.38497E+04-7.87788E-06-7.35499E+04
 -1      1943-1.38497E+04 5.32736E-06-7.35499E+04
 -1      1944-1.39271E+04-4.05655E-06-8.82864E+04
 -1      1946-1.39271E+04 1.40001E-06-8.82864E+04
 -1      1947-1.33636E-06 1.25719E-06 5.90535E+03
 -1      1949-1.27134E-06 3.58703E-06 5.90535E+03
 -1      1950-3.64410E-07 4.29087E-07 1.28871E+04
 -1      1952-2.19704E-07 1.51487E-06 1.28871E+04
 -1      1953-3.25999E-07-6.55826E-07 2.08697E+04
 -1      1955-1.08405E-07-2.84679E-06 2.08697E+04
 -1      1956 5.76572E-08-4.69530E-07 2.93992E+04
 -1      1958 1.28811E-07-3.31219E-06 2.93992E+04
 -1      1959 9.46123E-07 3.12649E-06 3.81483E+04
 -1      1961 1.09569E-06-2.37894E-06 3.81483E+04
 -1      1962 7.32721E-07 3.45365E-06 4.68028E+04
 -1      1964 9.79486E-07-6.73099E-06 4.68028E+04
 -1      1965 1.66641E-06 1.91256E-06 5.50651E+04
 -1      1967 1.67584E-06-1.10277E-06 5.50651E+04
 -1      1968 2.53996E-06 3.42824E-06 6.26540E+04
 -1      1970 2.59259E-06 2.41664E-06 6.26540E+04
 -1      1971 1.63645E-06 7.56925E-06 6.93126E+04
 -1      1973 1.99219E-06-4.75848E-06 6.93126E+04
 -1      1974 1.88165E-06 9.03192E-06 7.48114E+04
 -1      1976 1.75528E-06-2.52668E-06 7.48114E+04
 -1      1977 1.86922E-06-4.02844E-07 7.89526E+04
 -1      1979 2.19402E-06 1.50551E-06 7.89526E+04
 -1      1980 8.34014E-07-5.37780E-06 8.15735E+04
 -1      1982 1.05267E-06 6.26633E-06 8.15735E+04
 -1      1983 1.00865E-07-1.15105E-06 8.25486E+04
 -1      1985-1.89748E-07 1.27120E-05 8.25486E+04
 -1      1986-1.34609E-06 3.32102E-06 8.17920E+04
 -1      1988-1.47675E-06 4.52652E-06 8.17920E+04
 -1      1989-2.85400E-06-1.80945E-06 7.92574E+04
 -1      1991-2.90215E-06 5.29654E-06 7.92574E+04
 -1      1992-2.86302E-06-2.76865E-06 7.49391E+04
 -1      1994-3.41229E-06 8.58292E-07 7.49391E+04
 -1      1995-8.86264E-07-3.40483E-06 6.88705E+04
 -1      1997-1.08406E-06-1.56305E-06 6.88705E+04
 -1      1998 6.34943E-07-1.33405E-07 6.11228E+04
 -1      2000 6.05811E-07 1.98431E-06 6.11228E+04
 -1      2001-7.24253E-07 3.16697E-06 5.18021E+04
 -1      2003-8.27912E-07 5.73320E-06 5.18021E+04
 -1      2004-1.56426E-06 3.15053E-06 4.10464E+04
 -1      2006-1.83204E-06 7.03187E-07 4.10464E+04
 -1      2007 2.71270E-07 3.44212E-06 2.90211E+04
 -1      2009-8.11437E-07-3.92579E-06 2.90211E+04
 -1      2010 1.17205E-06 1.95808E-06 1.59144E+04
 -1      2012 7.70881E-08-3.65418E-06 1.59144E+04
 -1      2013 7.52171E-07 6.64144E-06 1.93177E+03
 -1      2015 1.20711E-07 1.15276E-06 1.93177E+03
 -1      2016 1.41610E-06 6.00239E-07-1.27098E+04
 -1      2018 9.46865E-07 3.40672E-06-1.27098E+04
 -1      2019 2.29482E-06-1.29836E-06-2.77882E+04
 -1      2021 1.63021E-06 2.39908E-06-2.77882E+04
 -1      2022 1.47910E-06-4.07767E-06-4.30826E+04
 -1      2024 1.73152E-06 5.51294E-06-4.30826E+04
 -1      2025 1.12347E-06-3.21198E-06-5.83801E+04
 -1      2027 1.18131E-06 3.18800E-06-5.83801E+04
 -1      2028 4.24189E-07 4.49598E-07-7.34825E+04
 -1      2030-2.89664E-08-4.63209E-06-7.34825E+04
 -1      2031 7.67611E-07 4.68111E-07-8.82179E+04
 -1      2033 1.15897E-07 5.69259E-06-8.82179E+04
 -1      2034-1.25127E+03 4.03359E-07 5.99534E+03
 -1      2036-1.25127E+03-1.27391E-07 5.99534E+03
 -1      2037-2.34194E+03-2.43868E-07 1.30319E+04
 -1      2039-2.34194E+03-2.20639E-06 1.30319E+04
 -1      2040-3.17674E+03-1.47113E-06 2.09938E+04
 -1      2042-3.17674E+03-4.81485E-06 2.09938E+04
 -1      2043-3.73081E+03-2.56166E-08 2.94832E+04
 -1      2045-3.73081E+03-2.75267E-06 2.94832E+04
 -1      2046-4.01761E+03 6.01501E-07 3.82005E+04
 -1      2048-4.01761E+03 4.45508E-08 3.82005E+04
 -1      2049-4.05269E+03-5.66715E-07 4.68233E+04
 -1      2051-4.05269E+03 5.09028E-08 4.68233E+04
 -1      2052-3.85054E+03-1.83232E-07 5.50575E+04
 -1      2054-3.85054E+03 2.51708E-06 5.50575E+04
 -1      2055-3.42965E+03 3.32761E-06 6.26201E+04
 -1      2057-3.42965E+03 2.60270E-06 6.26201E+04
 -1      2058-2.81040E+03 6.74055E-06 6.92554E+04
 -1      2060-2.81040E+03-5.67155E-06 6.92554E+04
 -1      2061-2.01595E+03 3.46217E-06 7.47334E+04
 -1      2063-2.01595E+03-6.13687E-06 7.47334E+04
 -1      2064-1.07150E+03-3.20829E-06 7.88570E+04
 -1      2066-1.07150E+03-1.11365E-06 7.88570E+04
 -1      2067-4.06965E+00-1.13927E-06 8.14633E+04
 -1      2069-4.06965E+00 6.36877E-06 8.14633E+04
 -1      2070 1.15816E+03-3.57999E-06 8.24270E+04
 -1      2072 1.15816E+03 1.03977E-05 8.24270E+04
 -1      2073 2.38632E+03-3.81830E-06 8.16620E+04
 -1      2075 2.38632E+03 9.26427E-06 8.16620E+04
 -1      2076 3.65147E+03-2.76292E-06 7.91222E+04
 -1      2078 3.65147E+03 1.15695E-06 7.91222E+04
 -1      2079 4.92523E+03-1.90482E-06 7.48015E+04
 -1      2081 4.92523E+03 3.17943E-07 7.48015E+04
 -1      2082 6.18038E+03 2.61969E-07 6.87333E+04
 -1      2084 6.18038E+03-1.25097E-07 6.87333E+04
 -1      2085 7.39152E+03 3.47178E-06 6.09885E+04
 -1      2087 7.39152E+03-8.64368E-07 6.09885E+04
 -1      2088 8.53563E+03 2.61034E-06 5.16729E+04
 -1      2090 8.53563E+03 1.71716E-06 5.16729E+04
 -1      2091 9.59267E+03 6.19819E-06 4.09239E+04
 -1      2093 9.59267E+03-1.59593E-06 4.09239E+04
 -1      2094 1.05461E+04 2.75308E-06 2.89067E+04
 -1      2096 1.05461E+04-6.15781E-06 2.89067E+04
 -1      2097 1.13833E+04 3.51741E-06 1.58089E+04
 -1      2099 1.13833E+04-3.83459E-06 1.58089E+04
 -1      2100 1.20960E+04 4.12234E-06 1.83553E+03
 -1      2102 1.20960E+04-1.64915E-06 1.83553E+03
 -1      2103 1.26808E+04 7.31076E-07-1.27971E+04
 -1      2105 1.26808E+04-4.29560E-07-1.27971E+04
 -1      2106 1.31391E+04-4.25245E-06-2.78675E+04
 -1      2108 1.31391E+04-4.92149E-07-2.78675E+04
 -1      2109 1.34775E+04-3.08526E-06-4.31553E+04
 -1      2111 1.34775E+04 3.63493E-07-4.31553E+04
 -1      2112 1.37083E+04 5.85497E-07-5.84488E+04
 -1      2114 1.37083E+04-3.88925E-06-5.84488E+04
 -1      2115 1.38497E+04 8.01753E-06-7.35499E+04
 -1      2117 1.38497E+04 1.76791E-06-7.35499E+04
 -1      2118 1.39271E+04 7.38640E-06-8.82864E+04
 -1      2120 1.39271E+04 2.57233E-06-8.82864E+04
 -1      2121-1.77332E+03-2.04003E+02 4.71434E+03
 -1      2123-1.77332E+03-2.04003E+02 4.71434E+03
 -1      2124-3.30263E+03-2.01536E+02 1.04021E+04
 -1      2126-3.30263E+03-2.01536E+02 1.04021E+04
 -1      2127-4.46067E+03-1.26287E+02 1.66227E+04
 -1      2129-4.46067E+03-1.26287E+02 1.66227E+04
 -1      2130-5.23438E+03-7.70850E+01 2.31215E+04
 -1      2132-5.23438E+03-7.70850E+01 2.31215E+04
 -1      2133-5.63926E+03-2.88983E+01 2.97877E+04
 -1      2135-5.63926E+03-2.88983E+01 2.97877E+04
 -1      2136-5.68992E+03 1.88213E+01 3.63470E+04
 -1      2138-5.68992E+03 1.88213E+01 3.63470E+04
 -1      2139-5.40700E+03 6.25193E+01 4.25980E+04
 -1      2141-5.40700E+03 6.25193E+01 4.25980E+04
 -1      2142-4.81528E+03 1.02784E+02 4.83223E+04
 -1      2144-4.81528E+03 1.02784E+02 4.83223E+04
 -1      2145-3.94372E+03 1.38789E+02 5.33314E+04
 -1      2147-3.94372E+03 1.38789E+02 5.33314E+04
 -1      2148-2.82481E+03 1.70131E+02 5.74512E+04
 -1      2150-2.82481E+03 1.70131E+02 5.74512E+04
 -1      2151-1.49419E+03 1.96408E+02 6.05339E+04
 -1      2153-1.49419E+03 1.96408E+02 6.05339E+04
 -1      2154 1.01068E+01 2.17338E+02 6.24566E+04
 -1      2156 1.01068E+01 2.17338E+02 6.24566E+04
 -1      2157 1.64830E+03 2.32728E+02 6.31252E+04
 -1      2159 1.64830E+03 2.32728E+02 6.31252E+04
 -1      2160 3.37967E+03 2.42506E+02 6.24751E+04
 -1      2162 3.37967E+03 2.42506E+02 6.24751E+04
 -1      2163 5.16343E+03 2.46714E+02 6.04723E+04
 -1      2165 5.16343E+03 2.46714E+02 6.04723E+04
 -1      2166 6.95955E+03 2.45517E+02 5.71134E+04
 -1      2168 6.95955E+03 2.45517E+02 5.71134E+04
 -1      2169 8.72966E+03 2.39202E+02 5.24255E+04
 -1      2171 8.72966E+03 2.39202E+02 5.24255E+04
 -1      2172 1.04380E+04 2.28172E+02 4.64644E+04
 -1      2174 1.04380E+04 2.28172E+02 4.64644E+04
 -1      2175 1.20520E+04 2.12945E+02 3.93134E+04
 -1      2177 1.20520E+04 2.12945E+02 3.93134E+04
 -1      2178 1.35435E+04 1.94147E+02 3.10804E+04
 -1      2180 1.35435E+04 1.94147E+02 3.10804E+04
 -1      2181 1.48892E+04 1.72496E+02 2.18954E+04
 -1      2183 1.48892E+04 1.72496E+02 2.18954E+04
 -1      2184 1.60713E+04 1.48800E+02 1.19068E+04
 -1      2186 1.60713E+04 1.48800E+02 1.19068E+04
 -1      2187 1.70783E+04 1.23934E+02 1.27766E+03
 -1      2189 1.70783E+04 1.23934E+02 1.27766E+03
 -1      2190 1.79051E+04 9.88209E+01-9.81815E+03
 -1      2192 1.79051E+04 9.88209E+01-9.81815E+03
 -1      2193 1.85539E+04 7.44860E+01-2.12008E+04
 -1      2195 1.85539E+04 7.44860E+01-2.12008E+04
 -1      2196 1.90338E+04 5.18282E+01-3.26878E+04
 -1      2198 1.90338E+04 5.18282E+01-3.26878E+04
 -1      2199 1.93614E+04 3.17084E+01-4.41003E+04
 -1      2201 1.93614E+04 3.17084E+01-4.41003E+04
 -1      2202 1.95607E+04 1.68740E+01-5.52606E+04
 -1      2204 1.95607E+04 1.68740E+01-5.52606E+04
 -1      2205 1.96612E+04 4.72775E+00-6.60048E+04
 -1      2207 1.96612E+04 4.72775E+00-6.60048E+04
 -1      2208-1.77332E+03 2.04003E+02 4.71434E+03
 -1      2210-1.77332E+03 2.04003E+02 4.71434E+03
 -1      2211-3.30263E+03 2.01536E+02 1.04021E+04
 -1      2213-3.30263E+03 2.01536E+02 1.04021E+04
 -1      2214-4.46067E+03 1.26287E+02 1.66227E+04
 -1      2216-4.46067E+03 1.26287E+02 1.66227E+04
 -1      2217-5.23438E+03 7.70850E+01 2.31215E+04
 -1      2219-5.23438E+03 7.70850E+01 2.31215E+04
 -1      2220-5.63926E+03 2.88983E+01 2.97877E+04
 -1      2222-5.63926E+03 2.88983E+01 2.97877E+04
 -1      2223-5.68992E+03-1.88213E+01 3.63470E+04
 -1      2225-5.68992E+03-1.88213E+01 3.63470E+04
 -1      2226-5.40700E+03-6.25193E+01 4.25980E+04
 -1      2228-5.40700E+03-6.25193E+01 4.25980E+04
 -1      2229-4.81528E+03-1.02784E+02 4.83223E+04
 -1      2231-4.81528E+03-1.02784E+02 4.83223E+04
 -1      2232-3.94372E+03-1.38789E+02 5.33314E+04
 -1      2234-3.94372E+03-1.38789E+02 5.33314E+04
 -1      2235-2.82481E+03-1.70131E+02 5.74512E+04
 -1      2237-2.82481E+03-1.70131E+02 5.74512E+04
 -1      2238-1.49419E+03-1.96408E+02 6.05339E+04
 -1      2240-1.49419E+03-1.96408E+02 6.05339E+04
 -1      2241 1.01068E+01-2.17338E+02 6.24566E+04
 -1      2243 1.01068E+01-2.17338E+02 6.24566E+04
 -1      2244 1.64830E+03-2.32728E+02 6.31252E+04
 -1      2246 1.64830E+03-2.32728E+02 6.31252E+04
 -1      2247 3.37967E+03-2.42506E+02 6.24751E+04
 -1      2249 3.37967E+03-2.42506E+02 6.24751E+04
 -1      2250 5.16343E+03-2.46714E+02 6.04723E+04
 -1      2252 5.16343E+03-2.46714E+02 6.04723E+04
 -1      2253 6.95955E+03-2.45517E+02 5.71134E+04
 -1      2255 6.95955E+03-2.45517E+02 5.71134E+04
 -1      2256 8.72966E+03-2.39202E+02 5.24255E+04
 -1      2258 8.72966E+03-2.39202E+02 5.24255E+04
 -1      2259 1.04380E+04-2.28172E+02 4.64644E+04
 -1      2261 1.04380E+04-2.28172E+02 4.64644E+04
 -1      2262 1.20520E+04-2.12945E+02 3.93134E+04
 -1      2264 1.20520E+04-2.12945E+02 3.93134E+04
 -1      2265 1.35435E+04-1.94147E+02 3.10804E+04
 -1      2267 1.35435E+04-1.94147E+02 3.10804E+04
 -1      2268 1.48892E+04-1.72496E+02 2.18954E+04
 -1      2270 1.48892E+04-1.72496E+02 2.18954E+04
 -1      2271 1.60713E+04-1.48800E+02 1.19068E+04
 -1      2273 1.60713E+04-1.48800E+02 1.19068E+04
 -1      2274 1.70783E+04-1.23934E+02 1.27766E+03
 -1      2276 1.70783E+04-1.23934E+02 1.27766E+03
 -1      2277 1.79051E+04-9.88209E+01-9.81815E+03
 -1      2279 1.79051E+04-9.88209E+01-9.81815E+03
 -1      2280 1.85539E+04-7.44860E+01-2.12008E+04
 -1      2282 1.85539E+04-7.44860E+01-2.12008E+04
 -1      2283 1.90338E+04-5.18282E+01-3.26878E+04
 -1      2285 1.90338E+04-5.18282E+01-3.26878E+04
 -1      2286 1.93614E+04-3.17084E+01-4.41003E+04
 -1      2288 1.93614E+04-3.17084E+01-4.41003E+04
 -1      2289 1.95607E+04-1.68740E+01-5.52606E+04
 -1      2291 1.95607E+04-1.68740E+01-5.52606E+04
 -1      2292 1.96612E+04-4.72775E+00-6.60048E+04
 -1      2294 1.96612E+04-4.72776E+00-6.60048E+04
 -3
    1PSTEP                        32           1           1          
    1PGM                1.000000E+00                                  
    1PGK                2.561743E+06                                  
    1PHID                         -1                                  
    1PSUBC                         0                                  
    1PMODE                         8                                  
  100CL  108 254.7345895         930                     2    8MODAL      1
 -4  ERROR       1    1
 -5  STR(%)      1    1    0    0
 -1       404 0.00000E+00
 -1       406 0.00000E+00
 -1       407 0.00000E+00
 -1       409 0.00000E+00
 -1       410 0.00000E+00
 -1       412 0.00000E+00
 -1       413 0.00000E+00
 -1       415 0.00000E+00
 -1       424 0.00000E+00
 -1       426 0.00000E+00
 -1       427 0.00000E+00
 -1       429 0.00000E+00
 -1       438 0.00000E+00
 -1       440 0.00000E+00
 -1       441 0.00000E+00
 -1       443 0.00000E+00
 -1       444 0.00000E+00
 -1       446 0.00000E+00
 -1       447 0.00000E+00
 -1       449 0.00000E+00
 -1       458 0.00000E+00
 -1       460 0.00000E+00
 -1       461 0.00000E+00
 -1       463 0.00000E+00
 -1       472 0.00000E+00
 -1       474 0.00000E+00
 -1       475 0.00000E+00
 -1       477 0.00000E+00
 -1       478 0.00000E+00
 -1       480 0.00000E+00
 -1       481 0.00000E+00
 -1       483 0.00000E+00
 -1       484 0.00000E+00
 -1       486 0.00000E+00
 -1       487 0.00000E+00
 -1       489 0.00000E+00
 -1       490 0.00000E+00
 -1       492 0.00000E+00
 -1       493 0.00000E+00
 -1       495 0.00000E+00
 -1       496 0.00000E+00
 -1       498 0.00000E+00
 -1       499 0.00000E+00
 -1       501 0.00000E+00
 -1       502 0.00000E+00
 -1       504 0.00000E+00
 -1       505 0.00000E+00
 -1       507 0.00000E+00
 -1       508 0.00000E+00
 -1       510 0.00000E+00
 -1       511 0.00000E+00
 -1       513 0.00000E+00
 -1       514 0.00000E+00
 -1       516 0.00000E+00
 -1       517 0.00000E+00
 -1       519 0.00000E+00
 -1       520 0.00000E+00
 -1       522 0.00000E+00
 -1       523 0.00000E+00
 -1       525 0.00000E+00
 -1       526 0.00000E+00
 -1       528 0.00000E+00
 -1       529 0.00000E+00
 -1       531 0.00000E+00
 -1       532 0.00000E+00
 -1       534 0.00000E+00
 -1       535 0.00000E+00
 -1       537 0.00000E+00
 -1       538 0.00000E+00
 -1       540 0.00000E+00
 -1       541 0.00000E+00
 -1       543 0.00000E+00
 -1       544 0.00000E+00
 -1       546 0.00000E+00
 -1       547 0.00000E+00
 -1       549 0.00000E+00
 -1       550 0.00000E+00
 -1       552 0.00000E+00
 -1       553 0.00000E+00
 -1       555 0.00000E+00
 -1       556 0.00000E+00
 -1       558 0.00000E+00
 -1       559 0.00000E+00
 -1       561 0.00000E+00
 -1       562 0.00000E+00
 -1       564 0.00000E+00
 -1       565 0.00000E+00
 -1       567 0.00000E+00
 -1       568 0.00000E+00
 -1       570 0.00000E+00
 -1       571 0.00000E+00
 -1       573 0.00000E+00
 -1       574 0.00000E+00
 -1       576 0.00000E+00
 -1       577 0.00000E+00
 -1       579 0.00000E+00
 -1       588 0.00000E+00
 -1       590 0.00000E+00
 -1       591 0.00000E+00
 -1       593 0.00000E+00
 -1       602 0.00000E+00
 -1       604 0.00000E+00
 -1       605 0.00000E+00
 -1       607 0.00000E+00
 -1       616 0.00000E+00
 -1       618 0.00000E+00
 -1       619 0.00000E+00
 -1       621 0.00000E+00
 -1       630 0.00000E+00
 -1       632 0.00000E+00
 -1       633 0.00000E+00
 -1       635 0.00000E+00
 -1       644 0.00000E+00
 -1       646 0.00000E+00
 -1       647 0.00000E+00
 -1       649 0.00000E+00
 -1       658 0.00000E+00
 -1       660 0.00000E+00
 -1       661 0.00000E+00
 -1       663 0.00000E+00
 -1       672 0.00000E+00
 -1       674 0.00000E+00
 -1       675 0.00000E+00
 -1       677 0.00000E+00
 -1       686 0.00000E+00
 -1       688 0.00000E+00
 -1       689 0.00000E+00
 -1       691 0.00000E+00
 -1       700 0.00000E+00
 -1       702 0.00000E+00
 -1       703 0.00000E+00
 -1       705 0.00000E+00
 -1       714 0.00000E+00
 -1       716 0.00000E+00
 -1       717 0.00000E+00
 -1       719 0.00000E+00
 -1       728 0.00000E+00
 -1       730 0.00000E+00
 -1       731 0.00000E+00
 -1       733 0.00000E+00
 -1       742 0.00000E+00
 -1       744 0.00000E+00
 -1       745 0.00000E+00
 -1       747 0.00000E+00
 -1       756 0.00000E+00
 -1       758 0.00000E+00
 -1       759 0.00000E+00
 -1       761 0.00000E+00
 -1       770 0.00000E+00
 -1       772 0.00000E+00
 -1       773 0.00000E+00
 -1       775 0.00000E+00
 -1       784 0.00000E+00
 -1       786 0.00000E+00
 -1       787 0.00000E+00
 -1       789 0.00000E+00
 -1       798 0.00000E+00
 -1       800 0.00000E+00
 -1       801 0.00000E+00
 -1       803 0.00000E+00
 -1       812 0.00000E+00
 -1       814 0.00000E+00
 -1       815 0.00000E+00
 -1       817 0.00000E+00
 -1       826 0.00000E+00
 -1       828 0.00000E+00
 -1       829 0.00000E+00
 -1       831 0.00000E+00
 -1       840 0.00000E+00
 -1       842 0.00000E+00
 -1       843 0.00000E+00
 -1       845 0.00000E+00
 -1       854 0.00000E+00
 -1       856 0.00000E+00
 -1       857 0.00000E+00
 -1       859 0.00000E+00
 -1       868 0.00000E+00
 -1       870 0.00000E+00
 -1       871 0.00000E+00
 -1       873 0.00000E+00
 -1       882 0.00000E+00
 -1       884 0.00000E+00
 -1       885 0.00000E+00
 -1       887 0.00000E+00
 -1       896 0.00000E+00
 -1       898 0.00000E+00
 -1       899 0.00000E+00
 -1       901 0.00000E+00
 -1       910 0.00000E+00
 -1       912 0.00000E+00
 -1       913 0.00000E+00
 -1       915 0.00000E+00
 -1       924 0.00000E+00
 -1       926 0.00000E+00
 -1       927 0.00000E+00
 -1       929 0.00000E+00
 -1       938 0.00000E+00
 -1       940 0.00000E+00
 -1       941 0.00000E+00
 -1       943 0.00000E+00
 -1       952 0.00000E+00
 -1       954 0.00000E+00
 -1       955 0.00000E+00
 -1       957 0.00000E+00
 -1       966 0.00000E+00
 -1       968 0.00000E+00
 -1       969 0.00000E+00
 -1       971 0.00000E+00
 -1       980 0.00000E+00
 -1       982 0.00000E+00
 -1       983 0.00000E+00
 -1       985 0.00000E+00
 -1       986 0.00000E+00
 -1       988 0.00000E+00
 -1       989 0.00000E+00
 -1       991 0.00000E+00
 -1       992 0.00000E+00
 -1       994 0.00000E+00
 -1       995 0.00000E+00
 -1       997 0.00000E+00
 -1       998 0.00000E+00
 -1      1000 0.00000E+00
 -1      1001 0.00000E+00
 -1      1003 0.00000E+00
 -1      1004 0.00000E+00
 -1      1006 0.00000E+00
 -1      1007 0.00000E+00
 -1      1009 0.00000E+00
 -1      1010 0.00000E+00
 -1      1012 0.00000E+00
 -1      1013 0.00000E+00
 -1      1015 0.00000E+00
 -1      1016 0.00000E+00
 -1      1018 0.00000E+00
 -1      1019 0.00000E+00
 -1      1021 0.00000E+00
 -1      1022 0.00000E+00
 -1      1024 0.00000E+00
 -1      1025 0.00000E+00
 -1      1027 0.00000E+00
 -1      1028 0.00000E+00
 -1      1030 0.00000E+00
 -1      1031 0.00000E+00
 -1      1033 0.00000E+00
 -1      1034 0.00000E+00
 -1      1036 0.00000E+00
 -1      1037 0.00000E+00
 -1      1039 0.00000E+00
 -1      1040 0.00000E+00
 -1      1042 0.00000E+00
 -1      1043 0.00000E+00
 -1      1045 0.00000E+00
 -1      1046 0.00000E+00
 -1      1048 0.00000E+00
 -1      1049 0.00000E+00
 -1      1051 0.00000E+00
 -1      1052 0.00000E+00
 -1      1054 0.00000E+00
 -1      1055 0.00000E+00
 -1      1057 0.00000E+00
 -1      1058 0.00000E+00
 -1      1060 0.00000E+00
 -1      1061 0.00000E+00
 -1      1063 0.00000E+00
 -1      1064 0.00000E+00
 -1      1066 0.00000E+00
 -1      1067 0.00000E+00
 -1      1069 0.00000E+00
 -1      1070 0.00000E+00
 -1      1072 0.00000E+00
 -1      1073 0.00000E+00
 -1      1075 0.00000E+00
 -1      1076 0.00000E+00
 -1      1078 0.00000E+00
 -1      1079 0.00000E+00
 -1      1081 0.00000E+00
 -1      1082 0.00000E+00
 -1      1084 0.00000E+00
 -1      1085 0.00000E+00
 -1      1087 0.00000E+00
 -1      1088 0.00000E+00
 -1      1090 0.00000E+00
 -1      1099 0.00000E+00
 -1      1101 0.00000E+00
 -1      1102 0.00000E+00
 -1      1104 0.00000E+00
 -1      1113 0.00000E+00
 -1      1115 0.00000E+00
 -1      1116 0.00000E+00
 -1      1118 0.00000E+00
 -1      1127 0.00000E+00
 -1      1129 0.00000E+00
 -1      1130 0.00000E+00
 -1      1132 0.00000E+00
 -1      1141 0.00000E+00
 -1      1143 0.00000E+00
 -1      1144 0.00000E+00
 -1      1146 0.00000E+00
 -1      1155 0.00000E+00
 -1      1157 0.00000E+00
 -1      1158 0.00000E+00
 -1      1160 0.00000E+00
 -1      1169 0.00000E+00
 -1      1171 0.00000E+00
 -1      1172 0.00000E+00
 -1      1174 0.00000E+00
 -1      1183 0.00000E+00
 -1      1185 0.00000E+00
 -1      1186 0.00000E+00
 -1      1188 0.00000E+00
 -1      1197 0.00000E+00
 -1      1199 0.00000E+00
 -1      1200 0.00000E+00
 -1      1202 0.00000E+00
 -1      1211 0.00000E+00
 -1      1213 0.00000E+00
 -1      1214 0.00000E+00
 -1      1216 0.00000E+00
 -1      1225 0.00000E+00
 -1      1227 0.00000E+00
 -1      1228 0.00000E+00
 -1      1230 0.00000E+00
 -1      1239 0.00000E+00
 -1      1241 0.00000E+00
 -1      1242 0.00000E+00
 -1      1244 0.00000E+00
 -1      1253 0.00000E+00
 -1      1255 0.00000E+00
 -1      1256 0.00000E+00
 -1      1258 0.00000E+00
 -1      1267 0.00000E+00
 -1      1269 0.00000E+00
 -1      1270 0.00000E+00
 -1      1272 0.00000E+00
 -1      1281 0.00000E+00
 -1      1283 0.00000E+00
 -1      1284 0.00000E+00
 -1      1286 0.00000E+00
 -1      1295 0.00000E+00
 -1      1297 0.00000E+00
 -1      1298 0.00000E+00
 -1      1300 0.00000E+00
 -1      1309 0.00000E+00
 -1      1311 0.00000E+00
 -1      1312 0.00000E+00
 -1      1314 0.00000E+00
 -1      1323 0.00000E+00
 -1      1325 0.00000E+00
 -1      1326 0.00000E+00
 -1      1328 0.00000E+00
 -1      1337 0.00000E+00
 -1      1339 0.00000E+00
 -1      1340 0.00000E+00
 -1      1342 0.00000E+00
 -1      1351 0.00000E+00
 -1      1353 0.00000E+00
 -1      1354 0.00000E+00
 -1      1356 0.00000E+00
 -1      1365 0.00000E+00
 -1      1367 0.00000E+00
 -1      1368 0.00000E+00
 -1      1370 0.00000E+00
 -1      1379 0.00000E+00
 -1      1381 0.00000E+00
 -1      1382 0.00000E+00
 -1      1384 0.00000E+00
 -1      1393 0.00000E+00
 -1      1395 0.00000E+00
 -1      1396 0.00000E+00
 -1      1398 0.00000E+00
 -1      1407 0.00000E+00
 -1      1409 0.00000E+00
 -1      1410 0.00000E+00
 -1      1412 0.00000E+00
 -1      1421 0.00000E+00
 -1      1423 0.00000E+00
 -1      1424 0.00000E+00
 -1      1426 0.00000E+00
 -1      1435 0.00000E+00
 -1      1437 0.00000E+00
 -1      1438 0.00000E+00
 -1      1440 0.00000E+00
 -1      1449 0.00000E+00
 -1      1451 0.00000E+00
 -1      1452 0.00000E+00
 -1      1454 0.00000E+00
 -1      1463 0.00000E+00
 -1      1465 0.00000E+00
 -1      1466 0.00000E+00
 -1      1468 0.00000E+00
 -1      1477 0.00000E+00
 -1      1479 0.00000E+00
 -1      1480 0.00000E+00
 -1      1482 0.00000E+00
 -1      1491 0.00000E+00
 -1      1493 0.00000E+00
 -1      1494 0.00000E+00
 -1      1496 0.00000E+00
 -1      1497 0.00000E+00
 -1      1499 0.00000E+00
 -1      1500 0.00000E+00
 -1      1502 0.00000E+00
 -1      1503 0.00000E+00
 -1      1505 0.00000E+00
 -1      1506 0.00000E+00
 -1      1508 0.00000E+00
 -1      1509 0.00000E+00
 -1      1511 0.00000E+00
 -1      1512 0.00000E+00
 -1      1514 0.00000E+00
 -1      1515 0.00000E+00
 -1      1517 0.00000E+00
 -1      1518 0.00000E+00
 -1      1520 0.00000E+00
 -1      1521 0.00000E+00
 -1      1523 0.00000E+00
 -1      1524 0.00000E+00
 -1      1526 0.00000E+00
 -1      1527 0.00000E+00
 -1      1529 0.00000E+00
 -1      1530 0.00000E+00
 -1      1532 0.00000E+00
 -1      1533 0.00000E+00
 -1      1535 0.00000E+00
 -1      1536 0.00000E+00
 -1      1538 0.00000E+00
 -1      1539 0.00000E+00
 -1      1541 0.00000E+00
 -1      1542 0.00000E+00
 -1      1544 0.00000E+00
 -1      1545 0.00000E+00
 -1      1547 0.00000E+00
 -1      1548 0.00000E+00
 -1      1550 0.00000E+00
 -1      1551 0.00000E+00
 -1      1553 0.00000E+00
 -1      1554 0.00000E+00
 -1      1556 0.00000E+00
 -1      1557 0.00000E+00
 -1      1559 0.00000E+00
 -1      1560 0.00000E+00
 -1      1562 0.00000E+00
 -1      1563 0.00000E+00
 -1      1565 0.00000E+00
 -1      1566 0.00000E+00
 -1      1568 0.00000E+00
 -1      1569 0.00000E+00
 -1      1571 0.00000E+00
 -1      1572 0.00000E+00
 -1      1574 0.00000E+00
 -1      1575 0.00000E+00
 -1      1577 0.00000E+00
 -1      1578 0.00000E+00
 -1      1580 0.00000E+00
 -1      1581 0.00000E+00
 -1      1583 0.00000E+00
 -1      1584 0.00000E+00
 -1      1586 0.00000E+00
 -1      1587 0.00000E+00
 -1      1589 0.00000E+00
 -1      1590 0.00000E+00
 -1      1592 0.00000E+00
 -1      1593 0.00000E+00
 -1      1595 0.00000E+00
 -1      1596 0.00000E+00
 -1      1598 0.00000E+00
 -1      1599 0.00000E+00
 -1      1601 0.00000E+00
 -1      1602 0.00000E+00
 -1      1604 0.00000E+00
 -1      1605 0.00000E+00
 -1      1607 0.00000E+00
 -1      1608 0.00000E+00
 -1      1610 0.00000E+00
 -1      1611 0.00000E+00
 -1      1613 0.00000E+00
 -1      1614 0.00000E+00
 -1      1616 0.00000E+00
 -1      1617 0.00000E+00
 -1      1619 0.00000E+00
 -1      1620 0.00000E+00
 -1      1622 0.00000E+00
 -1      1623 0.00000E+00
 -1      1625 0.00000E+00
 -1      1626 0.00000E+00
 -1      1628 0.00000E+00
 -1      1629 0.00000E+00
 -1      1631 0.00000E+00
 -1      1632 0.00000E+00
 -1      1634 0.00000E+00
 -1      1635 0.00000E+00
 -1      1637 0.00000E+00
 -1      1638 0.00000E+00
 -1      1640 0.00000E+00
 -1      1641 0.00000E+00
 -1      1643 0.00000E+00
 -1      1644 0.00000E+00
 -1      1646 0.00000E+00
 -1      1647 0.00000E+00
 -1      1649 0.00000E+00
 -1      1650 0.00000E+00
 -1      1652 0.00000E+00
 -1      1653 0.00000E+00
 -1      1655 0.00000E+00
 -1      1656 0.00000E+00
 -1      1658 0.00000E+00
 -1      1659 0.00000E+00
 -1      1661 0.00000E+00
 -1      1662 0.00000E+00
 -1      1664 0.00000E+00
 -1      1665 0.00000E+00
 -1      1667 0.00000E+00
 -1      1668 0.00000E+00
 -1      1670 0.00000E+00
 -1      1671 0.00000E+00
 -1      1673 0.00000E+00
 -1      1674 0.00000E+00
 -1      1676 0.00000E+00
 -1      1677 0.00000E+00
 -1      1679 0.00000E+00
 -1      1680 0.00000E+00
 -1      1682 0.00000E+00
 -1      1683 0.00000E+00
 -1      1685 0.00000E+00
 -1      1686 0.00000E+00
 -1      1688 0.00000E+00
 -1      1689 0.00000E+00
 -1      1691 0.00000E+00
 -1      1692 0.00000E+00
 -1      1694 0.00000E+00
 -1      1695 0.00000E+00
 -1      1697 0.00000E+00
 -1      1698 0.00000E+00
 -1      1700 0.00000E+00
 -1      1701 0.00000E+00
 -1      1703 0.00000E+00
 -1      1704 0.00000E+00
 -1      1706 0.00000E+00
 -1      1707 0.00000E+00
 -1      1709 0.00000E+00
 -1      1710 0.00000E+00
 -1      1712 0.00000E+00
 -1      1713 0.00000E+00
 -1      1715 0.00000E+00
 -1      1716 0.00000E+00
 -1      1718 0.00000E+00
 -1      1719 0.00000E+00
 -1      1721 0.00000E+00
 -1      1722 0.00000E+00
 -1      1724 0.00000E+00
 -1      1725 0.00000E+00
 -1      1727 0.00000E+00
 -1      1728 0.00000E+00
 -1      1730 0.00000E+00
 -1      1731 0.00000E+00
 -1      1733 0.00000E+00
 -1      1734 0.00000E+00
 -1      1736 0.00000E+00
 -1      1737 0.00000E+00
 -1      1739 0.00000E+00
 -1      1740 0.00000E+00
 -1      1742 0.00000E+00
 -1      1743 0.00000E+00
 -1      1745 0.00000E+00
 -1      1746 0.00000E+00
 -1      1748 0.00000E+00
 -1      1749 0.00000E+00
 -1      1751 0.00000E+00
 -1      1752 0.00000E+00
 -1      1754 0.00000E+00
 -1      1755 0.00000E+00
 -1      1757 0.00000E+00
 -1      1758 0.00000E+00
 -1      1760 0.00000E+00
 -1      1761 0.00000E+00
 -1      1763 0.00000E+00
 -1      1764 0.00000E+00
 -1      1766 0.00000E+00
 -1      1767 0.00000E+00
 -1      1769 0.00000E+00
 -1      1770 0.00000E+00
 -1      1772 0.00000E+00
 -1      1773 0.00000E+00
 -1      1775 0.00000E+00
 -1      1776 0.00000E+00
 -1      1778 0.00000E+00
 -1      1779 0.00000E+00
 -1      1781 0.00000E+00
 -1      1782 0.00000E+00
 -1      1784 0.00000E+00
 -1      1785 0.00000E+00
 -1      1787 0.00000E+00
 -1      1788 0.00000E+00
 -1      1790 0.00000E+00
 -1      1791 0.00000E+00
 -1      1793 0.00000E+00
 -1      1794 0.00000E+00
 -1      1796 0.00000E+00
 -1      1797 0.00000E+00
 -1      1799 0.00000E+00
 -1      1800 0.00000E+00
 -1      1802 0.00000E+00
 -1      1803 0.00000E+00
 -1      1805 0.00000E+00
 -1      1806 0.00000E+00
 -1      1808 0.00000E+00
 -1      1809 0.00000E+00
 -1      1811 0.00000E+00
 -1      1812 0.00000E+00
 -1      1814 0.00000E+00
 -1      1815 0.00000E+00
 -1      1817 0.00000E+00
 -1      1818 0.00000E+00
 -1      1820 0.00000E+00
 -1      1821 0.00000E+00
 -1      1823 0.00000E+00
 -1      1824 0.00000E+00
 -1      1826 0.00000E+00
 -1      1827 0.00000E+00
 -1      1829 0.00000E+00
 -1      1830 0.00000E+00
 -1      1832 0.00000E+00
 -1      1833 0.00000E+00
 -1      1835 0.00000E+00
 -1      1836 0.00000E+00
 -1      1838 0.00000E+00
 -1      1839 0.00000E+00
 -1      1841 0.00000E+00
 -1      1842 0.00000E+00
 -1      1844 0.00000E+00
 -1      1845 0.00000E+00
 -1      1847 0.00000E+00
 -1      1848 0.00000E+00
 -1      1850 0.00000E+00
 -1      1851 0.00000E+00
 -1      1853 0.00000E+00
 -1      1854 0.00000E+00
 -1      1856 0.00000E+00
 -1      1857 0.00000E+00
 -1      1859 0.00000E+00
 -1      1860 0.00000E+00
 -1      1862 0.00000E+00
 -1      1863 0.00000E+00
 -1      1865 0.00000E+00
 -1      1866 0.00000E+00
 -1      1868 0.00000E+00
 -1      1869 0.00000E+00
 -1      1871 0.00000E+00
 -1      1872 0.00000E+00
 -1      1874 0.00000E+00
 -1      1875 0.00000E+00
 -1      1877 0.00000E+00
 -1      1878 0.00000E+00
 -1      1880 0.00000E+00
 -1      1881 0.00000E+00
 -1      1883 0.00000E+00
 -1      1884 0.00000E+00
 -1      1886 0.00000E+00
 -1      1887 0.00000E+00
 -1      1889 0.00000E+00
 -1      1890 0.00000E+00
 -1      1892 0.00000E+00
 -1      1893 0.00000E+00
 -1      1895 0.00000E+00
 -1      1896 0.00000E+00
 -1      1898 0.00000E+00
 -1      1899 0.00000E+00
 -1      1901 0.00000E+00
 -1      1902 0.00000E+00
 -1      1904 0.00000E+00
 -1      1905 0.00000E+00
 -1      1907 0.00000E+00
 -1      1908 0.00000E+00
 -1      1910 0.00000E+00
 -1      1911 0.00000E+00
 -1      1913 0.00000E+00
 -1      1914 0.00000E+00
 -1      1916 0.00000E+00
 -1      1917 0.00000E+00
 -1      1919 0.00000E+00
 -1      1920 0.00000E+00
 -1      1922 0.00000E+00
 -1      1923 0.00000E+00
 -1      1925 0.00000E+00
 -1      1926 0.00000E+00
 -1      1928 0.00000E+00
 -1      1929 0.00000E+00
 -1      1931 0.00000E+00
 -1      1932 0.00000E+00
 -1      1934 0.00000E+00
 -1      1935 0.00000E+00
 -1      1937 0.00000E+00
 -1      1938 0.00000E+00
 -1      1940 0.00000E+00
 -1      1941 0.00000E+00
 -1      1943 0.00000E+00
 -1      1944 0.00000E+00
 -1      1946 0.00000E+00
 -1      1947 0.00000E+00
 -1      1949 0.00000E+00
 -1      1950 0.00000E+00
 -1      1952 0.00000E+00
 -1      1953 0.00000E+00
 -1      1955 0.00000E+00
 -1      1956 0.00000E+00
 -1      1958 0.00000E+00
 -1      1959 0.00000E+00
 -1      1961 0.00000E+00
 -1      1962 0.00000E+00
 -1      1964 0.00000E+00
 -1      1965 0.00000E+00
 -1      1967 0.00000E+00
 -1      1968 0.00000E+00
 -1      1970 0.00000E+00
 -1      1971 0.00000E+00
 -1      1973 0.00000E+00
 -1      1974 0.00000E+00
 -1      1976 0.00000E+00
 -1      1977 0.00000E+00
 -1      1979 0.00000E+00
 -1      1980 0.00000E+00
 -1      1982 0.00000E+00
 -1      1983 0.00000E+00
 -1      1985 0.00000E+00
 -1      1986 0.00000E+00
 -1      1988 0.00000E+00
 -1      1989 0.00000E+00
 -1      1991 0.00000E+00
 -1      1992 0.00000E+00
 -1      1994 0.00000E+00
 -1      1995 0.00000E+00
 -1      1997 0.00000E+00
 -1      1998 0.00000E+00
 -1      2000 0.00000E+00
 -1      2001 0.00000E+00
 -1      2003 0.00000E+00
 -1      2004 0.00000E+00
 -1      2006 0.00000E+00
 -1      2007 0.00000E+00
 -1      2009 0.00000E+00
 -1      2010 0.00000E+00
 -1      2012 0.00000E+00
 -1      2013 0.00000E+00
 -1      2015 0.00000E+00
 -1      2016 0.00000E+00
 -1      2018 0.00000E+00
 -1      2019 0.00000E+00
 -1      2021 0.00000E+00
 -1      2022 0.00000E+00
 -1      2024 0.00000E+00
 -1      2025 0.00000E+00
 -1      2027 0.00000E+00
 -1      2028 0.00000E+00
 -1      2030 0.00000E+00
 -1      2031 0.00000E+00
 -1      2033 0.00000E+00
 -1      2034 0.00000E+00
 -1      2036 0.00000E+00
 -1      2037 0.00000E+00
 -1      2039 0.00000E+00
 -1      2040 0.00000E+00
 -1      2042 0.00000E+00
 -1      2043 0.00000E+00
 -1      2045 0.00000E+00
 -1      2046 0.00000E+00
 -1      2048 0.00000E+00
 -1      2049 0.00000E+00
 -1      2051 0.00000E+00
 -1      2052 0.00000E+00
 -1      2054 0.00000E+00
 -1      2055 0.00000E+00
 -1      2057 0.00000E+00
 -1      2058 0.00000E+00
 -1      2060 0.00000E+00
 -1      2061 0.00000E+00
 -1      2063 0.00000E+00
 -1      2064 0.00000E+00
 -1      2066 0.00000E+00
 -1      2067 0.00000E+00
 -1      2069 0.00000E+00
 -1      2070 0.00000E+00
 -1      2072 0.00000E+00
 -1      2073 0.00000E+00
 -1      2075 0.00000E+00
 -1      2076 0.00000E+00
 -1      2078 0.00000E+00
 -1      2079 0.00000E+00
 -1      2081 0.00000E+00
 -1      2082 0.00000E+00
 -1      2084 0.00000E+00
 -1      2085 0.00000E+00
 -1      2087 0.00000E+00
 -1      2088 0.00000E+00
 -1      2090 0.00000E+00
 -1      2091 0.00000E+00
 -1      2093 0.00000E+00
 -1      2094 0.00000E+00
 -1      2096 0.00000E+00
 -1      2097 0.00000E+00
 -1      2099 0.00000E+00
 -1      2100 0.00000E+00
 -1      2102 0.00000E+00
 -1      2103 0.00000E+00
 -1      2105 0.00000E+00
 -1      2106 0.00000E+00
 -1      2108 0.00000E+00
 -1      2109 0.00000E+00
 -1      2111 0.00000E+00
 -1      2112 0.00000E+00
 -1      2114 0.00000E+00
 -1      2115 0.00000E+00
 -1      2117 0.00000E+00
 -1      2118 0.00000E+00
 -1      2120 0.00000E+00
 -1      2121 0.00000E+00
 -1      2123 0.00000E+00
 -1      2124 0.00000E+00
 -1      2126 0.00000E+00
 -1      2127 0.00000E+00
 -1      2129 0.00000E+00
 -1      2130 0.00000E+00
 -1      2132 0.00000E+00
 -1      2133 0.00000E+00
 -1      2135 0.00000E+00
 -1      2136 0.00000E+00
 -1      2138 0.00000E+00
 -1      2139 0.00000E+00
 -1      2141 0.00000E+00
 -1      2142 0.00000E+00
 -1      2144 0.00000E+00
 -1      2145 0.00000E+00
 -1      2147 0.00000E+00
 -1      2148 0.00000E+00
 -1      2150 0.00000E+00
 -1      2151 0.00000E+00
 -1      2153 0.00000E+00
 -1      2154 0.00000E+00
 -1      2156 0.00000E+00
 -1      2157 0.00000E+00
 -1      2159 0.00000E+00
 -1      2160 0.00000E+00
 -1      2162 0.00000E+00
 -1      2163 0.00000E+00
 -1      2165 0.00000E+00
 -1      2166 0.00000E+00
 -1      2168 0.00000E+00
 -1      2169 0.00000E+00
 -1      2171 0.00000E+00
 -1      2172 0.00000E+00
 -1      2174 0.00000E+00
 -1      2175 0.00000E+00
 -1      2177 0.00000E+00
 -1      2178 0.00000E+00
 -1      2180 0.00000E+00
 -1      2181 0.00000E+00
 -1      2183 0.00000E+00
 -1      2184 0.00000E+00
 -1      2186 0.00000E+00
 -1      2187 0.00000E+00
 -1      2189 0.00000E+00
 -1      2190 0.00000E+00
 -1      2192 0.00000E+00
 -1      2193 0.00000E+00
 -1      2195 0.00000E+00
 -1      2196 0.00000E+00
 -1      2198 0.00000E+00
 -1      2199 0.00000E+00
 -1      2201 0.00000E+00
 -1      2202 0.00000E+00
 -1      2204 0.00000E+00
 -1      2205 0.00000E+00
 -1      2207 0.00000E+00
 -1      2208 0.00000E+00
 -1      2210 0.00000E+00
 -1      2211 0.00000E+00
 -1      2213 0.00000E+00
 -1      2214 0.00000E+00
 -1      2216 0.00000E+00
 -1      2217 0.00000E+00
 -1      2219 0.00000E+00
 -1      2220 0.00000E+00
 -1      2222 0.00000E+00
 -1      2223 0.00000E+00
 -1      2225 0.00000E+00
 -1      2226 0.00000E+00
 -1      2228 0.00000E+00
 -1      2229 0.00000E+00
 -1      2231 0.00000E+00
 -1      2232 0.00000E+00
 -1      2234 0.00000E+00
 -1      2235 0.00000E+00
 -1      2237 0.00000E+00
 -1      2238 0.00000E+00
 -1      2240 0.00000E+00
 -1      2241 0.00000E+00
 -1      2243 0.00000E+00
 -1      2244 0.00000E+00
 -1      2246 0.00000E+00
 -1      2247 0.00000E+00
 -1      2249 0.00000E+00
 -1      2250 0.00000E+00
 -1      2252 0.00000E+00
 -1      2253 0.00000E+00
 -1      2255 0.00000E+00
 -1      2256 0.00000E+00
 -1      2258 0.00000E+00
 -1      2259 0.00000E+00
 -1      2261 0.00000E+00
 -1      2262 0.00000E+00
 -1      2264 0.00000E+00
 -1      2265 0.00000E+00
 -1      2267 0.00000E+00
 -1      2268 0.00000E+00
 -1      2270 0.00000E+00
 -1      2271 0.00000E+00
 -1      2273 0.00000E+00
 -1      2274 0.00000E+00
 -1      2276 0.00000E+00
 -1      2277 0.00000E+00
 -1      2279 0.00000E+00
 -1      2280 0.00000E+00
 -1      2282 0.00000E+00
 -1      2283 0.00000E+00
 -1      2285 0.00000E+00
 -1      2286 0.00000E+00
 -1      2288 0.00000E+00
 -1      2289 0.00000E+00
 -1      2291 0.00000E+00
 -1      2292 0.00000E+00
 -1      2294 0.00000E+00
 -3
    1PSTEP                        33           1           1          
    1PGM                1.000000E+00                                  
    1PGK                6.230342E+06                                  
    1PHID                         -1                                  
    1PSUBC                         0                                  
    1PMODE                         9                                  
  100CL  109 397.2611427         930                     2    9MODAL      1
 -4  DISP        4    1
 -5  D1          1    2    1    0
 -5  D2          1    2    2    0
 -5  D3          1    2    3    0
 -5  ALL         1    2    0    0    1ALL
 -1       404 0.00000E+00 0.00000E+00 6.67496E-06
 -1       406 0.00000E+00-0.00000E+00-6.67496E-06
 -1       407-1.21964E-04 9.19615E-03 2.39452E-01
 -1       409-1.38435E-04-3.30799E-02 2.39451E-01
 -1       410-2.49926E-13-2.50935E-04-1.84109E-13
 -1       412-2.44387E-13-2.36270E-02-1.85703E-13
 -1       413 5.10888E-06-1.19390E-02-7.44571E-03
 -1       415-5.10888E-06-1.19390E-02 7.44571E-03
 -1       424 0.00000E+00 0.00000E+00-2.11126E-16
 -1       426 0.00000E+00 0.00000E+00 2.11126E-16
 -1       427 0.00000E+00-1.34495E-16 0.00000E+00
 -1       429 0.00000E+00 1.34495E-16 0.00000E+00
 -1       438 1.21964E-04 9.19615E-03-2.39452E-01
 -1       440 1.38435E-04-3.30799E-02-2.39451E-01
 -1       441 0.00000E+00 0.00000E+00-6.67496E-06
 -1       443 0.00000E+00-0.00000E+00 6.67496E-06
 -1       444 0.00000E+00-1.08369E-16 0.00000E+00
 -1       446 0.00000E+00 1.08369E-16 0.00000E+00
 -1       447 0.00000E+00 0.00000E+00 1.70114E-16
 -1       449 0.00000E+00 0.00000E+00-1.70114E-16
 -1       458-5.10888E-06 1.19390E-02-7.44571E-03
 -1       460 5.10888E-06 1.19390E-02 7.44571E-03
 -1       461-7.17561E-14 2.50935E-04-1.68490E-13
 -1       463-7.62986E-14 2.36270E-02-1.66870E-13
 -1       472 0.00000E+00 0.00000E+00-6.67496E-06
 -1       474 0.00000E+00 0.00000E+00 6.67496E-06
 -1       475-1.21964E-04-9.19615E-03-2.39452E-01
 -1       477-1.38435E-04 3.30799E-02-2.39451E-01
 -1       478 1.21964E-04-9.19615E-03 2.39452E-01
 -1       480 1.38435E-04 3.30799E-02 2.39451E-01
 -1       481 0.00000E+00 0.00000E+00 6.67496E-06
 -1       483 0.00000E+00 0.00000E+00-6.67496E-06
 -1       484 1.43075E-03 9.06215E-04 1.03467E-02
 -1       486-1.08447E-03-1.14577E-03 1.03404E-02
 -1       487 9.61868E-04 1.71702E-03 2.42412E-02
 -1       489-3.18674E-04-2.53211E-03 2.42376E-02
 -1       490 1.36013E-03 2.35490E-03 3.62287E-02
 -1       492-4.84010E-04-4.05165E-03 3.62227E-02
 -1       493 1.31876E-03 2.90705E-03 4.89264E-02
 -1       495-2.29538E-04-5.70180E-03 4.89232E-02
 -1       496 1.46573E-03 3.31368E-03 6.10513E-02
 -1       498-1.87654E-04-7.44675E-03 6.10471E-02
 -1       499 1.50054E-03 3.62057E-03 7.31706E-02
 -1       501-6.49354E-05-9.27538E-03 7.31675E-02
 -1       502 1.56584E-03 3.82173E-03 8.49744E-02
 -1       504 5.11468E-06-1.11678E-02 8.49717E-02
 -1       505 1.59022E-03 3.93500E-03 9.65651E-02
 -1       507 7.70854E-05-1.31029E-02 9.65628E-02
 -1       508 1.60526E-03 3.98052E-03 1.07854E-01
 -1       510 1.26371E-04-1.50612E-02 1.07853E-01
 -1       511 1.59323E-03 3.97113E-03 1.18844E-01
 -1       513 1.58807E-04-1.70147E-02 1.18843E-01
 -1       514 1.56124E-03 3.93511E-03 1.29495E-01
 -1       516 1.72215E-04-1.89417E-02 1.29495E-01
 -1       517 1.50553E-03 3.88688E-03 1.39790E-01
 -1       519 1.65502E-04-2.08122E-02 1.39790E-01
 -1       520 1.42904E-03 3.85390E-03 1.49702E-01
 -1       522 1.41322E-04-2.26042E-02 1.49704E-01
 -1       523 1.33285E-03 3.85021E-03 1.59211E-01
 -1       525 9.99371E-05-2.42908E-02 1.59213E-01
 -1       526 1.22030E-03 3.89709E-03 1.68293E-01
 -1       528 4.55941E-05-2.58537E-02 1.68296E-01
 -1       529 1.09480E-03 4.00400E-03 1.76927E-01
 -1       531-1.92383E-05-2.72735E-02 1.76930E-01
 -1       532 9.60607E-04 4.18265E-03 1.85091E-01
 -1       534-8.95592E-05-2.85395E-02 1.85094E-01
 -1       535 8.22214E-04 4.43444E-03 1.92764E-01
 -1       537-1.61523E-04-2.96423E-02 1.92767E-01
 -1       538 6.84159E-04 4.75997E-03 1.99923E-01
 -1       540-2.30136E-04-3.05809E-02 1.99926E-01
 -1       541 5.50877E-04 5.15123E-03 2.06549E-01
 -1       543-2.91375E-04-3.13570E-02 2.06552E-01
 -1       544 4.26231E-04 5.59848E-03 2.12621E-01
 -1       546-3.41153E-04-3.19791E-02 2.12623E-01
 -1       547 3.13596E-04 6.08538E-03 2.18118E-01
 -1       549-3.76451E-04-3.24583E-02 2.18120E-01
 -1       550 2.15125E-04 6.59484E-03 2.23022E-01
 -1       552-3.94926E-04-3.28103E-02 2.23023E-01
 -1       553 1.32555E-04 7.10553E-03 2.27315E-01
 -1       555-3.95561E-04-3.30520E-02 2.27315E-01
 -1       556 6.50676E-05 7.59785E-03 2.30979E-01
 -1       558-3.78237E-04-3.32017E-02 2.30979E-01
 -1       559 1.34240E-05 8.05057E-03 2.34003E-01
 -1       561-3.44945E-04-3.32771E-02 2.34001E-01
 -1       562-2.90017E-05 8.44705E-03 2.36366E-01
 -1       564-2.97123E-04-3.32938E-02 2.36365E-01
 -1       565-5.83379E-05 8.77395E-03 2.38072E-01
 -1       567-2.42960E-04-3.32629E-02 2.38070E-01
 -1       568-9.46315E-05 9.01941E-03 2.39086E-01
 -1       570-1.77739E-04-3.31958E-02 2.39084E-01
 -1       571-5.89868E-05 7.51597E-03 1.04047E-01
 -1       573-6.68179E-05-3.13968E-02 1.04047E-01
 -1       574-8.27585E-15 4.31177E-04-2.17305E-14
 -1       576-2.80036E-15-5.52076E-04-2.16098E-14
 -1       577-4.45126E-05-6.04495E-05-3.13184E-04
 -1       579 4.45126E-05-6.04495E-05 3.13184E-04
 -1       588-7.41418E-15 7.72783E-04-4.11076E-14
 -1       590-7.25811E-15-1.63208E-03-4.14201E-14
 -1       591 4.36204E-06-4.29651E-04-7.65995E-04
 -1       593-4.36204E-06-4.29651E-04 7.65995E-04
 -1       602-9.81564E-15 9.91862E-04-4.14806E-14
 -1       604-1.04043E-14-2.59326E-03-4.12822E-14
 -1       605-5.39855E-05-8.00701E-04-1.14193E-03
 -1       607 5.39855E-05-8.00701E-04 1.14193E-03
 -1       616-1.47948E-14 1.00062E-03-3.65106E-14
 -1       618-1.58855E-14-3.81367E-03-3.61500E-14
 -1       619-1.50965E-05-1.40653E-03-1.53344E-03
 -1       621 1.50965E-05-1.40653E-03 1.53344E-03
 -1       630-1.98955E-14 9.68301E-04-3.73697E-14
 -1       632-1.89380E-14-5.04081E-03-3.70985E-14
 -1       633-5.31054E-05-2.03626E-03-1.91401E-03
 -1       635 5.31054E-05-2.03626E-03 1.91401E-03
 -1       644-2.11554E-14 7.59058E-04-4.85187E-14
 -1       646-1.91422E-14-6.41161E-03-4.86483E-14
 -1       647-3.19756E-05-2.82627E-03-2.28399E-03
 -1       649 3.19756E-05-2.82627E-03 2.28399E-03
 -1       658-1.89457E-14 5.08877E-04-5.62417E-14
 -1       660-1.90240E-14-7.81735E-03-5.67408E-14
 -1       661-5.29215E-05-3.65424E-03-2.65206E-03
 -1       663 5.29215E-05-3.65424E-03 2.65206E-03
 -1       672-1.79882E-14 1.38812E-04-4.45905E-14
 -1       674-2.19173E-14-9.29780E-03-4.44525E-14
 -1       675-4.25162E-05-4.57949E-03-3.00574E-03
 -1       677 4.25162E-05-4.57949E-03 3.00574E-03
 -1       686-2.38563E-14-2.61856E-04-1.96108E-14
 -1       688-2.77760E-14-1.07966E-02-1.88237E-14
 -1       689-5.26948E-05-5.52923E-03-3.35551E-03
 -1       691 5.26948E-05-5.52923E-03 3.35551E-03
 -1       700-3.43018E-14-7.24071E-04-6.79766E-15
 -1       702-3.44314E-14-1.23126E-02-6.98646E-15
 -1       703-4.69181E-05-6.51836E-03-3.69118E-03
 -1       705 4.69181E-05-6.51836E-03 3.69118E-03
 -1       714-4.20263E-14-1.18798E-03-1.07221E-14
 -1       716-4.10948E-14-1.38084E-02-1.01744E-14
 -1       717-5.04311E-05-7.49819E-03-4.01984E-03
 -1       719 5.04311E-05-7.49819E-03 4.01984E-03
 -1       728-4.58954E-14-1.65742E-03-7.97604E-15
 -1       730-4.77037E-14-1.52667E-02-8.46914E-15
 -1       731-4.58173E-05-8.46207E-03-4.33482E-03
 -1       733 4.58173E-05-8.46207E-03 4.33482E-03
 -1       742-5.08586E-14-2.09060E-03 7.61022E-15
 -1       744-5.38701E-14-1.66589E-02 7.78024E-15
 -1       745-4.50490E-05-9.37476E-03-4.64028E-03
 -1       747 4.50490E-05-9.37476E-03 4.64028E-03
 -1       756-5.62135E-14-2.48044E-03 3.28495E-14
 -1       758-6.04068E-14-1.79647E-02 3.35140E-14
 -1       759-4.00968E-05-1.02226E-02-4.93203E-03
 -1       761 4.00968E-05-1.02226E-02 4.93203E-03
 -1       770-6.33111E-14-2.79898E-03 6.37360E-14
 -1       772-6.73847E-14-1.91632E-02 6.22882E-14
 -1       773-3.66187E-05-1.09811E-02-5.21231E-03
 -1       775 3.66187E-05-1.09811E-02 5.21231E-03
 -1       784-7.30605E-14-3.03897E-03 8.85228E-14
 -1       786-7.59487E-14-2.02386E-02 8.89047E-14
 -1       787-3.10570E-05-1.16388E-02-5.47839E-03
 -1       789 3.10570E-05-1.16388E-02 5.47839E-03
 -1       798-8.06137E-14-3.18548E-03 1.14238E-13
 -1       800-8.47852E-14-2.11792E-02 1.14697E-13
 -1       801-2.61427E-05-1.21823E-02-5.73133E-03
 -1       803 2.61427E-05-1.21823E-02 5.73133E-03
 -1       812-8.90128E-14-3.23748E-03 1.38525E-13
 -1       814-9.18425E-14-2.19780E-02 1.38941E-13
 -1       815-2.03896E-05-1.26077E-02-5.96920E-03
 -1       817 2.03896E-05-1.26077E-02 5.96920E-03
 -1       826-1.02193E-13-3.19276E-03 1.47628E-13
 -1       828-1.02005E-13-2.26339E-02 1.48332E-13
 -1       829-1.51834E-05-1.29133E-02-6.19236E-03
 -1       831 1.51834E-05-1.29133E-02 6.19236E-03
 -1       840-1.18656E-13-3.05913E-03 1.42756E-13
 -1       842-1.17516E-13-2.31499E-02 1.42627E-13
 -1       843-9.94195E-06-1.31045E-02-6.39927E-03
 -1       845 9.94195E-06-1.31045E-02 6.39927E-03
 -1       854-1.37052E-13-2.84554E-03 1.32444E-13
 -1       856-1.35924E-13-2.35348E-02 1.33366E-13
 -1       857-5.42413E-06-1.31902E-02-6.58992E-03
 -1       859 5.42412E-06-1.31902E-02 6.58992E-03
 -1       868-1.56539E-13-2.56808E-03 1.21195E-13
 -1       870-1.55469E-13-2.38005E-02 1.22333E-13
 -1       871-1.36609E-06-1.31843E-02-6.76292E-03
 -1       873 1.36609E-06-1.31843E-02 6.76292E-03
 -1       882-1.78342E-13-2.24349E-03 9.26371E-14
 -1       884-1.72856E-13-2.39633E-02 9.36245E-14
 -1       885 1.76355E-06-1.31034E-02-6.91815E-03
 -1       887-1.76355E-06-1.31034E-02 6.91815E-03
 -1       896-1.96354E-13-1.89294E-03 5.21504E-14
 -1       898-1.91599E-13-2.40401E-02 5.22522E-14
 -1       899 4.24011E-06-1.29665E-02-7.05428E-03
 -1       901-4.24011E-06-1.29665E-02 7.05428E-03
 -1       910-2.10844E-13-1.53580E-03 9.93516E-15
 -1       912-2.05413E-13-2.40504E-02 1.10966E-14
 -1       913 5.68309E-06-1.27931E-02-7.17131E-03
 -1       915-5.68309E-06-1.27931E-02 7.17131E-03
 -1       924-2.21206E-13-1.19379E-03-2.80518E-14
 -1       926-2.16749E-13-2.40116E-02-2.81984E-14
 -1       927 6.60477E-06-1.26027E-02-7.26789E-03
 -1       929-6.60477E-06-1.26027E-02 7.26789E-03
 -1       938-2.31096E-13-8.81706E-04-6.39207E-14
 -1       940-2.26621E-13-2.39393E-02-6.24990E-14
 -1       941 6.58935E-06-1.24105E-02-7.34428E-03
 -1       943-6.58935E-06-1.24105E-02 7.34428E-03
 -1       952-2.40879E-13-6.18330E-04-1.05842E-13
 -1       954-2.34171E-13-2.38487E-02-1.03991E-13
 -1       955 6.37370E-06-1.22335E-02-7.39931E-03
 -1       957-6.37370E-06-1.22335E-02 7.39931E-03
 -1       966-2.46412E-13-4.02436E-04-1.47338E-13
 -1       968-2.41753E-13-2.37389E-02-1.48394E-13
 -1       969 5.95717E-06-1.20707E-02-7.43309E-03
 -1       971-5.95717E-06-1.20707E-02 7.43309E-03
 -1       980 0.00000E+00 0.00000E+00 8.43519E-08
 -1       982 0.00000E+00-0.00000E+00-8.43519E-08
 -1       983 5.89868E-05 7.51597E-03-1.04047E-01
 -1       985 6.68179E-05-3.13968E-02-1.04047E-01
 -1       986-1.43075E-03 9.06215E-04-1.03467E-02
 -1       988 1.08447E-03-1.14577E-03-1.03404E-02
 -1       989-9.61868E-04 1.71702E-03-2.42412E-02
 -1       991 3.18674E-04-2.53211E-03-2.42376E-02
 -1       992-1.36013E-03 2.35490E-03-3.62287E-02
 -1       994 4.84010E-04-4.05165E-03-3.62227E-02
 -1       995-1.31876E-03 2.90705E-03-4.89264E-02
 -1       997 2.29538E-04-5.70180E-03-4.89232E-02
 -1       998-1.46573E-03 3.31368E-03-6.10513E-02
 -1      1000 1.87654E-04-7.44675E-03-6.10471E-02
 -1      1001-1.50054E-03 3.62057E-03-7.31706E-02
 -1      1003 6.49354E-05-9.27538E-03-7.31675E-02
 -1      1004-1.56584E-03 3.82173E-03-8.49744E-02
 -1      1006-5.11468E-06-1.11678E-02-8.49717E-02
 -1      1007-1.59022E-03 3.93500E-03-9.65651E-02
 -1      1009-7.70854E-05-1.31029E-02-9.65628E-02
 -1      1010-1.60526E-03 3.98052E-03-1.07854E-01
 -1      1012-1.26371E-04-1.50612E-02-1.07853E-01
 -1      1013-1.59323E-03 3.97113E-03-1.18844E-01
 -1      1015-1.58807E-04-1.70147E-02-1.18843E-01
 -1      1016-1.56124E-03 3.93511E-03-1.29495E-01
 -1      1018-1.72215E-04-1.89417E-02-1.29495E-01
 -1      1019-1.50553E-03 3.88688E-03-1.39790E-01
 -1      1021-1.65502E-04-2.08122E-02-1.39790E-01
 -1      1022-1.42904E-03 3.85390E-03-1.49702E-01
 -1      1024-1.41322E-04-2.26042E-02-1.49704E-01
 -1      1025-1.33285E-03 3.85021E-03-1.59211E-01
 -1      1027-9.99371E-05-2.42908E-02-1.59213E-01
 -1      1028-1.22030E-03 3.89709E-03-1.68293E-01
 -1      1030-4.55941E-05-2.58537E-02-1.68296E-01
 -1      1031-1.09480E-03 4.00400E-03-1.76927E-01
 -1      1033 1.92383E-05-2.72735E-02-1.76930E-01
 -1      1034-9.60607E-04 4.18265E-03-1.85091E-01
 -1      1036 8.95592E-05-2.85395E-02-1.85094E-01
 -1      1037-8.22214E-04 4.43444E-03-1.92764E-01
 -1      1039 1.61523E-04-2.96423E-02-1.92767E-01
 -1      1040-6.84159E-04 4.75997E-03-1.99923E-01
 -1      1042 2.30136E-04-3.05809E-02-1.99926E-01
 -1      1043-5.50877E-04 5.15123E-03-2.06549E-01
 -1      1045 2.91375E-04-3.13570E-02-2.06552E-01
 -1      1046-4.26231E-04 5.59848E-03-2.12621E-01
 -1      1048 3.41153E-04-3.19791E-02-2.12623E-01
 -1      1049-3.13596E-04 6.08538E-03-2.18118E-01
 -1      1051 3.76451E-04-3.24583E-02-2.18120E-01
 -1      1052-2.15125E-04 6.59484E-03-2.23022E-01
 -1      1054 3.94926E-04-3.28103E-02-2.23023E-01
 -1      1055-1.32555E-04 7.10553E-03-2.27315E-01
 -1      1057 3.95561E-04-3.30520E-02-2.27315E-01
 -1      1058-6.50676E-05 7.59785E-03-2.30979E-01
 -1      1060 3.78237E-04-3.32017E-02-2.30979E-01
 -1      1061-1.34240E-05 8.05057E-03-2.34003E-01
 -1      1063 3.44945E-04-3.32771E-02-2.34001E-01
 -1      1064 2.90017E-05 8.44705E-03-2.36366E-01
 -1      1066 2.97123E-04-3.32938E-02-2.36365E-01
 -1      1067 5.83379E-05 8.77395E-03-2.38072E-01
 -1      1069 2.42960E-04-3.32629E-02-2.38070E-01
 -1      1070 9.46315E-05 9.01941E-03-2.39086E-01
 -1      1072 1.77739E-04-3.31958E-02-2.39084E-01
 -1      1073 0.00000E+00 0.00000E+00-8.43519E-08
 -1      1075 0.00000E+00-0.00000E+00 8.43519E-08
 -1      1076 0.00000E+00-1.08705E-16 0.00000E+00
 -1      1078 0.00000E+00 1.08705E-16 0.00000E+00
 -1      1079 0.00000E+00-4.09761E-17 0.00000E+00
 -1      1081 0.00000E+00 4.09761E-17 0.00000E+00
 -1      1082 0.00000E+00-5.56196E-17 0.00000E+00
 -1      1084 0.00000E+00 5.56196E-17 0.00000E+00
 -1      1085 4.45126E-05 6.04495E-05-3.13184E-04
 -1      1087-4.45126E-05 6.04495E-05 3.13184E-04
 -1      1088-9.26993E-15-4.31177E-04-4.22570E-16
 -1      1090-9.30028E-15 5.52076E-04-9.16636E-16
 -1      1099-4.36204E-06 4.29651E-04-7.65995E-04
 -1      1101 4.36204E-06 4.29651E-04 7.65995E-04
 -1      1102-1.64105E-14-7.72783E-04-1.34554E-14
 -1      1104-1.96198E-14 1.63208E-03-1.37347E-14
 -1      1113 5.39855E-05 8.00701E-04-1.14193E-03
 -1      1115-5.39855E-05 8.00701E-04 1.14193E-03
 -1      1116-2.65666E-14-9.91862E-04-3.20477E-14
 -1      1118-2.83756E-14 2.59326E-03-3.26931E-14
 -1      1127 1.50965E-05 1.40653E-03-1.53344E-03
 -1      1129-1.50965E-05 1.40653E-03 1.53344E-03
 -1      1130-3.80066E-14-1.00062E-03-4.63711E-14
 -1      1132-3.97680E-14 3.81367E-03-4.68165E-14
 -1      1141 5.31054E-05 2.03626E-03-1.91401E-03
 -1      1143-5.31054E-05 2.03626E-03 1.91401E-03
 -1      1144-5.08307E-14-9.68301E-04-5.65135E-14
 -1      1146-5.19066E-14 5.04081E-03-5.70068E-14
 -1      1155 3.19756E-05 2.82627E-03-2.28399E-03
 -1      1157-3.19756E-05 2.82627E-03 2.28399E-03
 -1      1158-6.41464E-14-7.59058E-04-5.79907E-14
 -1      1160-6.37097E-14 6.41161E-03-5.90615E-14
 -1      1169 5.29215E-05 3.65424E-03-2.65206E-03
 -1      1171-5.29215E-05 3.65424E-03 2.65206E-03
 -1      1172-7.56312E-14-5.08877E-04-4.26321E-14
 -1      1174-7.19591E-14 7.81735E-03-4.30212E-14
 -1      1183 4.25162E-05 4.57949E-03-3.00574E-03
 -1      1185-4.25162E-05 4.57949E-03 3.00574E-03
 -1      1186-8.06118E-14-1.38812E-04-1.93220E-14
 -1      1188-7.81501E-14 9.29780E-03-1.94317E-14
 -1      1197 5.26948E-05 5.52923E-03-3.35551E-03
 -1      1199-5.26948E-05 5.52923E-03 3.35551E-03
 -1      1200-8.42462E-14 2.61856E-04-1.04868E-14
 -1      1202-8.54167E-14 1.07966E-02-1.17593E-14
 -1      1211 4.69181E-05 6.51836E-03-3.69118E-03
 -1      1213-4.69181E-05 6.51836E-03 3.69118E-03
 -1      1214-9.18499E-14 7.24071E-04-1.34186E-14
 -1      1216-9.27941E-14 1.23126E-02-1.28087E-14
 -1      1225 5.04311E-05 7.49819E-03-4.01984E-03
 -1      1227-5.04311E-05 7.49819E-03 4.01984E-03
 -1      1228-9.99651E-14 1.18798E-03-2.02244E-15
 -1      1230-9.78541E-14 1.38084E-02-3.36214E-15
 -1      1239 4.58173E-05 8.46207E-03-4.33482E-03
 -1      1241-4.58173E-05 8.46207E-03 4.33482E-03
 -1      1242-1.04962E-13 1.65742E-03 2.22052E-14
 -1      1244-1.01835E-13 1.52667E-02 2.27796E-14
 -1      1253 4.50490E-05 9.37476E-03-4.64028E-03
 -1      1255-4.50490E-05 9.37476E-03 4.64028E-03
 -1      1256-1.10537E-13 2.09060E-03 5.19784E-14
 -1      1258-1.07401E-13 1.66589E-02 5.13036E-14
 -1      1267 4.00968E-05 1.02226E-02-4.93203E-03
 -1      1269-4.00968E-05 1.02226E-02 4.93203E-03
 -1      1270-1.16708E-13 2.48044E-03 7.50577E-14
 -1      1272-1.14773E-13 1.79647E-02 7.55233E-14
 -1      1281 3.66187E-05 1.09811E-02-5.21231E-03
 -1      1283-3.66187E-05 1.09811E-02 5.21231E-03
 -1      1284-1.24142E-13 2.79898E-03 9.87545E-14
 -1      1286-1.20530E-13 1.91632E-02 9.99685E-14
 -1      1295 3.10570E-05 1.16388E-02-5.47839E-03
 -1      1297-3.10570E-05 1.16388E-02 5.47839E-03
 -1      1298-1.27337E-13 3.03897E-03 1.31236E-13
 -1      1300-1.22713E-13 2.02386E-02 1.32093E-13
 -1      1309 2.61427E-05 1.21823E-02-5.73133E-03
 -1      1311-2.61427E-05 1.21823E-02 5.73133E-03
 -1      1312-1.23831E-13 3.18548E-03 1.54605E-13
 -1      1314-1.22604E-13 2.11792E-02 1.53709E-13
 -1      1323 2.03896E-05 1.26077E-02-5.96920E-03
 -1      1325-2.03896E-05 1.26077E-02 5.96920E-03
 -1      1326-1.17449E-13 3.23748E-03 1.57284E-13
 -1      1328-1.17853E-13 2.19780E-02 1.58893E-13
 -1      1337 1.51834E-05 1.29133E-02-6.19236E-03
 -1      1339-1.51834E-05 1.29133E-02 6.19236E-03
 -1      1340-1.08880E-13 3.19276E-03 1.56305E-13
 -1      1342-1.08885E-13 2.26339E-02 1.55220E-13
 -1      1351 9.94195E-06 1.31045E-02-6.39927E-03
 -1      1353-9.94195E-06 1.31045E-02 6.39927E-03
 -1      1354-9.86817E-14 3.05913E-03 1.45119E-13
 -1      1356-1.00877E-13 2.31499E-02 1.47099E-13
 -1      1365 5.42412E-06 1.31902E-02-6.58992E-03
 -1      1367-5.42413E-06 1.31902E-02 6.58992E-03
 -1      1368-9.20597E-14 2.84554E-03 1.32961E-13
 -1      1370-9.34850E-14 2.35348E-02 1.32111E-13
 -1      1379 1.36609E-06 1.31843E-02-6.76292E-03
 -1      1381-1.36609E-06 1.31843E-02 6.76292E-03
 -1      1382-8.74695E-14 2.56808E-03 1.27487E-13
 -1      1384-8.71772E-14 2.38005E-02 1.28730E-13
 -1      1393-1.76355E-06 1.31034E-02-6.91815E-03
 -1      1395 1.76355E-06 1.31034E-02 6.91815E-03
 -1      1396-8.23948E-14 2.24349E-03 1.25340E-13
 -1      1398-8.36681E-14 2.39633E-02 1.24877E-13
 -1      1407-4.24011E-06 1.29665E-02-7.05428E-03
 -1      1409 4.24011E-06 1.29665E-02 7.05428E-03
 -1      1410-7.81887E-14 1.89294E-03 9.99379E-14
 -1      1412-8.37517E-14 2.40401E-02 1.01644E-13
 -1      1421-5.68309E-06 1.27931E-02-7.17131E-03
 -1      1423 5.68309E-06 1.27931E-02 7.17131E-03
 -1      1424-7.69332E-14 1.53580E-03 5.63464E-14
 -1      1426-8.41515E-14 2.40504E-02 5.51339E-14
 -1      1435-6.60477E-06 1.26027E-02-7.26789E-03
 -1      1437 6.60477E-06 1.26027E-02 7.26789E-03
 -1      1438-7.76987E-14 1.19379E-03 1.00757E-14
 -1      1440-8.28847E-14 2.40116E-02 1.10706E-14
 -1      1449-6.58935E-06 1.24105E-02-7.34428E-03
 -1      1451 6.58935E-06 1.24105E-02 7.34428E-03
 -1      1452-7.65985E-14 8.81706E-04-2.48769E-14
 -1      1454-8.09109E-14 2.39393E-02-2.62835E-14
 -1      1463-6.37370E-06 1.22335E-02-7.39931E-03
 -1      1465 6.37370E-06 1.22335E-02 7.39931E-03
 -1      1466-7.30992E-14 6.18330E-04-6.75549E-14
 -1      1468-7.94038E-14 2.38487E-02-6.80588E-14
 -1      1477-5.95717E-06 1.20707E-02-7.43309E-03
 -1      1479 5.95717E-06 1.20707E-02 7.43309E-03
 -1      1480-7.02150E-14 4.02436E-04-1.21643E-13
 -1      1482-7.83138E-14 2.37389E-02-1.20939E-13
 -1      1491 1.44233E-06-7.79304E-02 1.73116E-03
 -1      1493-1.44233E-06-7.79304E-02-1.73116E-03
 -1      1494-1.93123E-13-1.66893E-12 4.92564E-03
 -1      1496-1.40631E-13-1.67026E-12-4.92564E-03
 -1      1497-1.44233E-06 7.79304E-02 1.73116E-03
 -1      1499 1.44233E-06 7.79304E-02-1.73116E-03
 -1      1500 1.43075E-03-9.06215E-04-1.03467E-02
 -1      1502-1.08447E-03 1.14577E-03-1.03404E-02
 -1      1503 9.61868E-04-1.71702E-03-2.42412E-02
 -1      1505-3.18674E-04 2.53211E-03-2.42376E-02
 -1      1506 1.36013E-03-2.35490E-03-3.62287E-02
 -1      1508-4.84010E-04 4.05165E-03-3.62227E-02
 -1      1509 1.31876E-03-2.90705E-03-4.89264E-02
 -1      1511-2.29538E-04 5.70180E-03-4.89232E-02
 -1      1512 1.46573E-03-3.31368E-03-6.10513E-02
 -1      1514-1.87654E-04 7.44675E-03-6.10471E-02
 -1      1515 1.50054E-03-3.62057E-03-7.31706E-02
 -1      1517-6.49354E-05 9.27538E-03-7.31675E-02
 -1      1518 1.56584E-03-3.82173E-03-8.49744E-02
 -1      1520 5.11468E-06 1.11678E-02-8.49717E-02
 -1      1521 1.59022E-03-3.93500E-03-9.65651E-02
 -1      1523 7.70854E-05 1.31029E-02-9.65628E-02
 -1      1524 1.60526E-03-3.98052E-03-1.07854E-01
 -1      1526 1.26371E-04 1.50612E-02-1.07853E-01
 -1      1527 1.59323E-03-3.97113E-03-1.18844E-01
 -1      1529 1.58807E-04 1.70147E-02-1.18843E-01
 -1      1530 1.56124E-03-3.93511E-03-1.29495E-01
 -1      1532 1.72215E-04 1.89417E-02-1.29495E-01
 -1      1533 1.50553E-03-3.88688E-03-1.39790E-01
 -1      1535 1.65502E-04 2.08122E-02-1.39790E-01
 -1      1536 1.42904E-03-3.85390E-03-1.49702E-01
 -1      1538 1.41322E-04 2.26042E-02-1.49704E-01
 -1      1539 1.33285E-03-3.85021E-03-1.59211E-01
 -1      1541 9.99371E-05 2.42908E-02-1.59213E-01
 -1      1542 1.22030E-03-3.89709E-03-1.68293E-01
 -1      1544 4.55941E-05 2.58537E-02-1.68296E-01
 -1      1545 1.09480E-03-4.00400E-03-1.76927E-01
 -1      1547-1.92383E-05 2.72735E-02-1.76930E-01
 -1      1548 9.60607E-04-4.18265E-03-1.85091E-01
 -1      1550-8.95592E-05 2.85395E-02-1.85094E-01
 -1      1551 8.22214E-04-4.43444E-03-1.92764E-01
 -1      1553-1.61523E-04 2.96423E-02-1.92767E-01
 -1      1554 6.84159E-04-4.75997E-03-1.99923E-01
 -1      1556-2.30136E-04 3.05809E-02-1.99926E-01
 -1      1557 5.50877E-04-5.15123E-03-2.06549E-01
 -1      1559-2.91375E-04 3.13570E-02-2.06552E-01
 -1      1560 4.26231E-04-5.59848E-03-2.12621E-01
 -1      1562-3.41153E-04 3.19791E-02-2.12623E-01
 -1      1563 3.13596E-04-6.08538E-03-2.18118E-01
 -1      1565-3.76451E-04 3.24583E-02-2.18120E-01
 -1      1566 2.15125E-04-6.59484E-03-2.23022E-01
 -1      1568-3.94926E-04 3.28103E-02-2.23023E-01
 -1      1569 1.32555E-04-7.10553E-03-2.27315E-01
 -1      1571-3.95561E-04 3.30520E-02-2.27315E-01
 -1      1572 6.50676E-05-7.59785E-03-2.30979E-01
 -1      1574-3.78237E-04 3.32017E-02-2.30979E-01
 -1      1575 1.34240E-05-8.05057E-03-2.34003E-01
 -1      1577-3.44945E-04 3.32771E-02-2.34001E-01
 -1      1578-2.90017E-05-8.44705E-03-2.36366E-01
 -1      1580-2.97123E-04 3.32938E-02-2.36365E-01
 -1      1581-5.83379E-05-8.77395E-03-2.38072E-01
 -1      1583-2.42960E-04 3.32629E-02-2.38070E-01
 -1      1584-9.46315E-05-9.01941E-03-2.39086E-01
 -1      1586-1.77739E-04 3.31958E-02-2.39084E-01
 -1      1587-5.89868E-05-7.51597E-03-1.04047E-01
 -1      1589-6.68179E-05 3.13968E-02-1.04047E-01
 -1      1590 0.00000E+00 0.00000E+00-8.43519E-08
 -1      1592 0.00000E+00 0.00000E+00 8.43519E-08
 -1      1593 5.89868E-05-7.51597E-03 1.04047E-01
 -1      1595 6.68179E-05 3.13968E-02 1.04047E-01
 -1      1596-1.43075E-03-9.06215E-04 1.03467E-02
 -1      1598 1.08447E-03 1.14577E-03 1.03404E-02
 -1      1599-9.61868E-04-1.71702E-03 2.42412E-02
 -1      1601 3.18674E-04 2.53211E-03 2.42376E-02
 -1      1602-1.36013E-03-2.35490E-03 3.62287E-02
 -1      1604 4.84010E-04 4.05165E-03 3.62227E-02
 -1      1605-1.31876E-03-2.90705E-03 4.89264E-02
 -1      1607 2.29538E-04 5.70180E-03 4.89232E-02
 -1      1608-1.46573E-03-3.31368E-03 6.10513E-02
 -1      1610 1.87654E-04 7.44675E-03 6.10471E-02
 -1      1611-1.50054E-03-3.62057E-03 7.31706E-02
 -1      1613 6.49354E-05 9.27538E-03 7.31675E-02
 -1      1614-1.56584E-03-3.82173E-03 8.49744E-02
 -1      1616-5.11468E-06 1.11678E-02 8.49717E-02
 -1      1617-1.59022E-03-3.93500E-03 9.65651E-02
 -1      1619-7.70854E-05 1.31029E-02 9.65628E-02
 -1      1620-1.60526E-03-3.98052E-03 1.07854E-01
 -1      1622-1.26371E-04 1.50612E-02 1.07853E-01
 -1      1623-1.59323E-03-3.97113E-03 1.18844E-01
 -1      1625-1.58807E-04 1.70147E-02 1.18843E-01
 -1      1626-1.56124E-03-3.93511E-03 1.29495E-01
 -1      1628-1.72215E-04 1.89417E-02 1.29495E-01
 -1      1629-1.50553E-03-3.88688E-03 1.39790E-01
 -1      1631-1.65502E-04 2.08122E-02 1.39790E-01
 -1      1632-1.42904E-03-3.85390E-03 1.49702E-01
 -1      1634-1.41322E-04 2.26042E-02 1.49704E-01
 -1      1635-1.33285E-03-3.85021E-03 1.59211E-01
 -1      1637-9.99371E-05 2.42908E-02 1.59213E-01
 -1      1638-1.22030E-03-3.89709E-03 1.68293E-01
 -1      1640-4.55941E-05 2.58537E-02 1.68296E-01
 -1      1641-1.09480E-03-4.00400E-03 1.76927E-01
 -1      1643 1.92383E-05 2.72735E-02 1.76930E-01
 -1      1644-9.60607E-04-4.18265E-03 1.85091E-01
 -1      1646 8.95592E-05 2.85395E-02 1.85094E-01
 -1      1647-8.22214E-04-4.43444E-03 1.92764E-01
 -1      1649 1.61523E-04 2.96423E-02 1.92767E-01
 -1      1650-6.84159E-04-4.75997E-03 1.99923E-01
 -1      1652 2.30136E-04 3.05809E-02 1.99926E-01
 -1      1653-5.50877E-04-5.15123E-03 2.06549E-01
 -1      1655 2.91375E-04 3.13570E-02 2.06552E-01
 -1      1656-4.26231E-04-5.59848E-03 2.12621E-01
 -1      1658 3.41153E-04 3.19791E-02 2.12623E-01
 -1      1659-3.13596E-04-6.08538E-03 2.18118E-01
 -1      1661 3.76451E-04 3.24583E-02 2.18120E-01
 -1      1662-2.15125E-04-6.59484E-03 2.23022E-01
 -1      1664 3.94926E-04 3.28103E-02 2.23023E-01
 -1      1665-1.32555E-04-7.10553E-03 2.27315E-01
 -1      1667 3.95561E-04 3.30520E-02 2.27315E-01
 -1      1668-6.50676E-05-7.59785E-03 2.30979E-01
 -1      1670 3.78237E-04 3.32017E-02 2.30979E-01
 -1      1671-1.34240E-05-8.05057E-03 2.34003E-01
 -1      1673 3.44945E-04 3.32771E-02 2.34001E-01
 -1      1674 2.90017E-05-8.44705E-03 2.36366E-01
 -1      1676 2.97123E-04 3.32938E-02 2.36365E-01
 -1      1677 5.83379E-05-8.77395E-03 2.38072E-01
 -1      1679 2.42960E-04 3.32629E-02 2.38070E-01
 -1      1680 9.46315E-05-9.01941E-03 2.39086E-01
 -1      1682 1.77739E-04 3.31958E-02 2.39084E-01
 -1      1683 0.00000E+00 0.00000E+00 8.43519E-08
 -1      1685 0.00000E+00 0.00000E+00-8.43519E-08
 -1      1686 6.75232E-04 7.15680E-04 4.24027E-03
 -1      1688-5.04307E-04-8.95597E-04 4.23789E-03
 -1      1689 4.44902E-04 1.54739E-03 1.06297E-02
 -1      1691-1.30297E-04-2.35504E-03 1.06249E-02
 -1      1692 6.36609E-04 2.11238E-03 1.57413E-02
 -1      1694-2.04326E-04-3.77581E-03 1.57407E-02
 -1      1695 6.23222E-04 2.57167E-03 2.13370E-02
 -1      1697-7.69901E-05-5.35002E-03 2.13343E-02
 -1      1698 6.89189E-04 2.90606E-03 2.65694E-02
 -1      1700-5.76882E-05-7.01972E-03 2.65683E-02
 -1      1701 7.13335E-04 3.11770E-03 3.18443E-02
 -1      1703 5.23890E-06-8.75538E-03 3.18435E-02
 -1      1704 7.41189E-04 3.23894E-03 3.69536E-02
 -1      1706 3.74963E-05-1.05733E-02 3.69527E-02
 -1      1707 7.57703E-04 3.26429E-03 4.19791E-02
 -1      1709 7.41538E-05-1.24202E-02 4.19795E-02
 -1      1710 7.63137E-04 3.22815E-03 4.68673E-02
 -1      1712 9.65021E-05-1.43037E-02 4.68673E-02
 -1      1713 7.59952E-04 3.13680E-03 5.16258E-02
 -1      1715 1.12608E-04-1.61761E-02 5.16273E-02
 -1      1716 7.43697E-04 3.02181E-03 5.62372E-02
 -1      1718 1.17490E-04-1.80304E-02 5.62384E-02
 -1      1719 7.18120E-04 2.89727E-03 6.06938E-02
 -1      1721 1.13573E-04-1.98265E-02 6.06963E-02
 -1      1722 6.80773E-04 2.79060E-03 6.49861E-02
 -1      1724 9.99695E-05-2.15497E-02 6.49885E-02
 -1      1725 6.34901E-04 2.71701E-03 6.91041E-02
 -1      1727 7.84612E-05-2.31684E-02 6.91075E-02
 -1      1728 5.80259E-04 2.69719E-03 7.30398E-02
 -1      1730 4.99383E-05-2.46678E-02 7.30431E-02
 -1      1731 5.19835E-04 2.74172E-03 7.67829E-02
 -1      1733 1.65243E-05-2.60263E-02 7.67869E-02
 -1      1734 4.54814E-04 2.86179E-03 8.03253E-02
 -1      1736-1.99567E-05-2.72349E-02 8.03292E-02
 -1      1737 3.88020E-04 3.05962E-03 8.36570E-02
 -1      1739-5.71208E-05-2.82833E-02 8.36612E-02
 -1      1740 3.21266E-04 3.33545E-03 8.67695E-02
 -1      1742-9.28341E-05-2.91715E-02 8.67735E-02
 -1      1743 2.56998E-04 3.68175E-03 8.96528E-02
 -1      1745-1.24860E-04-2.99007E-02 8.96568E-02
 -1      1746 1.96952E-04 4.08850E-03 9.22981E-02
 -1      1748-1.51341E-04-3.04801E-02 9.23018E-02
 -1      1749 1.42840E-04 4.53964E-03 9.46959E-02
 -1      1751-1.70676E-04-3.09203E-02 9.46995E-02
 -1      1752 9.57594E-05 5.01775E-03 9.68376E-02
 -1      1754-1.81743E-04-3.12380E-02 9.68406E-02
 -1      1755 5.63538E-05 5.50177E-03 9.87146E-02
 -1      1757-1.84114E-04-3.14491E-02 9.87175E-02
 -1      1758 2.46809E-05 5.97156E-03 1.00319E-01
 -1      1760-1.77451E-04-3.15736E-02 1.00321E-01
 -1      1761 8.54727E-08 6.40639E-03 1.01644E-01
 -1      1763-1.63495E-04-3.16274E-02 1.01647E-01
 -1      1764-1.87607E-05 6.78864E-03 1.02682E-01
 -1      1766-1.41379E-04-3.16286E-02 1.02683E-01
 -1      1767-3.33404E-05 7.10553E-03 1.03433E-01
 -1      1769-1.18011E-04-3.15862E-02 1.03435E-01
 -1      1770-4.95947E-05 7.34439E-03 1.03878E-01
 -1      1772-8.77992E-05-3.15113E-02 1.03880E-01
 -1      1773-6.75232E-04 7.15680E-04-4.24027E-03
 -1      1775 5.04307E-04-8.95597E-04-4.23789E-03
 -1      1776-4.44902E-04 1.54739E-03-1.06297E-02
 -1      1778 1.30297E-04-2.35504E-03-1.06249E-02
 -1      1779-6.36609E-04 2.11238E-03-1.57413E-02
 -1      1781 2.04326E-04-3.77581E-03-1.57407E-02
 -1      1782-6.23222E-04 2.57167E-03-2.13370E-02
 -1      1784 7.69901E-05-5.35002E-03-2.13343E-02
 -1      1785-6.89189E-04 2.90606E-03-2.65694E-02
 -1      1787 5.76882E-05-7.01972E-03-2.65683E-02
 -1      1788-7.13335E-04 3.11770E-03-3.18443E-02
 -1      1790-5.23890E-06-8.75538E-03-3.18435E-02
 -1      1791-7.41189E-04 3.23894E-03-3.69536E-02
 -1      1793-3.74963E-05-1.05733E-02-3.69527E-02
 -1      1794-7.57703E-04 3.26429E-03-4.19791E-02
 -1      1796-7.41538E-05-1.24202E-02-4.19795E-02
 -1      1797-7.63137E-04 3.22815E-03-4.68673E-02
 -1      1799-9.65021E-05-1.43037E-02-4.68673E-02
 -1      1800-7.59952E-04 3.13680E-03-5.16258E-02
 -1      1802-1.12608E-04-1.61761E-02-5.16273E-02
 -1      1803-7.43697E-04 3.02181E-03-5.62372E-02
 -1      1805-1.17490E-04-1.80304E-02-5.62384E-02
 -1      1806-7.18120E-04 2.89727E-03-6.06938E-02
 -1      1808-1.13573E-04-1.98265E-02-6.06963E-02
 -1      1809-6.80773E-04 2.79060E-03-6.49861E-02
 -1      1811-9.99695E-05-2.15497E-02-6.49885E-02
 -1      1812-6.34901E-04 2.71701E-03-6.91041E-02
 -1      1814-7.84612E-05-2.31684E-02-6.91075E-02
 -1      1815-5.80259E-04 2.69719E-03-7.30398E-02
 -1      1817-4.99383E-05-2.46678E-02-7.30431E-02
 -1      1818-5.19835E-04 2.74172E-03-7.67829E-02
 -1      1820-1.65243E-05-2.60263E-02-7.67869E-02
 -1      1821-4.54814E-04 2.86179E-03-8.03253E-02
 -1      1823 1.99567E-05-2.72349E-02-8.03292E-02
 -1      1824-3.88020E-04 3.05962E-03-8.36570E-02
 -1      1826 5.71208E-05-2.82833E-02-8.36612E-02
 -1      1827-3.21266E-04 3.33545E-03-8.67695E-02
 -1      1829 9.28341E-05-2.91715E-02-8.67735E-02
 -1      1830-2.56998E-04 3.68175E-03-8.96528E-02
 -1      1832 1.24860E-04-2.99007E-02-8.96568E-02
 -1      1833-1.96952E-04 4.08850E-03-9.22981E-02
 -1      1835 1.51341E-04-3.04801E-02-9.23018E-02
 -1      1836-1.42840E-04 4.53964E-03-9.46959E-02
 -1      1838 1.70676E-04-3.09203E-02-9.46995E-02
 -1      1839-9.57594E-05 5.01775E-03-9.68376E-02
 -1      1841 1.81743E-04-3.12380E-02-9.68406E-02
 -1      1842-5.63538E-05 5.50177E-03-9.87146E-02
 -1      1844 1.84114E-04-3.14491E-02-9.87175E-02
 -1      1845-2.46810E-05 5.97156E-03-1.00319E-01
 -1      1847 1.77451E-04-3.15736E-02-1.00321E-01
 -1      1848-8.54731E-08 6.40639E-03-1.01644E-01
 -1      1850 1.63495E-04-3.16274E-02-1.01647E-01
 -1      1851 1.87607E-05 6.78864E-03-1.02682E-01
 -1      1853 1.41379E-04-3.16286E-02-1.02683E-01
 -1      1854 3.33404E-05 7.10553E-03-1.03433E-01
 -1      1856 1.18011E-04-3.15862E-02-1.03435E-01
 -1      1857 4.95947E-05 7.34439E-03-1.03878E-01
 -1      1859 8.77992E-05-3.15113E-02-1.03880E-01
 -1      1860-2.49122E-04-3.51029E-03 2.54491E-05
 -1      1862 2.49122E-04-3.51029E-03-2.54491E-05
 -1      1863-1.04901E-04-7.51331E-03 1.47061E-04
 -1      1865 1.04901E-04-7.51331E-03-1.47061E-04
 -1      1866-1.99194E-04-1.13371E-02 2.34535E-04
 -1      1868 1.99194E-04-1.13371E-02-2.34535E-04
 -1      1869-1.43007E-04-1.53768E-02 3.22587E-04
 -1      1871 1.43007E-04-1.53768E-02-3.22587E-04
 -1      1872-1.80712E-04-1.93284E-02 4.17525E-04
 -1      1874 1.80712E-04-1.93284E-02-4.17525E-04
 -1      1875-1.56986E-04-2.33659E-02 5.06136E-04
 -1      1877 1.56986E-04-2.33659E-02-5.06136E-04
 -1      1878-1.71682E-04-2.73395E-02 6.00532E-04
 -1      1880 1.71682E-04-2.73395E-02-6.00532E-04
 -1      1881-1.59933E-04-3.13184E-02 6.91166E-04
 -1      1883 1.59933E-04-3.13184E-02-6.91166E-04
 -1      1884-1.64055E-04-3.52210E-02 7.83465E-04
 -1      1886 1.64055E-04-3.52210E-02-7.83465E-04
 -1      1887-1.56168E-04-3.90668E-02 8.73042E-04
 -1      1889 1.56168E-04-3.90668E-02-8.73042E-04
 -1      1890-1.54640E-04-4.28051E-02 9.61400E-04
 -1      1892 1.54640E-04-4.28051E-02-9.61400E-04
 -1      1893-1.47312E-04-4.64327E-02 1.04658E-03
 -1      1895 1.47312E-04-4.64327E-02-1.04658E-03
 -1      1896-1.42303E-04-4.99149E-02 1.12854E-03
 -1      1898 1.42303E-04-4.99149E-02-1.12854E-03
 -1      1899-1.34315E-04-5.32399E-02 1.20631E-03
 -1      1901 1.34315E-04-5.32399E-02-1.20631E-03
 -1      1902-1.27013E-04-5.63832E-02 1.27943E-03
 -1      1904 1.27013E-04-5.63832E-02-1.27943E-03
 -1      1905-1.18137E-04-5.93328E-02 1.34737E-03
 -1      1907 1.18137E-04-5.93328E-02-1.34737E-03
 -1      1908-1.09404E-04-6.20728E-02 1.40972E-03
 -1      1910 1.09404E-04-6.20728E-02-1.40972E-03
 -1      1911-9.98992E-05-6.45949E-02 1.46628E-03
 -1      1913 9.98992E-05-6.45949E-02-1.46628E-03
 -1      1914-9.04766E-05-6.68913E-02 1.51681E-03
 -1      1916 9.04766E-05-6.68913E-02-1.51681E-03
 -1      1917-8.07995E-05-6.89595E-02 1.56141E-03
 -1      1919 8.07995E-05-6.89595E-02-1.56141E-03
 -1      1920-7.13218E-05-7.07987E-02 1.60007E-03
 -1      1922 7.13218E-05-7.07987E-02-1.60007E-03
 -1      1923-6.19299E-05-7.24120E-02 1.63312E-03
 -1      1925 6.19299E-05-7.24120E-02-1.63312E-03
 -1      1926-5.28639E-05-7.38039E-02 1.66072E-03
 -1      1928 5.28639E-05-7.38039E-02-1.66072E-03
 -1      1929-4.40842E-05-7.49812E-02 1.68335E-03
 -1      1931 4.40842E-05-7.49812E-02-1.68335E-03
 -1      1932-3.56445E-05-7.59512E-02 1.70124E-03
 -1      1934 3.56445E-05-7.59512E-02-1.70124E-03
 -1      1935-2.76255E-05-7.67220E-02 1.71492E-03
 -1      1937 2.76255E-05-7.67220E-02-1.71492E-03
 -1      1938-1.96394E-05-7.73000E-02 1.72447E-03
 -1      1940 1.96394E-05-7.73000E-02-1.72447E-03
 -1      1941-1.25082E-05-7.76929E-02 1.73049E-03
 -1      1943 1.25082E-05-7.76929E-02-1.73049E-03
 -1      1944-4.01693E-06-7.78994E-02 1.73210E-03
 -1      1946 4.01693E-06-7.78994E-02-1.73210E-03
 -1      1947 1.03450E-14 1.94867E-13 2.72028E-04
 -1      1949-2.30836E-14 1.95064E-13-2.72028E-04
 -1      1950-9.78167E-16 5.53585E-13 4.94549E-04
 -1      1952-3.17663E-14 5.53821E-13-4.94549E-04
 -1      1953-8.63198E-15 9.20944E-13 7.33942E-04
 -1      1955-4.25510E-14 9.21166E-13-7.33942E-04
 -1      1956-2.23085E-14 1.22027E-12 9.89235E-04
 -1      1958-4.16498E-14 1.22057E-12-9.89235E-04
 -1      1959-3.10897E-14 1.38974E-12 1.23447E-03
 -1      1961-4.19682E-14 1.38975E-12-1.23447E-03
 -1      1962-4.24018E-14 1.43148E-12 1.48802E-03
 -1      1964-3.93739E-14 1.43183E-12-1.48802E-03
 -1      1965-5.68790E-14 1.30703E-12 1.73574E-03
 -1      1967-3.86973E-14 1.30684E-12-1.73574E-03
 -1      1968-7.13683E-14 1.03393E-12 1.98280E-03
 -1      1970-4.21104E-14 1.03443E-12-1.98280E-03
 -1      1971-8.20056E-14 6.53939E-13 2.22586E-03
 -1      1973-4.49571E-14 6.54185E-13-2.22586E-03
 -1      1974-8.73000E-14 2.09034E-13 2.46340E-03
 -1      1976-4.66476E-14 2.09010E-13-2.46340E-03
 -1      1977-8.94111E-14-2.53339E-13 2.69566E-03
 -1      1979-4.88316E-14-2.53381E-13-2.69566E-03
 -1      1980-9.18276E-14-7.02188E-13 2.91958E-03
 -1      1982-5.32061E-14-7.01925E-13-2.91958E-03
 -1      1983-8.75459E-14-1.03839E-12 3.13584E-03
 -1      1985-6.70536E-14-1.03895E-12-3.13584E-03
 -1      1986-8.41584E-14-1.17267E-12 3.34169E-03
 -1      1988-8.07765E-14-1.17170E-12-3.34169E-03
 -1      1989-8.39537E-14-1.14807E-12 3.53752E-03
 -1      1991-9.07403E-14-1.15004E-12-3.53752E-03
 -1      1992-8.12475E-14-9.66879E-13 3.72133E-03
 -1      1994-1.04990E-13-9.66220E-13-3.72133E-03
 -1      1995-8.76599E-14-6.72534E-13 3.89323E-03
 -1      1997-1.13803E-13-6.72760E-13-3.89323E-03
 -1      1998-9.17541E-14-3.42625E-13 4.05200E-03
 -1      2000-1.22037E-13-3.42599E-13-4.05200E-03
 -1      2001-9.21110E-14 4.01528E-14 4.19768E-03
 -1      2003-1.26834E-13 4.02278E-14-4.19768E-03
 -1      2004-9.36768E-14 4.43394E-13 4.32966E-03
 -1      2006-1.28100E-13 4.42998E-13-4.32966E-03
 -1      2007-9.90224E-14 8.16805E-13 4.44806E-03
 -1      2009-1.28751E-13 8.17228E-13-4.44806E-03
 -1      2010-1.10610E-13 1.07948E-12 4.55275E-03
 -1      2012-1.25903E-13 1.07948E-12-4.55275E-03
 -1      2013-1.23881E-13 1.18275E-12 4.64391E-03
 -1      2015-1.26401E-13 1.18309E-12-4.64391E-03
 -1      2016-1.38915E-13 1.14473E-12 4.72181E-03
 -1      2018-1.30153E-13 1.14433E-12-4.72181E-03
 -1      2019-1.56635E-13 9.43058E-13 4.78657E-03
 -1      2021-1.31005E-13 9.43773E-13-4.78657E-03
 -1      2022-1.69514E-13 5.77038E-13 4.83880E-03
 -1      2024-1.32248E-13 5.76560E-13-4.83880E-03
 -1      2025-1.79010E-13 9.22146E-14 4.87832E-03
 -1      2027-1.33043E-13 9.28722E-14-4.87832E-03
 -1      2028-1.86039E-13-4.77222E-13 4.90606E-03
 -1      2030-1.34084E-13-4.76424E-13-4.90606E-03
 -1      2031-1.89404E-13-1.07117E-12 4.92165E-03
 -1      2033-1.38875E-13-1.07189E-12-4.92165E-03
 -1      2034 2.49122E-04 3.51029E-03 2.54491E-05
 -1      2036-2.49122E-04 3.51029E-03-2.54491E-05
 -1      2037 1.04901E-04 7.51331E-03 1.47061E-04
 -1      2039-1.04901E-04 7.51331E-03-1.47061E-04
 -1      2040 1.99194E-04 1.13371E-02 2.34535E-04
 -1      2042-1.99194E-04 1.13371E-02-2.34535E-04
 -1      2043 1.43007E-04 1.53768E-02 3.22587E-04
 -1      2045-1.43007E-04 1.53768E-02-3.22587E-04
 -1      2046 1.80712E-04 1.93284E-02 4.17525E-04
 -1      2048-1.80712E-04 1.93284E-02-4.17525E-04
 -1      2049 1.56986E-04 2.33659E-02 5.06136E-04
 -1      2051-1.56986E-04 2.33659E-02-5.06136E-04
 -1      2052 1.71682E-04 2.73395E-02 6.00532E-04
 -1      2054-1.71682E-04 2.73395E-02-6.00532E-04
 -1      2055 1.59933E-04 3.13184E-02 6.91166E-04
 -1      2057-1.59933E-04 3.13184E-02-6.91166E-04
 -1      2058 1.64055E-04 3.52210E-02 7.83465E-04
 -1      2060-1.64055E-04 3.52210E-02-7.83465E-04
 -1      2061 1.56168E-04 3.90668E-02 8.73042E-04
 -1      2063-1.56168E-04 3.90668E-02-8.73042E-04
 -1      2064 1.54640E-04 4.28051E-02 9.61400E-04
 -1      2066-1.54640E-04 4.28051E-02-9.61400E-04
 -1      2067 1.47312E-04 4.64327E-02 1.04658E-03
 -1      2069-1.47312E-04 4.64327E-02-1.04658E-03
 -1      2070 1.42303E-04 4.99149E-02 1.12854E-03
 -1      2072-1.42303E-04 4.99149E-02-1.12854E-03
 -1      2073 1.34315E-04 5.32399E-02 1.20631E-03
 -1      2075-1.34315E-04 5.32399E-02-1.20631E-03
 -1      2076 1.27013E-04 5.63832E-02 1.27943E-03
 -1      2078-1.27013E-04 5.63832E-02-1.27943E-03
 -1      2079 1.18137E-04 5.93328E-02 1.34737E-03
 -1      2081-1.18137E-04 5.93328E-02-1.34737E-03
 -1      2082 1.09404E-04 6.20728E-02 1.40972E-03
 -1      2084-1.09404E-04 6.20728E-02-1.40972E-03
 -1      2085 9.98992E-05 6.45949E-02 1.46628E-03
 -1      2087-9.98992E-05 6.45949E-02-1.46628E-03
 -1      2088 9.04766E-05 6.68913E-02 1.51681E-03
 -1      2090-9.04766E-05 6.68913E-02-1.51681E-03
 -1      2091 8.07995E-05 6.89595E-02 1.56141E-03
 -1      2093-8.07995E-05 6.89595E-02-1.56141E-03
 -1      2094 7.13218E-05 7.07987E-02 1.60007E-03
 -1      2096-7.13218E-05 7.07987E-02-1.60007E-03
 -1      2097 6.19299E-05 7.24120E-02 1.63312E-03
 -1      2099-6.19299E-05 7.24120E-02-1.63312E-03
 -1      2100 5.28639E-05 7.38039E-02 1.66072E-03
 -1      2102-5.28639E-05 7.38039E-02-1.66072E-03
 -1      2103 4.40842E-05 7.49812E-02 1.68335E-03
 -1      2105-4.40842E-05 7.49812E-02-1.68335E-03
 -1      2106 3.56445E-05 7.59512E-02 1.70124E-03
 -1      2108-3.56445E-05 7.59512E-02-1.70124E-03
 -1      2109 2.76255E-05 7.67220E-02 1.71492E-03
 -1      2111-2.76255E-05 7.67220E-02-1.71492E-03
 -1      2112 1.96394E-05 7.73000E-02 1.72447E-03
 -1      2114-1.96394E-05 7.73000E-02-1.72447E-03
 -1      2115 1.25082E-05 7.76929E-02 1.73049E-03
 -1      2117-1.25082E-05 7.76929E-02-1.73049E-03
 -1      2118 4.01693E-06 7.78994E-02 1.73210E-03
 -1      2120-4.01693E-06 7.78994E-02-1.73210E-03
 -1      2121 6.75232E-04-7.15680E-04-4.24027E-03
 -1      2123-5.04307E-04 8.95597E-04-4.23789E-03
 -1      2124 4.44902E-04-1.54739E-03-1.06297E-02
 -1      2126-1.30297E-04 2.35504E-03-1.06249E-02
 -1      2127 6.36609E-04-2.11238E-03-1.57413E-02
 -1      2129-2.04326E-04 3.77581E-03-1.57407E-02
 -1      2130 6.23222E-04-2.57167E-03-2.13370E-02
 -1      2132-7.69901E-05 5.35002E-03-2.13343E-02
 -1      2133 6.89189E-04-2.90606E-03-2.65694E-02
 -1      2135-5.76882E-05 7.01972E-03-2.65683E-02
 -1      2136 7.13335E-04-3.11770E-03-3.18443E-02
 -1      2138 5.23890E-06 8.75538E-03-3.18435E-02
 -1      2139 7.41189E-04-3.23894E-03-3.69536E-02
 -1      2141 3.74963E-05 1.05733E-02-3.69527E-02
 -1      2142 7.57703E-04-3.26429E-03-4.19791E-02
 -1      2144 7.41538E-05 1.24202E-02-4.19795E-02
 -1      2145 7.63137E-04-3.22815E-03-4.68673E-02
 -1      2147 9.65021E-05 1.43037E-02-4.68673E-02
 -1      2148 7.59952E-04-3.13680E-03-5.16258E-02
 -1      2150 1.12608E-04 1.61761E-02-5.16273E-02
 -1      2151 7.43697E-04-3.02181E-03-5.62372E-02
 -1      2153 1.17490E-04 1.80304E-02-5.62384E-02
 -1      2154 7.18120E-04-2.89727E-03-6.06938E-02
 -1      2156 1.13573E-04 1.98265E-02-6.06963E-02
 -1      2157 6.80773E-04-2.79060E-03-6.49861E-02
 -1      2159 9.99695E-05 2.15497E-02-6.49885E-02
 -1      2160 6.34901E-04-2.71701E-03-6.91041E-02
 -1      2162 7.84612E-05 2.31684E-02-6.91075E-02
 -1      2163 5.80259E-04-2.69719E-03-7.30398E-02
 -1      2165 4.99383E-05 2.46678E-02-7.30431E-02
 -1      2166 5.19835E-04-2.74172E-03-7.67829E-02
 -1      2168 1.65243E-05 2.60263E-02-7.67869E-02
 -1      2169 4.54814E-04-2.86179E-03-8.03253E-02
 -1      2171-1.99567E-05 2.72349E-02-8.03292E-02
 -1      2172 3.88020E-04-3.05962E-03-8.36570E-02
 -1      2174-5.71208E-05 2.82833E-02-8.36612E-02
 -1      2175 3.21266E-04-3.33545E-03-8.67695E-02
 -1      2177-9.28341E-05 2.91715E-02-8.67735E-02
 -1      2178 2.56998E-04-3.68175E-03-8.96528E-02
 -1      2180-1.24860E-04 2.99007E-02-8.96568E-02
 -1      2181 1.96952E-04-4.08850E-03-9.22981E-02
 -1      2183-1.51341E-04 3.04801E-02-9.23018E-02
 -1      2184 1.42840E-04-4.53964E-03-9.46959E-02
 -1      2186-1.70676E-04 3.09203E-02-9.46995E-02
 -1      2187 9.57594E-05-5.01775E-03-9.68376E-02
 -1      2189-1.81743E-04 3.12380E-02-9.68406E-02
 -1      2190 5.63538E-05-5.50177E-03-9.87146E-02
 -1      2192-1.84114E-04 3.14491E-02-9.87175E-02
 -1      2193 2.46809E-05-5.97156E-03-1.00319E-01
 -1      2195-1.77451E-04 3.15736E-02-1.00321E-01
 -1      2196 8.54725E-08-6.40639E-03-1.01644E-01
 -1      2198-1.63495E-04 3.16274E-02-1.01647E-01
 -1      2199-1.87607E-05-6.78864E-03-1.02682E-01
 -1      2201-1.41379E-04 3.16286E-02-1.02683E-01
 -1      2202-3.33404E-05-7.10553E-03-1.03433E-01
 -1      2204-1.18011E-04 3.15862E-02-1.03435E-01
 -1      2205-4.95947E-05-7.34439E-03-1.03878E-01
 -1      2207-8.77992E-05 3.15113E-02-1.03880E-01
 -1      2208-6.75232E-04-7.15680E-04 4.24027E-03
 -1      2210 5.04307E-04 8.95597E-04 4.23789E-03
 -1      2211-4.44902E-04-1.54739E-03 1.06297E-02
 -1      2213 1.30297E-04 2.35504E-03 1.06249E-02
 -1      2214-6.36609E-04-2.11238E-03 1.57413E-02
 -1      2216 2.04326E-04 3.77581E-03 1.57407E-02
 -1      2217-6.23222E-04-2.57167E-03 2.13370E-02
 -1      2219 7.69901E-05 5.35002E-03 2.13343E-02
 -1      2220-6.89189E-04-2.90606E-03 2.65694E-02
 -1      2222 5.76882E-05 7.01972E-03 2.65683E-02
 -1      2223-7.13335E-04-3.11770E-03 3.18443E-02
 -1      2225-5.23890E-06 8.75538E-03 3.18435E-02
 -1      2226-7.41189E-04-3.23894E-03 3.69536E-02
 -1      2228-3.74963E-05 1.05733E-02 3.69527E-02
 -1      2229-7.57703E-04-3.26429E-03 4.19791E-02
 -1      2231-7.41538E-05 1.24202E-02 4.19795E-02
 -1      2232-7.63137E-04-3.22815E-03 4.68673E-02
 -1      2234-9.65021E-05 1.43037E-02 4.68673E-02
 -1      2235-7.59952E-04-3.13680E-03 5.16258E-02
 -1      2237-1.12608E-04 1.61761E-02 5.16273E-02
 -1      2238-7.43697E-04-3.02181E-03 5.62372E-02
 -1      2240-1.17490E-04 1.80304E-02 5.62384E-02
 -1      2241-7.18120E-04-2.89727E-03 6.06938E-02
 -1      2243-1.13573E-04 1.98265E-02 6.06963E-02
 -1      2244-6.80773E-04-2.79060E-03 6.49861E-02
 -1      2246-9.99695E-05 2.15497E-02 6.49885E-02
 -1      2247-6.34901E-04-2.71701E-03 6.91041E-02
 -1      2249-7.84612E-05 2.31684E-02 6.91075E-02
 -1      2250-5.80259E-04-2.69719E-03 7.30398E-02
 -1      2252-4.99383E-05 2.46678E-02 7.30431E-02
 -1      2253-5.19835E-04-2.74172E-03 7.67829E-02
 -1      2255-1.65243E-05 2.60263E-02 7.67869E-02
 -1      2256-4.54814E-04-2.86179E-03 8.03253E-02
 -1      2258 1.99567E-05 2.72349E-02 8.03292E-02
 -1      2259-3.88020E-04-3.05962E-03 8.36570E-02
 -1      2261 5.71208E-05 2.82833E-02 8.36612E-02
 -1      2262-3.21266E-04-3.33545E-03 8.67695E-02
 -1      2264 9.28341E-05 2.91715E-02 8.67735E-02
 -1      2265-2.56998E-04-3.68175E-03 8.96528E-02
 -1      2267 1.24860E-04 2.99007E-02 8.96568E-02
 -1      2268-1.96952E-04-4.08850E-03 9.22981E-02
 -1      2270 1.51341E-04 3.04801E-02 9.23018E-02
 -1      2271-1.42840E-04-4.53964E-03 9.46959E-02
 -1      2273 1.70676E-04 3.09203E-02 9.46995E-02
 -1      2274-9.57594E-05-5.01775E-03 9.68376E-02
 -1      2276 1.81743E-04 3.12380E-02 9.68406E-02
 -1      2277-5.63538E-05-5.50177E-03 9.87146E-02
 -1      2279 1.84114E-04 3.14491E-02 9.87175E-02
 -1      2280-2.46809E-05-5.97156E-03 1.00319E-01
 -1      2282 1.77451E-04 3.15736E-02 1.00321E-01
 -1      2283-8.54727E-08-6.40639E-03 1.01644E-01
 -1      2285 1.63495E-04 3.16274E-02 1.01647E-01
 -1      2286 1.87607E-05-6.78864E-03 1.02682E-01
 -1      2288 1.41379E-04 3.16286E-02 1.02683E-01
 -1      2289 3.33404E-05-7.10553E-03 1.03433E-01
 -1      2291 1.18011E-04 3.15862E-02 1.03435E-01
 -1      2292 4.95947E-05-7.34439E-03 1.03878E-01
 -1      2294 8.77992E-05 3.15113E-02 1.03880E-01
 -3
    1PSTEP                        34           1           1          
    1PGM                1.000000E+00                                  
    1PGK                6.230342E+06                                  
    1PHID                         -1                                  
    1PSUBC                         0                                  
    1PMODE                         9                                  
  100CL  109 397.2611427         930                     2    9MODAL      1
 -4  STRESS      6    1
 -5  SXX         1    4    1    1
 -5  SYY         1    4    2    2
 -5  SZZ         1    4    3    3
 -5  SXY         1    4    1    2
 -5  SYZ         1    4    2    3
 -5  SZX         1    4    3    1
 -1       404 2.75766E+08 1.33723E+07 7.25930E+05-6.01215E+06-8.56684E+05 3.62793E+08
 -1       406 2.75766E+08 1.33723E+07 7.25930E+05-6.01215E+06-8.56684E+05 3.62793E+08
 -1       407 8.82421E+06-1.18795E+07 6.24892E+04-4.10995E+06 1.58837E+08-1.85024E+06
 -1       409 8.82421E+06-1.18795E+07 6.24892E+04-4.10995E+06 1.58837E+08-1.85024E+06
 -1       410-6.66843E-03-1.29611E-03-2.82191E-06-7.15707E+06 4.11145E+08-7.97589E-05
 -1       412-6.66843E-03-1.29611E-03-2.82191E-06-7.15707E+06 4.11145E+08-7.97589E-05
 -1       413-3.30834E-03-1.10857E-03 1.34076E-02 7.96847E+05 3.71085E+08 6.61048E-05
 -1       415-3.30834E-03-1.10857E-03 1.34076E-02 7.96847E+05 3.71085E+08 6.61048E-05
 -1       424-9.77220E-03-2.04170E-03-1.65659E-05 1.59555E+07-7.64035E+07-8.51464E-04
 -1       426-9.77220E-03-2.04170E-03-1.65659E-05 1.59555E+07-7.64035E+07-8.51464E-04
 -1       427-9.75269E-03 1.28624E-04 1.32793E-03-6.31557E+07-4.20331E+07-1.53290E-02
 -1       429-9.75269E-03 1.28624E-04 1.32793E-03-6.31557E+07-4.20331E+07-1.53290E-02
 -1       438-8.82421E+06 1.18795E+07-6.24892E+04-4.10995E+06 1.58837E+08 1.85024E+06
 -1       440-8.82421E+06 1.18795E+07-6.24892E+04-4.10995E+06 1.58837E+08 1.85024E+06
 -1       441-2.75766E+08-1.33723E+07-7.25930E+05-6.01215E+06-8.56684E+05-3.62793E+08
 -1       443-2.75766E+08-1.33723E+07-7.25930E+05-6.01215E+06-8.56684E+05-3.62793E+08
 -1       444-2.06513E-02-7.85723E-06-4.94143E-04 6.31557E+07-4.20331E+07-2.35056E-03
 -1       446-2.06513E-02-7.85723E-06-4.94143E-04 6.31557E+07-4.20331E+07-2.35056E-03
 -1       447-2.00127E-02-2.99105E-03 9.00356E-06-1.59555E+07-7.64035E+07 4.85208E-04
 -1       449-2.00127E-02-2.99105E-03 9.00356E-06-1.59555E+07-7.64035E+07 4.85208E-04
 -1       458-1.39083E-05-6.98396E-04 2.97058E-03-7.96847E+05 3.71085E+08-1.17282E-03
 -1       460-1.39083E-05-6.98396E-04 2.97058E-03-7.96847E+05 3.71085E+08-1.17282E-03
 -1       461 1.70609E-03 2.92901E-03-1.02848E-04 7.15707E+06 4.11145E+08 1.63134E-04
 -1       463 1.70609E-03 2.92901E-03-1.02848E-04 7.15707E+06 4.11145E+08 1.63134E-04
 -1       472 2.75766E+08 1.33723E+07 7.25930E+05 6.01215E+06-8.56684E+05-3.62793E+08
 -1       474 2.75766E+08 1.33723E+07 7.25930E+05 6.01215E+06-8.56684E+05-3.62793E+08
 -1       475 8.82421E+06-1.18795E+07 6.24892E+04 4.10995E+06 1.58837E+08 1.85024E+06
 -1       477 8.82421E+06-1.18795E+07 6.24892E+04 4.10995E+06 1.58837E+08 1.85024E+06
 -1       478-8.82421E+06 1.18795E+07-6.24892E+04 4.10995E+06 1.58837E+08-1.85024E+06
 -1       480-8.82421E+06 1.18795E+07-6.24892E+04 4.10995E+06 1.58837E+08-1.85024E+06
 -1       481-2.75766E+08-1.33723E+07-7.25930E+05 6.01215E+06-8.56684E+05 3.62793E+08
 -1       483-2.75766E+08-1.33723E+07-7.25930E+05 6.01215E+06-8.56684E+05 3.62793E+08
 -1       484 2.51976E+08 1.72080E+06 1.24421E+05-1.14247E+07 1.08813E+07 1.26202E+08
 -1       486 2.51976E+08 1.72080E+06 1.24421E+05-1.14247E+07 1.08813E+07 1.26202E+08
 -1       487 2.07475E+08-6.66242E+05-4.41154E+04-1.05313E+07 2.00960E+07 1.77551E+06
 -1       489 2.07475E+08-6.66242E+05-4.41154E+04-1.05313E+07 2.00960E+07 1.77551E+06
 -1       490 1.78179E+08 7.42748E+05 2.37830E+05-4.12798E+06 2.29842E+07 6.12503E+07
 -1       492 1.78179E+08 7.42748E+05 2.37830E+05-4.12798E+06 2.29842E+07 6.12503E+07
 -1       493 1.56973E+08-2.79942E+06 2.21332E+04-5.06137E+06 3.28223E+07 3.25358E+07
 -1       495 1.56973E+08-2.79942E+06 2.21332E+04-5.06137E+06 3.28223E+07 3.25358E+07
 -1       496 1.35782E+08-1.42548E+06 1.52031E+05-4.61494E+06 3.95840E+07 4.53042E+07
 -1       498 1.35782E+08-1.42548E+06 1.52031E+05-4.61494E+06 3.95840E+07 4.53042E+07
 -1       499 1.14393E+08-3.84676E+06 9.47813E+04-4.99336E+06 4.80556E+07 3.84293E+07
 -1       501 1.14393E+08-3.84676E+06 9.47813E+04-4.99336E+06 4.80556E+07 3.84293E+07
 -1       502 8.94130E+07-3.92103E+06 9.84671E+04-6.07019E+06 5.59460E+07 4.04573E+07
 -1       504 8.94130E+07-3.92103E+06 9.84671E+04-6.07019E+06 5.59460E+07 4.04573E+07
 -1       505 6.18659E+07-5.32130E+06 1.15036E+05-6.49608E+06 6.36219E+07 3.83112E+07
 -1       507 6.18659E+07-5.32130E+06 1.15036E+05-6.49608E+06 6.36219E+07 3.83112E+07
 -1       508 3.10954E+07-6.17171E+06 7.10830E+04-7.33887E+06 7.15409E+07 3.78454E+07
 -1       510 3.10954E+07-6.17171E+06 7.10830E+04-7.33887E+06 7.15409E+07 3.78454E+07
 -1       511-1.24231E+06-7.19288E+06 1.03065E+05-7.47868E+06 7.87473E+07 3.65627E+07
 -1       513-1.24231E+06-7.19288E+06 1.03065E+05-7.47868E+06 7.87473E+07 3.65627E+07
 -1       514-3.44500E+07-8.24866E+06 5.40239E+04-7.60062E+06 8.62703E+07 3.54525E+07
 -1       516-3.44500E+07-8.24866E+06 5.40239E+04-7.60062E+06 8.62703E+07 3.54525E+07
 -1       517-6.66499E+07-9.14751E+06 7.93244E+04-7.13968E+06 9.30536E+07 3.41982E+07
 -1       519-6.66499E+07-9.14751E+06 7.93244E+04-7.13968E+06 9.30536E+07 3.41982E+07
 -1       520-9.66320E+07-1.01488E+07 4.18021E+04-6.46573E+06 1.00005E+08 3.28459E+07
 -1       522-9.66320E+07-1.01488E+07 4.18021E+04-6.46573E+06 1.00005E+08 3.28459E+07
 -1       523-1.22708E+08-1.09440E+07 5.77858E+04-5.35343E+06 1.06297E+08 3.14571E+07
 -1       525-1.22708E+08-1.09440E+07 5.77858E+04-5.35343E+06 1.06297E+08 3.14571E+07
 -1       526-1.43758E+08-1.17777E+07 3.57842E+04-4.03000E+06 1.12586E+08 2.99463E+07
 -1       528-1.43758E+08-1.17777E+07 3.57842E+04-4.03000E+06 1.12586E+08 2.99463E+07
 -1       529-1.58635E+08-1.24198E+07 4.69239E+04-2.44871E+06 1.18291E+08 2.84006E+07
 -1       531-1.58635E+08-1.24198E+07 4.69239E+04-2.44871E+06 1.18291E+08 2.84006E+07
 -1       532-1.66736E+08-1.30355E+07 3.92827E+04-7.79282E+05 1.23856E+08 2.67481E+07
 -1       534-1.66736E+08-1.30355E+07 3.92827E+04-7.79282E+05 1.23856E+08 2.67481E+07
 -1       535-1.67684E+08-1.34812E+07 5.08235E+04 9.38154E+05 1.28886E+08 2.50491E+07
 -1       537-1.67684E+08-1.34812E+07 5.08235E+04 9.38154E+05 1.28886E+08 2.50491E+07
 -1       538-1.61631E+08-1.38688E+07 5.41805E+04 2.56407E+06 1.33680E+08 2.32596E+07
 -1       540-1.61631E+08-1.38688E+07 5.41805E+04 2.56407E+06 1.33680E+08 2.32596E+07
 -1       541-1.49049E+08-1.41058E+07 6.97569E+04 4.02708E+06 1.37967E+08 2.14163E+07
 -1       543-1.49049E+08-1.41058E+07 6.97569E+04 4.02708E+06 1.37967E+08 2.14163E+07
 -1       544-1.30876E+08-1.42932E+07 7.92812E+04 5.21764E+06 1.41955E+08 1.94940E+07
 -1       546-1.30876E+08-1.42932E+07 7.92812E+04 5.21764E+06 1.41955E+08 1.94940E+07
 -1       547-1.08347E+08-1.43411E+07 1.00665E+05 6.06291E+06 1.45450E+08 1.75211E+07
 -1       549-1.08347E+08-1.43411E+07 1.00665E+05 6.06291E+06 1.45450E+08 1.75211E+07
 -1       550-8.30530E+07-1.43870E+07 1.10030E+05 6.50640E+06 1.48608E+08 1.54688E+07
 -1       552-8.30530E+07-1.43870E+07 1.10030E+05 6.50640E+06 1.48608E+08 1.54688E+07
 -1       553-5.67910E+07-1.43058E+07 1.37911E+05 6.43908E+06 1.51282E+08 1.33991E+07
 -1       555-5.67910E+07-1.43058E+07 1.37911E+05 6.43908E+06 1.51282E+08 1.33991E+07
 -1       556-3.15740E+07-1.42417E+07 1.39200E+05 5.98353E+06 1.53593E+08 1.11975E+07
 -1       558-3.15740E+07-1.42417E+07 1.39200E+05 5.98353E+06 1.53593E+08 1.11975E+07
 -1       559-9.55340E+06-1.42336E+07 1.73891E+05 4.72230E+06 1.55433E+08 9.13031E+06
 -1       561-9.55340E+06-1.42336E+07 1.73891E+05 4.72230E+06 1.55433E+08 9.13031E+06
 -1       562 6.99507E+06-1.38399E+07 1.60112E+05 3.37751E+06 1.56881E+08 6.63994E+06
 -1       564 6.99507E+06-1.38399E+07 1.60112E+05 3.37751E+06 1.56881E+08 6.63994E+06
 -1       565 1.58025E+07-1.44546E+07 1.91387E+05 8.26606E+05 1.57908E+08 4.94687E+06
 -1       567 1.58025E+07-1.44546E+07 1.91387E+05 8.26606E+05 1.57908E+08 4.94687E+06
 -1       568 1.34154E+07-1.36178E+07 1.96049E+05-2.74431E+06 1.58530E+08 1.49263E+06
 -1       570 1.34154E+07-1.36178E+07 1.96049E+05-2.74431E+06 1.58530E+08 1.49263E+06
 -1       571 2.26057E+06-2.31841E+07-3.67900E+04-5.63351E+06 2.84991E+08-1.49682E+06
 -1       573 2.26057E+06-2.31841E+07-3.67900E+04-5.63351E+06 2.84991E+08-1.49682E+06
 -1       574-7.25017E-03-1.26617E-03-4.72141E-05-2.10171E+07-2.47355E+07-1.72131E-04
 -1       576-7.25017E-03-1.26617E-03-4.72141E-05-2.10171E+07-2.47355E+07-1.72131E-04
 -1       577-7.87624E-03 2.09355E-04 6.94449E-03 1.10649E+07-1.91683E+07-1.50711E-02
 -1       579-7.87624E-03 2.09355E-04 6.94449E-03 1.10649E+07-1.91683E+07-1.50711E-02
 -1       588-5.56548E-03-4.87328E-04-1.29904E-04-2.27471E+07 4.36671E+07 1.09429E-04
 -1       590-5.56548E-03-4.87328E-04-1.29904E-04-2.27471E+07 4.36671E+07 1.09429E-04
 -1       591-7.01556E-03 3.27020E-04 1.19568E-02 2.61118E+07 2.76729E+07-1.15804E-02
 -1       593-7.01556E-03 3.27020E-04 1.19568E-02 2.61118E+07 2.76729E+07-1.15804E-02
 -1       602-8.54657E-03-1.93133E-04-7.88453E-05-9.10780E+06 5.76526E+07-8.49795E-05
 -1       604-8.54657E-03-1.93133E-04-7.88453E-05-9.10780E+06 5.76526E+07-8.49795E-05
 -1       605-1.05330E-02 7.29354E-05 3.49027E-03 1.11119E+07 5.08903E+07-7.70928E-03
 -1       607-1.05330E-02 7.29354E-05 3.49027E-03 1.11119E+07 5.08903E+07-7.70928E-03
 -1       616-9.44582E-03-3.12503E-05 4.00618E-05-1.30937E+07 8.11774E+07-5.81332E-06
 -1       618-9.44582E-03-3.12503E-05 4.00618E-05-1.30937E+07 8.11774E+07-5.81332E-06
 -1       619-1.20750E-02 9.05699E-05-9.18185E-03 2.27642E+07 6.91537E+07-8.38869E-03
 -1       621-1.20750E-02 9.05699E-05-9.18185E-03 2.27642E+07 6.91537E+07-8.38869E-03
 -1       630-5.10627E-03-5.84122E-04 1.48937E-04-8.22652E+06 1.05351E+08 3.42578E-05
 -1       632-5.10627E-03-5.84122E-04 1.48937E-04-8.22652E+06 1.05351E+08 3.42578E-05
 -1       633-8.03876E-03 2.40082E-04-1.14909E-02 1.30047E+07 9.29462E+07-1.20786E-02
 -1       635-8.03876E-03 2.40082E-04-1.14909E-02 1.30047E+07 9.29462E+07-1.20786E-02
 -1       644-3.74612E-04-8.28269E-04 2.63332E-04-1.30441E+07 1.23467E+08 8.58884E-05
 -1       646-3.74612E-04-8.28269E-04 2.63332E-04-1.30441E+07 1.23467E+08 8.58884E-05
 -1       647-2.99559E-03-4.68560E-04-1.34461E-03 1.93653E+07 1.10004E+08-1.37244E-02
 -1       649-2.99559E-03-4.68560E-04-1.34461E-03 1.93653E+07 1.10004E+08-1.37244E-02
 -1       658-7.87648E-04 1.02861E-04 1.90643E-04-1.19551E+07 1.46630E+08 1.16501E-04
 -1       660-7.87648E-04 1.02861E-04 1.90643E-04-1.19551E+07 1.46630E+08 1.16501E-04
 -1       661-2.39785E-03-9.52920E-04 1.00045E-02 1.39183E+07 1.30698E+08-8.67222E-03
 -1       663-2.39785E-03-9.52920E-04 1.00045E-02 1.39183E+07 1.30698E+08-8.67222E-03
 -1       672-7.09563E-03 1.53313E-03-5.11628E-05-1.54843E+07 1.64776E+08 1.73109E-04
 -1       674-7.09563E-03 1.53313E-03-5.11628E-05-1.54843E+07 1.64776E+08 1.73109E-04
 -1       675-7.76758E-03-7.83875E-04 9.04045E-03 1.68829E+07 1.48405E+08-1.40737E-03
 -1       677-7.76758E-03-7.83875E-04 9.04045E-03 1.68829E+07 1.48405E+08-1.40737E-03
 -1       686-1.37702E-02 2.03524E-03-1.24314E-05-1.54441E+07 1.85882E+08 1.16503E-04
 -1       688-1.37702E-02 2.03524E-03-1.24314E-05-1.54441E+07 1.85882E+08 1.16503E-04
 -1       689-1.30815E-02-8.08172E-04-3.60132E-05 1.39260E+07 1.66967E+08-1.76155E-03
 -1       691-1.30815E-02-8.08172E-04-3.60132E-05 1.39260E+07 1.66967E+08-1.76155E-03
 -1       700-1.58727E-02 4.89636E-04-4.19146E-05-1.70485E+07 2.03958E+08 2.38884E-05
 -1       702-1.58727E-02 4.89636E-04-4.19146E-05-1.70485E+07 2.03958E+08 2.38884E-05
 -1       703-1.21551E-02 1.53349E-04-7.59063E-04 1.50992E+07 1.84408E+08-8.17551E-03
 -1       705-1.21551E-02 1.53349E-04-7.59063E-04 1.50992E+07 1.84408E+08-8.17551E-03
 -1       714-1.41335E-02-1.46824E-03-7.43668E-05-1.64149E+07 2.23256E+08 5.98263E-05
 -1       716-1.41335E-02-1.46824E-03-7.43668E-05-1.64149E+07 2.23256E+08 5.98263E-05
 -1       717-8.47792E-03 7.08361E-05 8.95690E-03 1.34400E+07 2.01491E+08-8.54597E-03
 -1       719-8.47792E-03 7.08361E-05 8.95690E-03 1.34400E+07 2.01491E+08-8.54597E-03
 -1       728-1.22876E-02-1.31541E-03-2.15961E-04-1.60034E+07 2.40649E+08 1.63300E-04
 -1       730-1.22876E-02-1.31541E-03-2.15961E-04-1.60034E+07 2.40649E+08 1.63300E-04
 -1       731-6.66723E-03-4.43690E-04 1.79531E-02 1.37480E+07 2.17998E+08-1.45060E-03
 -1       733-6.66723E-03-4.43690E-04 1.79531E-02 1.37480E+07 2.17998E+08-1.45060E-03
 -1       742-1.21629E-02 1.57672E-04 1.39781E-04-1.41075E+07 2.58290E+08 6.31940E-05
 -1       744-1.21629E-02 1.57672E-04 1.39781E-04-1.41075E+07 2.58290E+08 6.31940E-05
 -1       745-6.23519E-03-2.31847E-04 1.97620E-02 1.27376E+07 2.33749E+08 6.29609E-03
 -1       747-6.23519E-03-2.31847E-04 1.97620E-02 1.27376E+07 2.33749E+08 6.29609E-03
 -1       756-1.45641E-02-3.63648E-04 2.88402E-04-1.19372E+07 2.74543E+08 5.12823E-05
 -1       758-1.45641E-02-3.63648E-04 2.88402E-04-1.19372E+07 2.74543E+08 5.12823E-05
 -1       759-6.94413E-03-3.39521E-04 1.67703E-02 1.26436E+07 2.48961E+08 1.23321E-02
 -1       761-6.94413E-03-3.39521E-04 1.67703E-02 1.26436E+07 2.48961E+08 1.23321E-02
 -1       770-1.88732E-02-3.04002E-03-5.18118E-04-8.83843E+06 2.90515E+08 4.06355E-05
 -1       772-1.88732E-02-3.04002E-03-5.18118E-04-8.83843E+06 2.90515E+08 4.06355E-05
 -1       773-9.84582E-03 3.31412E-04 1.52055E-02 1.19393E+07 2.63298E+08 1.50245E-02
 -1       775-9.84582E-03 3.31412E-04 1.52055E-02 1.19393E+07 2.63298E+08 1.50245E-02
 -1       784-1.97327E-02-4.54607E-03-2.14971E-04-5.48797E+06 3.05313E+08-4.48348E-05
 -1       786-1.97327E-02-4.54607E-03-2.14971E-04-5.48797E+06 3.05313E+08-4.48348E-05
 -1       787-1.25784E-02-7.73190E-05 1.57013E-02 1.16454E+07 2.76995E+08 1.46353E-02
 -1       789-1.25784E-02-7.73190E-05 1.57013E-02 1.16454E+07 2.76995E+08 1.46353E-02
 -1       798-1.76046E-02-3.21320E-03-3.19077E-04-1.73090E+06 3.19528E+08 2.27662E-05
 -1       800-1.76046E-02-3.21320E-03-3.19077E-04-1.73090E+06 3.19528E+08 2.27662E-05
 -1       801-1.26951E-02-1.02872E-04 1.31293E-02 1.10558E+07 2.89772E+08 1.30105E-02
 -1       803-1.26951E-02-1.02872E-04 1.31293E-02 1.10558E+07 2.89772E+08 1.30105E-02
 -1       812-1.99786E-02 2.56907E-04-4.08161E-04 1.98634E+06 3.32637E+08 4.05973E-05
 -1       814-1.99786E-02 2.56907E-04-4.08161E-04 1.98634E+06 3.32637E+08 4.05973E-05
 -1       815-1.52904E-02 2.23326E-05 6.87438E-03 1.06299E+07 3.01799E+08 7.85515E-03
 -1       817-1.52904E-02 2.23326E-05 6.87438E-03 1.06299E+07 3.01799E+08 7.85515E-03
 -1       826-2.75198E-02 2.78711E-03 1.66167E-05 5.60183E+06 3.44985E+08 2.29795E-05
 -1       828-2.75198E-02 2.78711E-03 1.66167E-05 5.60183E+06 3.44985E+08 2.29795E-05
 -1       829-2.16928E-02-2.32305E-04 3.58786E-03 1.00367E+07 3.12874E+08 8.33291E-04
 -1       831-2.16928E-02-2.32305E-04 3.58786E-03 1.00367E+07 3.12874E+08 8.33291E-04
 -1       840-3.47779E-02 3.22078E-03 2.05630E-04 8.79006E+06 3.56229E+08 4.77089E-05
 -1       842-3.47779E-02 3.22078E-03 2.05630E-04 8.79006E+06 3.56229E+08 4.77089E-05
 -1       843-2.76269E-02 5.47157E-05 3.91173E-03 9.48529E+06 3.23113E+08-1.65408E-03
 -1       845-2.76269E-02 5.47157E-05 3.91173E-03 9.48529E+06 3.23113E+08-1.65408E-03
 -1       854-3.93746E-02 2.21526E-03-1.86277E-04 1.14259E+07 3.66606E+08 6.79195E-05
 -1       856-3.93746E-02 2.21526E-03-1.86277E-04 1.14259E+07 3.66606E+08 6.79195E-05
 -1       857-3.15099E-02 6.21060E-04 2.06646E-03 8.81090E+06 3.32375E+08 6.12294E-04
 -1       859-3.15099E-02 6.21060E-04 2.06646E-03 8.81090E+06 3.32375E+08 6.12294E-04
 -1       868-4.08726E-02 6.42568E-04-4.47974E-04 1.32785E+07 3.75845E+08 1.87995E-04
 -1       870-4.08726E-02 6.42568E-04-4.47974E-04 1.32785E+07 3.75845E+08 1.87995E-04
 -1       871-3.31292E-02 1.99490E-04 1.04494E-04 8.12285E+06 3.40741E+08-2.31844E-04
 -1       873-3.31292E-02 1.99490E-04 1.04494E-04 8.12285E+06 3.40741E+08-2.31844E-04
 -1       882-3.93977E-02-8.02904E-04-3.78185E-04 1.42292E+07 3.84167E+08 1.03612E-04
 -1       884-3.93977E-02-8.02904E-04-3.78185E-04 1.42292E+07 3.84167E+08 1.03612E-04
 -1       885-3.15674E-02-3.43540E-04 6.25267E-03 7.32026E+06 3.48113E+08-4.83233E-03
 -1       887-3.15674E-02-3.43540E-04 6.25267E-03 7.32026E+06 3.48113E+08-4.83233E-03
 -1       896-3.46407E-02-2.31548E-03-8.94913E-04 1.41707E+07 3.91289E+08 3.02292E-04
 -1       898-3.46407E-02-2.31548E-03-8.94913E-04 1.41707E+07 3.91289E+08 3.02292E-04
 -1       899-2.54022E-02 3.72803E-04 1.77464E-02 6.49371E+06 3.54538E+08-6.83388E-03
 -1       901-2.54022E-02 3.72803E-04 1.77464E-02 6.49371E+06 3.54538E+08-6.83388E-03
 -1       910-2.70635E-02-1.83129E-03-3.25130E-04 1.29195E+07 3.97494E+08 1.42809E-04
 -1       912-2.70635E-02-1.83129E-03-3.25130E-04 1.29195E+07 3.97494E+08 1.42809E-04
 -1       913-1.77464E-02 8.32657E-04 2.43494E-02 5.54575E+06 3.59971E+08-5.77300E-03
 -1       915-1.77464E-02 8.32657E-04 2.43494E-02 5.54575E+06 3.59971E+08-5.77300E-03
 -1       924-2.15201E-02 7.12436E-04 1.09037E-04 1.06640E+07 4.02419E+08 8.29110E-05
 -1       926-2.15201E-02 7.12436E-04 1.09037E-04 1.06640E+07 4.02419E+08 8.29110E-05
 -1       927-1.29356E-02 1.11554E-03 2.43285E-02 4.59969E+06 3.64400E+08-2.97581E-03
 -1       929-1.29356E-02 1.11554E-03 2.43285E-02 4.59969E+06 3.64400E+08-2.97581E-03
 -1       938-1.92463E-02 7.57281E-04 3.45032E-05 6.81684E+06 4.06411E+08 6.78755E-05
 -1       940-1.92463E-02 7.57281E-04 3.45032E-05 6.81684E+06 4.06411E+08 6.78755E-05
 -1       941-1.03331E-02 9.21518E-04 2.19924E-02 3.53489E+06 3.67809E+08-2.76613E-03
 -1       943-1.03331E-02 9.21518E-04 2.19924E-02 3.53489E+06 3.67809E+08-2.76613E-03
 -1       952-1.68790E-02-1.96901E-03-1.85695E-04 1.90941E+06 4.09138E+08-8.50747E-05
 -1       954-1.68790E-02-1.96901E-03-1.85695E-04 1.90941E+06 4.09138E+08-8.50747E-05
 -1       955-8.02206E-03 6.39121E-04 1.97115E-02 2.48074E+06 3.70195E+08-4.40614E-03
 -1       957-8.02206E-03 6.39121E-04 1.97115E-02 2.48074E+06 3.70195E+08-4.40614E-03
 -1       966-1.09909E-02-2.32625E-03-2.84724E-04-3.79869E+06 4.10448E+08 6.52922E-05
 -1       968-1.09909E-02-2.32625E-03-2.84724E-04-3.79869E+06 4.10448E+08 6.52922E-05
 -1       969-5.10465E-03-2.56198E-04 1.59663E-02 1.44638E+06 3.71126E+08-2.20414E-03
 -1       971-5.10465E-03-2.56198E-04 1.59663E-02 1.44638E+06 3.71126E+08-2.20414E-03
 -1       980 1.75567E+08-1.66255E+07-2.70493E+05 4.97169E+06-3.86301E+07 1.55230E+08
 -1       982 1.75567E+08-1.66255E+07-2.70493E+05 4.97169E+06-3.86301E+07 1.55230E+08
 -1       983-2.26057E+06 2.31841E+07 3.67900E+04-5.63351E+06 2.84991E+08 1.49682E+06
 -1       985-2.26057E+06 2.31841E+07 3.67900E+04-5.63351E+06 2.84991E+08 1.49682E+06
 -1       986-2.51976E+08-1.72080E+06-1.24421E+05-1.14247E+07 1.08813E+07-1.26202E+08
 -1       988-2.51976E+08-1.72080E+06-1.24421E+05-1.14247E+07 1.08813E+07-1.26202E+08
 -1       989-2.07475E+08 6.66242E+05 4.41154E+04-1.05313E+07 2.00960E+07-1.77551E+06
 -1       991-2.07475E+08 6.66242E+05 4.41154E+04-1.05313E+07 2.00960E+07-1.77551E+06
 -1       992-1.78179E+08-7.42748E+05-2.37830E+05-4.12798E+06 2.29842E+07-6.12503E+07
 -1       994-1.78179E+08-7.42748E+05-2.37830E+05-4.12798E+06 2.29842E+07-6.12503E+07
 -1       995-1.56973E+08 2.79942E+06-2.21332E+04-5.06137E+06 3.28223E+07-3.25358E+07
 -1       997-1.56973E+08 2.79942E+06-2.21332E+04-5.06137E+06 3.28223E+07-3.25358E+07
 -1       998-1.35782E+08 1.42548E+06-1.52031E+05-4.61494E+06 3.95840E+07-4.53042E+07
 -1      1000-1.35782E+08 1.42548E+06-1.52031E+05-4.61494E+06 3.95840E+07-4.53042E+07
 -1      1001-1.14393E+08 3.84676E+06-9.47813E+04-4.99336E+06 4.80556E+07-3.84293E+07
 -1      1003-1.14393E+08 3.84676E+06-9.47813E+04-4.99336E+06 4.80556E+07-3.84293E+07
 -1      1004-8.94130E+07 3.92103E+06-9.84671E+04-6.07019E+06 5.59460E+07-4.04573E+07
 -1      1006-8.94130E+07 3.92103E+06-9.84671E+04-6.07019E+06 5.59460E+07-4.04573E+07
 -1      1007-6.18659E+07 5.32130E+06-1.15036E+05-6.49608E+06 6.36219E+07-3.83112E+07
 -1      1009-6.18659E+07 5.32130E+06-1.15036E+05-6.49608E+06 6.36219E+07-3.83112E+07
 -1      1010-3.10954E+07 6.17171E+06-7.10830E+04-7.33887E+06 7.15409E+07-3.78454E+07
 -1      1012-3.10954E+07 6.17171E+06-7.10830E+04-7.33887E+06 7.15409E+07-3.78454E+07
 -1      1013 1.24231E+06 7.19288E+06-1.03065E+05-7.47868E+06 7.87473E+07-3.65627E+07
 -1      1015 1.24231E+06 7.19288E+06-1.03065E+05-7.47868E+06 7.87473E+07-3.65627E+07
 -1      1016 3.44500E+07 8.24866E+06-5.40239E+04-7.60062E+06 8.62703E+07-3.54525E+07
 -1      1018 3.44500E+07 8.24866E+06-5.40239E+04-7.60062E+06 8.62703E+07-3.54525E+07
 -1      1019 6.66499E+07 9.14751E+06-7.93244E+04-7.13968E+06 9.30536E+07-3.41982E+07
 -1      1021 6.66499E+07 9.14751E+06-7.93244E+04-7.13968E+06 9.30536E+07-3.41982E+07
 -1      1022 9.66320E+07 1.01488E+07-4.18021E+04-6.46573E+06 1.00005E+08-3.28459E+07
 -1      1024 9.66320E+07 1.01488E+07-4.18021E+04-6.46573E+06 1.00005E+08-3.28459E+07
 -1      1025 1.22708E+08 1.09440E+07-5.77858E+04-5.35343E+06 1.06297E+08-3.14571E+07
 -1      1027 1.22708E+08 1.09440E+07-5.77858E+04-5.35343E+06 1.06297E+08-3.14571E+07
 -1      1028 1.43758E+08 1.17777E+07-3.57842E+04-4.03000E+06 1.12586E+08-2.99463E+07
 -1      1030 1.43758E+08 1.17777E+07-3.57842E+04-4.03000E+06 1.12586E+08-2.99463E+07
 -1      1031 1.58635E+08 1.24198E+07-4.69239E+04-2.44871E+06 1.18291E+08-2.84006E+07
 -1      1033 1.58635E+08 1.24198E+07-4.69239E+04-2.44871E+06 1.18291E+08-2.84006E+07
 -1      1034 1.66736E+08 1.30355E+07-3.92827E+04-7.79282E+05 1.23856E+08-2.67481E+07
 -1      1036 1.66736E+08 1.30355E+07-3.92827E+04-7.79282E+05 1.23856E+08-2.67481E+07
 -1      1037 1.67684E+08 1.34812E+07-5.08235E+04 9.38154E+05 1.28886E+08-2.50491E+07
 -1      1039 1.67684E+08 1.34812E+07-5.08235E+04 9.38154E+05 1.28886E+08-2.50491E+07
 -1      1040 1.61631E+08 1.38688E+07-5.41805E+04 2.56407E+06 1.33680E+08-2.32596E+07
 -1      1042 1.61631E+08 1.38688E+07-5.41805E+04 2.56407E+06 1.33680E+08-2.32596E+07
 -1      1043 1.49049E+08 1.41058E+07-6.97569E+04 4.02708E+06 1.37967E+08-2.14163E+07
 -1      1045 1.49049E+08 1.41058E+07-6.97569E+04 4.02708E+06 1.37967E+08-2.14163E+07
 -1      1046 1.30876E+08 1.42932E+07-7.92812E+04 5.21764E+06 1.41955E+08-1.94940E+07
 -1      1048 1.30876E+08 1.42932E+07-7.92812E+04 5.21764E+06 1.41955E+08-1.94940E+07
 -1      1049 1.08347E+08 1.43411E+07-1.00665E+05 6.06291E+06 1.45450E+08-1.75211E+07
 -1      1051 1.08347E+08 1.43411E+07-1.00665E+05 6.06291E+06 1.45450E+08-1.75211E+07
 -1      1052 8.30530E+07 1.43870E+07-1.10030E+05 6.50640E+06 1.48608E+08-1.54688E+07
 -1      1054 8.30530E+07 1.43870E+07-1.10030E+05 6.50640E+06 1.48608E+08-1.54688E+07
 -1      1055 5.67910E+07 1.43058E+07-1.37911E+05 6.43908E+06 1.51282E+08-1.33991E+07
 -1      1057 5.67910E+07 1.43058E+07-1.37911E+05 6.43908E+06 1.51282E+08-1.33991E+07
 -1      1058 3.15740E+07 1.42417E+07-1.39200E+05 5.98353E+06 1.53593E+08-1.11975E+07
 -1      1060 3.15740E+07 1.42417E+07-1.39200E+05 5.98353E+06 1.53593E+08-1.11975E+07
 -1      1061 9.55340E+06 1.42336E+07-1.73891E+05 4.72230E+06 1.55433E+08-9.13031E+06
 -1      1063 9.55340E+06 1.42336E+07-1.73891E+05 4.72230E+06 1.55433E+08-9.13031E+06
 -1      1064-6.99507E+06 1.38399E+07-1.60112E+05 3.37751E+06 1.56881E+08-6.63994E+06
 -1      1066-6.99507E+06 1.38399E+07-1.60112E+05 3.37751E+06 1.56881E+08-6.63994E+06
 -1      1067-1.58025E+07 1.44546E+07-1.91387E+05 8.26606E+05 1.57908E+08-4.94687E+06
 -1      1069-1.58025E+07 1.44546E+07-1.91387E+05 8.26606E+05 1.57908E+08-4.94687E+06
 -1      1070-1.34154E+07 1.36178E+07-1.96049E+05-2.74431E+06 1.58530E+08-1.49263E+06
 -1      1072-1.34154E+07 1.36178E+07-1.96049E+05-2.74431E+06 1.58530E+08-1.49263E+06
 -1      1073-1.75567E+08 1.66255E+07 2.70493E+05 4.97169E+06-3.86301E+07-1.55230E+08
 -1      1075-1.75567E+08 1.66255E+07 2.70493E+05 4.97169E+06-3.86301E+07-1.55230E+08
 -1      1076-9.94929E-03 1.03511E-04 2.15180E-03-1.55463E+08-1.06674E+07-1.40874E-02
 -1      1078-9.94929E-03 1.03511E-04 2.15180E-03-1.55463E+08-1.06674E+07-1.40874E-02
 -1      1079-1.36569E-02 8.17404E-06 1.97130E-03 4.73769E-03 2.06983E+07-1.08493E-02
 -1      1081-1.36569E-02 8.17404E-06 1.97130E-03 4.73769E-03 2.06983E+07-1.08493E-02
 -1      1082-1.89096E-02-3.49534E-05 2.36398E-04 1.55463E+08-1.06674E+07-5.60170E-03
 -1      1084-1.89096E-02-3.49534E-05 2.36398E-04 1.55463E+08-1.06674E+07-5.60170E-03
 -1      1085-1.96459E-02 5.02718E-05 1.85143E-03-1.10649E+07-1.91683E+07-5.38722E-03
 -1      1087-1.96459E-02 5.02718E-05 1.85143E-03-1.10649E+07-1.91683E+07-5.38722E-03
 -1      1088-1.93804E-02-8.61260E-04-6.70785E-07 2.10171E+07-2.47355E+07 9.26852E-05
 -1      1090-1.93804E-02-8.61260E-04-6.70785E-07 2.10171E+07-2.47355E+07 9.26852E-05
 -1      1099-1.83674E-02 2.57328E-04 2.26371E-03-2.61118E+07 2.76729E+07-1.06148E-02
 -1      1101-1.83674E-02 2.57328E-04 2.26371E-03-2.61118E+07 2.76729E+07-1.06148E-02
 -1      1102-1.96875E-02 1.08935E-03 1.30624E-04 2.27471E+07 4.36671E+07-7.29263E-05
 -1      1104-1.96875E-02 1.08935E-03 1.30624E-04 2.27471E+07 4.36671E+07-7.29263E-05
 -1      1113-1.98870E-02 1.39034E-04-2.22592E-03-1.11119E+07 5.08903E+07-1.21943E-02
 -1      1115-1.98870E-02 1.39034E-04-2.22592E-03-1.11119E+07 5.08903E+07-1.21943E-02
 -1      1116-2.27149E-02-3.99764E-04 1.16509E-04 9.10780E+06 5.76526E+07 7.41873E-05
 -1      1118-2.27149E-02-3.99764E-04 1.16509E-04 9.10780E+06 5.76526E+07 7.41873E-05
 -1      1127-2.31740E-02-2.88522E-05-7.81412E-03-2.27642E+07 6.91537E+07-1.11254E-02
 -1      1129-2.31740E-02-2.88522E-05-7.81412E-03-2.27642E+07 6.91537E+07-1.11254E-02
 -1      1130-2.53678E-02-1.19444E-03-1.70637E-05 1.30937E+07 8.11774E+07 5.94035E-05
 -1      1132-2.53678E-02-1.19444E-03-1.70637E-05 1.30937E+07 8.11774E+07 5.94035E-05
 -1      1141-2.53538E-02-2.43915E-04-1.42005E-02-1.30047E+07 9.29462E+07-9.59357E-03
 -1      1143-2.53538E-02-2.43915E-04-1.42005E-02-1.30047E+07 9.29462E+07-9.59357E-03
 -1      1144-2.54156E-02 6.85563E-04 6.31738E-05 8.22652E+06 1.05351E+08 4.18928E-05
 -1      1146-2.54156E-02 6.85563E-04 6.31738E-05 8.22652E+06 1.05351E+08 4.18928E-05
 -1      1155-2.47221E-02-7.58959E-04-1.64324E-02-1.93653E+07 1.10004E+08-4.18499E-03
 -1      1157-2.47221E-02-7.58959E-04-1.64324E-02-1.93653E+07 1.10004E+08-4.18499E-03
 -1      1158-2.19783E-02 1.63329E-03 2.40344E-04 1.30441E+07 1.23467E+08-5.73061E-05
 -1      1160-2.19783E-02 1.63329E-03 2.40344E-04 1.30441E+07 1.23467E+08-5.73061E-05
 -1      1169-2.01804E-02-1.47907E-03-9.07484E-03-1.39183E+07 1.30698E+08 2.98651E-03
 -1      1171-2.01804E-02-1.47907E-03-9.07484E-03-1.39183E+07 1.30698E+08 2.98651E-03
 -1      1172-1.55842E-02 2.39349E-04 5.44866E-05 1.19551E+07 1.46630E+08 5.46314E-06
 -1      1174-1.55842E-02 2.39349E-04 5.44866E-05 1.19551E+07 1.46630E+08 5.46314E-06
 -1      1183-1.49896E-02-1.11153E-03 1.06489E-03-1.68829E+07 1.48405E+08 2.49928E-03
 -1      1185-1.49896E-02-1.11153E-03 1.06489E-03-1.68829E+07 1.48405E+08 2.49928E-03
 -1      1186-1.21119E-02-5.69627E-04-3.62576E-07 1.54843E+07 1.64776E+08-5.49946E-05
 -1      1188-1.21119E-02-5.69627E-04-3.62576E-07 1.54843E+07 1.64776E+08-5.49946E-05
 -1      1197-1.37973E-02-1.93080E-04 1.10776E-03-1.39260E+07 1.66967E+08-3.73285E-03
 -1      1199-1.37973E-02-1.93080E-04 1.10776E-03-1.39260E+07 1.66967E+08-3.73285E-03
 -1      1200-1.36563E-02 4.40671E-04-3.65847E-05 1.54441E+07 1.85882E+08-2.10309E-04
 -1      1202-1.36563E-02 4.40671E-04-3.65847E-05 1.54441E+07 1.85882E+08-2.10309E-04
 -1      1211-1.31530E-02-4.51545E-05-5.10520E-03-1.50992E+07 1.84408E+08-4.17291E-03
 -1      1213-1.31530E-02-4.51545E-05-5.10520E-03-1.50992E+07 1.84408E+08-4.17291E-03
 -1      1214-1.38741E-02 1.69889E-03-5.45764E-05 1.70485E+07 2.03958E+08-2.58649E-04
 -1      1216-1.38741E-02 1.69889E-03-5.45764E-05 1.70485E+07 2.03958E+08-2.58649E-04
 -1      1225-9.24218E-03-7.62471E-04-3.32470E-03-1.34400E+07 2.01491E+08 1.69361E-03
 -1      1227-9.24218E-03-7.62471E-04-3.32470E-03-1.34400E+07 2.01491E+08 1.69361E-03
 -1      1228-1.10396E-02 1.86379E-03 2.84847E-05 1.64149E+07 2.23256E+08-2.36301E-04
 -1      1230-1.10396E-02 1.86379E-03 2.84847E-05 1.64149E+07 2.23256E+08-2.36301E-04
 -1      1239-6.65156E-03-4.37046E-04 8.07022E-03-1.37480E+07 2.17998E+08 5.99163E-03
 -1      1241-6.65156E-03-4.37046E-04 8.07022E-03-1.37480E+07 2.17998E+08 5.99163E-03
 -1      1242-1.07496E-02 1.13459E-03-8.13608E-05 1.60034E+07 2.40649E+08-2.89474E-04
 -1      1244-1.07496E-02 1.13459E-03-8.13608E-05 1.60034E+07 2.40649E+08-2.89474E-04
 -1      1253-8.00532E-03-1.63036E-03 1.81916E-02-1.27376E+07 2.33749E+08 5.86427E-03
 -1      1255-8.00532E-03-1.63036E-03 1.81916E-02-1.27376E+07 2.33749E+08 5.86427E-03
 -1      1256-1.27110E-02 1.18085E-03 3.48738E-04 1.41075E+07 2.58290E+08-2.14374E-04
 -1      1258-1.27110E-02 1.18085E-03 3.48738E-04 1.41075E+07 2.58290E+08-2.14374E-04
 -1      1267-8.87197E-03-2.62167E-03 2.03391E-02-1.26436E+07 2.48961E+08 5.91407E-03
 -1      1269-8.87197E-03-2.62167E-03 2.03391E-02-1.26436E+07 2.48961E+08 5.91407E-03
 -1      1270-1.20799E-02 2.56007E-03 6.52721E-04 1.19372E+07 2.74543E+08-1.96857E-04
 -1      1272-1.20799E-02 2.56007E-03 6.52721E-04 1.19372E+07 2.74543E+08-1.96857E-04
 -1      1281-5.28845E-03-4.66271E-04 1.97436E-02-1.19393E+07 2.63298E+08 9.87121E-03
 -1      1283-5.28845E-03-4.66271E-04 1.97436E-02-1.19393E+07 2.63298E+08 9.87121E-03
 -1      1284-7.59626E-03 2.11358E-03 1.86433E-04 8.83843E+06 2.90515E+08-4.55342E-05
 -1      1286-7.59626E-03 2.11358E-03 1.86433E-04 8.83843E+06 2.90515E+08-4.55342E-05
 -1      1295 8.46828E-04 1.82932E-04 2.05130E-02-1.16454E+07 2.76995E+08 1.11491E-02
 -1      1297 8.46828E-04 1.82932E-04 2.05130E-02-1.16454E+07 2.76995E+08 1.11491E-02
 -1      1298-8.33469E-04-2.52942E-04 2.81763E-04 5.48797E+06 3.05313E+08 9.48552E-05
 -1      1300-8.33469E-04-2.52942E-04 2.81763E-04 5.48797E+06 3.05313E+08 9.48552E-05
 -1      1309 6.95292E-03 4.95873E-04 1.80147E-02-1.10558E+07 2.89772E+08 5.35275E-03
 -1      1311 6.95292E-03 4.95873E-04 1.80147E-02-1.10558E+07 2.89772E+08 5.35275E-03
 -1      1312 6.57490E-03-1.06837E-03 1.12605E-04 1.73090E+06 3.19528E+08-4.63054E-05
 -1      1314 6.57490E-03-1.06837E-03 1.12605E-04 1.73090E+06 3.19528E+08-4.63054E-05
 -1      1323 1.24235E-02 2.96493E-04 1.06361E-02-1.06299E+07 3.01799E+08 2.71700E-04
 -1      1325 1.24235E-02 2.96493E-04 1.06361E-02-1.06299E+07 3.01799E+08 2.71700E-04
 -1      1326 1.34090E-02-1.69491E-03-4.26348E-04-1.98634E+06 3.32637E+08-6.48107E-06
 -1      1328 1.34090E-02-1.69491E-03-4.26348E-04-1.98634E+06 3.32637E+08-6.48107E-06
 -1      1337 1.55969E-02 1.11631E-03 4.67758E-03-1.00367E+07 3.12874E+08-1.97895E-03
 -1      1339 1.55969E-02 1.11631E-03 4.67758E-03-1.00367E+07 3.12874E+08-1.97895E-03
 -1      1340 1.65135E-02-4.25744E-03-1.04400E-04-5.60183E+06 3.44985E+08 1.28727E-04
 -1      1342 1.65135E-02-4.25744E-03-1.04400E-04-5.60183E+06 3.44985E+08 1.28727E-04
 -1      1351 1.37300E-02 1.77611E-03-5.04322E-04-9.48529E+06 3.23113E+08-3.23702E-03
 -1      1353 1.37300E-02 1.77611E-03-5.04322E-04-9.48529E+06 3.23113E+08-3.23702E-03
 -1      1354 1.50961E-02-4.44837E-03-1.31372E-05-8.79006E+06 3.56229E+08 1.26092E-05
 -1      1356 1.50961E-02-4.44837E-03-1.31372E-05-8.79006E+06 3.56229E+08 1.26092E-05
 -1      1365 9.66895E-03 4.95672E-04-3.82007E-03-8.81090E+06 3.32375E+08-4.60980E-05
 -1      1367 9.66895E-03 4.95672E-04-3.82007E-03-8.81090E+06 3.32375E+08-4.60980E-05
 -1      1368 1.27735E-02-1.61230E-03 2.80499E-04-1.14259E+07 3.66606E+08-2.41585E-06
 -1      1370 1.27735E-02-1.61230E-03 2.80499E-04-1.14259E+07 3.66606E+08-2.41585E-06
 -1      1379 6.88396E-03 4.32162E-04 3.10529E-03-8.12285E+06 3.40741E+08 4.41423E-03
 -1      1381 6.88396E-03 4.32162E-04 3.10529E-03-8.12285E+06 3.40741E+08 4.41423E-03
 -1      1382 9.84989E-03-1.39250E-03 2.18423E-05-1.32785E+07 3.75845E+08-2.80924E-05
 -1      1384 9.84989E-03-1.39250E-03 2.18423E-05-1.32785E+07 3.75845E+08-2.80924E-05
 -1      1393 3.77062E-03 4.97882E-04 1.56082E-02-7.32026E+06 3.48113E+08 1.31319E-03
 -1      1395 3.77062E-03 4.97882E-04 1.56082E-02-7.32026E+06 3.48113E+08 1.31319E-03
 -1      1396 5.52789E-03-2.29950E-03-3.69830E-04-1.42292E+07 3.84167E+08-7.87089E-05
 -1      1398 5.52789E-03-2.29950E-03-3.69830E-04-1.42292E+07 3.84167E+08-7.87089E-05
 -1      1407 1.07542E-03 2.40839E-04 2.00889E-02-6.49371E+06 3.54538E+08-6.92425E-03
 -1      1409 1.07542E-03 2.40839E-04 2.00889E-02-6.49371E+06 3.54538E+08-6.92425E-03
 -1      1410 2.14271E-03-7.58631E-04-6.25407E-04-1.41707E+07 3.91289E+08-1.57907E-04
 -1      1412 2.14271E-03-7.58631E-04-6.25407E-04-1.41707E+07 3.91289E+08-1.57907E-04
 -1      1421 1.44991E-04-7.43026E-04 1.40094E-02-5.54575E+06 3.59971E+08-9.30992E-03
 -1      1423 1.44991E-04-7.43026E-04 1.40094E-02-5.54575E+06 3.59971E+08-9.30992E-03
 -1      1424 1.50279E-03 1.54833E-03 8.13510E-07-1.29195E+07 3.97494E+08-5.18416E-05
 -1      1426 1.50279E-03 1.54833E-03 8.13510E-07-1.29195E+07 3.97494E+08-5.18416E-05
 -1      1435 1.45535E-03-1.30942E-03 8.94589E-03-4.59969E+06 3.64400E+08-4.35585E-03
 -1      1437 1.45535E-03-1.30942E-03 8.94589E-03-4.59969E+06 3.64400E+08-4.35585E-03
 -1      1438 2.68353E-03 1.61610E-03 2.84575E-04-1.06640E+07 4.02419E+08 9.93917E-05
 -1      1440 2.68353E-03 1.61610E-03 2.84575E-04-1.06640E+07 4.02419E+08 9.93917E-05
 -1      1449 4.25798E-03-4.18200E-04 1.09792E-02-3.53489E+06 3.67809E+08-1.87004E-03
 -1      1451 4.25798E-03-4.18200E-04 1.09792E-02-3.53489E+06 3.67809E+08-1.87004E-03
 -1      1452 4.05304E-03 6.62819E-04-2.50475E-04-6.81684E+06 4.06411E+08 1.63388E-04
 -1      1454 4.05304E-03 6.62819E-04-2.50475E-04-6.81684E+06 4.06411E+08 1.63388E-04
 -1      1463 4.46561E-03-1.69517E-04 1.11342E-02-2.48074E+06 3.70195E+08-4.98975E-03
 -1      1465 4.46561E-03-1.69517E-04 1.11342E-02-2.48074E+06 3.70195E+08-4.98975E-03
 -1      1466 4.17896E-03 2.04621E-04-1.25970E-04-1.90941E+06 4.09138E+08 6.93910E-05
 -1      1468 4.17896E-03 2.04621E-04-1.25970E-04-1.90941E+06 4.09138E+08 6.93910E-05
 -1      1477 1.62628E-03-5.08067E-04 6.00603E-03-1.44638E+06 3.71126E+08-4.09515E-03
 -1      1479 1.62628E-03-5.08067E-04 6.00603E-03-1.44638E+06 3.71126E+08-4.09515E-03
 -1      1480 2.67685E-03 1.35817E-03-2.09060E-04 3.79869E+06 4.10448E+08-8.34150E-05
 -1      1482 2.67685E-03 1.35817E-03-2.09060E-04 3.79869E+06 4.10448E+08-8.34150E-05
 -1      1491-3.19139E-03-1.90320E-03 1.40031E-02 1.87528E+05 3.98764E+08-4.03572E-04
 -1      1493-3.19139E-03-1.90320E-03 1.40031E-02 1.87528E+05 3.98764E+08-4.03572E-04
 -1      1494-2.20231E-03-2.52238E-03 1.26203E-02-2.28843E-04 4.26443E+08 5.51343E-05
 -1      1496-2.20231E-03-2.52238E-03 1.26203E-02-2.28843E-04 4.26443E+08 5.51343E-05
 -1      1497-6.72037E-04-1.52266E-03 6.80630E-03-1.87528E+05 3.98764E+08-9.46516E-05
 -1      1499-6.72037E-04-1.52266E-03 6.80630E-03-1.87528E+05 3.98764E+08-9.46516E-05
 -1      1500 2.51976E+08 1.72080E+06 1.24421E+05 1.14247E+07 1.08813E+07-1.26202E+08
 -1      1502 2.51976E+08 1.72080E+06 1.24421E+05 1.14247E+07 1.08813E+07-1.26202E+08
 -1      1503 2.07475E+08-6.66242E+05-4.41154E+04 1.05313E+07 2.00960E+07-1.77551E+06
 -1      1505 2.07475E+08-6.66242E+05-4.41154E+04 1.05313E+07 2.00960E+07-1.77551E+06
 -1      1506 1.78179E+08 7.42748E+05 2.37830E+05 4.12798E+06 2.29842E+07-6.12503E+07
 -1      1508 1.78179E+08 7.42748E+05 2.37830E+05 4.12798E+06 2.29842E+07-6.12503E+07
 -1      1509 1.56973E+08-2.79942E+06 2.21332E+04 5.06137E+06 3.28223E+07-3.25358E+07
 -1      1511 1.56973E+08-2.79942E+06 2.21332E+04 5.06137E+06 3.28223E+07-3.25358E+07
 -1      1512 1.35782E+08-1.42548E+06 1.52031E+05 4.61494E+06 3.95840E+07-4.53042E+07
 -1      1514 1.35782E+08-1.42548E+06 1.52031E+05 4.61494E+06 3.95840E+07-4.53042E+07
 -1      1515 1.14393E+08-3.84676E+06 9.47813E+04 4.99336E+06 4.80556E+07-3.84293E+07
 -1      1517 1.14393E+08-3.84676E+06 9.47813E+04 4.99336E+06 4.80556E+07-3.84293E+07
 -1      1518 8.94130E+07-3.92103E+06 9.84671E+04 6.07019E+06 5.59460E+07-4.04573E+07
 -1      1520 8.94130E+07-3.92103E+06 9.84671E+04 6.07019E+06 5.59460E+07-4.04573E+07
 -1      1521 6.18659E+07-5.32130E+06 1.15036E+05 6.49608E+06 6.36219E+07-3.83112E+07
 -1      1523 6.18659E+07-5.32130E+06 1.15036E+05 6.49608E+06 6.36219E+07-3.83112E+07
 -1      1524 3.10954E+07-6.17171E+06 7.10830E+04 7.33887E+06 7.15409E+07-3.78454E+07
 -1      1526 3.10954E+07-6.17171E+06 7.10830E+04 7.33887E+06 7.15409E+07-3.78454E+07
 -1      1527-1.24231E+06-7.19288E+06 1.03065E+05 7.47868E+06 7.87473E+07-3.65627E+07
 -1      1529-1.24231E+06-7.19288E+06 1.03065E+05 7.47868E+06 7.87473E+07-3.65627E+07
 -1      1530-3.44500E+07-8.24866E+06 5.40239E+04 7.60062E+06 8.62703E+07-3.54525E+07
 -1      1532-3.44500E+07-8.24866E+06 5.40239E+04 7.60062E+06 8.62703E+07-3.54525E+07
 -1      1533-6.66499E+07-9.14751E+06 7.93244E+04 7.13968E+06 9.30536E+07-3.41982E+07
 -1      1535-6.66499E+07-9.14751E+06 7.93244E+04 7.13968E+06 9.30536E+07-3.41982E+07
 -1      1536-9.66320E+07-1.01488E+07 4.18021E+04 6.46573E+06 1.00005E+08-3.28459E+07
 -1      1538-9.66320E+07-1.01488E+07 4.18021E+04 6.46573E+06 1.00005E+08-3.28459E+07
 -1      1539-1.22708E+08-1.09440E+07 5.77858E+04 5.35343E+06 1.06297E+08-3.14571E+07
 -1      1541-1.22708E+08-1.09440E+07 5.77858E+04 5.35343E+06 1.06297E+08-3.14571E+07
 -1      1542-1.43758E+08-1.17777E+07 3.57842E+04 4.03000E+06 1.12586E+08-2.99463E+07
 -1      1544-1.43758E+08-1.17777E+07 3.57842E+04 4.03000E+06 1.12586E+08-2.99463E+07
 -1      1545-1.58635E+08-1.24198E+07 4.69239E+04 2.44871E+06 1.18291E+08-2.84006E+07
 -1      1547-1.58635E+08-1.24198E+07 4.69239E+04 2.44871E+06 1.18291E+08-2.84006E+07
 -1      1548-1.66736E+08-1.30355E+07 3.92827E+04 7.79282E+05 1.23856E+08-2.67481E+07
 -1      1550-1.66736E+08-1.30355E+07 3.92827E+04 7.79282E+05 1.23856E+08-2.67481E+07
 -1      1551-1.67684E+08-1.34812E+07 5.08235E+04-9.38154E+05 1.28886E+08-2.50491E+07
 -1      1553-1.67684E+08-1.34812E+07 5.08235E+04-9.38154E+05 1.28886E+08-2.50491E+07
 -1      1554-1.61631E+08-1.38688E+07 5.41805E+04-2.56407E+06 1.33680E+08-2.32596E+07
 -1      1556-1.61631E+08-1.38688E+07 5.41805E+04-2.56407E+06 1.33680E+08-2.32596E+07
 -1      1557-1.49049E+08-1.41058E+07 6.97569E+04-4.02708E+06 1.37967E+08-2.14163E+07
 -1      1559-1.49049E+08-1.41058E+07 6.97569E+04-4.02708E+06 1.37967E+08-2.14163E+07
 -1      1560-1.30876E+08-1.42932E+07 7.92812E+04-5.21764E+06 1.41955E+08-1.94940E+07
 -1      1562-1.30876E+08-1.42932E+07 7.92812E+04-5.21764E+06 1.41955E+08-1.94940E+07
 -1      1563-1.08347E+08-1.43411E+07 1.00665E+05-6.06291E+06 1.45450E+08-1.75211E+07
 -1      1565-1.08347E+08-1.43411E+07 1.00665E+05-6.06291E+06 1.45450E+08-1.75211E+07
 -1      1566-8.30530E+07-1.43870E+07 1.10030E+05-6.50640E+06 1.48608E+08-1.54688E+07
 -1      1568-8.30530E+07-1.43870E+07 1.10030E+05-6.50640E+06 1.48608E+08-1.54688E+07
 -1      1569-5.67910E+07-1.43058E+07 1.37911E+05-6.43908E+06 1.51282E+08-1.33991E+07
 -1      1571-5.67910E+07-1.43058E+07 1.37911E+05-6.43908E+06 1.51282E+08-1.33991E+07
 -1      1572-3.15740E+07-1.42417E+07 1.39200E+05-5.98353E+06 1.53593E+08-1.11975E+07
 -1      1574-3.15740E+07-1.42417E+07 1.39200E+05-5.98353E+06 1.53593E+08-1.11975E+07
 -1      1575-9.55340E+06-1.42336E+07 1.73891E+05-4.72230E+06 1.55433E+08-9.13031E+06
 -1      1577-9.55340E+06-1.42336E+07 1.73891E+05-4.72230E+06 1.55433E+08-9.13031E+06
 -1      1578 6.99507E+06-1.38399E+07 1.60112E+05-3.37751E+06 1.56881E+08-6.63994E+06
 -1      1580 6.99507E+06-1.38399E+07 1.60112E+05-3.37751E+06 1.56881E+08-6.63994E+06
 -1      1581 1.58025E+07-1.44546E+07 1.91387E+05-8.26606E+05 1.57908E+08-4.94687E+06
 -1      1583 1.58025E+07-1.44546E+07 1.91387E+05-8.26606E+05 1.57908E+08-4.94687E+06
 -1      1584 1.34154E+07-1.36178E+07 1.96049E+05 2.74431E+06 1.58530E+08-1.49263E+06
 -1      1586 1.34154E+07-1.36178E+07 1.96049E+05 2.74431E+06 1.58530E+08-1.49263E+06
 -1      1587 2.26057E+06-2.31841E+07-3.67900E+04 5.63351E+06 2.84991E+08 1.49682E+06
 -1      1589 2.26057E+06-2.31841E+07-3.67900E+04 5.63351E+06 2.84991E+08 1.49682E+06
 -1      1590 1.75567E+08-1.66255E+07-2.70493E+05-4.97169E+06-3.86301E+07-1.55230E+08
 -1      1592 1.75567E+08-1.66255E+07-2.70493E+05-4.97169E+06-3.86301E+07-1.55230E+08
 -1      1593-2.26057E+06 2.31841E+07 3.67900E+04 5.63351E+06 2.84991E+08-1.49682E+06
 -1      1595-2.26057E+06 2.31841E+07 3.67900E+04 5.63351E+06 2.84991E+08-1.49682E+06
 -1      1596-2.51976E+08-1.72080E+06-1.24421E+05 1.14247E+07 1.08813E+07 1.26202E+08
 -1      1598-2.51976E+08-1.72080E+06-1.24421E+05 1.14247E+07 1.08813E+07 1.26202E+08
 -1      1599-2.07475E+08 6.66242E+05 4.41154E+04 1.05313E+07 2.00960E+07 1.77551E+06
 -1      1601-2.07475E+08 6.66242E+05 4.41154E+04 1.05313E+07 2.00960E+07 1.77551E+06
 -1      1602-1.78179E+08-7.42748E+05-2.37830E+05 4.12798E+06 2.29842E+07 6.12503E+07
 -1      1604-1.78179E+08-7.42748E+05-2.37830E+05 4.12798E+06 2.29842E+07 6.12503E+07
 -1      1605-1.56973E+08 2.79942E+06-2.21332E+04 5.06137E+06 3.28223E+07 3.25358E+07
 -1      1607-1.56973E+08 2.79942E+06-2.21332E+04 5.06137E+06 3.28223E+07 3.25358E+07
 -1      1608-1.35782E+08 1.42548E+06-1.52031E+05 4.61494E+06 3.95840E+07 4.53042E+07
 -1      1610-1.35782E+08 1.42548E+06-1.52031E+05 4.61494E+06 3.95840E+07 4.53042E+07
 -1      1611-1.14393E+08 3.84676E+06-9.47813E+04 4.99336E+06 4.80556E+07 3.84293E+07
 -1      1613-1.14393E+08 3.84676E+06-9.47813E+04 4.99336E+06 4.80556E+07 3.84293E+07
 -1      1614-8.94130E+07 3.92103E+06-9.84671E+04 6.07019E+06 5.59460E+07 4.04573E+07
 -1      1616-8.94130E+07 3.92103E+06-9.84671E+04 6.07019E+06 5.59460E+07 4.04573E+07
 -1      1617-6.18659E+07 5.32130E+06-1.15036E+05 6.49608E+06 6.36219E+07 3.83112E+07
 -1      1619-6.18659E+07 5.32130E+06-1.15036E+05 6.49608E+06 6.36219E+07 3.83112E+07
 -1      1620-3.10954E+07 6.17171E+06-7.10830E+04 7.33887E+06 7.15409E+07 3.78454E+07
 -1      1622-3.10954E+07 6.17171E+06-7.10830E+04 7.33887E+06 7.15409E+07 3.78454E+07
 -1      1623 1.24231E+06 7.19288E+06-1.03065E+05 7.47868E+06 7.87473E+07 3.65627E+07
 -1      1625 1.24231E+06 7.19288E+06-1.03065E+05 7.47868E+06 7.87473E+07 3.65627E+07
 -1      1626 3.44500E+07 8.24866E+06-5.40239E+04 7.60062E+06 8.62703E+07 3.54525E+07
 -1      1628 3.44500E+07 8.24866E+06-5.40239E+04 7.60062E+06 8.62703E+07 3.54525E+07
 -1      1629 6.66499E+07 9.14751E+06-7.93244E+04 7.13968E+06 9.30536E+07 3.41982E+07
 -1      1631 6.66499E+07 9.14751E+06-7.93244E+04 7.13968E+06 9.30536E+07 3.41982E+07
 -1      1632 9.66320E+07 1.01488E+07-4.18021E+04 6.46573E+06 1.00005E+08 3.28459E+07
 -1      1634 9.66320E+07 1.01488E+07-4.18021E+04 6.46573E+06 1.00005E+08 3.28459E+07
 -1      1635 1.22708E+08 1.09440E+07-5.77858E+04 5.35343E+06 1.06297E+08 3.14571E+07
 -1      1637 1.22708E+08 1.09440E+07-5.77858E+04 5.35343E+06 1.06297E+08 3.14571E+07
 -1      1638 1.43758E+08 1.17777E+07-3.57842E+04 4.03000E+06 1.12586E+08 2.99463E+07
 -1      1640 1.43758E+08 1.17777E+07-3.57842E+04 4.03000E+06 1.12586E+08 2.99463E+07
 -1      1641 1.58635E+08 1.24198E+07-4.69239E+04 2.44871E+06 1.18291E+08 2.84006E+07
 -1      1643 1.58635E+08 1.24198E+07-4.69239E+04 2.44871E+06 1.18291E+08 2.84006E+07
 -1      1644 1.66736E+08 1.30355E+07-3.92827E+04 7.79282E+05 1.23856E+08 2.67481E+07
 -1      1646 1.66736E+08 1.30355E+07-3.92827E+04 7.79282E+05 1.23856E+08 2.67481E+07
 -1      1647 1.67684E+08 1.34812E+07-5.08235E+04-9.38154E+05 1.28886E+08 2.50491E+07
 -1      1649 1.67684E+08 1.34812E+07-5.08235E+04-9.38154E+05 1.28886E+08 2.50491E+07
 -1      1650 1.61631E+08 1.38688E+07-5.41805E+04-2.56407E+06 1.33680E+08 2.32596E+07
 -1      1652 1.61631E+08 1.38688E+07-5.41805E+04-2.56407E+06 1.33680E+08 2.32596E+07
 -1      1653 1.49049E+08 1.41058E+07-6.97569E+04-4.02708E+06 1.37967E+08 2.14163E+07
 -1      1655 1.49049E+08 1.41058E+07-6.97569E+04-4.02708E+06 1.37967E+08 2.14163E+07
 -1      1656 1.30876E+08 1.42932E+07-7.92812E+04-5.21764E+06 1.41955E+08 1.94940E+07
 -1      1658 1.30876E+08 1.42932E+07-7.92812E+04-5.21764E+06 1.41955E+08 1.94940E+07
 -1      1659 1.08347E+08 1.43411E+07-1.00665E+05-6.06291E+06 1.45450E+08 1.75211E+07
 -1      1661 1.08347E+08 1.43411E+07-1.00665E+05-6.06291E+06 1.45450E+08 1.75211E+07
 -1      1662 8.30530E+07 1.43870E+07-1.10030E+05-6.50640E+06 1.48608E+08 1.54688E+07
 -1      1664 8.30530E+07 1.43870E+07-1.10030E+05-6.50640E+06 1.48608E+08 1.54688E+07
 -1      1665 5.67910E+07 1.43058E+07-1.37911E+05-6.43908E+06 1.51282E+08 1.33991E+07
 -1      1667 5.67910E+07 1.43058E+07-1.37911E+05-6.43908E+06 1.51282E+08 1.33991E+07
 -1      1668 3.15740E+07 1.42417E+07-1.39200E+05-5.98353E+06 1.53593E+08 1.11975E+07
 -1      1670 3.15740E+07 1.42417E+07-1.39200E+05-5.98353E+06 1.53593E+08 1.11975E+07
 -1      1671 9.55340E+06 1.42336E+07-1.73891E+05-4.72230E+06 1.55433E+08 9.13031E+06
 -1      1673 9.55340E+06 1.42336E+07-1.73891E+05-4.72230E+06 1.55433E+08 9.13031E+06
 -1      1674-6.99507E+06 1.38399E+07-1.60112E+05-3.37751E+06 1.56881E+08 6.63994E+06
 -1      1676-6.99507E+06 1.38399E+07-1.60112E+05-3.37751E+06 1.56881E+08 6.63994E+06
 -1      1677-1.58025E+07 1.44546E+07-1.91387E+05-8.26606E+05 1.57908E+08 4.94687E+06
 -1      1679-1.58025E+07 1.44546E+07-1.91387E+05-8.26606E+05 1.57908E+08 4.94687E+06
 -1      1680-1.34154E+07 1.36178E+07-1.96049E+05 2.74431E+06 1.58530E+08 1.49263E+06
 -1      1682-1.34154E+07 1.36178E+07-1.96049E+05 2.74431E+06 1.58530E+08 1.49263E+06
 -1      1683-1.75567E+08 1.66255E+07 2.70493E+05-4.97169E+06-3.86301E+07 1.55230E+08
 -1      1685-1.75567E+08 1.66255E+07 2.70493E+05-4.97169E+06-3.86301E+07 1.55230E+08
 -1      1686 1.64926E+08-6.86007E+06-6.29264E+04-1.62209E+07-6.92713E+06 3.88307E+07
 -1      1688 1.64926E+08-6.86007E+06-6.29264E+04-1.62209E+07-6.92713E+06 3.88307E+07
 -1      1689 1.39817E+08 5.37553E+06 1.90842E+05-1.66392E+07 3.18816E+07-2.35488E+07
 -1      1691 1.39817E+08 5.37553E+06 1.90842E+05-1.66392E+07 3.18816E+07-2.35488E+07
 -1      1692 1.18755E+08-1.80811E+06-1.53320E+05-6.61789E+06 4.03184E+07 5.93665E+06
 -1      1694 1.18755E+08-1.80811E+06-1.53320E+05-6.61789E+06 4.03184E+07 5.93665E+06
 -1      1695 1.03997E+08-3.58038E+06 7.03982E+04-9.07751E+06 5.69999E+07-7.93198E+06
 -1      1697 1.03997E+08-3.58038E+06 7.03982E+04-9.07751E+06 5.69999E+07-7.93198E+06
 -1      1698 8.95463E+07-3.80444E+06-4.76339E+04-6.42073E+06 7.24677E+07-1.59324E+06
 -1      1700 8.95463E+07-3.80444E+06-4.76339E+04-6.42073E+06 7.24677E+07-1.59324E+06
 -1      1701 7.48048E+07-7.53564E+06-3.91674E+04-9.01871E+06 8.57615E+07-4.34563E+06
 -1      1703 7.48048E+07-7.53564E+06-3.91674E+04-9.01871E+06 8.57615E+07-4.34563E+06
 -1      1704 5.77809E+07-7.88470E+06-6.62358E+03-9.01264E+06 1.01288E+08-3.12733E+06
 -1      1706 5.77809E+07-7.88470E+06-6.62358E+03-9.01264E+06 1.01288E+08-3.12733E+06
 -1      1707 3.90172E+07-1.09854E+07-8.75398E+04-1.09902E+07 1.14199E+08-3.50392E+06
 -1      1709 3.90172E+07-1.09854E+07-8.75398E+04-1.09902E+07 1.14199E+08-3.50392E+06
 -1      1710 1.81591E+07-1.21404E+07-1.29602E+04-1.13915E+07 1.28712E+08-3.29246E+06
 -1      1712 1.81591E+07-1.21404E+07-1.29602E+04-1.13915E+07 1.28712E+08-3.29246E+06
 -1      1713-3.78886E+06-1.46745E+07-1.06455E+05-1.22636E+07 1.41352E+08-3.21598E+06
 -1      1715-3.78886E+06-1.46745E+07-1.06455E+05-1.22636E+07 1.41352E+08-3.21598E+06
 -1      1716-2.62423E+07-1.62382E+07-3.72817E+04-1.20078E+07 1.54763E+08-3.14334E+06
 -1      1718-2.62423E+07-1.62382E+07-3.72817E+04-1.20078E+07 1.54763E+08-3.14334E+06
 -1      1719-4.80740E+07-1.83877E+07-1.15747E+05-1.15715E+07 1.66852E+08-2.99504E+06
 -1      1721-4.80740E+07-1.83877E+07-1.15747E+05-1.15715E+07 1.66852E+08-2.99504E+06
 -1      1722-6.83515E+07-2.00045E+07-6.43297E+04-1.02866E+07 1.79148E+08-2.90488E+06
 -1      1724-6.83515E+07-2.00045E+07-6.43297E+04-1.02866E+07 1.79148E+08-2.90488E+06
 -1      1725-8.60564E+07-2.17990E+07-1.22764E+05-8.64531E+06 1.90420E+08-2.74539E+06
 -1      1727-8.60564E+07-2.17990E+07-1.22764E+05-8.64531E+06 1.90420E+08-2.74539E+06
 -1      1728-1.00346E+08-2.32332E+07-8.76864E+04-6.43422E+06 2.01551E+08-2.62236E+06
 -1      1730-1.00346E+08-2.32332E+07-8.76864E+04-6.43422E+06 2.01551E+08-2.62236E+06
 -1      1731-1.10529E+08-2.46352E+07-1.28991E+05-3.96834E+06 2.11802E+08-2.45639E+06
 -1      1733-1.10529E+08-2.46352E+07-1.28991E+05-3.96834E+06 2.11802E+08-2.45639E+06
 -1      1734-1.16140E+08-2.57456E+07-1.05056E+05-1.25509E+06 2.21692E+08-2.30768E+06
 -1      1736-1.16140E+08-2.57456E+07-1.05056E+05-1.25509E+06 2.21692E+08-2.30768E+06
 -1      1737-1.16978E+08-2.67243E+07-1.34035E+05 1.46225E+06 2.30762E+08-2.13490E+06
 -1      1739-1.16978E+08-2.67243E+07-1.34035E+05 1.46225E+06 2.30762E+08-2.13490E+06
 -1      1740-1.13102E+08-2.74531E+07-1.15960E+05 4.08295E+06 2.39332E+08-1.96891E+06
 -1      1742-1.13102E+08-2.74531E+07-1.15960E+05 4.08295E+06 2.39332E+08-1.96891E+06
 -1      1743-1.04862E+08-2.80210E+07-1.37505E+05 6.40857E+06 2.47098E+08-1.79077E+06
 -1      1745-1.04862E+08-2.80210E+07-1.37505E+05 6.40857E+06 2.47098E+08-1.79077E+06
 -1      1746-9.28546E+07-2.83869E+07-1.20739E+05 8.32176E+06 2.54280E+08-1.61464E+06
 -1      1748-9.28546E+07-2.83869E+07-1.20739E+05 8.32176E+06 2.54280E+08-1.61464E+06
 -1      1749-7.79347E+07-2.86123E+07-1.39772E+05 9.67069E+06 2.60647E+08-1.43258E+06
 -1      1751-7.79347E+07-2.86123E+07-1.39772E+05 9.67069E+06 2.60647E+08-1.43258E+06
 -1      1752-6.11429E+07-2.86891E+07-1.20090E+05 1.03678E+07 2.66388E+08-1.25432E+06
 -1      1754-6.11429E+07-2.86891E+07-1.20090E+05 1.03678E+07 2.66388E+08-1.25432E+06
 -1      1755-4.36937E+07-2.87169E+07-1.42021E+05 1.03049E+07 2.71285E+08-1.06309E+06
 -1      1757-4.36937E+07-2.87169E+07-1.42021E+05 1.03049E+07 2.71285E+08-1.06309E+06
 -1      1758-2.69476E+07-2.85414E+07-1.15265E+05 9.45150E+06 2.75543E+08-9.02800E+05
 -1      1760-2.69476E+07-2.85414E+07-1.15265E+05 9.45150E+06 2.75543E+08-9.02800E+05
 -1      1761-1.23002E+07-2.87395E+07-1.44341E+05 7.69317E+06 2.78926E+08-6.65427E+05
 -1      1763-1.23002E+07-2.87395E+07-1.44341E+05 7.69317E+06 2.78926E+08-6.65427E+05
 -1      1764-1.29849E+06-2.79888E+07-1.13196E+05 5.09718E+06 2.81646E+08-6.05189E+05
 -1      1766-1.29849E+06-2.79888E+07-1.13196E+05 5.09718E+06 2.81646E+08-6.05189E+05
 -1      1767 4.19750E+06-2.92975E+07-1.31406E+05 1.36801E+06 2.83523E+08-1.51234E+05
 -1      1769 4.19750E+06-2.92975E+07-1.31406E+05 1.36801E+06 2.83523E+08-1.51234E+05
 -1      1770 3.78828E+06-2.74601E+07-1.59077E+05-3.27150E+06 2.84489E+08-5.44524E+05
 -1      1772 3.78828E+06-2.74601E+07-1.59077E+05-3.27150E+06 2.84489E+08-5.44524E+05
 -1      1773-1.64926E+08 6.86007E+06 6.29264E+04-1.62209E+07-6.92713E+06-3.88307E+07
 -1      1775-1.64926E+08 6.86007E+06 6.29264E+04-1.62209E+07-6.92713E+06-3.88307E+07
 -1      1776-1.39817E+08-5.37553E+06-1.90842E+05-1.66392E+07 3.18816E+07 2.35488E+07
 -1      1778-1.39817E+08-5.37553E+06-1.90842E+05-1.66392E+07 3.18816E+07 2.35488E+07
 -1      1779-1.18755E+08 1.80811E+06 1.53320E+05-6.61789E+06 4.03184E+07-5.93665E+06
 -1      1781-1.18755E+08 1.80811E+06 1.53320E+05-6.61789E+06 4.03184E+07-5.93665E+06
 -1      1782-1.03997E+08 3.58038E+06-7.03982E+04-9.07751E+06 5.69999E+07 7.93198E+06
 -1      1784-1.03997E+08 3.58038E+06-7.03982E+04-9.07751E+06 5.69999E+07 7.93198E+06
 -1      1785-8.95463E+07 3.80444E+06 4.76339E+04-6.42073E+06 7.24677E+07 1.59324E+06
 -1      1787-8.95463E+07 3.80444E+06 4.76339E+04-6.42073E+06 7.24677E+07 1.59324E+06
 -1      1788-7.48048E+07 7.53564E+06 3.91674E+04-9.01871E+06 8.57615E+07 4.34563E+06
 -1      1790-7.48048E+07 7.53564E+06 3.91674E+04-9.01871E+06 8.57615E+07 4.34563E+06
 -1      1791-5.77809E+07 7.88470E+06 6.62358E+03-9.01264E+06 1.01288E+08 3.12733E+06
 -1      1793-5.77809E+07 7.88470E+06 6.62358E+03-9.01264E+06 1.01288E+08 3.12733E+06
 -1      1794-3.90172E+07 1.09854E+07 8.75398E+04-1.09902E+07 1.14199E+08 3.50392E+06
 -1      1796-3.90172E+07 1.09854E+07 8.75398E+04-1.09902E+07 1.14199E+08 3.50392E+06
 -1      1797-1.81591E+07 1.21404E+07 1.29602E+04-1.13915E+07 1.28712E+08 3.29246E+06
 -1      1799-1.81591E+07 1.21404E+07 1.29602E+04-1.13915E+07 1.28712E+08 3.29246E+06
 -1      1800 3.78886E+06 1.46745E+07 1.06455E+05-1.22636E+07 1.41352E+08 3.21598E+06
 -1      1802 3.78886E+06 1.46745E+07 1.06455E+05-1.22636E+07 1.41352E+08 3.21598E+06
 -1      1803 2.62423E+07 1.62382E+07 3.72817E+04-1.20078E+07 1.54763E+08 3.14334E+06
 -1      1805 2.62423E+07 1.62382E+07 3.72817E+04-1.20078E+07 1.54763E+08 3.14334E+06
 -1      1806 4.80740E+07 1.83877E+07 1.15747E+05-1.15715E+07 1.66852E+08 2.99504E+06
 -1      1808 4.80740E+07 1.83877E+07 1.15747E+05-1.15715E+07 1.66852E+08 2.99504E+06
 -1      1809 6.83515E+07 2.00045E+07 6.43297E+04-1.02866E+07 1.79148E+08 2.90488E+06
 -1      1811 6.83515E+07 2.00045E+07 6.43297E+04-1.02866E+07 1.79148E+08 2.90488E+06
 -1      1812 8.60564E+07 2.17990E+07 1.22764E+05-8.64531E+06 1.90420E+08 2.74539E+06
 -1      1814 8.60564E+07 2.17990E+07 1.22764E+05-8.64531E+06 1.90420E+08 2.74539E+06
 -1      1815 1.00346E+08 2.32332E+07 8.76864E+04-6.43422E+06 2.01551E+08 2.62236E+06
 -1      1817 1.00346E+08 2.32332E+07 8.76864E+04-6.43422E+06 2.01551E+08 2.62236E+06
 -1      1818 1.10529E+08 2.46352E+07 1.28991E+05-3.96834E+06 2.11802E+08 2.45639E+06
 -1      1820 1.10529E+08 2.46352E+07 1.28991E+05-3.96834E+06 2.11802E+08 2.45639E+06
 -1      1821 1.16140E+08 2.57456E+07 1.05056E+05-1.25509E+06 2.21692E+08 2.30768E+06
 -1      1823 1.16140E+08 2.57456E+07 1.05056E+05-1.25509E+06 2.21692E+08 2.30768E+06
 -1      1824 1.16978E+08 2.67243E+07 1.34035E+05 1.46225E+06 2.30762E+08 2.13490E+06
 -1      1826 1.16978E+08 2.67243E+07 1.34035E+05 1.46225E+06 2.30762E+08 2.13490E+06
 -1      1827 1.13102E+08 2.74531E+07 1.15960E+05 4.08295E+06 2.39332E+08 1.96891E+06
 -1      1829 1.13102E+08 2.74531E+07 1.15960E+05 4.08295E+06 2.39332E+08 1.96891E+06
 -1      1830 1.04862E+08 2.80210E+07 1.37505E+05 6.40857E+06 2.47098E+08 1.79077E+06
 -1      1832 1.04862E+08 2.80210E+07 1.37505E+05 6.40857E+06 2.47098E+08 1.79077E+06
 -1      1833 9.28546E+07 2.83869E+07 1.20739E+05 8.32176E+06 2.54280E+08 1.61464E+06
 -1      1835 9.28546E+07 2.83869E+07 1.20739E+05 8.32176E+06 2.54280E+08 1.61464E+06
 -1      1836 7.79347E+07 2.86123E+07 1.39772E+05 9.67069E+06 2.60647E+08 1.43258E+06
 -1      1838 7.79347E+07 2.86123E+07 1.39772E+05 9.67069E+06 2.60647E+08 1.43258E+06
 -1      1839 6.11429E+07 2.86891E+07 1.20090E+05 1.03678E+07 2.66388E+08 1.25432E+06
 -1      1841 6.11429E+07 2.86891E+07 1.20090E+05 1.03678E+07 2.66388E+08 1.25432E+06
 -1      1842 4.36937E+07 2.87169E+07 1.42021E+05 1.03049E+07 2.71285E+08 1.06309E+06
 -1      1844 4.36937E+07 2.87169E+07 1.42021E+05 1.03049E+07 2.71285E+08 1.06309E+06
 -1      1845 2.69476E+07 2.85414E+07 1.15265E+05 9.45150E+06 2.75543E+08 9.02800E+05
 -1      1847 2.69476E+07 2.85414E+07 1.15265E+05 9.45150E+06 2.75543E+08 9.02800E+05
 -1      1848 1.23002E+07 2.87395E+07 1.44341E+05 7.69317E+06 2.78926E+08 6.65427E+05
 -1      1850 1.23002E+07 2.87395E+07 1.44341E+05 7.69317E+06 2.78926E+08 6.65427E+05
 -1      1851 1.29849E+06 2.79888E+07 1.13196E+05 5.09718E+06 2.81646E+08 6.05189E+05
 -1      1853 1.29849E+06 2.79888E+07 1.13196E+05 5.09718E+06 2.81646E+08 6.05189E+05
 -1      1854-4.19750E+06 2.92975E+07 1.31406E+05 1.36801E+06 2.83523E+08 1.51234E+05
 -1      1856-4.19750E+06 2.92975E+07 1.31406E+05 1.36801E+06 2.83523E+08 1.51234E+05
 -1      1857-3.78828E+06 2.74601E+07 1.59077E+05-3.27150E+06 2.84489E+08 5.44524E+05
 -1      1859-3.78828E+06 2.74601E+07 1.59077E+05-3.27150E+06 2.84489E+08 5.44524E+05
 -1      1860-1.02675E-02 2.09551E-04 6.87990E-03-4.49490E+07 6.08815E+06-1.39707E-02
 -1      1862-1.02675E-02 2.09551E-04 6.87990E-03-4.49490E+07 6.08815E+06-1.39707E-02
 -1      1863-1.13557E-02 2.15567E-04 1.04201E-02-4.54342E+06 3.73070E+07-1.19080E-02
 -1      1865-1.13557E-02 2.15567E-04 1.04201E-02-4.54342E+06 3.73070E+07-1.19080E-02
 -1      1866-1.29388E-02 2.73133E-05 2.16908E-03-2.96181E+07 5.84882E+07-9.04099E-03
 -1      1868-1.29388E-02 2.73133E-05 2.16908E-03-2.96181E+07 5.84882E+07-9.04099E-03
 -1      1869-1.24692E-02 1.11688E-04-9.09007E-03-1.36597E+07 7.91051E+07-8.75662E-03
 -1      1871-1.24692E-02 1.11688E-04-9.09007E-03-1.36597E+07 7.91051E+07-8.75662E-03
 -1      1872-8.86956E-03 4.20132E-04-1.08529E-02-2.36051E+07 1.00942E+08-1.09012E-02
 -1      1874-8.86956E-03 4.20132E-04-1.08529E-02-2.36051E+07 1.00942E+08-1.09012E-02
 -1      1875-6.23343E-03-3.70509E-04-2.00572E-03-1.68300E+07 1.20509E+08-1.12883E-02
 -1      1877-6.23343E-03-3.70509E-04-2.00572E-03-1.68300E+07 1.20509E+08-1.12883E-02
 -1      1878-7.36332E-03-1.36659E-03 7.90811E-03-2.07818E+07 1.41157E+08-6.88898E-03
 -1      1880-7.36332E-03-1.36659E-03 7.90811E-03-2.07818E+07 1.41157E+08-6.88898E-03
 -1      1881-1.05513E-02-1.01593E-03 7.74770E-03-1.76307E+07 1.60413E+08-1.68884E-03
 -1      1883-1.05513E-02-1.01593E-03 7.74770E-03-1.76307E+07 1.60413E+08-1.68884E-03
 -1      1884-1.18625E-02-4.61119E-04 2.32663E-05-1.90411E+07 1.79850E+08-2.60599E-03
 -1      1886-1.18625E-02-4.61119E-04 2.32663E-05-1.90411E+07 1.79850E+08-2.60599E-03
 -1      1887-9.67661E-03 1.00634E-04-1.28585E-03-1.73402E+07 1.98413E+08-7.75688E-03
 -1      1889-9.67661E-03 1.00634E-04-1.28585E-03-1.73402E+07 1.98413E+08-7.75688E-03
 -1      1890-7.20304E-03-9.82015E-05 7.34686E-03-1.75981E+07 2.16639E+08-7.45379E-03
 -1      1892-7.20304E-03-9.82015E-05 7.34686E-03-1.75981E+07 2.16639E+08-7.45379E-03
 -1      1893-6.47894E-03-5.94987E-04 1.64347E-02-1.64575E+07 2.34137E+08-9.26346E-04
 -1      1895-6.47894E-03-5.94987E-04 1.64347E-02-1.64575E+07 2.34137E+08-9.26346E-04
 -1      1896-6.10471E-03-7.03305E-04 1.93035E-02-1.61513E+07 2.51035E+08 6.10274E-03
 -1      1898-6.10471E-03-7.03305E-04 1.93035E-02-1.61513E+07 2.51035E+08 6.10274E-03
 -1      1899-5.96950E-03-7.37931E-04 1.78483E-02-1.51990E+07 2.67187E+08 1.16398E-02
 -1      1901-5.96950E-03-7.37931E-04 1.78483E-02-1.51990E+07 2.67187E+08 1.16398E-02
 -1      1902-8.07106E-03-3.33565E-04 1.69359E-02-1.45916E+07 2.82584E+08 1.42467E-02
 -1      1904-8.07106E-03-3.33565E-04 1.69359E-02-1.45916E+07 2.82584E+08 1.42467E-02
 -1      1905-1.09758E-02-9.62473E-05 1.75911E-02-1.36755E+07 2.97167E+08 1.35100E-02
 -1      1907-1.09758E-02-9.62473E-05 1.75911E-02-1.36755E+07 2.97167E+08 1.35100E-02
 -1      1908-1.14684E-02-3.31737E-04 1.55695E-02-1.28934E+07 3.10889E+08 1.08181E-02
 -1      1910-1.14684E-02-3.31737E-04 1.55695E-02-1.28934E+07 3.10889E+08 1.08181E-02
 -1      1911-1.17806E-02-3.34939E-04 9.60522E-03-1.19574E+07 3.23724E+08 5.46195E-03
 -1      1913-1.17806E-02-3.34939E-04 9.60522E-03-1.19574E+07 3.23724E+08 5.46195E-03
 -1      1914-1.51960E-02-1.10281E-04 4.41451E-03-1.10684E+07 3.35618E+08-7.70865E-04
 -1      1916-1.51960E-02-1.10281E-04 4.41451E-03-1.10684E+07 3.35618E+08-7.70865E-04
 -1      1917-2.03410E-02-3.46758E-05 2.05937E-03-1.00990E+07 3.46566E+08-2.69947E-03
 -1      1919-2.03410E-02-3.46758E-05 2.05937E-03-1.00990E+07 3.46566E+08-2.69947E-03
 -1      1920-2.39635E-02 4.25076E-04 6.86316E-04-9.14404E+06 3.56513E+08-2.39302E-04
 -1      1922-2.39635E-02 4.25076E-04 6.86316E-04-9.14404E+06 3.56513E+08-2.39302E-04
 -1      1923-2.53984E-02 1.21935E-04 1.57700E-03-8.14579E+06 3.65469E+08-1.53058E-04
 -1      1925-2.53984E-02 1.21935E-04 1.57700E-03-8.14579E+06 3.65469E+08-1.53058E-04
 -1      1926-2.51366E-02-2.93337E-04 8.65455E-03-7.15082E+06 3.73383E+08-4.01916E-03
 -1      1928-2.51366E-02-2.93337E-04 8.65455E-03-7.15082E+06 3.73383E+08-4.01916E-03
 -1      1929-2.16060E-02-8.49998E-05 1.87387E-02-6.13643E+06 3.80278E+08-6.77379E-03
 -1      1931-2.16060E-02-8.49998E-05 1.87387E-02-6.13643E+06 3.80278E+08-6.77379E-03
 -1      1932-1.55210E-02 2.09934E-04 2.48181E-02-5.11245E+06 3.86102E+08-6.37348E-03
 -1      1934-1.55210E-02 2.09934E-04 2.48181E-02-5.11245E+06 3.86102E+08-6.37348E-03
 -1      1935-1.06070E-02 4.38508E-04 2.53095E-02-4.10998E+06 3.90890E+08-3.38348E-03
 -1      1937-1.06070E-02 4.38508E-04 2.53095E-02-4.10998E+06 3.90890E+08-3.38348E-03
 -1      1938-7.66432E-03 2.50626E-04 2.33628E-02-3.02822E+06 3.94569E+08-2.64704E-03
 -1      1940-7.66432E-03 2.50626E-04 2.33628E-02-3.02822E+06 3.94569E+08-2.64704E-03
 -1      1941-5.87473E-03 1.40077E-04 2.11465E-02-2.13620E+06 3.97231E+08-4.24326E-03
 -1      1943-5.87473E-03 1.40077E-04 2.11465E-02-2.13620E+06 3.97231E+08-4.24326E-03
 -1      1944-4.25816E-03-8.86150E-04 1.69543E-02-8.25069E+05 3.98589E+08-2.46797E-03
 -1      1946-4.25816E-03-8.86150E-04 1.69543E-02-8.25069E+05 3.98589E+08-2.46797E-03
 -1      1947-1.54613E-02 1.28182E-04 5.20114E-03 1.53497E-03 3.13446E+07-1.17200E-02
 -1      1949-1.54613E-02 1.28182E-04 5.20114E-03 1.53497E-03 3.13446E+07-1.17200E-02
 -1      1950-1.70024E-02 2.19208E-04 6.53923E-03 1.86283E-04 4.69412E+07-1.27829E-02
 -1      1952-1.70024E-02 2.19208E-04 6.53923E-03 1.86283E-04 4.69412E+07-1.27829E-02
 -1      1953-1.62743E-02-1.37677E-05-7.50184E-04 8.85721E-04 6.60860E+07-1.16954E-02
 -1      1955-1.62743E-02-1.37677E-05-7.50184E-04 8.85721E-04 6.60860E+07-1.16954E-02
 -1      1956-1.49242E-02 2.05244E-05-9.39982E-03-2.32570E-05 8.90566E+07-9.83221E-03
 -1      1958-1.49242E-02 2.05244E-05-9.39982E-03-2.32570E-05 8.90566E+07-9.83221E-03
 -1      1959-1.29917E-02 4.53717E-04-1.14806E-02 2.50451E-04 1.08937E+08-9.11060E-03
 -1      1961-1.29917E-02 4.53717E-04-1.14806E-02 2.50451E-04 1.08937E+08-9.11060E-03
 -1      1962-1.30963E-02-2.77771E-04-6.22407E-03 4.34183E-06 1.31014E+08-6.60155E-03
 -1      1964-1.30963E-02-2.77771E-04-6.22407E-03 4.34183E-06 1.31014E+08-6.60155E-03
 -1      1965-1.51442E-02-1.24307E-03 2.03196E-03-2.57526E-04 1.51617E+08-2.20824E-03
 -1      1967-1.51442E-02-1.24307E-03 2.03196E-03-2.57526E-04 1.51617E+08-2.20824E-03
 -1      1968-1.48564E-02-1.04943E-03 5.39038E-03-3.33678E-04 1.72421E+08-6.52097E-04
 -1      1970-1.48564E-02-1.04943E-03 5.39038E-03-3.33678E-04 1.72421E+08-6.52097E-04
 -1      1971-1.13465E-02-8.38084E-05 1.07027E-03-4.27134E-04 1.92733E+08-3.58038E-03
 -1      1973-1.13465E-02-8.38084E-05 1.07027E-03-4.27134E-04 1.92733E+08-3.58038E-03
 -1      1974-7.52372E-03 1.60647E-04-2.16206E-03-4.09970E-04 2.12417E+08-6.50624E-03
 -1      1976-7.52372E-03 1.60647E-04-2.16206E-03-4.09970E-04 2.12417E+08-6.50624E-03
 -1      1977-5.56090E-03-5.06663E-04 3.10357E-03-3.78726E-04 2.31787E+08-4.21812E-03
 -1      1979-5.56090E-03-5.06663E-04 3.10357E-03-3.78726E-04 2.31787E+08-4.21812E-03
 -1      1980-5.76925E-03-9.46063E-04 1.25411E-02-8.35562E-04 2.50277E+08 1.21970E-03
 -1      1982-5.76925E-03-9.46063E-04 1.25411E-02-8.35562E-04 2.50277E+08 1.21970E-03
 -1      1983-6.38419E-03-1.41413E-03 1.84559E-02-9.86382E-05 2.68320E+08 5.63687E-03
 -1      1985-6.38419E-03-1.41413E-03 1.84559E-02-9.86382E-05 2.68320E+08 5.63687E-03
 -1      1986-5.75119E-03-9.98890E-04 1.97886E-02 1.78572E-04 2.85413E+08 9.17806E-03
 -1      1988-5.75119E-03-9.98890E-04 1.97886E-02 1.78572E-04 2.85413E+08 9.17806E-03
 -1      1989-5.93250E-03-5.12174E-04 1.97138E-02-2.13599E-04 3.01870E+08 1.14967E-02
 -1      1991-5.93250E-03-5.12174E-04 1.97138E-02-2.13599E-04 3.01870E+08 1.14967E-02
 -1      1992-7.49475E-03-1.61759E-04 2.03608E-02 6.30893E-04 3.17339E+08 1.05457E-02
 -1      1994-7.49475E-03-1.61759E-04 2.03608E-02 6.30893E-04 3.17339E+08 1.05457E-02
 -1      1995-7.19430E-03-5.16930E-04 1.85043E-02 3.94788E-05 3.32006E+08 6.46628E-03
 -1      1997-7.19430E-03-5.16930E-04 1.85043E-02 3.94788E-05 3.32006E+08 6.46628E-03
 -1      1998-4.01409E-03-8.48919E-04 1.20272E-02 2.46596E-05 3.45650E+08 1.44847E-03
 -1      2000-4.01409E-03-8.48919E-04 1.20272E-02 2.46596E-05 3.45650E+08 1.44847E-03
 -1      2001-2.89288E-03-5.89374E-04 4.10486E-03 2.58402E-04 3.58363E+08-2.71235E-03
 -1      2003-2.89288E-03-5.89374E-04 4.10486E-03 2.58402E-04 3.58363E+08-2.71235E-03
 -1      2004-5.64286E-03 1.29355E-04-1.42764E-03 2.86950E-04 3.70018E+08-3.40505E-03
 -1      2006-5.64286E-03 1.29355E-04-1.42764E-03 2.86950E-04 3.70018E+08-3.40505E-03
 -1      2007-8.25532E-03 1.16947E-03-1.98887E-03 4.76015E-04 3.80650E+08-5.62502E-05
 -1      2009-8.25532E-03 1.16947E-03-1.98887E-03 4.76015E-04 3.80650E+08-5.62502E-05
 -1      2010-1.06889E-02 8.11196E-04 3.21816E-03 1.64807E-05 3.90198E+08 2.14605E-03
 -1      2012-1.06889E-02 8.11196E-04 3.21816E-03 1.64807E-05 3.90198E+08 2.14605E-03
 -1      2013-1.38954E-02-9.84649E-05 1.19338E-02-1.80397E-05 3.98654E+08-9.71920E-04
 -1      2015-1.38954E-02-9.84649E-05 1.19338E-02-1.80397E-05 3.98654E+08-9.71920E-04
 -1      2016-1.41869E-02-1.25506E-04 1.90072E-02 2.31834E-04 4.06018E+08-5.95973E-03
 -1      2018-1.41869E-02-1.25506E-04 1.90072E-02 2.31834E-04 4.06018E+08-5.95973E-03
 -1      2019-1.01845E-02 1.09710E-04 2.18272E-02-1.28816E-04 4.12234E+08-7.06810E-03
 -1      2021-1.01845E-02 1.09710E-04 2.18272E-02-1.28816E-04 4.12234E+08-7.06810E-03
 -1      2022-5.56441E-03-7.36277E-05 2.19863E-02-1.07037E-04 4.17380E+08-3.60742E-03
 -1      2024-5.56441E-03-7.36277E-05 2.19863E-02-1.07037E-04 4.17380E+08-3.60742E-03
 -1      2025-2.56719E-03 8.65502E-05 2.15901E-02-1.97698E-04 4.21329E+08-1.79400E-03
 -1      2027-2.56719E-03 8.65502E-05 2.15901E-02-1.97698E-04 4.21329E+08-1.79400E-03
 -1      2028-1.74828E-03 4.90751E-04 2.00731E-02-4.06665E-04 4.24268E+08-3.17398E-03
 -1      2030-1.74828E-03 4.90751E-04 2.00731E-02-4.06665E-04 4.24268E+08-3.17398E-03
 -1      2031-2.10815E-03-8.76634E-04 1.56971E-02-2.65864E-05 4.26052E+08-1.84475E-03
 -1      2033-2.10815E-03-8.76634E-04 1.56971E-02-2.65864E-05 4.26052E+08-1.84475E-03
 -1      2034-1.89548E-02 4.84440E-05 2.71920E-03 4.49490E+07 6.08815E+06-7.97849E-03
 -1      2036-1.89548E-02 4.84440E-05 2.71920E-03 4.49490E+07 6.08815E+06-7.97849E-03
 -1      2037-1.83382E-02 2.95816E-04 3.22940E-03 4.54342E+06 3.73070E+07-1.19725E-02
 -1      2039-1.83382E-02 2.95816E-04 3.22940E-03 4.54342E+06 3.73070E+07-1.19725E-02
 -1      2040-1.85455E-02 6.49037E-05-2.28709E-03 2.96181E+07 5.84882E+07-1.26062E-02
 -1      2042-1.85455E-02 6.49037E-05-2.28709E-03 2.96181E+07 5.84882E+07-1.26062E-02
 -1      2043-2.00795E-02-6.03045E-05-8.80773E-03 1.36597E+07 7.91051E+07-1.08326E-02
 -1      2045-2.00795E-02-6.03045E-05-8.80773E-03 1.36597E+07 7.91051E+07-1.08326E-02
 -1      2046-2.08184E-02 3.16685E-05-1.34734E-02 2.36051E+07 1.00942E+08-9.04551E-03
 -1      2048-2.08184E-02 3.16685E-05-1.34734E-02 2.36051E+07 1.00942E+08-9.04551E-03
 -1      2049-2.07217E-02-5.21022E-04-1.31068E-02 1.68300E+07 1.20509E+08-4.26797E-03
 -1      2051-2.07217E-02-5.21022E-04-1.31068E-02 1.68300E+07 1.20509E+08-4.26797E-03
 -1      2052-1.90700E-02-1.09248E-03-5.41132E-03 2.07818E+07 1.41157E+08 1.83789E-03
 -1      2054-1.90700E-02-1.09248E-03-5.41132E-03 2.07818E+07 1.41157E+08 1.83789E-03
 -1      2055-1.56838E-02-9.81204E-04 2.69534E-03 1.76307E+07 1.60413E+08 1.58270E-03
 -1      2057-1.56838E-02-9.81204E-04 2.69534E-03 1.76307E+07 1.60413E+08 1.58270E-03
 -1      2058-1.29233E-02-1.23315E-04 1.58287E-03 1.90411E+07 1.79850E+08-3.72159E-03
 -1      2060-1.29233E-02-1.23315E-04 1.58287E-03 1.90411E+07 1.79850E+08-3.72159E-03
 -1      2061-1.05012E-02 1.14110E-04-3.80835E-03 1.73402E+07 1.98413E+08-4.92357E-03
 -1      2063-1.05012E-02 1.14110E-04-3.80835E-03 1.73402E+07 1.98413E+08-4.92357E-03
 -1      2064-7.21791E-03-7.54279E-04-1.42719E-03 1.75981E+07 2.16639E+08-1.90503E-04
 -1      2066-7.21791E-03-7.54279E-04-1.42719E-03 1.75981E+07 2.16639E+08-1.90503E-04
 -1      2067-5.94971E-03-7.91445E-04 9.11797E-03 1.64575E+07 2.34137E+08 4.41655E-03
 -1      2069-5.94971E-03-7.91445E-04 9.11797E-03 1.64575E+07 2.34137E+08 4.41655E-03
 -1      2070-7.39973E-03-1.64193E-03 1.81292E-02 1.61513E+07 2.51035E+08 5.61432E-03
 -1      2072-7.39973E-03-1.64193E-03 1.81292E-02 1.61513E+07 2.51035E+08 5.61432E-03
 -1      2073-7.68973E-03-1.74156E-03 2.04951E-02 1.51990E+07 2.67187E+08 6.66135E-03
 -1      2075-7.68973E-03-1.74156E-03 2.04951E-02 1.51990E+07 2.67187E+08 6.66135E-03
 -1      2076-5.42857E-03-2.46039E-04 2.02524E-02 1.45916E+07 2.82584E+08 9.69778E-03
 -1      2078-5.42857E-03-2.46039E-04 2.02524E-02 1.45916E+07 2.82584E+08 9.69778E-03
 -1      2079-2.38476E-03-1.27052E-05 2.08768E-02 1.36755E+07 2.97167E+08 9.92793E-03
 -1      2081-2.38476E-03-1.27052E-05 2.08768E-02 1.36755E+07 2.97167E+08 9.92793E-03
 -1      2082 1.40298E-03 1.13077E-05 1.85067E-02 1.28934E+07 3.10889E+08 4.82979E-03
 -1      2084 1.40298E-03 1.13077E-05 1.85067E-02 1.28934E+07 3.10889E+08 4.82979E-03
 -1      2085 6.33302E-03-3.54567E-04 1.11772E-02 1.19574E+07 3.23724E+08 4.99478E-05
 -1      2087 6.33302E-03-3.54567E-04 1.11772E-02 1.19574E+07 3.23724E+08 4.99478E-05
 -1      2088 9.25516E-03-3.70906E-05 3.82307E-03 1.10684E+07 3.35618E+08-2.51431E-03
 -1      2090 9.25516E-03-3.70906E-05 3.82307E-03 1.10684E+07 3.35618E+08-2.51431E-03
 -1      2091 7.74965E-03 1.07944E-03-1.78331E-03 1.00990E+07 3.46566E+08-3.15113E-03
 -1      2093 7.74965E-03 1.07944E-03-1.78331E-03 1.00990E+07 3.46566E+08-3.15113E-03
 -1      2094 4.78772E-03 1.30276E-03-3.55199E-03 9.14404E+06 3.56513E+08 4.66150E-04
 -1      2096 4.78772E-03 1.30276E-03-3.55199E-03 9.14404E+06 3.56513E+08 4.66150E-04
 -1      2097 1.58681E-03 1.00509E-03 3.24606E-03 8.14579E+06 3.65469E+08 4.39031E-03
 -1      2099 1.58681E-03 1.00509E-03 3.24606E-03 8.14579E+06 3.65469E+08 4.39031E-03
 -1      2100-2.65719E-03 2.72043E-04 1.42097E-02 7.15082E+06 3.73383E+08 1.28766E-03
 -1      2102-2.65719E-03 2.72043E-04 1.42097E-02 7.15082E+06 3.73383E+08 1.28766E-03
 -1      2103-4.74428E-03 2.66314E-04 1.91862E-02 6.13643E+06 3.80278E+08-6.06501E-03
 -1      2105-4.74428E-03 2.66314E-04 1.91862E-02 6.13643E+06 3.80278E+08-6.06501E-03
 -1      2106-3.46422E-03-5.54092E-05 1.61885E-02 5.11245E+06 3.86102E+08-8.23608E-03
 -1      2108-3.46422E-03-5.54092E-05 1.61885E-02 5.11245E+06 3.86102E+08-8.23608E-03
 -1      2109-6.97548E-04-6.09076E-04 1.33140E-02 4.10998E+06 3.90890E+08-3.88976E-03
 -1      2111-6.97548E-04-6.09076E-04 1.33140E-02 4.10998E+06 3.90890E+08-3.88976E-03
 -1      2112 2.05954E-03 8.75837E-05 1.47130E-02 3.02822E+06 3.94569E+08-1.46505E-03
 -1      2114 2.05954E-03 8.75837E-05 1.47130E-02 3.02822E+06 3.94569E+08-1.46505E-03
 -1      2115 2.34823E-03 5.85476E-04 1.43494E-02 2.13620E+06 3.97231E+08-3.62866E-03
 -1      2117 2.34823E-03 5.85476E-04 1.43494E-02 2.13620E+06 3.97231E+08-3.62866E-03
 -1      2118 4.10829E-04-3.72617E-04 9.72895E-03 8.25069E+05 3.98589E+08-2.52643E-03
 -1      2120 4.10829E-04-3.72617E-04 9.72895E-03 8.25069E+05 3.98589E+08-2.52643E-03
 -1      2121 1.64926E+08-6.86007E+06-6.29264E+04 1.62209E+07-6.92713E+06-3.88307E+07
 -1      2123 1.64926E+08-6.86007E+06-6.29264E+04 1.62209E+07-6.92713E+06-3.88307E+07
 -1      2124 1.39817E+08 5.37553E+06 1.90842E+05 1.66392E+07 3.18816E+07 2.35488E+07
 -1      2126 1.39817E+08 5.37553E+06 1.90842E+05 1.66392E+07 3.18816E+07 2.35488E+07
 -1      2127 1.18755E+08-1.80811E+06-1.53320E+05 6.61789E+06 4.03184E+07-5.93665E+06
 -1      2129 1.18755E+08-1.80811E+06-1.53320E+05 6.61789E+06 4.03184E+07-5.93665E+06
 -1      2130 1.03997E+08-3.58038E+06 7.03982E+04 9.07751E+06 5.69999E+07 7.93198E+06
 -1      2132 1.03997E+08-3.58038E+06 7.03982E+04 9.07751E+06 5.69999E+07 7.93198E+06
 -1      2133 8.95463E+07-3.80444E+06-4.76339E+04 6.42073E+06 7.24677E+07 1.59324E+06
 -1      2135 8.95463E+07-3.80444E+06-4.76339E+04 6.42073E+06 7.24677E+07 1.59324E+06
 -1      2136 7.48048E+07-7.53564E+06-3.91674E+04 9.01871E+06 8.57615E+07 4.34563E+06
 -1      2138 7.48048E+07-7.53564E+06-3.91674E+04 9.01871E+06 8.57615E+07 4.34563E+06
 -1      2139 5.77809E+07-7.88470E+06-6.62358E+03 9.01264E+06 1.01288E+08 3.12733E+06
 -1      2141 5.77809E+07-7.88470E+06-6.62358E+03 9.01264E+06 1.01288E+08 3.12733E+06
 -1      2142 3.90172E+07-1.09854E+07-8.75398E+04 1.09902E+07 1.14199E+08 3.50392E+06
 -1      2144 3.90172E+07-1.09854E+07-8.75398E+04 1.09902E+07 1.14199E+08 3.50392E+06
 -1      2145 1.81591E+07-1.21404E+07-1.29602E+04 1.13915E+07 1.28712E+08 3.29246E+06
 -1      2147 1.81591E+07-1.21404E+07-1.29602E+04 1.13915E+07 1.28712E+08 3.29246E+06
 -1      2148-3.78886E+06-1.46745E+07-1.06455E+05 1.22636E+07 1.41352E+08 3.21598E+06
 -1      2150-3.78886E+06-1.46745E+07-1.06455E+05 1.22636E+07 1.41352E+08 3.21598E+06
 -1      2151-2.62423E+07-1.62382E+07-3.72817E+04 1.20078E+07 1.54763E+08 3.14334E+06
 -1      2153-2.62423E+07-1.62382E+07-3.72817E+04 1.20078E+07 1.54763E+08 3.14334E+06
 -1      2154-4.80740E+07-1.83877E+07-1.15747E+05 1.15715E+07 1.66852E+08 2.99504E+06
 -1      2156-4.80740E+07-1.83877E+07-1.15747E+05 1.15715E+07 1.66852E+08 2.99504E+06
 -1      2157-6.83515E+07-2.00045E+07-6.43297E+04 1.02866E+07 1.79148E+08 2.90488E+06
 -1      2159-6.83515E+07-2.00045E+07-6.43297E+04 1.02866E+07 1.79148E+08 2.90488E+06
 -1      2160-8.60564E+07-2.17990E+07-1.22764E+05 8.64531E+06 1.90420E+08 2.74539E+06
 -1      2162-8.60564E+07-2.17990E+07-1.22764E+05 8.64531E+06 1.90420E+08 2.74539E+06
 -1      2163-1.00346E+08-2.32332E+07-8.76864E+04 6.43422E+06 2.01551E+08 2.62236E+06
 -1      2165-1.00346E+08-2.32332E+07-8.76864E+04 6.43422E+06 2.01551E+08 2.62236E+06
 -1      2166-1.10529E+08-2.46352E+07-1.28991E+05 3.96834E+06 2.11802E+08 2.45639E+06
 -1      2168-1.10529E+08-2.46352E+07-1.28991E+05 3.96834E+06 2.11802E+08 2.45639E+06
 -1      2169-1.16140E+08-2.57456E+07-1.05056E+05 1.25509E+06 2.21692E+08 2.30768E+06
 -1      2171-1.16140E+08-2.57456E+07-1.05056E+05 1.25509E+06 2.21692E+08 2.30768E+06
 -1      2172-1.16978E+08-2.67243E+07-1.34035E+05-1.46225E+06 2.30762E+08 2.13490E+06
 -1      2174-1.16978E+08-2.67243E+07-1.34035E+05-1.46225E+06 2.30762E+08 2.13490E+06
 -1      2175-1.13102E+08-2.74531E+07-1.15960E+05-4.08295E+06 2.39332E+08 1.96891E+06
 -1      2177-1.13102E+08-2.74531E+07-1.15960E+05-4.08295E+06 2.39332E+08 1.96891E+06
 -1      2178-1.04862E+08-2.80210E+07-1.37505E+05-6.40857E+06 2.47098E+08 1.79077E+06
 -1      2180-1.04862E+08-2.80210E+07-1.37505E+05-6.40857E+06 2.47098E+08 1.79077E+06
 -1      2181-9.28546E+07-2.83869E+07-1.20739E+05-8.32176E+06 2.54280E+08 1.61464E+06
 -1      2183-9.28546E+07-2.83869E+07-1.20739E+05-8.32176E+06 2.54280E+08 1.61464E+06
 -1      2184-7.79347E+07-2.86123E+07-1.39772E+05-9.67069E+06 2.60647E+08 1.43258E+06
 -1      2186-7.79347E+07-2.86123E+07-1.39772E+05-9.67069E+06 2.60647E+08 1.43258E+06
 -1      2187-6.11429E+07-2.86891E+07-1.20090E+05-1.03678E+07 2.66388E+08 1.25432E+06
 -1      2189-6.11429E+07-2.86891E+07-1.20090E+05-1.03678E+07 2.66388E+08 1.25432E+06
 -1      2190-4.36937E+07-2.87169E+07-1.42021E+05-1.03049E+07 2.71285E+08 1.06309E+06
 -1      2192-4.36937E+07-2.87169E+07-1.42021E+05-1.03049E+07 2.71285E+08 1.06309E+06
 -1      2193-2.69476E+07-2.85414E+07-1.15265E+05-9.45150E+06 2.75543E+08 9.02800E+05
 -1      2195-2.69476E+07-2.85414E+07-1.15265E+05-9.45150E+06 2.75543E+08 9.02800E+05
 -1      2196-1.23002E+07-2.87395E+07-1.44341E+05-7.69317E+06 2.78926E+08 6.65427E+05
 -1      2198-1.23002E+07-2.87395E+07-1.44341E+05-7.69317E+06 2.78926E+08 6.65427E+05
 -1      2199-1.29849E+06-2.79888E+07-1.13196E+05-5.09718E+06 2.81646E+08 6.05189E+05
 -1      2201-1.29849E+06-2.79888E+07-1.13196E+05-5.09718E+06 2.81646E+08 6.05189E+05
 -1      2202 4.19749E+06-2.92975E+07-1.31406E+05-1.36801E+06 2.83523E+08 1.51234E+05
 -1      2204 4.19749E+06-2.92975E+07-1.31406E+05-1.36801E+06 2.83523E+08 1.51234E+05
 -1      2205 3.78828E+06-2.74601E+07-1.59077E+05 3.27150E+06 2.84489E+08 5.44524E+05
 -1      2207 3.78828E+06-2.74601E+07-1.59077E+05 3.27150E+06 2.84489E+08 5.44524E+05
 -1      2208-1.64926E+08 6.86007E+06 6.29264E+04 1.62209E+07-6.92713E+06 3.88307E+07
 -1      2210-1.64926E+08 6.86007E+06 6.29264E+04 1.62209E+07-6.92713E+06 3.88307E+07
 -1      2211-1.39817E+08-5.37553E+06-1.90842E+05 1.66392E+07 3.18816E+07-2.35488E+07
 -1      2213-1.39817E+08-5.37553E+06-1.90842E+05 1.66392E+07 3.18816E+07-2.35488E+07
 -1      2214-1.18755E+08 1.80811E+06 1.53320E+05 6.61789E+06 4.03184E+07 5.93665E+06
 -1      2216-1.18755E+08 1.80811E+06 1.53320E+05 6.61789E+06 4.03184E+07 5.93665E+06
 -1      2217-1.03997E+08 3.58038E+06-7.03982E+04 9.07751E+06 5.69999E+07-7.93198E+06
 -1      2219-1.03997E+08 3.58038E+06-7.03982E+04 9.07751E+06 5.69999E+07-7.93198E+06
 -1      2220-8.95463E+07 3.80444E+06 4.76339E+04 6.42073E+06 7.24677E+07-1.59324E+06
 -1      2222-8.95463E+07 3.80444E+06 4.76339E+04 6.42073E+06 7.24677E+07-1.59324E+06
 -1      2223-7.48048E+07 7.53564E+06 3.91674E+04 9.01871E+06 8.57615E+07-4.34563E+06
 -1      2225-7.48048E+07 7.53564E+06 3.91674E+04 9.01871E+06 8.57615E+07-4.34563E+06
 -1      2226-5.77809E+07 7.88470E+06 6.62358E+03 9.01264E+06 1.01288E+08-3.12733E+06
 -1      2228-5.77809E+07 7.88470E+06 6.62358E+03 9.01264E+06 1.01288E+08-3.12733E+06
 -1      2229-3.90172E+07 1.09854E+07 8.75398E+04 1.09902E+07 1.14199E+08-3.50392E+06
 -1      2231-3.90172E+07 1.09854E+07 8.75398E+04 1.09902E+07 1.14199E+08-3.50392E+06
 -1      2232-1.81591E+07 1.21404E+07 1.29602E+04 1.13915E+07 1.28712E+08-3.29246E+06
 -1      2234-1.81591E+07 1.21404E+07 1.29602E+04 1.13915E+07 1.28712E+08-3.29246E+06
 -1      2235 3.78886E+06 1.46745E+07 1.06455E+05 1.22636E+07 1.41352E+08-3.21598E+06
 -1      2237 3.78886E+06 1.46745E+07 1.06455E+05 1.22636E+07 1.41352E+08-3.21598E+06
 -1      2238 2.62423E+07 1.62382E+07 3.72817E+04 1.20078E+07 1.54763E+08-3.14334E+06
 -1      2240 2.62423E+07 1.62382E+07 3.72817E+04 1.20078E+07 1.54763E+08-3.14334E+06
 -1      2241 4.80740E+07 1.83877E+07 1.15747E+05 1.15715E+07 1.66852E+08-2.99504E+06
 -1      2243 4.80740E+07 1.83877E+07 1.15747E+05 1.15715E+07 1.66852E+08-2.99504E+06
 -1      2244 6.83515E+07 2.00045E+07 6.43297E+04 1.02866E+07 1.79148E+08-2.90488E+06
 -1      2246 6.83515E+07 2.00045E+07 6.43297E+04 1.02866E+07 1.79148E+08-2.90488E+06
 -1      2247 8.60564E+07 2.17990E+07 1.22764E+05 8.64531E+06 1.90420E+08-2.74539E+06
 -1      2249 8.60564E+07 2.17990E+07 1.22764E+05 8.64531E+06 1.90420E+08-2.74539E+06
 -1      2250 1.00346E+08 2.32332E+07 8.76864E+04 6.43422E+06 2.01551E+08-2.62236E+06
 -1      2252 1.00346E+08 2.32332E+07 8.76864E+04 6.43422E+06 2.01551E+08-2.62236E+06
 -1      2253 1.10529E+08 2.46352E+07 1.28991E+05 3.96834E+06 2.11802E+08-2.45639E+06
 -1      2255 1.10529E+08 2.46352E+07 1.28991E+05 3.96834E+06 2.11802E+08-2.45639E+06
 -1      2256 1.16140E+08 2.57456E+07 1.05056E+05 1.25509E+06 2.21692E+08-2.30768E+06
 -1      2258 1.16140E+08 2.57456E+07 1.05056E+05 1.25509E+06 2.21692E+08-2.30768E+06
 -1      2259 1.16978E+08 2.67243E+07 1.34035E+05-1.46225E+06 2.30762E+08-2.13490E+06
 -1      2261 1.16978E+08 2.67243E+07 1.34035E+05-1.46225E+06 2.30762E+08-2.13490E+06
 -1      2262 1.13102E+08 2.74531E+07 1.15960E+05-4.08295E+06 2.39332E+08-1.96891E+06
 -1      2264 1.13102E+08 2.74531E+07 1.15960E+05-4.08295E+06 2.39332E+08-1.96891E+06
 -1      2265 1.04862E+08 2.80210E+07 1.37505E+05-6.40857E+06 2.47098E+08-1.79077E+06
 -1      2267 1.04862E+08 2.80210E+07 1.37505E+05-6.40857E+06 2.47098E+08-1.79077E+06
 -1      2268 9.28546E+07 2.83869E+07 1.20739E+05-8.32176E+06 2.54280E+08-1.61464E+06
 -1      2270 9.28546E+07 2.83869E+07 1.20739E+05-8.32176E+06 2.54280E+08-1.61464E+06
 -1      2271 7.79347E+07 2.86123E+07 1.39772E+05-9.67069E+06 2.60647E+08-1.43258E+06
 -1      2273 7.79347E+07 2.86123E+07 1.39772E+05-9.67069E+06 2.60647E+08-1.43258E+06
 -1      2274 6.11429E+07 2.86891E+07 1.20090E+05-1.03678E+07 2.66388E+08-1.25432E+06
 -1      2276 6.11429E+07 2.86891E+07 1.20090E+05-1.03678E+07 2.66388E+08-1.25432E+06
 -1      2277 4.36937E+07 2.87169E+07 1.42021E+05-1.03049E+07 2.71285E+08-1.06309E+06
 -1      2279 4.36937E+07 2.87169E+07 1.42021E+05-1.03049E+07 2.71285E+08-1.06309E+06
 -1      2280 2.69476E+07 2.85414E+07 1.15265E+05-9.45150E+06 2.75543E+08-9.02800E+05
 -1      2282 2.69476E+07 2.85414E+07 1.15265E+05-9.45150E+06 2.75543E+08-9.02800E+05
 -1      2283 1.23002E+07 2.87395E+07 1.44341E+05-7.69317E+06 2.78926E+08-6.65427E+05
 -1      2285 1.23002E+07 2.87395E+07 1.44341E+05-7.69317E+06 2.78926E+08-6.65427E+05
 -1      2286 1.29849E+06 2.79888E+07 1.13196E+05-5.09718E+06 2.81646E+08-6.05189E+05
 -1      2288 1.29849E+06 2.79888E+07 1.13196E+05-5.09718E+06 2.81646E+08-6.05189E+05
 -1      2289-4.19749E+06 2.92975E+07 1.31406E+05-1.36801E+06 2.83523E+08-1.51234E+05
 -1      2291-4.19749E+06 2.92975E+07 1.31406E+05-1.36801E+06 2.83523E+08-1.51234E+05
 -1      2292-3.78828E+06 2.74601E+07 1.59077E+05 3.27150E+06 2.84489E+08-5.44524E+05
 -1      2294-3.78828E+06 2.74601E+07 1.59077E+05 3.27150E+06 2.84489E+08-5.44524E+05
 -3
    1PSTEP                        35           1           1          
    1PGM                1.000000E+00                                  
    1PGK                6.230342E+06                                  
    1PHID                         -1                                  
    1PSUBC                         0                                  
    1PMODE                         9                                  
  100CL  109 397.2611427         930                     2    9MODAL      1
 -4  FORC        4    1
 -5  F1          1    2    1    0
 -5  F2          1    2    2    0
 -5  F3          1    2    3    0
 -5  ALL         1    2    0    0    1ALL
 -1       404-5.53092E+05-8.76906E+04-3.74130E+05
 -1       406 4.56113E+05 1.01657E+05-3.74130E+05
 -1       407-3.69525E+01-4.46177E+03 6.37375E+04
 -1       409-3.69525E+01-4.46177E+03 6.37375E+04
 -1       410-2.23884E-06-2.52258E+06 2.60922E-06
 -1       412-2.34852E-06 2.56243E+06 1.85100E-06
 -1       413-5.03666E-07-5.24801E+04-3.99114E+06
 -1       415-7.74888E-07-5.24801E+04 3.99114E+06
 -1       424 4.35390E-06 5.99786E+04-1.10245E-06
 -1       426-9.90847E-07-1.28932E+04-1.09609E-06
 -1       427 2.06864E+05-5.52773E+05 1.53073E+05
 -1       429-2.06864E+05-5.52773E+05-1.53073E+05
 -1       438 3.69525E+01-4.46177E+03-6.37375E+04
 -1       440 3.69525E+01-4.46177E+03-6.37375E+04
 -1       441 5.53092E+05-8.76906E+04 3.74130E+05
 -1       443-4.56113E+05 1.01657E+05 3.74130E+05
 -1       444-2.06864E+05 5.52773E+05 1.53073E+05
 -1       446 2.06864E+05 5.52773E+05-1.53073E+05
 -1       447 6.60890E-06-5.99786E+04-2.57007E-07
 -1       449 4.48470E-06 1.28932E+04-2.54115E-07
 -1       458-1.01672E-07 5.24801E+04-3.99114E+06
 -1       460-2.94856E-08 5.24801E+04 3.99114E+06
 -1       461 1.91227E-06 2.52258E+06-9.79086E-07
 -1       463 1.89423E-06-2.56243E+06 1.23988E-07
 -1       472-5.53092E+05 8.76906E+04 3.74130E+05
 -1       474 4.56113E+05-1.01657E+05 3.74130E+05
 -1       475-3.69525E+01 4.46177E+03-6.37375E+04
 -1       477-3.69525E+01 4.46177E+03-6.37375E+04
 -1       478 3.69525E+01 4.46177E+03 6.37375E+04
 -1       480 3.69525E+01 4.46177E+03 6.37375E+04
 -1       481 5.53092E+05 8.76906E+04-3.74130E+05
 -1       483-4.56113E+05-1.01657E+05-3.74130E+05
 -1       484 9.24882E+01-1.14283E+02 5.94531E+03
 -1       486 9.24882E+01-1.14283E+02 5.94531E+03
 -1       487 1.73684E+02-3.26139E+02 1.26537E+04
 -1       489 1.73684E+02-3.26139E+02 1.26537E+04
 -1       490 2.41875E+02-6.46054E+02 1.94111E+04
 -1       492 2.41875E+02-6.46054E+02 1.94111E+04
 -1       493 3.01244E+02-1.05630E+03 2.60076E+04
 -1       495 3.01244E+02-1.05630E+03 2.60076E+04
 -1       496 3.53234E+02-1.54868E+03 3.25445E+04
 -1       498 3.53234E+02-1.54868E+03 3.25445E+04
 -1       499 3.97746E+02-2.11288E+03 3.89567E+04
 -1       501 3.97746E+02-2.11288E+03 3.89567E+04
 -1       502 4.34192E+02-2.73799E+03 4.52555E+04
 -1       504 4.34192E+02-2.73799E+03 4.52555E+04
 -1       505 4.61425E+02-3.41147E+03 5.14137E+04
 -1       507 4.61425E+02-3.41147E+03 5.14137E+04
 -1       508 4.78466E+02-4.11875E+03 5.74230E+04
 -1       510 4.78466E+02-4.11875E+03 5.74230E+04
 -1       511 4.84445E+02-4.84382E+03 6.32667E+04
 -1       513 4.84445E+02-4.84382E+03 6.32667E+04
 -1       514 4.78944E+02-5.56946E+03 6.89331E+04
 -1       516 4.78944E+02-5.56946E+03 6.89331E+04
 -1       517 4.61980E+02-6.27817E+03 7.44087E+04
 -1       519 4.61980E+02-6.27817E+03 7.44087E+04
 -1       520 4.34120E+02-6.95279E+03 7.96817E+04
 -1       522 4.34120E+02-6.95279E+03 7.96817E+04
 -1       523 3.96442E+02-7.57744E+03 8.47400E+04
 -1       525 3.96442E+02-7.57744E+03 8.47400E+04
 -1       526 3.50517E+02-8.13825E+03 8.95719E+04
 -1       528 3.50517E+02-8.13825E+03 8.95719E+04
 -1       529 2.98316E+02-8.62408E+03 9.41660E+04
 -1       531 2.98316E+02-8.62408E+03 9.41660E+04
 -1       532 2.42119E+02-9.02705E+03 9.85109E+04
 -1       534 2.42119E+02-9.02705E+03 9.85109E+04
 -1       535 1.84377E+02-9.34295E+03 1.02595E+05
 -1       537 1.84377E+02-9.34295E+03 1.02595E+05
 -1       538 1.27581E+02-9.57136E+03 1.06407E+05
 -1       540 1.27581E+02-9.57136E+03 1.06407E+05
 -1       541 7.41134E+01-9.71567E+03 1.09936E+05
 -1       543 7.41134E+01-9.71567E+03 1.09936E+05
 -1       544 2.61059E+01-9.78271E+03 1.13171E+05
 -1       546 2.61059E+01-9.78271E+03 1.13171E+05
 -1       547-1.46922E+01-9.78236E+03 1.16100E+05
 -1       549-1.46922E+01-9.78236E+03 1.16100E+05
 -1       550-4.70293E+01-9.72683E+03 1.18714E+05
 -1       552-4.70293E+01-9.72683E+03 1.18714E+05
 -1       553-7.02523E+01-9.62982E+03 1.21003E+05
 -1       555-7.02523E+01-9.62982E+03 1.21003E+05
 -1       556-8.43802E+01-9.50558E+03 1.22958E+05
 -1       558-8.43802E+01-9.50558E+03 1.22958E+05
 -1       559-9.01596E+01-9.36791E+03 1.24570E+05
 -1       561-9.01596E+01-9.36791E+03 1.24570E+05
 -1       562-8.91403E+01-9.22877E+03 1.25834E+05
 -1       564-8.91403E+01-9.22877E+03 1.25834E+05
 -1       565-8.36259E+01-9.09779E+03 1.26741E+05
 -1       567-8.36259E+01-9.09779E+03 1.26741E+05
 -1       568-7.69896E+01-8.97948E+03 1.27290E+05
 -1       570-7.69896E+01-8.97948E+03 1.27290E+05
 -1       571-4.91714E+01-8.92163E+03 8.30433E+04
 -1       573-4.91714E+01-8.92163E+03 8.30433E+04
 -1       574-5.70097E-06-2.60803E+04 9.28926E-07
 -1       576-5.69411E-06 1.30412E+05 4.67476E-07
 -1       577 4.48927E-06-5.43591E+04-1.22828E+05
 -1       579 4.46862E-06-5.43591E+04 1.22828E+05
 -1       588-3.66095E-06-5.29268E+05 6.28065E-06
 -1       590-3.65067E-06 4.32195E+05 4.75558E-06
 -1       591 5.48122E-06 4.37430E+04-7.54636E+05
 -1       593 5.46590E-06 4.37430E+04 7.54636E+05
 -1       602-2.24897E-06-7.15502E+05 1.79786E-06
 -1       604-2.24890E-06 7.75491E+05 1.11578E-06
 -1       605 5.19655E-06-3.77153E+04-1.17026E+06
 -1       607 5.18796E-06-3.77153E+04 1.17026E+06
 -1       616-4.34014E-06-1.02480E+06-3.45329E-06
 -1       618-4.32348E-06 9.97145E+05-2.95002E-06
 -1       619 3.53633E-06 2.90909E+03-1.58699E+06
 -1       621 3.55108E-06 2.90909E+03 1.58699E+06
 -1       630-5.77780E-06-1.26443E+06-6.25457E-06
 -1       632-5.78655E-06 1.31038E+06-4.79459E-06
 -1       633 3.48326E-06-3.73320E+04-2.02093E+06
 -1       635 3.53505E-06-3.73320E+04 2.02093E+06
 -1       644-4.46781E-06-1.53172E+06-2.63285E-06
 -1       646-4.52423E-06 1.54228E+06-4.09488E-07
 -1       647 4.36536E-06-2.32675E+04-2.41273E+06
 -1       649 4.37878E-06-2.32675E+04 2.41273E+06
 -1       658-5.93644E-07-1.77598E+06 3.31433E-06
 -1       660-5.32724E-07 1.82356E+06 4.59056E-06
 -1       661 4.16022E-06-4.55658E+04-2.82522E+06
 -1       663 4.30913E-06-4.55658E+04 2.82522E+06
 -1       672 2.39150E-06-2.02657E+06 4.07623E-06
 -1       674 2.53121E-06 2.06236E+06 3.63585E-06
 -1       675 3.07146E-06-4.35807E+04-3.20934E+06
 -1       677 3.17345E-06-4.35807E+04 3.20934E+06
 -1       686 1.21680E-06-2.26385E+06-1.16573E-07
 -1       688 1.11988E-06 2.32034E+06 2.35695E-07
 -1       689 2.28217E-06-5.79003E+04-3.59805E+06
 -1       691 2.18531E-06-5.79003E+04 3.59805E+06
 -1       700-1.71166E-06-2.50013E+06-1.05336E-06
 -1       702-1.74042E-06 2.55541E+06-1.83545E-06
 -1       703 2.44979E-06-6.12741E+04-3.96802E+06
 -1       705 2.26272E-06-6.12741E+04 3.96802E+06
 -1       714-2.39535E-06-2.72571E+06 2.19269E-06
 -1       716-2.29745E-06 2.79413E+06 1.73819E-06
 -1       717 2.32859E-06-7.17792E+04-4.33243E+06
 -1       719 2.46791E-06-7.17792E+04 4.33243E+06
 -1       728-7.00537E-07-2.94631E+06 6.28634E-06
 -1       730-6.03167E-07 3.01793E+06 3.72604E-06
 -1       731 3.65973E-07-7.72007E+04-4.68123E+06
 -1       733 3.24252E-07-7.72007E+04 4.68123E+06
 -1       742 3.18384E-07-3.15683E+06 4.68809E-06
 -1       744 4.15965E-07 3.23774E+06 5.86851E-06
 -1       745-2.43582E-06-8.55015E+04-5.01899E+06
 -1       747-2.43261E-06-8.55015E+04 5.01899E+06
 -1       756 2.84870E-06-3.35976E+06 2.74905E-06
 -1       758 3.02773E-06 3.44524E+06 5.62185E-06
 -1       759-4.80815E-06-9.12286E+04-5.34113E+06
 -1       761-4.61095E-06-9.12286E+04 5.34113E+06
 -1       770 5.11473E-06-3.55241E+06 5.86824E-06
 -1       772 5.31539E-06 3.64477E+06-3.47886E-07
 -1       773-5.62406E-06-9.78405E+04-5.64895E+06
 -1       775-5.51902E-06-9.78405E+04 5.64895E+06
 -1       784 3.86723E-06-3.73562E+06 4.68143E-06
 -1       786 4.15468E-06 3.83243E+06 2.68656E-06
 -1       787-6.64818E-06-1.02927E+05-5.94003E+06
 -1       789-6.34696E-06-1.02927E+05 5.94003E+06
 -1       798 3.76615E-06-3.90798E+06 3.50306E-06
 -1       800 3.73746E-06 4.00981E+06 6.99878E-07
 -1       801-5.76926E-06-1.07969E+05-6.21455E+06
 -1       803-5.44274E-06-1.07969E+05 6.21455E+06
 -1       812 5.15334E-06-4.06957E+06 1.03330E-06
 -1       814 5.10502E-06 4.17498E+06-2.60924E-06
 -1       815-1.47386E-06-1.11941E+05-6.47101E+06
 -1       817-1.18818E-06-1.11941E+05 6.47101E+06
 -1       826 4.71331E-06-4.21963E+06 5.42877E-07
 -1       828 4.86558E-06 4.32846E+06 8.57570E-07
 -1       829 1.34863E-06-1.15473E+05-6.70926E+06
 -1       831 1.46446E-06-1.15473E+05 6.70926E+06
 -1       840 2.80226E-06-4.35789E+06 2.07991E-06
 -1       842 3.00915E-06 4.46921E+06 3.29941E-06
 -1       843 1.80610E-06-1.18194E+05-6.92825E+06
 -1       845 1.79386E-06-1.18194E+05 6.92825E+06
 -1       854 2.18478E-06-4.48400E+06 2.78154E-06
 -1       856 2.52099E-06 4.59737E+06 1.27016E-06
 -1       857 2.33427E-07-1.20365E+05-7.12782E+06
 -1       859 5.32326E-07-1.20365E+05 7.12782E+06
 -1       868 1.50402E-06-4.59750E+06 1.74357E-07
 -1       870 1.35138E-06 4.71236E+06-3.53279E-06
 -1       871 1.51508E-07-1.21955E+05-7.30716E+06
 -1       873 3.69629E-07-1.21955E+05 7.30716E+06
 -1       882-2.46465E-07-4.69838E+06 8.58185E-07
 -1       884-2.43514E-07 4.81424E+06-2.32666E-06
 -1       885 1.02536E-06-1.23036E+05-7.46630E+06
 -1       887 6.30583E-07-1.23036E+05 7.46630E+06
 -1       896-3.28422E-06-4.78592E+06 9.07256E-06
 -1       898-3.08933E-06 4.90263E+06 5.38736E-07
 -1       899 5.80439E-07-1.23818E+05-7.60439E+06
 -1       901 4.52520E-07-1.23818E+05 7.60439E+06
 -1       910-4.15809E-06-4.86060E+06 8.11065E-06
 -1       912-4.00195E-06 4.97763E+06 5.69013E-06
 -1       913 5.72282E-07-1.24154E+05-7.72187E+06
 -1       915 1.14796E-06-1.24154E+05 7.72187E+06
 -1       924-2.58967E-06-4.92108E+06 6.79485E-06
 -1       926-2.60205E-06 5.03905E+06 7.29483E-06
 -1       927 1.06773E-06-1.24646E+05-7.81754E+06
 -1       929 7.56202E-07-1.24646E+05 7.81754E+06
 -1       938-1.57678E-06-4.96874E+06 3.35565E-06
 -1       940-1.63778E-06 5.08653E+06 4.55515E-06
 -1       941 8.09930E-07-1.24484E+05-7.89222E+06
 -1       943 7.45877E-07-1.24484E+05 7.89222E+06
 -1       952-1.66507E-06-5.00097E+06 4.62367E-06
 -1       954-1.83076E-06 5.12119E+06 4.22576E-06
 -1       955 1.49725E-06-1.25555E+05-7.94472E+06
 -1       957 8.67314E-07-1.25555E+05 7.94472E+06
 -1       966-3.21803E-06-5.01967E+06 6.95241E-06
 -1       968-3.33220E-06 5.13888E+06 3.29321E-06
 -1       969 1.36984E-07-1.24841E+05-7.97328E+06
 -1       971-3.18681E-07-1.24841E+05 7.97328E+06
 -1       980-5.22322E+05-9.82306E+04 2.47524E+04
 -1       982 4.30724E+05 5.46810E+04 2.47524E+04
 -1       983 4.91713E+01-8.92163E+03-8.30433E+04
 -1       985 4.91713E+01-8.92163E+03-8.30433E+04
 -1       986-9.24882E+01-1.14283E+02-5.94531E+03
 -1       988-9.24882E+01-1.14283E+02-5.94531E+03
 -1       989-1.73684E+02-3.26139E+02-1.26537E+04
 -1       991-1.73684E+02-3.26139E+02-1.26537E+04
 -1       992-2.41875E+02-6.46054E+02-1.94111E+04
 -1       994-2.41875E+02-6.46054E+02-1.94111E+04
 -1       995-3.01244E+02-1.05630E+03-2.60076E+04
 -1       997-3.01244E+02-1.05630E+03-2.60076E+04
 -1       998-3.53234E+02-1.54868E+03-3.25445E+04
 -1      1000-3.53234E+02-1.54868E+03-3.25445E+04
 -1      1001-3.97746E+02-2.11288E+03-3.89567E+04
 -1      1003-3.97746E+02-2.11288E+03-3.89567E+04
 -1      1004-4.34192E+02-2.73799E+03-4.52555E+04
 -1      1006-4.34192E+02-2.73799E+03-4.52555E+04
 -1      1007-4.61425E+02-3.41147E+03-5.14137E+04
 -1      1009-4.61425E+02-3.41147E+03-5.14137E+04
 -1      1010-4.78466E+02-4.11875E+03-5.74230E+04
 -1      1012-4.78466E+02-4.11875E+03-5.74230E+04
 -1      1013-4.84445E+02-4.84382E+03-6.32667E+04
 -1      1015-4.84445E+02-4.84382E+03-6.32667E+04
 -1      1016-4.78944E+02-5.56946E+03-6.89331E+04
 -1      1018-4.78944E+02-5.56946E+03-6.89331E+04
 -1      1019-4.61980E+02-6.27817E+03-7.44087E+04
 -1      1021-4.61980E+02-6.27817E+03-7.44087E+04
 -1      1022-4.34120E+02-6.95279E+03-7.96817E+04
 -1      1024-4.34120E+02-6.95279E+03-7.96817E+04
 -1      1025-3.96442E+02-7.57744E+03-8.47400E+04
 -1      1027-3.96442E+02-7.57744E+03-8.47400E+04
 -1      1028-3.50517E+02-8.13825E+03-8.95719E+04
 -1      1030-3.50517E+02-8.13825E+03-8.95719E+04
 -1      1031-2.98316E+02-8.62408E+03-9.41660E+04
 -1      1033-2.98316E+02-8.62408E+03-9.41660E+04
 -1      1034-2.42119E+02-9.02705E+03-9.85109E+04
 -1      1036-2.42119E+02-9.02705E+03-9.85109E+04
 -1      1037-1.84377E+02-9.34295E+03-1.02595E+05
 -1      1039-1.84377E+02-9.34295E+03-1.02595E+05
 -1      1040-1.27581E+02-9.57136E+03-1.06407E+05
 -1      1042-1.27581E+02-9.57136E+03-1.06407E+05
 -1      1043-7.41134E+01-9.71567E+03-1.09936E+05
 -1      1045-7.41134E+01-9.71567E+03-1.09936E+05
 -1      1046-2.61059E+01-9.78271E+03-1.13171E+05
 -1      1048-2.61059E+01-9.78271E+03-1.13171E+05
 -1      1049 1.46922E+01-9.78236E+03-1.16100E+05
 -1      1051 1.46922E+01-9.78236E+03-1.16100E+05
 -1      1052 4.70293E+01-9.72683E+03-1.18714E+05
 -1      1054 4.70293E+01-9.72683E+03-1.18714E+05
 -1      1055 7.02523E+01-9.62982E+03-1.21003E+05
 -1      1057 7.02523E+01-9.62982E+03-1.21003E+05
 -1      1058 8.43802E+01-9.50558E+03-1.22958E+05
 -1      1060 8.43802E+01-9.50558E+03-1.22958E+05
 -1      1061 9.01596E+01-9.36791E+03-1.24570E+05
 -1      1063 9.01596E+01-9.36791E+03-1.24570E+05
 -1      1064 8.91403E+01-9.22877E+03-1.25834E+05
 -1      1066 8.91403E+01-9.22877E+03-1.25834E+05
 -1      1067 8.36259E+01-9.09779E+03-1.26741E+05
 -1      1069 8.36259E+01-9.09779E+03-1.26741E+05
 -1      1070 7.69896E+01-8.97948E+03-1.27290E+05
 -1      1072 7.69896E+01-8.97948E+03-1.27290E+05
 -1      1073 5.22322E+05-9.82306E+04-2.47524E+04
 -1      1075-4.30724E+05 5.46810E+04-2.47524E+04
 -1      1076 8.67837E+05 1.21422E+06 5.17121E+04
 -1      1078-8.67837E+05 1.21422E+06-5.17121E+04
 -1      1079-2.88164E-05-1.35628E-05-2.02722E+05
 -1      1081 3.82895E-05-1.35646E-05 2.02722E+05
 -1      1082-8.67837E+05-1.21422E+06 5.17121E+04
 -1      1084 8.67837E+05-1.21422E+06-5.17121E+04
 -1      1085-2.85699E-06 5.43591E+04-1.22828E+05
 -1      1087-2.82993E-06 5.43591E+04 1.22828E+05
 -1      1088-1.13611E-06 2.60803E+04-4.25362E-07
 -1      1090-1.15711E-06-1.30412E+05-5.07299E-07
 -1      1099-4.24231E-06-4.37430E+04-7.54636E+05
 -1      1101-4.12371E-06-4.37430E+04 7.54636E+05
 -1      1102 1.70734E-06 5.29268E+05-1.01283E-07
 -1      1104 1.66969E-06-4.32195E+05-1.20612E-06
 -1      1113-4.19793E-06 3.77153E+04-1.17026E+06
 -1      1115-4.03991E-06 3.77153E+04 1.17026E+06
 -1      1116 4.56552E-06 7.15502E+05 4.27429E-07
 -1      1118 4.64105E-06-7.75491E+05-7.83078E-07
 -1      1127-3.92087E-06-2.90909E+03-1.58699E+06
 -1      1129-4.04220E-06-2.90909E+03 1.58699E+06
 -1      1130 4.09683E-06 1.02480E+06 2.18097E-07
 -1      1132 4.12704E-06-9.97145E+05 4.24923E-07
 -1      1141-3.48209E-06 3.73320E+04-2.02093E+06
 -1      1143-3.86312E-06 3.73320E+04 2.02093E+06
 -1      1144 2.46629E-06 1.26443E+06 3.80530E-06
 -1      1146 2.42356E-06-1.31038E+06 3.21891E-06
 -1      1155-2.86304E-06 2.32675E+04-2.41273E+06
 -1      1157-3.00341E-06 2.32675E+04 2.41273E+06
 -1      1158-2.73187E-07 1.53172E+06 6.47013E-06
 -1      1160-3.77437E-07-1.54228E+06 3.74794E-06
 -1      1169-9.77625E-07 4.55658E+04-2.82522E+06
 -1      1171-1.12390E-06 4.55658E+04 2.82522E+06
 -1      1172-2.47620E-06 1.77598E+06 2.96995E-06
 -1      1174-2.46780E-06-1.82356E+06 2.40314E-06
 -1      1183 2.78858E-07 4.35807E+04-3.20934E+06
 -1      1185 4.25019E-07 4.35807E+04 3.20934E+06
 -1      1186-9.90270E-07 2.02657E+06 8.58109E-08
 -1      1188-9.64369E-07-2.06236E+06 1.94488E-07
 -1      1197-5.86433E-07 5.79003E+04-3.59805E+06
 -1      1199-3.58286E-07 5.79003E+04 3.59805E+06
 -1      1200 4.46586E-07 2.26385E+06 8.95206E-07
 -1      1202 4.21864E-07-2.32034E+06 3.65571E-07
 -1      1211-2.09283E-06 6.12741E+04-3.96802E+06
 -1      1213-1.99125E-06 6.12741E+04 3.96802E+06
 -1      1214-1.23566E-06 2.50013E+06 2.59071E-06
 -1      1216-1.29833E-06-2.55541E+06 3.78402E-06
 -1      1225-4.24090E-07 7.17792E+04-4.33243E+06
 -1      1227-7.07542E-07 7.17792E+04 4.33243E+06
 -1      1228-1.76016E-06 2.72571E+06 2.95317E-06
 -1      1230-1.99817E-06-2.79413E+06 1.72725E-06
 -1      1239 2.16101E-06 7.72007E+04-4.68123E+06
 -1      1241 2.08553E-06 7.72007E+04 4.68123E+06
 -1      1242 4.55982E-07 2.94631E+06-3.80953E-06
 -1      1244 2.27224E-07-3.01793E+06-2.44267E-06
 -1      1253 3.19660E-06 8.55015E+04-5.01899E+06
 -1      1255 2.87720E-06 8.55015E+04 5.01899E+06
 -1      1256 7.73793E-07 3.15683E+06-4.98363E-06
 -1      1258 7.27560E-07-3.23774E+06-8.49103E-06
 -1      1267 2.17587E-06 9.12286E+04-5.34113E+06
 -1      1269 2.53766E-06 9.12286E+04 5.34113E+06
 -1      1270-1.22393E-06 3.35976E+06-3.67170E-06
 -1      1272-1.25738E-06-3.44524E+06-8.97950E-06
 -1      1281 2.32042E-06 9.78405E+04-5.64895E+06
 -1      1283 2.71569E-06 9.78405E+04 5.64895E+06
 -1      1284-4.76687E-06 3.55241E+06-4.88598E-06
 -1      1286-4.83295E-06-3.64477E+06-5.46479E-06
 -1      1295 2.78509E-06 1.02927E+05-5.94003E+06
 -1      1297 3.00195E-06 1.02927E+05 5.94003E+06
 -1      1298-6.84796E-06 3.73562E+06-4.70314E-06
 -1      1300-7.02763E-06-3.83243E+06-6.49799E-06
 -1      1309 8.57705E-07 1.07969E+05-6.21455E+06
 -1      1311 1.08414E-06 1.07969E+05 6.21455E+06
 -1      1312-6.38518E-06 3.90798E+06-4.66277E-06
 -1      1314-6.18553E-06-4.00981E+06-6.50958E-06
 -1      1323-7.68895E-07 1.11941E+05-6.47101E+06
 -1      1325-7.64578E-07 1.11941E+05 6.47101E+06
 -1      1326-3.46872E-06 4.06957E+06-6.50036E-06
 -1      1328-3.35524E-06-4.17498E+06-1.54572E-06
 -1      1337-1.04442E-06 1.15473E+05-6.70926E+06
 -1      1339-9.83019E-07 1.15473E+05 6.70926E+06
 -1      1340 6.10448E-07 4.21963E+06-3.46933E-06
 -1      1342 8.19522E-07-4.32846E+06-3.64641E-06
 -1      1351-8.21465E-08 1.18194E+05-6.92825E+06
 -1      1353 8.08566E-08 1.18194E+05 6.92825E+06
 -1      1354 2.33476E-06 4.35789E+06-2.42186E-06
 -1      1356 2.53910E-06-4.46921E+06-8.35877E-07
 -1      1365 4.87703E-07 1.20365E+05-7.12782E+06
 -1      1367 9.15811E-07 1.20365E+05 7.12782E+06
 -1      1368 2.65175E-06 4.48400E+06 3.84504E-06
 -1      1370 2.61964E-06-4.59737E+06 4.34310E-07
 -1      1379 1.72571E-06 1.21955E+05-7.30716E+06
 -1      1381 1.75585E-06 1.21955E+05 7.30716E+06
 -1      1382 3.59987E-06 4.59750E+06 3.20022E-07
 -1      1384 3.44170E-06-4.71236E+06 1.04536E-06
 -1      1393 9.75568E-07 1.23036E+05-7.46630E+06
 -1      1395 1.03293E-06 1.23036E+05 7.46630E+06
 -1      1396 3.87830E-06 4.69838E+06-6.54336E-06
 -1      1398 3.72451E-06-4.81424E+06-3.66787E-06
 -1      1407-2.36953E-06 1.23818E+05-7.60439E+06
 -1      1409-2.08657E-06 1.23818E+05 7.60439E+06
 -1      1410 3.24843E-06 4.78592E+06-1.18995E-05
 -1      1412 3.57564E-06-4.90263E+06-4.91533E-06
 -1      1421-3.48897E-06 1.24154E+05-7.72187E+06
 -1      1423-3.25310E-06 1.24154E+05 7.72187E+06
 -1      1424 2.34685E-06 4.86060E+06-4.71981E-06
 -1      1426 2.42551E-06-4.97763E+06-5.80106E-06
 -1      1435-2.47295E-06 1.24646E+05-7.81754E+06
 -1      1437-2.49860E-06 1.24646E+05 7.81754E+06
 -1      1438 1.92964E-06 4.92108E+06-9.85010E-07
 -1      1440 1.84409E-06-5.03905E+06-2.78263E-06
 -1      1449-1.28409E-06 1.24484E+05-7.89222E+06
 -1      1451-1.78864E-06 1.24484E+05 7.89222E+06
 -1      1452 1.97702E-06 4.96874E+06-2.84523E-06
 -1      1454 1.66853E-06-5.08653E+06-1.83468E-06
 -1      1463-1.48463E-06 1.25555E+05-7.94472E+06
 -1      1465-1.76564E-06 1.25555E+05 7.94472E+06
 -1      1466 3.64000E-06 5.00097E+06-3.37111E-06
 -1      1468 3.64373E-06-5.12119E+06-2.72577E-06
 -1      1477-6.31864E-07 1.24841E+05-7.97328E+06
 -1      1479-7.39231E-07 1.24841E+05 7.97328E+06
 -1      1480 4.14649E-06 5.01967E+06-1.20407E-06
 -1      1482 4.10285E-06-5.13888E+06 1.17182E-06
 -1      1491-1.22627E-06-4.41206E+04 2.39707E-07
 -1      1493-1.57159E-06-4.41206E+04-7.75477E-07
 -1      1494-1.47444E-06 9.42739E-06 1.31870E-06
 -1      1496-1.54631E-06-1.72593E-05-4.59106E-07
 -1      1497 5.37067E-07 4.41206E+04 1.73672E-06
 -1      1499 4.61453E-08 4.41206E+04 1.04058E-06
 -1      1500 9.24882E+01 1.14283E+02-5.94531E+03
 -1      1502 9.24882E+01 1.14283E+02-5.94531E+03
 -1      1503 1.73684E+02 3.26139E+02-1.26537E+04
 -1      1505 1.73684E+02 3.26139E+02-1.26537E+04
 -1      1506 2.41875E+02 6.46054E+02-1.94111E+04
 -1      1508 2.41875E+02 6.46054E+02-1.94111E+04
 -1      1509 3.01244E+02 1.05630E+03-2.60076E+04
 -1      1511 3.01244E+02 1.05630E+03-2.60076E+04
 -1      1512 3.53234E+02 1.54868E+03-3.25445E+04
 -1      1514 3.53234E+02 1.54868E+03-3.25445E+04
 -1      1515 3.97746E+02 2.11288E+03-3.89567E+04
 -1      1517 3.97746E+02 2.11288E+03-3.89567E+04
 -1      1518 4.34192E+02 2.73799E+03-4.52555E+04
 -1      1520 4.34192E+02 2.73799E+03-4.52555E+04
 -1      1521 4.61425E+02 3.41147E+03-5.14137E+04
 -1      1523 4.61425E+02 3.41147E+03-5.14137E+04
 -1      1524 4.78466E+02 4.11875E+03-5.74230E+04
 -1      1526 4.78466E+02 4.11875E+03-5.74230E+04
 -1      1527 4.84445E+02 4.84382E+03-6.32667E+04
 -1      1529 4.84445E+02 4.84382E+03-6.32667E+04
 -1      1530 4.78944E+02 5.56946E+03-6.89331E+04
 -1      1532 4.78944E+02 5.56946E+03-6.89331E+04
 -1      1533 4.61980E+02 6.27817E+03-7.44087E+04
 -1      1535 4.61980E+02 6.27817E+03-7.44087E+04
 -1      1536 4.34120E+02 6.95279E+03-7.96817E+04
 -1      1538 4.34120E+02 6.95279E+03-7.96817E+04
 -1      1539 3.96442E+02 7.57744E+03-8.47400E+04
 -1      1541 3.96442E+02 7.57744E+03-8.47400E+04
 -1      1542 3.50517E+02 8.13825E+03-8.95719E+04
 -1      1544 3.50517E+02 8.13825E+03-8.95719E+04
 -1      1545 2.98316E+02 8.62408E+03-9.41660E+04
 -1      1547 2.98316E+02 8.62408E+03-9.41660E+04
 -1      1548 2.42119E+02 9.02705E+03-9.85109E+04
 -1      1550 2.42119E+02 9.02705E+03-9.85109E+04
 -1      1551 1.84377E+02 9.34295E+03-1.02595E+05
 -1      1553 1.84377E+02 9.34295E+03-1.02595E+05
 -1      1554 1.27581E+02 9.57136E+03-1.06407E+05
 -1      1556 1.27581E+02 9.57136E+03-1.06407E+05
 -1      1557 7.41134E+01 9.71567E+03-1.09936E+05
 -1      1559 7.41134E+01 9.71567E+03-1.09936E+05
 -1      1560 2.61059E+01 9.78271E+03-1.13171E+05
 -1      1562 2.61059E+01 9.78271E+03-1.13171E+05
 -1      1563-1.46922E+01 9.78236E+03-1.16100E+05
 -1      1565-1.46922E+01 9.78236E+03-1.16100E+05
 -1      1566-4.70293E+01 9.72683E+03-1.18714E+05
 -1      1568-4.70293E+01 9.72683E+03-1.18714E+05
 -1      1569-7.02523E+01 9.62982E+03-1.21003E+05
 -1      1571-7.02523E+01 9.62982E+03-1.21003E+05
 -1      1572-8.43802E+01 9.50558E+03-1.22958E+05
 -1      1574-8.43802E+01 9.50558E+03-1.22958E+05
 -1      1575-9.01596E+01 9.36791E+03-1.24570E+05
 -1      1577-9.01596E+01 9.36791E+03-1.24570E+05
 -1      1578-8.91403E+01 9.22877E+03-1.25834E+05
 -1      1580-8.91403E+01 9.22877E+03-1.25834E+05
 -1      1581-8.36259E+01 9.09779E+03-1.26741E+05
 -1      1583-8.36259E+01 9.09779E+03-1.26741E+05
 -1      1584-7.69896E+01 8.97948E+03-1.27290E+05
 -1      1586-7.69896E+01 8.97948E+03-1.27290E+05
 -1      1587-4.91713E+01 8.92163E+03-8.30433E+04
 -1      1589-4.91713E+01 8.92163E+03-8.30433E+04
 -1      1590-5.22322E+05 9.82306E+04-2.47524E+04
 -1      1592 4.30724E+05-5.46810E+04-2.47524E+04
 -1      1593 4.91713E+01 8.92163E+03 8.30433E+04
 -1      1595 4.91713E+01 8.92163E+03 8.30433E+04
 -1      1596-9.24882E+01 1.14283E+02 5.94531E+03
 -1      1598-9.24882E+01 1.14283E+02 5.94531E+03
 -1      1599-1.73684E+02 3.26139E+02 1.26537E+04
 -1      1601-1.73684E+02 3.26139E+02 1.26537E+04
 -1      1602-2.41875E+02 6.46054E+02 1.94111E+04
 -1      1604-2.41875E+02 6.46054E+02 1.94111E+04
 -1      1605-3.01244E+02 1.05630E+03 2.60076E+04
 -1      1607-3.01244E+02 1.05630E+03 2.60076E+04
 -1      1608-3.53234E+02 1.54868E+03 3.25445E+04
 -1      1610-3.53234E+02 1.54868E+03 3.25445E+04
 -1      1611-3.97746E+02 2.11288E+03 3.89567E+04
 -1      1613-3.97746E+02 2.11288E+03 3.89567E+04
 -1      1614-4.34192E+02 2.73799E+03 4.52555E+04
 -1      1616-4.34192E+02 2.73799E+03 4.52555E+04
 -1      1617-4.61425E+02 3.41147E+03 5.14137E+04
 -1      1619-4.61425E+02 3.41147E+03 5.14137E+04
 -1      1620-4.78466E+02 4.11875E+03 5.74230E+04
 -1      1622-4.78466E+02 4.11875E+03 5.74230E+04
 -1      1623-4.84445E+02 4.84382E+03 6.32667E+04
 -1      1625-4.84445E+02 4.84382E+03 6.32667E+04
 -1      1626-4.78944E+02 5.56946E+03 6.89331E+04
 -1      1628-4.78944E+02 5.56946E+03 6.89331E+04
 -1      1629-4.61980E+02 6.27817E+03 7.44087E+04
 -1      1631-4.61980E+02 6.27817E+03 7.44087E+04
 -1      1632-4.34120E+02 6.95279E+03 7.96817E+04
 -1      1634-4.34120E+02 6.95279E+03 7.96817E+04
 -1      1635-3.96442E+02 7.57744E+03 8.47400E+04
 -1      1637-3.96442E+02 7.57744E+03 8.47400E+04
 -1      1638-3.50517E+02 8.13825E+03 8.95719E+04
 -1      1640-3.50517E+02 8.13825E+03 8.95719E+04
 -1      1641-2.98316E+02 8.62408E+03 9.41660E+04
 -1      1643-2.98316E+02 8.62408E+03 9.41660E+04
 -1      1644-2.42119E+02 9.02705E+03 9.85109E+04
 -1      1646-2.42119E+02 9.02705E+03 9.85109E+04
 -1      1647-1.84377E+02 9.34295E+03 1.02595E+05
 -1      1649-1.84377E+02 9.34295E+03 1.02595E+05
 -1      1650-1.27581E+02 9.57136E+03 1.06407E+05
 -1      1652-1.27581E+02 9.57136E+03 1.06407E+05
 -1      1653-7.41134E+01 9.71567E+03 1.09936E+05
 -1      1655-7.41134E+01 9.71567E+03 1.09936E+05
 -1      1656-2.61059E+01 9.78271E+03 1.13171E+05
 -1      1658-2.61059E+01 9.78271E+03 1.13171E+05
 -1      1659 1.46922E+01 9.78236E+03 1.16100E+05
 -1      1661 1.46922E+01 9.78236E+03 1.16100E+05
 -1      1662 4.70293E+01 9.72683E+03 1.18714E+05
 -1      1664 4.70293E+01 9.72683E+03 1.18714E+05
 -1      1665 7.02523E+01 9.62982E+03 1.21003E+05
 -1      1667 7.02523E+01 9.62982E+03 1.21003E+05
 -1      1668 8.43802E+01 9.50558E+03 1.22958E+05
 -1      1670 8.43802E+01 9.50558E+03 1.22958E+05
 -1      1671 9.01596E+01 9.36791E+03 1.24570E+05
 -1      1673 9.01596E+01 9.36791E+03 1.24570E+05
 -1      1674 8.91403E+01 9.22877E+03 1.25834E+05
 -1      1676 8.91403E+01 9.22877E+03 1.25834E+05
 -1      1677 8.36259E+01 9.09779E+03 1.26741E+05
 -1      1679 8.36259E+01 9.09779E+03 1.26741E+05
 -1      1680 7.69896E+01 8.97948E+03 1.27290E+05
 -1      1682 7.69896E+01 8.97948E+03 1.27290E+05
 -1      1683 5.22322E+05 9.82306E+04 2.47524E+04
 -1      1685-4.30724E+05-5.46810E+04 2.47524E+04
 -1      1686 1.22964E+02-2.19601E+02 7.71924E+03
 -1      1688 1.22964E+02-2.19601E+02 7.71924E+03
 -1      1689 2.30899E+02-6.46448E+02 1.64823E+04
 -1      1691 2.30899E+02-6.46448E+02 1.64823E+04
 -1      1692 3.21976E+02-1.28616E+03 2.53019E+04
 -1      1694 3.21976E+02-1.28616E+03 2.53019E+04
 -1      1695 4.01347E+02-2.10707E+03 3.38980E+04
 -1      1697 4.01347E+02-2.10707E+03 3.38980E+04
 -1      1698 4.70587E+02-3.09248E+03 4.24160E+04
 -1      1700 4.70587E+02-3.09248E+03 4.24160E+04
 -1      1701 5.29932E+02-4.22100E+03 5.07680E+04
 -1      1703 5.29932E+02-4.22100E+03 5.07680E+04
 -1      1704 5.78470E+02-5.47196E+03 5.89720E+04
 -1      1706 5.78470E+02-5.47196E+03 5.89720E+04
 -1      1707 6.14721E+02-6.81934E+03 6.69918E+04
 -1      1709 6.14721E+02-6.81934E+03 6.69918E+04
 -1      1710 6.37409E+02-8.23471E+03 7.48174E+04
 -1      1712 6.37409E+02-8.23471E+03 7.48174E+04
 -1      1713 6.45350E+02-9.68549E+03 8.24269E+04
 -1      1715 6.45350E+02-9.68549E+03 8.24269E+04
 -1      1716 6.38024E+02-1.11376E+04 8.98053E+04
 -1      1718 6.38024E+02-1.11376E+04 8.98053E+04
 -1      1719 6.15428E+02-1.25557E+04 9.69353E+04
 -1      1721 6.15428E+02-1.25557E+04 9.69353E+04
 -1      1722 5.78340E+02-1.39057E+04 1.03802E+05
 -1      1724 5.78340E+02-1.39057E+04 1.03802E+05
 -1      1725 5.28180E+02-1.51555E+04 1.10389E+05
 -1      1727 5.28180E+02-1.51555E+04 1.10389E+05
 -1      1728 4.67048E+02-1.62776E+04 1.16681E+05
 -1      1730 4.67048E+02-1.62776E+04 1.16681E+05
 -1      1731 3.97562E+02-1.72495E+04 1.22665E+05
 -1      1733 3.97562E+02-1.72495E+04 1.22665E+05
 -1      1734 3.22757E+02-1.80556E+04 1.28325E+05
 -1      1736 3.22757E+02-1.80556E+04 1.28325E+05
 -1      1737 2.45894E+02-1.86872E+04 1.33645E+05
 -1      1739 2.45894E+02-1.86872E+04 1.33645E+05
 -1      1740 1.70287E+02-1.91438E+04 1.38612E+05
 -1      1742 1.70287E+02-1.91438E+04 1.38612E+05
 -1      1743 9.91045E+01-1.94319E+04 1.43211E+05
 -1      1745 9.91045E+01-1.94319E+04 1.43211E+05
 -1      1746 3.51830E+01-1.95653E+04 1.47428E+05
 -1      1748 3.51830E+01-1.95653E+04 1.47428E+05
 -1      1749-1.91510E+01-1.95639E+04 1.51247E+05
 -1      1751-1.91510E+01-1.95639E+04 1.51247E+05
 -1      1752-6.22363E+01-1.94520E+04 1.54655E+05
 -1      1754-6.22363E+01-1.94520E+04 1.54655E+05
 -1      1755-9.31987E+01-1.92572E+04 1.57641E+05
 -1      1757-9.31987E+01-1.92572E+04 1.57641E+05
 -1      1758-1.12082E+02-1.90079E+04 1.60191E+05
 -1      1760-1.12082E+02-1.90079E+04 1.60191E+05
 -1      1761-1.19859E+02-1.87318E+04 1.62294E+05
 -1      1763-1.19859E+02-1.87318E+04 1.62294E+05
 -1      1764-1.18622E+02-1.84531E+04 1.63943E+05
 -1      1766-1.18622E+02-1.84531E+04 1.63943E+05
 -1      1767-1.11492E+02-1.81907E+04 1.65128E+05
 -1      1769-1.11492E+02-1.81907E+04 1.65128E+05
 -1      1770-1.02613E+02-1.79544E+04 1.65845E+05
 -1      1772-1.02613E+02-1.79544E+04 1.65845E+05
 -1      1773-1.22964E+02-2.19601E+02-7.71924E+03
 -1      1775-1.22964E+02-2.19601E+02-7.71924E+03
 -1      1776-2.30899E+02-6.46448E+02-1.64823E+04
 -1      1778-2.30899E+02-6.46448E+02-1.64823E+04
 -1      1779-3.21976E+02-1.28616E+03-2.53019E+04
 -1      1781-3.21976E+02-1.28616E+03-2.53019E+04
 -1      1782-4.01347E+02-2.10707E+03-3.38980E+04
 -1      1784-4.01347E+02-2.10707E+03-3.38980E+04
 -1      1785-4.70587E+02-3.09248E+03-4.24160E+04
 -1      1787-4.70587E+02-3.09248E+03-4.24160E+04
 -1      1788-5.29932E+02-4.22100E+03-5.07680E+04
 -1      1790-5.29932E+02-4.22100E+03-5.07680E+04
 -1      1791-5.78470E+02-5.47196E+03-5.89720E+04
 -1      1793-5.78470E+02-5.47196E+03-5.89720E+04
 -1      1794-6.14721E+02-6.81934E+03-6.69918E+04
 -1      1796-6.14721E+02-6.81934E+03-6.69918E+04
 -1      1797-6.37409E+02-8.23471E+03-7.48174E+04
 -1      1799-6.37409E+02-8.23471E+03-7.48174E+04
 -1      1800-6.45350E+02-9.68549E+03-8.24269E+04
 -1      1802-6.45350E+02-9.68549E+03-8.24269E+04
 -1      1803-6.38024E+02-1.11376E+04-8.98053E+04
 -1      1805-6.38024E+02-1.11376E+04-8.98053E+04
 -1      1806-6.15428E+02-1.25557E+04-9.69353E+04
 -1      1808-6.15428E+02-1.25557E+04-9.69353E+04
 -1      1809-5.78340E+02-1.39057E+04-1.03802E+05
 -1      1811-5.78340E+02-1.39057E+04-1.03802E+05
 -1      1812-5.28180E+02-1.51555E+04-1.10389E+05
 -1      1814-5.28180E+02-1.51555E+04-1.10389E+05
 -1      1815-4.67048E+02-1.62776E+04-1.16681E+05
 -1      1817-4.67048E+02-1.62776E+04-1.16681E+05
 -1      1818-3.97562E+02-1.72495E+04-1.22665E+05
 -1      1820-3.97562E+02-1.72495E+04-1.22665E+05
 -1      1821-3.22757E+02-1.80556E+04-1.28325E+05
 -1      1823-3.22757E+02-1.80556E+04-1.28325E+05
 -1      1824-2.45894E+02-1.86872E+04-1.33645E+05
 -1      1826-2.45894E+02-1.86872E+04-1.33645E+05
 -1      1827-1.70287E+02-1.91438E+04-1.38612E+05
 -1      1829-1.70287E+02-1.91438E+04-1.38612E+05
 -1      1830-9.91045E+01-1.94319E+04-1.43211E+05
 -1      1832-9.91045E+01-1.94319E+04-1.43211E+05
 -1      1833-3.51830E+01-1.95653E+04-1.47428E+05
 -1      1835-3.51830E+01-1.95653E+04-1.47428E+05
 -1      1836 1.91510E+01-1.95639E+04-1.51247E+05
 -1      1838 1.91510E+01-1.95639E+04-1.51247E+05
 -1      1839 6.22363E+01-1.94520E+04-1.54655E+05
 -1      1841 6.22363E+01-1.94520E+04-1.54655E+05
 -1      1842 9.31987E+01-1.92572E+04-1.57641E+05
 -1      1844 9.31987E+01-1.92572E+04-1.57641E+05
 -1      1845 1.12082E+02-1.90079E+04-1.60191E+05
 -1      1847 1.12082E+02-1.90079E+04-1.60191E+05
 -1      1848 1.19859E+02-1.87318E+04-1.62294E+05
 -1      1850 1.19859E+02-1.87318E+04-1.62294E+05
 -1      1851 1.18622E+02-1.84531E+04-1.63943E+05
 -1      1853 1.18622E+02-1.84531E+04-1.63943E+05
 -1      1854 1.11492E+02-1.81907E+04-1.65128E+05
 -1      1856 1.11492E+02-1.81907E+04-1.65128E+05
 -1      1857 1.02613E+02-1.79544E+04-1.65845E+05
 -1      1859 1.02613E+02-1.79544E+04-1.65845E+05
 -1      1860 5.14876E-07-3.89305E+03-7.09286E-07
 -1      1862 4.58014E-07-3.89305E+03-8.12728E-07
 -1      1863 1.14488E-06-8.07947E+03 5.59266E-08
 -1      1865 1.10157E-06-8.07947E+03 1.89193E-07
 -1      1866 1.23220E-06-1.24299E+04 2.41478E-07
 -1      1868 1.01458E-06-1.24299E+04 5.77838E-07
 -1      1869-1.34112E-06-1.68886E+04 3.25268E-07
 -1      1871-1.40057E-06-1.68886E+04 8.92131E-07
 -1      1872-2.88317E-06-2.14386E+04-8.55871E-08
 -1      1874-2.73259E-06-2.14386E+04 6.84580E-07
 -1      1875-1.75314E-06-2.60440E+04-3.76327E-07
 -1      1877-1.73154E-06-2.60440E+04-4.00716E-07
 -1      1878-3.30752E-07-3.06836E+04-6.59689E-07
 -1      1880 1.15264E-07-3.06836E+04-7.71892E-07
 -1      1881 1.08254E-06-3.53230E+04-1.11271E-06
 -1      1883 1.57531E-06-3.53230E+04-9.86911E-08
 -1      1884-4.83899E-07-3.99331E+04 1.59374E-06
 -1      1886-4.66751E-07-3.99331E+04 2.71758E-06
 -1      1887-1.55708E-06-4.44774E+04 1.99277E-06
 -1      1889-1.40529E-06-4.44774E+04 2.89833E-06
 -1      1890-6.67346E-07-4.89218E+04-3.07598E-07
 -1      1892-8.77621E-07-4.89218E+04-7.91100E-07
 -1      1893-6.12512E-08-5.32293E+04-2.02789E-06
 -1      1895-7.35663E-07-5.32293E+04-1.94439E-06
 -1      1896-5.97545E-07-5.73659E+04-3.44773E-06
 -1      1898-8.93638E-07-5.73659E+04-1.07994E-06
 -1      1899 4.49221E-07-6.12983E+04-3.93317E-06
 -1      1901 5.45713E-07-6.12983E+04-2.20684E-06
 -1      1902 3.02426E-06-6.49977E+04-1.99634E-06
 -1      1904 2.05497E-06-6.49977E+04-2.08214E-06
 -1      1905 2.13493E-06-6.84391E+04 5.57025E-07
 -1      1907 2.49064E-06-6.84391E+04-1.14648E-06
 -1      1908 1.08630E-06-7.16034E+04 4.59902E-07
 -1      1910 1.29860E-06-7.16034E+04-2.08332E-06
 -1      1911 2.53872E-06-7.44768E+04-1.75285E-07
 -1      1913 2.66391E-06-7.44768E+04 1.37989E-07
 -1      1914 3.60040E-06-7.70522E+04 1.22985E-06
 -1      1916 4.05185E-06-7.70522E+04 2.09995E-06
 -1      1917 3.31571E-06-7.93285E+04 1.72902E-06
 -1      1919 3.33451E-06-7.93285E+04 1.44338E-06
 -1      1920 1.26502E-06-8.13102E+04 1.80129E-06
 -1      1922 1.50991E-06-8.13102E+04-9.06924E-07
 -1      1923-1.39409E-07-8.30068E+04-8.15213E-07
 -1      1925-1.78885E-07-8.30068E+04-1.58241E-07
 -1      1926-7.01378E-07-8.44322E+04-1.60841E-06
 -1      1928-1.35123E-06-8.44322E+04 4.57607E-07
 -1      1929-2.07330E-06-8.56027E+04-1.75795E-06
 -1      1931-1.98108E-06-8.56027E+04 1.69039E-06
 -1      1932-2.64271E-06-8.65362E+04-1.70237E-06
 -1      1934-1.56381E-06-8.65362E+04-7.25221E-07
 -1      1935-1.55693E-06-8.72503E+04-3.11260E-06
 -1      1937-1.31300E-06-8.72503E+04-2.16468E-06
 -1      1938-1.18002E-06-8.77613E+04-5.42886E-07
 -1      1940-1.59284E-06-8.77613E+04 3.04218E-07
 -1      1941-5.89669E-08-8.80809E+04-6.10277E-07
 -1      1943-9.63953E-07-8.80809E+04-1.17369E-06
 -1      1944 3.46485E-07-8.82175E+04-1.19082E-06
 -1      1946-1.37718E-06-8.82175E+04-4.54587E-06
 -1      1947 1.23884E-06-3.18948E-06 1.64629E-06
 -1      1949 1.16530E-06-4.52691E-07 1.49994E-06
 -1      1950 2.51583E-07-1.68023E-06 2.92724E-06
 -1      1952 2.57949E-07 2.96779E-06 3.06814E-06
 -1      1953 2.56770E-07 3.70228E-06 4.34804E-07
 -1      1955 1.66865E-07 3.46437E-06 3.91119E-07
 -1      1956-1.67130E-07 3.95272E-06-4.79740E-07
 -1      1958-3.17084E-07 4.34525E-06-8.70648E-07
 -1      1959-1.01478E-06-2.25034E-06 7.54349E-07
 -1      1961-1.28657E-06 6.00741E-06 3.70033E-07
 -1      1962-4.57749E-07 8.36323E-06 1.41482E-06
 -1      1964-7.07242E-07 3.15886E-06 1.06898E-06
 -1      1965-2.02395E-06 1.64952E-05 1.83281E-06
 -1      1967-1.39709E-06-9.16149E-06 3.15806E-06
 -1      1968-2.98825E-06 1.22258E-05 1.18685E-07
 -1      1970-2.53882E-06-7.63448E-06 2.01869E-06
 -1      1971-2.10628E-06 1.17391E-06-6.28428E-07
 -1      1973-1.99113E-06-1.67382E-07 1.48344E-06
 -1      1974-1.97775E-06-4.90724E-06 4.19786E-07
 -1      1976-1.84020E-06-2.07802E-06 5.80323E-07
 -1      1977-1.81913E-06 5.44123E-06 1.71203E-07
 -1      1979-2.24466E-06-4.81934E-06 9.22708E-07
 -1      1980-9.55044E-07 9.26557E-06-2.46811E-07
 -1      1982-1.27809E-06-8.62110E-06 8.22885E-07
 -1      1983-1.32876E-07 7.33675E-06-2.79548E-06
 -1      1985 6.06294E-07-2.18927E-05-3.90955E-07
 -1      1986 1.09435E-06 5.20852E-06-3.31511E-06
 -1      1988 1.12250E-06-1.16238E-05-1.95148E-06
 -1      1989 2.52189E-06 1.43766E-06-1.32903E-06
 -1      1991 2.42887E-06-1.35647E-05-1.03237E-06
 -1      1992 2.04774E-06-6.27119E-07 2.67828E-07
 -1      1994 3.52663E-06-1.66801E-06 5.08335E-07
 -1      1995 7.30305E-07 9.77637E-06 2.54363E-06
 -1      1997 1.80454E-06-7.41728E-07 8.56078E-07
 -1      1998-9.14392E-07 3.51669E-06 2.82366E-06
 -1      2000-6.73850E-07-1.30574E-05 2.12746E-06
 -1      2001 3.32696E-07 1.93429E-06 2.13442E-06
 -1      2003 7.04562E-07-9.54820E-06 2.44934E-06
 -1      2004 1.34725E-06-3.65438E-06 1.30403E-06
 -1      2006 1.24723E-06-2.38065E-06 7.94535E-08
 -1      2007-8.47581E-09-1.07119E-05-7.66649E-07
 -1      2009-1.95753E-08 1.33579E-05 1.06789E-07
 -1      2010-3.42118E-07-3.22180E-06-1.43060E-06
 -1      2012-8.00229E-07 1.26642E-05 1.28900E-06
 -1      2013-4.63160E-07 1.31493E-06 4.34580E-07
 -1      2015-8.85888E-07 1.99635E-07 1.81237E-06
 -1      2016-1.70327E-06 2.37583E-06 1.06841E-06
 -1      2018-1.43954E-06-1.03805E-06 2.80902E-06
 -1      2019-2.59867E-06-2.12154E-07 2.51871E-06
 -1      2021-1.46759E-06 4.25380E-06 3.25975E-06
 -1      2022-2.17602E-06 2.12074E-06 1.43802E-06
 -1      2024-1.50273E-06-8.24725E-08 2.16618E-06
 -1      2025-1.15761E-06-1.44707E-06 3.59280E-06
 -1      2027-2.03746E-06 2.67365E-06 2.75290E-06
 -1      2028 3.09261E-07-6.48664E-06 3.85394E-06
 -1      2030-1.30143E-06 6.00869E-06 1.03211E-06
 -1      2031-1.95201E-07 1.08384E-05 3.17423E-06
 -1      2033-1.27755E-06-8.06442E-06-1.48107E-06
 -1      2034-2.68556E-06 3.89305E+03 2.64264E-06
 -1      2036-2.71234E-06 3.89305E+03 2.64808E-06
 -1      2037-2.56062E-06 8.07947E+03 2.66463E-06
 -1      2039-2.40457E-06 8.07947E+03 2.83672E-06
 -1      2040 3.58902E-07 1.24299E+04-5.70653E-07
 -1      2042 6.12051E-07 1.24299E+04-9.33491E-07
 -1      2043 1.05231E-06 1.68886E+04-1.89462E-06
 -1      2045 9.23119E-07 1.68886E+04-2.70542E-06
 -1      2046 6.85331E-07 2.14386E+04-7.26519E-07
 -1      2048-1.56329E-07 2.14386E+04-3.50381E-07
 -1      2049 2.35983E-07 2.60440E+04-8.70932E-08
 -1      2051-1.49590E-07 2.60440E+04 5.97356E-08
 -1      2052-1.44275E-06 3.06836E+04 1.07117E-06
 -1      2054-1.39780E-06 3.06836E+04 2.37985E-06
 -1      2055-2.29654E-06 3.53230E+04 2.94422E-06
 -1      2057-2.35603E-06 3.53230E+04 4.51955E-06
 -1      2058-1.62937E-06 3.99331E+04 2.06009E-06
 -1      2060-1.25783E-06 3.99331E+04 2.11700E-06
 -1      2061-2.49052E-06 4.44774E+04 6.12767E-07
 -1      2063-2.79681E-06 4.44774E+04-9.66233E-07
 -1      2064-3.19312E-06 4.89218E+04 2.88899E-07
 -1      2066-3.22744E-06 4.89218E+04-2.03912E-06
 -1      2067-2.61397E-07 5.32293E+04-2.21335E-08
 -1      2069-1.34433E-07 5.32293E+04-1.10522E-07
 -1      2070 9.31521E-07 5.73659E+04-5.08000E-07
 -1      2072 1.07068E-06 5.73659E+04 3.70499E-07
 -1      2073-1.07601E-07 6.12983E+04-1.39719E-06
 -1      2075-5.61596E-08 6.12983E+04-1.42107E-06
 -1      2076-9.69632E-07 6.49977E+04-6.20108E-07
 -1      2078-1.84503E-06 6.49977E+04-8.12281E-07
 -1      2079-2.86518E-06 6.84391E+04 4.75709E-07
 -1      2081-1.71361E-06 6.84391E+04 2.28489E-06
 -1      2082-3.30746E-06 7.16034E+04 3.30651E-06
 -1      2084-2.09058E-06 7.16034E+04 3.95142E-06
 -1      2085-3.00983E-06 7.44768E+04 2.16597E-06
 -1      2087-2.54587E-06 7.44768E+04 1.63243E-06
 -1      2088-9.82369E-07 7.70522E+04 1.18930E-06
 -1      2090-6.58932E-07 7.70522E+04-3.47049E-07
 -1      2091 8.64839E-07 7.93285E+04-2.59521E-06
 -1      2093 1.33559E-06 7.93285E+04-2.22527E-06
 -1      2094 1.49334E-06 8.13102E+04-1.96560E-06
 -1      2096 1.19733E-06 8.13102E+04-1.59243E-06
 -1      2097 3.21247E-06 8.30068E+04-1.33734E-06
 -1      2099 2.58559E-06 8.30068E+04 1.64022E-07
 -1      2100 2.47557E-06 8.44322E+04 1.35352E-06
 -1      2102 2.62023E-06 8.44322E+04 2.98697E-06
 -1      2103-2.52648E-07 8.56027E+04 1.89724E-07
 -1      2105 5.48877E-07 8.56027E+04 2.64449E-06
 -1      2106-1.06022E-06 8.65362E+04 1.54330E-07
 -1      2108-6.56987E-07 8.65362E+04 1.93930E-06
 -1      2109-9.36873E-07 8.72503E+04 1.24079E-06
 -1      2111-7.76475E-07 8.72503E+04 2.05229E-06
 -1      2112 3.01211E-08 8.77613E+04 4.35370E-06
 -1      2114-7.42782E-07 8.77613E+04 3.45602E-06
 -1      2115 2.50358E-06 8.80809E+04 3.77552E-06
 -1      2117 1.44551E-06 8.80809E+04 2.81435E-06
 -1      2118 2.25807E-06 8.82175E+04 2.34760E-06
 -1      2120 1.85353E-06 8.82175E+04 1.05024E-06
 -1      2121 1.22964E+02 2.19601E+02-7.71924E+03
 -1      2123 1.22964E+02 2.19601E+02-7.71924E+03
 -1      2124 2.30899E+02 6.46448E+02-1.64823E+04
 -1      2126 2.30899E+02 6.46448E+02-1.64823E+04
 -1      2127 3.21976E+02 1.28616E+03-2.53019E+04
 -1      2129 3.21976E+02 1.28616E+03-2.53019E+04
 -1      2130 4.01347E+02 2.10707E+03-3.38980E+04
 -1      2132 4.01347E+02 2.10707E+03-3.38980E+04
 -1      2133 4.70587E+02 3.09248E+03-4.24160E+04
 -1      2135 4.70587E+02 3.09248E+03-4.24160E+04
 -1      2136 5.29932E+02 4.22100E+03-5.07680E+04
 -1      2138 5.29932E+02 4.22100E+03-5.07680E+04
 -1      2139 5.78470E+02 5.47196E+03-5.89720E+04
 -1      2141 5.78470E+02 5.47196E+03-5.89720E+04
 -1      2142 6.14721E+02 6.81934E+03-6.69918E+04
 -1      2144 6.14721E+02 6.81934E+03-6.69918E+04
 -1      2145 6.37409E+02 8.23471E+03-7.48174E+04
 -1      2147 6.37409E+02 8.23471E+03-7.48174E+04
 -1      2148 6.45350E+02 9.68549E+03-8.24269E+04
 -1      2150 6.45350E+02 9.68549E+03-8.24269E+04
 -1      2151 6.38024E+02 1.11376E+04-8.98053E+04
 -1      2153 6.38024E+02 1.11376E+04-8.98053E+04
 -1      2154 6.15428E+02 1.25557E+04-9.69353E+04
 -1      2156 6.15428E+02 1.25557E+04-9.69353E+04
 -1      2157 5.78340E+02 1.39057E+04-1.03802E+05
 -1      2159 5.78340E+02 1.39057E+04-1.03802E+05
 -1      2160 5.28180E+02 1.51555E+04-1.10389E+05
 -1      2162 5.28180E+02 1.51555E+04-1.10389E+05
 -1      2163 4.67048E+02 1.62776E+04-1.16681E+05
 -1      2165 4.67048E+02 1.62776E+04-1.16681E+05
 -1      2166 3.97562E+02 1.72495E+04-1.22665E+05
 -1      2168 3.97562E+02 1.72495E+04-1.22665E+05
 -1      2169 3.22757E+02 1.80556E+04-1.28325E+05
 -1      2171 3.22757E+02 1.80556E+04-1.28325E+05
 -1      2172 2.45894E+02 1.86872E+04-1.33645E+05
 -1      2174 2.45894E+02 1.86872E+04-1.33645E+05
 -1      2175 1.70287E+02 1.91438E+04-1.38612E+05
 -1      2177 1.70287E+02 1.91438E+04-1.38612E+05
 -1      2178 9.91045E+01 1.94319E+04-1.43211E+05
 -1      2180 9.91045E+01 1.94319E+04-1.43211E+05
 -1      2181 3.51830E+01 1.95653E+04-1.47428E+05
 -1      2183 3.51830E+01 1.95653E+04-1.47428E+05
 -1      2184-1.91510E+01 1.95639E+04-1.51247E+05
 -1      2186-1.91510E+01 1.95639E+04-1.51247E+05
 -1      2187-6.22363E+01 1.94520E+04-1.54655E+05
 -1      2189-6.22362E+01 1.94520E+04-1.54655E+05
 -1      2190-9.31987E+01 1.92572E+04-1.57641E+05
 -1      2192-9.31987E+01 1.92572E+04-1.57641E+05
 -1      2193-1.12082E+02 1.90079E+04-1.60191E+05
 -1      2195-1.12082E+02 1.90079E+04-1.60191E+05
 -1      2196-1.19859E+02 1.87318E+04-1.62294E+05
 -1      2198-1.19859E+02 1.87318E+04-1.62294E+05
 -1      2199-1.18622E+02 1.84531E+04-1.63943E+05
 -1      2201-1.18622E+02 1.84531E+04-1.63943E+05
 -1      2202-1.11492E+02 1.81907E+04-1.65128E+05
 -1      2204-1.11492E+02 1.81907E+04-1.65128E+05
 -1      2205-1.02613E+02 1.79544E+04-1.65845E+05
 -1      2207-1.02613E+02 1.79544E+04-1.65845E+05
 -1      2208-1.22964E+02 2.19601E+02 7.71924E+03
 -1      2210-1.22964E+02 2.19601E+02 7.71924E+03
 -1      2211-2.30899E+02 6.46448E+02 1.64823E+04
 -1      2213-2.30899E+02 6.46448E+02 1.64823E+04
 -1      2214-3.21976E+02 1.28616E+03 2.53019E+04
 -1      2216-3.21976E+02 1.28616E+03 2.53019E+04
 -1      2217-4.01347E+02 2.10707E+03 3.38980E+04
 -1      2219-4.01347E+02 2.10707E+03 3.38980E+04
 -1      2220-4.70587E+02 3.09248E+03 4.24160E+04
 -1      2222-4.70587E+02 3.09248E+03 4.24160E+04
 -1      2223-5.29932E+02 4.22100E+03 5.07680E+04
 -1      2225-5.29932E+02 4.22100E+03 5.07680E+04
 -1      2226-5.78470E+02 5.47196E+03 5.89720E+04
 -1      2228-5.78470E+02 5.47196E+03 5.89720E+04
 -1      2229-6.14721E+02 6.81934E+03 6.69918E+04
 -1      2231-6.14721E+02 6.81934E+03 6.69918E+04
 -1      2232-6.37409E+02 8.23471E+03 7.48174E+04
 -1      2234-6.37409E+02 8.23471E+03 7.48174E+04
 -1      2235-6.45350E+02 9.68549E+03 8.24269E+04
 -1      2237-6.45350E+02 9.68549E+03 8.24269E+04
 -1      2238-6.38024E+02 1.11376E+04 8.98053E+04
 -1      2240-6.38024E+02 1.11376E+04 8.98053E+04
 -1      2241-6.15428E+02 1.25557E+04 9.69353E+04
 -1      2243-6.15428E+02 1.25557E+04 9.69353E+04
 -1      2244-5.78340E+02 1.39057E+04 1.03802E+05
 -1      2246-5.78340E+02 1.39057E+04 1.03802E+05
 -1      2247-5.28180E+02 1.51555E+04 1.10389E+05
 -1      2249-5.28180E+02 1.51555E+04 1.10389E+05
 -1      2250-4.67048E+02 1.62776E+04 1.16681E+05
 -1      2252-4.67048E+02 1.62776E+04 1.16681E+05
 -1      2253-3.97562E+02 1.72495E+04 1.22665E+05
 -1      2255-3.97562E+02 1.72495E+04 1.22665E+05
 -1      2256-3.22757E+02 1.80556E+04 1.28325E+05
 -1      2258-3.22757E+02 1.80556E+04 1.28325E+05
 -1      2259-2.45894E+02 1.86872E+04 1.33645E+05
 -1      2261-2.45894E+02 1.86872E+04 1.33645E+05
 -1      2262-1.70287E+02 1.91438E+04 1.38612E+05
 -1      2264-1.70287E+02 1.91438E+04 1.38612E+05
 -1      2265-9.91045E+01 1.94319E+04 1.43211E+05
 -1      2267-9.91045E+01 1.94319E+04 1.43211E+05
 -1      2268-3.51830E+01 1.95653E+04 1.47428E+05
 -1      2270-3.51830E+01 1.95653E+04 1.47428E+05
 -1      2271 1.91510E+01 1.95639E+04 1.51247E+05
 -1      2273 1.91510E+01 1.95639E+04 1.51247E+05
 -1      2274 6.22363E+01 1.94520E+04 1.54655E+05
 -1      2276 6.22363E+01 1.94520E+04 1.54655E+05
 -1      2277 9.31987E+01 1.92572E+04 1.57641E+05
 -1      2279 9.31987E+01 1.92572E+04 1.57641E+05
 -1      2280 1.12082E+02 1.90079E+04 1.60191E+05
 -1      2282 1.12082E+02 1.90079E+04 1.60191E+05
 -1      2283 1.19859E+02 1.87318E+04 1.62294E+05
 -1      2285 1.19859E+02 1.87318E+04 1.62294E+05
 -1      2286 1.18622E+02 1.84531E+04 1.63943E+05
 -1      2288 1.18622E+02 1.84531E+04 1.63943E+05
 -1      2289 1.11492E+02 1.81907E+04 1.65128E+05
 -1      2291 1.11492E+02 1.81907E+04 1.65128E+05
 -1      2292 1.02613E+02 1.79544E+04 1.65845E+05
 -1      2294 1.02613E+02 1.79544E+04 1.65845E+05
 -3
    1PSTEP                        36           1           1          
    1PGM                1.000000E+00                                  
    1PGK                6.230342E+06                                  
    1PHID                         -1                                  
    1PSUBC                         0                                  
    1PMODE                         9                                  
  100CL  109 397.2611427         930                     2    9MODAL      1
 -4  ERROR       1    1
 -5  STR(%)      1    1    0    0
 -1       404 0.00000E+00
 -1       406 0.00000E+00
 -1       407 0.00000E+00
 -1       409 0.00000E+00
 -1       410 0.00000E+00
 -1       412 0.00000E+00
 -1       413 0.00000E+00
 -1       415 0.00000E+00
 -1       424 0.00000E+00
 -1       426 0.00000E+00
 -1       427 0.00000E+00
 -1       429 0.00000E+00
 -1       438 0.00000E+00
 -1       440 0.00000E+00
 -1       441 0.00000E+00
 -1       443 0.00000E+00
 -1       444 0.00000E+00
 -1       446 0.00000E+00
 -1       447 0.00000E+00
 -1       449 0.00000E+00
 -1       458 0.00000E+00
 -1       460 0.00000E+00
 -1       461 0.00000E+00
 -1       463 0.00000E+00
 -1       472 0.00000E+00
 -1       474 0.00000E+00
 -1       475 0.00000E+00
 -1       477 0.00000E+00
 -1       478 0.00000E+00
 -1       480 0.00000E+00
 -1       481 0.00000E+00
 -1       483 0.00000E+00
 -1       484 0.00000E+00
 -1       486 0.00000E+00
 -1       487 0.00000E+00
 -1       489 0.00000E+00
 -1       490 0.00000E+00
 -1       492 0.00000E+00
 -1       493 0.00000E+00
 -1       495 0.00000E+00
 -1       496 0.00000E+00
 -1       498 0.00000E+00
 -1       499 0.00000E+00
 -1       501 0.00000E+00
 -1       502 0.00000E+00
 -1       504 0.00000E+00
 -1       505 0.00000E+00
 -1       507 0.00000E+00
 -1       508 0.00000E+00
 -1       510 0.00000E+00
 -1       511 0.00000E+00
 -1       513 0.00000E+00
 -1       514 0.00000E+00
 -1       516 0.00000E+00
 -1       517 0.00000E+00
 -1       519 0.00000E+00
 -1       520 0.00000E+00
 -1       522 0.00000E+00
 -1       523 0.00000E+00
 -1       525 0.00000E+00
 -1       526 0.00000E+00
 -1       528 0.00000E+00
 -1       529 0.00000E+00
 -1       531 0.00000E+00
 -1       532 0.00000E+00
 -1       534 0.00000E+00
 -1       535 0.00000E+00
 -1       537 0.00000E+00
 -1       538 0.00000E+00
 -1       540 0.00000E+00
 -1       541 0.00000E+00
 -1       543 0.00000E+00
 -1       544 0.00000E+00
 -1       546 0.00000E+00
 -1       547 0.00000E+00
 -1       549 0.00000E+00
 -1       550 0.00000E+00
 -1       552 0.00000E+00
 -1       553 0.00000E+00
 -1       555 0.00000E+00
 -1       556 0.00000E+00
 -1       558 0.00000E+00
 -1       559 0.00000E+00
 -1       561 0.00000E+00
 -1       562 0.00000E+00
 -1       564 0.00000E+00
 -1       565 0.00000E+00
 -1       567 0.00000E+00
 -1       568 0.00000E+00
 -1       570 0.00000E+00
 -1       571 0.00000E+00
 -1       573 0.00000E+00
 -1       574 0.00000E+00
 -1       576 0.00000E+00
 -1       577 0.00000E+00
 -1       579 0.00000E+00
 -1       588 0.00000E+00
 -1       590 0.00000E+00
 -1       591 0.00000E+00
 -1       593 0.00000E+00
 -1       602 0.00000E+00
 -1       604 0.00000E+00
 -1       605 0.00000E+00
 -1       607 0.00000E+00
 -1       616 0.00000E+00
 -1       618 0.00000E+00
 -1       619 0.00000E+00
 -1       621 0.00000E+00
 -1       630 0.00000E+00
 -1       632 0.00000E+00
 -1       633 0.00000E+00
 -1       635 0.00000E+00
 -1       644 0.00000E+00
 -1       646 0.00000E+00
 -1       647 0.00000E+00
 -1       649 0.00000E+00
 -1       658 0.00000E+00
 -1       660 0.00000E+00
 -1       661 0.00000E+00
 -1       663 0.00000E+00
 -1       672 0.00000E+00
 -1       674 0.00000E+00
 -1       675 0.00000E+00
 -1       677 0.00000E+00
 -1       686 0.00000E+00
 -1       688 0.00000E+00
 -1       689 0.00000E+00
 -1       691 0.00000E+00
 -1       700 0.00000E+00
 -1       702 0.00000E+00
 -1       703 0.00000E+00
 -1       705 0.00000E+00
 -1       714 0.00000E+00
 -1       716 0.00000E+00
 -1       717 0.00000E+00
 -1       719 0.00000E+00
 -1       728 0.00000E+00
 -1       730 0.00000E+00
 -1       731 0.00000E+00
 -1       733 0.00000E+00
 -1       742 0.00000E+00
 -1       744 0.00000E+00
 -1       745 0.00000E+00
 -1       747 0.00000E+00
 -1       756 0.00000E+00
 -1       758 0.00000E+00
 -1       759 0.00000E+00
 -1       761 0.00000E+00
 -1       770 0.00000E+00
 -1       772 0.00000E+00
 -1       773 0.00000E+00
 -1       775 0.00000E+00
 -1       784 0.00000E+00
 -1       786 0.00000E+00
 -1       787 0.00000E+00
 -1       789 0.00000E+00
 -1       798 0.00000E+00
 -1       800 0.00000E+00
 -1       801 0.00000E+00
 -1       803 0.00000E+00
 -1       812 0.00000E+00
 -1       814 0.00000E+00
 -1       815 0.00000E+00
 -1       817 0.00000E+00
 -1       826 0.00000E+00
 -1       828 0.00000E+00
 -1       829 0.00000E+00
 -1       831 0.00000E+00
 -1       840 0.00000E+00
 -1       842 0.00000E+00
 -1       843 0.00000E+00
 -1       845 0.00000E+00
 -1       854 0.00000E+00
 -1       856 0.00000E+00
 -1       857 0.00000E+00
 -1       859 0.00000E+00
 -1       868 0.00000E+00
 -1       870 0.00000E+00
 -1       871 0.00000E+00
 -1       873 0.00000E+00
 -1       882 0.00000E+00
 -1       884 0.00000E+00
 -1       885 0.00000E+00
 -1       887 0.00000E+00
 -1       896 0.00000E+00
 -1       898 0.00000E+00
 -1       899 0.00000E+00
 -1       901 0.00000E+00
 -1       910 0.00000E+00
 -1       912 0.00000E+00
 -1       913 0.00000E+00
 -1       915 0.00000E+00
 -1       924 0.00000E+00
 -1       926 0.00000E+00
 -1       927 0.00000E+00
 -1       929 0.00000E+00
 -1       938 0.00000E+00
 -1       940 0.00000E+00
 -1       941 0.00000E+00
 -1       943 0.00000E+00
 -1       952 0.00000E+00
 -1       954 0.00000E+00
 -1       955 0.00000E+00
 -1       957 0.00000E+00
 -1       966 0.00000E+00
 -1       968 0.00000E+00
 -1       969 0.00000E+00
 -1       971 0.00000E+00
 -1       980 0.00000E+00
 -1       982 0.00000E+00
 -1       983 0.00000E+00
 -1       985 0.00000E+00
 -1       986 0.00000E+00
 -1       988 0.00000E+00
 -1       989 0.00000E+00
 -1       991 0.00000E+00
 -1       992 0.00000E+00
 -1       994 0.00000E+00
 -1       995 0.00000E+00
 -1       997 0.00000E+00
 -1       998 0.00000E+00
 -1      1000 0.00000E+00
 -1      1001 0.00000E+00
 -1      1003 0.00000E+00
 -1      1004 0.00000E+00
 -1      1006 0.00000E+00
 -1      1007 0.00000E+00
 -1      1009 0.00000E+00
 -1      1010 0.00000E+00
 -1      1012 0.00000E+00
 -1      1013 0.00000E+00
 -1      1015 0.00000E+00
 -1      1016 0.00000E+00
 -1      1018 0.00000E+00
 -1      1019 0.00000E+00
 -1      1021 0.00000E+00
 -1      1022 0.00000E+00
 -1      1024 0.00000E+00
 -1      1025 0.00000E+00
 -1      1027 0.00000E+00
 -1      1028 0.00000E+00
 -1      1030 0.00000E+00
 -1      1031 0.00000E+00
 -1      1033 0.00000E+00
 -1      1034 0.00000E+00
 -1      1036 0.00000E+00
 -1      1037 0.00000E+00
 -1      1039 0.00000E+00
 -1      1040 0.00000E+00
 -1      1042 0.00000E+00
 -1      1043 0.00000E+00
 -1      1045 0.00000E+00
 -1      1046 0.00000E+00
 -1      1048 0.00000E+00
 -1      1049 0.00000E+00
 -1      1051 0.00000E+00
 -1      1052 0.00000E+00
 -1      1054 0.00000E+00
 -1      1055 0.00000E+00
 -1      1057 0.00000E+00
 -1      1058 0.00000E+00
 -1      1060 0.00000E+00
 -1      1061 0.00000E+00
 -1      1063 0.00000E+00
 -1      1064 0.00000E+00
 -1      1066 0.00000E+00
 -1      1067 0.00000E+00
 -1      1069 0.00000E+00
 -1      1070 0.00000E+00
 -1      1072 0.00000E+00
 -1      1073 0.00000E+00
 -1      1075 0.00000E+00
 -1      1076 0.00000E+00
 -1      1078 0.00000E+00
 -1      1079 0.00000E+00
 -1      1081 0.00000E+00
 -1      1082 0.00000E+00
 -1      1084 0.00000E+00
 -1      1085 0.00000E+00
 -1      1087 0.00000E+00
 -1      1088 0.00000E+00
 -1      1090 0.00000E+00
 -1      1099 0.00000E+00
 -1      1101 0.00000E+00
 -1      1102 0.00000E+00
 -1      1104 0.00000E+00
 -1      1113 0.00000E+00
 -1      1115 0.00000E+00
 -1      1116 0.00000E+00
 -1      1118 0.00000E+00
 -1      1127 0.00000E+00
 -1      1129 0.00000E+00
 -1      1130 0.00000E+00
 -1      1132 0.00000E+00
 -1      1141 0.00000E+00
 -1      1143 0.00000E+00
 -1      1144 0.00000E+00
 -1      1146 0.00000E+00
 -1      1155 0.00000E+00
 -1      1157 0.00000E+00
 -1      1158 0.00000E+00
 -1      1160 0.00000E+00
 -1      1169 0.00000E+00
 -1      1171 0.00000E+00
 -1      1172 0.00000E+00
 -1      1174 0.00000E+00
 -1      1183 0.00000E+00
 -1      1185 0.00000E+00
 -1      1186 0.00000E+00
 -1      1188 0.00000E+00
 -1      1197 0.00000E+00
 -1      1199 0.00000E+00
 -1      1200 0.00000E+00
 -1      1202 0.00000E+00
 -1      1211 0.00000E+00
 -1      1213 0.00000E+00
 -1      1214 0.00000E+00
 -1      1216 0.00000E+00
 -1      1225 0.00000E+00
 -1      1227 0.00000E+00
 -1      1228 0.00000E+00
 -1      1230 0.00000E+00
 -1      1239 0.00000E+00
 -1      1241 0.00000E+00
 -1      1242 0.00000E+00
 -1      1244 0.00000E+00
 -1      1253 0.00000E+00
 -1      1255 0.00000E+00
 -1      1256 0.00000E+00
 -1      1258 0.00000E+00
 -1      1267 0.00000E+00
 -1      1269 0.00000E+00
 -1      1270 0.00000E+00
 -1      1272 0.00000E+00
 -1      1281 0.00000E+00
 -1      1283 0.00000E+00
 -1      1284 0.00000E+00
 -1      1286 0.00000E+00
 -1      1295 0.00000E+00
 -1      1297 0.00000E+00
 -1      1298 0.00000E+00
 -1      1300 0.00000E+00
 -1      1309 0.00000E+00
 -1      1311 0.00000E+00
 -1      1312 0.00000E+00
 -1      1314 0.00000E+00
 -1      1323 0.00000E+00
 -1      1325 0.00000E+00
 -1      1326 0.00000E+00
 -1      1328 0.00000E+00
 -1      1337 0.00000E+00
 -1      1339 0.00000E+00
 -1      1340 0.00000E+00
 -1      1342 0.00000E+00
 -1      1351 0.00000E+00
 -1      1353 0.00000E+00
 -1      1354 0.00000E+00
 -1      1356 0.00000E+00
 -1      1365 0.00000E+00
 -1      1367 0.00000E+00
 -1      1368 0.00000E+00
 -1      1370 0.00000E+00
 -1      1379 0.00000E+00
 -1      1381 0.00000E+00
 -1      1382 0.00000E+00
 -1      1384 0.00000E+00
 -1      1393 0.00000E+00
 -1      1395 0.00000E+00
 -1      1396 0.00000E+00
 -1      1398 0.00000E+00
 -1      1407 0.00000E+00
 -1      1409 0.00000E+00
 -1      1410 0.00000E+00
 -1      1412 0.00000E+00
 -1      1421 0.00000E+00
 -1      1423 0.00000E+00
 -1      1424 0.00000E+00
 -1      1426 0.00000E+00
 -1      1435 0.00000E+00
 -1      1437 0.00000E+00
 -1      1438 0.00000E+00
 -1      1440 0.00000E+00
 -1      1449 0.00000E+00
 -1      1451 0.00000E+00
 -1      1452 0.00000E+00
 -1      1454 0.00000E+00
 -1      1463 0.00000E+00
 -1      1465 0.00000E+00
 -1      1466 0.00000E+00
 -1      1468 0.00000E+00
 -1      1477 0.00000E+00
 -1      1479 0.00000E+00
 -1      1480 0.00000E+00
 -1      1482 0.00000E+00
 -1      1491 0.00000E+00
 -1      1493 0.00000E+00
 -1      1494 0.00000E+00
 -1      1496 0.00000E+00
 -1      1497 0.00000E+00
 -1      1499 0.00000E+00
 -1      1500 0.00000E+00
 -1      1502 0.00000E+00
 -1      1503 0.00000E+00
 -1      1505 0.00000E+00
 -1      1506 0.00000E+00
 -1      1508 0.00000E+00
 -1      1509 0.00000E+00
 -1      1511 0.00000E+00
 -1      1512 0.00000E+00
 -1      1514 0.00000E+00
 -1      1515 0.00000E+00
 -1      1517 0.00000E+00
 -1      1518 0.00000E+00
 -1      1520 0.00000E+00
 -1      1521 0.00000E+00
 -1      1523 0.00000E+00
 -1      1524 0.00000E+00
 -1      1526 0.00000E+00
 -1      1527 0.00000E+00
 -1      1529 0.00000E+00
 -1      1530 0.00000E+00
 -1      1532 0.00000E+00
 -1      1533 0.00000E+00
 -1      1535 0.00000E+00
 -1      1536 0.00000E+00
 -1      1538 0.00000E+00
 -1      1539 0.00000E+00
 -1      1541 0.00000E+00
 -1      1542 0.00000E+00
 -1      1544 0.00000E+00
 -1      1545 0.00000E+00
 -1      1547 0.00000E+00
 -1      1548 0.00000E+00
 -1      1550 0.00000E+00
 -1      1551 0.00000E+00
 -1      1553 0.00000E+00
 -1      1554 0.00000E+00
 -1      1556 0.00000E+00
 -1      1557 0.00000E+00
 -1      1559 0.00000E+00
 -1      1560 0.00000E+00
 -1      1562 0.00000E+00
 -1      1563 0.00000E+00
 -1      1565 0.00000E+00
 -1      1566 0.00000E+00
 -1      1568 0.00000E+00
 -1      1569 0.00000E+00
 -1      1571 0.00000E+00
 -1      1572 0.00000E+00
 -1      1574 0.00000E+00
 -1      1575 0.00000E+00
 -1      1577 0.00000E+00
 -1      1578 0.00000E+00
 -1      1580 0.00000E+00
 -1      1581 0.00000E+00
 -1      1583 0.00000E+00
 -1      1584 0.00000E+00
 -1      1586 0.00000E+00
 -1      1587 0.00000E+00
 -1      1589 0.00000E+00
 -1      1590 0.00000E+00
 -1      1592 0.00000E+00
 -1      1593 0.00000E+00
 -1      1595 0.00000E+00
 -1      1596 0.00000E+00
 -1      1598 0.00000E+00
 -1      1599 0.00000E+00
 -1      1601 0.00000E+00
 -1      1602 0.00000E+00
 -1      1604 0.00000E+00
 -1      1605 0.00000E+00
 -1      1607 0.00000E+00
 -1      1608 0.00000E+00
 -1      1610 0.00000E+00
 -1      1611 0.00000E+00
 -1      1613 0.00000E+00
 -1      1614 0.00000E+00
 -1      1616 0.00000E+00
 -1      1617 0.00000E+00
 -1      1619 0.00000E+00
 -1      1620 0.00000E+00
 -1      1622 0.00000E+00
 -1      1623 0.00000E+00
 -1      1625 0.00000E+00
 -1      1626 0.00000E+00
 -1      1628 0.00000E+00
 -1      1629 0.00000E+00
 -1      1631 0.00000E+00
 -1      1632 0.00000E+00
 -1      1634 0.00000E+00
 -1      1635 0.00000E+00
 -1      1637 0.00000E+00
 -1      1638 0.00000E+00
 -1      1640 0.00000E+00
 -1      1641 0.00000E+00
 -1      1643 0.00000E+00
 -1      1644 0.00000E+00
 -1      1646 0.00000E+00
 -1      1647 0.00000E+00
 -1      1649 0.00000E+00
 -1      1650 0.00000E+00
 -1      1652 0.00000E+00
 -1      1653 0.00000E+00
 -1      1655 0.00000E+00
 -1      1656 0.00000E+00
 -1      1658 0.00000E+00
 -1      1659 0.00000E+00
 -1      1661 0.00000E+00
 -1      1662 0.00000E+00
 -1      1664 0.00000E+00
 -1      1665 0.00000E+00
 -1      1667 0.00000E+00
 -1      1668 0.00000E+00
 -1      1670 0.00000E+00
 -1      1671 0.00000E+00
 -1      1673 0.00000E+00
 -1      1674 0.00000E+00
 -1      1676 0.00000E+00
 -1      1677 0.00000E+00
 -1      1679 0.00000E+00
 -1      1680 0.00000E+00
 -1      1682 0.00000E+00
 -1      1683 0.00000E+00
 -1      1685 0.00000E+00
 -1      1686 0.00000E+00
 -1      1688 0.00000E+00
 -1      1689 0.00000E+00
 -1      1691 0.00000E+00
 -1      1692 0.00000E+00
 -1      1694 0.00000E+00
 -1      1695 0.00000E+00
 -1      1697 0.00000E+00
 -1      1698 0.00000E+00
 -1      1700 0.00000E+00
 -1      1701 0.00000E+00
 -1      1703 0.00000E+00
 -1      1704 0.00000E+00
 -1      1706 0.00000E+00
 -1      1707 0.00000E+00
 -1      1709 0.00000E+00
 -1      1710 0.00000E+00
 -1      1712 0.00000E+00
 -1      1713 0.00000E+00
 -1      1715 0.00000E+00
 -1      1716 0.00000E+00
 -1      1718 0.00000E+00
 -1      1719 0.00000E+00
 -1      1721 0.00000E+00
 -1      1722 0.00000E+00
 -1      1724 0.00000E+00
 -1      1725 0.00000E+00
 -1      1727 0.00000E+00
 -1      1728 0.00000E+00
 -1      1730 0.00000E+00
 -1      1731 0.00000E+00
 -1      1733 0.00000E+00
 -1      1734 0.00000E+00
 -1      1736 0.00000E+00
 -1      1737 0.00000E+00
 -1      1739 0.00000E+00
 -1      1740 0.00000E+00
 -1      1742 0.00000E+00
 -1      1743 0.00000E+00
 -1      1745 0.00000E+00
 -1      1746 0.00000E+00
 -1      1748 0.00000E+00
 -1      1749 0.00000E+00
 -1      1751 0.00000E+00
 -1      1752 0.00000E+00
 -1      1754 0.00000E+00
 -1      1755 0.00000E+00
 -1      1757 0.00000E+00
 -1      1758 0.00000E+00
 -1      1760 0.00000E+00
 -1      1761 0.00000E+00
 -1      1763 0.00000E+00
 -1      1764 0.00000E+00
 -1      1766 0.00000E+00
 -1      1767 0.00000E+00
 -1      1769 0.00000E+00
 -1      1770 0.00000E+00
 -1      1772 0.00000E+00
 -1      1773 0.00000E+00
 -1      1775 0.00000E+00
 -1      1776 0.00000E+00
 -1      1778 0.00000E+00
 -1      1779 0.00000E+00
 -1      1781 0.00000E+00
 -1      1782 0.00000E+00
 -1      1784 0.00000E+00
 -1      1785 0.00000E+00
 -1      1787 0.00000E+00
 -1      1788 0.00000E+00
 -1      1790 0.00000E+00
 -1      1791 0.00000E+00
 -1      1793 0.00000E+00
 -1      1794 0.00000E+00
 -1      1796 0.00000E+00
 -1      1797 0.00000E+00
 -1      1799 0.00000E+00
 -1      1800 0.00000E+00
 -1      1802 0.00000E+00
 -1      1803 0.00000E+00
 -1      1805 0.00000E+00
 -1      1806 0.00000E+00
 -1      1808 0.00000E+00
 -1      1809 0.00000E+00
 -1      1811 0.00000E+00
 -1      1812 0.00000E+00
 -1      1814 0.00000E+00
 -1      1815 0.00000E+00
 -1      1817 0.00000E+00
 -1      1818 0.00000E+00
 -1      1820 0.00000E+00
 -1      1821 0.00000E+00
 -1      1823 0.00000E+00
 -1      1824 0.00000E+00
 -1      1826 0.00000E+00
 -1      1827 0.00000E+00
 -1      1829 0.00000E+00
 -1      1830 0.00000E+00
 -1      1832 0.00000E+00
 -1      1833 0.00000E+00
 -1      1835 0.00000E+00
 -1      1836 0.00000E+00
 -1      1838 0.00000E+00
 -1      1839 0.00000E+00
 -1      1841 0.00000E+00
 -1      1842 0.00000E+00
 -1      1844 0.00000E+00
 -1      1845 0.00000E+00
 -1      1847 0.00000E+00
 -1      1848 0.00000E+00
 -1      1850 0.00000E+00
 -1      1851 0.00000E+00
 -1      1853 0.00000E+00
 -1      1854 0.00000E+00
 -1      1856 0.00000E+00
 -1      1857 0.00000E+00
 -1      1859 0.00000E+00
 -1      1860 0.00000E+00
 -1      1862 0.00000E+00
 -1      1863 0.00000E+00
 -1      1865 0.00000E+00
 -1      1866 0.00000E+00
 -1      1868 0.00000E+00
 -1      1869 0.00000E+00
 -1      1871 0.00000E+00
 -1      1872 0.00000E+00
 -1      1874 0.00000E+00
 -1      1875 0.00000E+00
 -1      1877 0.00000E+00
 -1      1878 0.00000E+00
 -1      1880 0.00000E+00
 -1      1881 0.00000E+00
 -1      1883 0.00000E+00
 -1      1884 0.00000E+00
 -1      1886 0.00000E+00
 -1      1887 0.00000E+00
 -1      1889 0.00000E+00
 -1      1890 0.00000E+00
 -1      1892 0.00000E+00
 -1      1893 0.00000E+00
 -1      1895 0.00000E+00
 -1      1896 0.00000E+00
 -1      1898 0.00000E+00
 -1      1899 0.00000E+00
 -1      1901 0.00000E+00
 -1      1902 0.00000E+00
 -1      1904 0.00000E+00
 -1      1905 0.00000E+00
 -1      1907 0.00000E+00
 -1      1908 0.00000E+00
 -1      1910 0.00000E+00
 -1      1911 0.00000E+00
 -1      1913 0.00000E+00
 -1      1914 0.00000E+00
 -1      1916 0.00000E+00
 -1      1917 0.00000E+00
 -1      1919 0.00000E+00
 -1      1920 0.00000E+00
 -1      1922 0.00000E+00
 -1      1923 0.00000E+00
 -1      1925 0.00000E+00
 -1      1926 0.00000E+00
 -1      1928 0.00000E+00
 -1      1929 0.00000E+00
 -1      1931 0.00000E+00
 -1      1932 0.00000E+00
 -1      1934 0.00000E+00
 -1      1935 0.00000E+00
 -1      1937 0.00000E+00
 -1      1938 0.00000E+00
 -1      1940 0.00000E+00
 -1      1941 0.00000E+00
 -1      1943 0.00000E+00
 -1      1944 0.00000E+00
 -1      1946 0.00000E+00
 -1      1947 0.00000E+00
 -1      1949 0.00000E+00
 -1      1950 0.00000E+00
 -1      1952 0.00000E+00
 -1      1953 0.00000E+00
 -1      1955 0.00000E+00
 -1      1956 0.00000E+00
 -1      1958 0.00000E+00
 -1      1959 0.00000E+00
 -1      1961 0.00000E+00
 -1      1962 0.00000E+00
 -1      1964 0.00000E+00
 -1      1965 0.00000E+00
 -1      1967 0.00000E+00
 -1      1968 0.00000E+00
 -1      1970 0.00000E+00
 -1      1971 0.00000E+00
 -1      1973 0.00000E+00
 -1      1974 0.00000E+00
 -1      1976 0.00000E+00
 -1      1977 0.00000E+00
 -1      1979 0.00000E+00
 -1      1980 0.00000E+00
 -1      1982 0.00000E+00
 -1      1983 0.00000E+00
 -1      1985 0.00000E+00
 -1      1986 0.00000E+00
 -1      1988 0.00000E+00
 -1      1989 0.00000E+00
 -1      1991 0.00000E+00
 -1      1992 0.00000E+00
 -1      1994 0.00000E+00
 -1      1995 0.00000E+00
 -1      1997 0.00000E+00
 -1      1998 0.00000E+00
 -1      2000 0.00000E+00
 -1      2001 0.00000E+00
 -1      2003 0.00000E+00
 -1      2004 0.00000E+00
 -1      2006 0.00000E+00
 -1      2007 0.00000E+00
 -1      2009 0.00000E+00
 -1      2010 0.00000E+00
 -1      2012 0.00000E+00
 -1      2013 0.00000E+00
 -1      2015 0.00000E+00
 -1      2016 0.00000E+00
 -1      2018 0.00000E+00
 -1      2019 0.00000E+00
 -1      2021 0.00000E+00
 -1      2022 0.00000E+00
 -1      2024 0.00000E+00
 -1      2025 0.00000E+00
 -1      2027 0.00000E+00
 -1      2028 0.00000E+00
 -1      2030 0.00000E+00
 -1      2031 0.00000E+00
 -1      2033 0.00000E+00
 -1      2034 0.00000E+00
 -1      2036 0.00000E+00
 -1      2037 0.00000E+00
 -1      2039 0.00000E+00
 -1      2040 0.00000E+00
 -1      2042 0.00000E+00
 -1      2043 0.00000E+00
 -1      2045 0.00000E+00
 -1      2046 0.00000E+00
 -1      2048 0.00000E+00
 -1      2049 0.00000E+00
 -1      2051 0.00000E+00
 -1      2052 0.00000E+00
 -1      2054 0.00000E+00
 -1      2055 0.00000E+00
 -1      2057 0.00000E+00
 -1      2058 0.00000E+00
 -1      2060 0.00000E+00
 -1      2061 0.00000E+00
 -1      2063 0.00000E+00
 -1      2064 0.00000E+00
 -1      2066 0.00000E+00
 -1      2067 0.00000E+00
 -1      2069 0.00000E+00
 -1      2070 0.00000E+00
 -1      2072 0.00000E+00
 -1      2073 0.00000E+00
 -1      2075 0.00000E+00
 -1      2076 0.00000E+00
 -1      2078 0.00000E+00
 -1      2079 0.00000E+00
 -1      2081 0.00000E+00
 -1      2082 0.00000E+00
 -1      2084 0.00000E+00
 -1      2085 0.00000E+00
 -1      2087 0.00000E+00
 -1      2088 0.00000E+00
 -1      2090 0.00000E+00
 -1      2091 0.00000E+00
 -1      2093 0.00000E+00
 -1      2094 0.00000E+00
 -1      2096 0.00000E+00
 -1      2097 0.00000E+00
 -1      2099 0.00000E+00
 -1      2100 0.00000E+00
 -1      2102 0.00000E+00
 -1      2103 0.00000E+00
 -1      2105 0.00000E+00
 -1      2106 0.00000E+00
 -1      2108 0.00000E+00
 -1      2109 0.00000E+00
 -1      2111 0.00000E+00
 -1      2112 0.00000E+00
 -1      2114 0.00000E+00
 -1      2115 0.00000E+00
 -1      2117 0.00000E+00
 -1      2118 0.00000E+00
 -1      2120 0.00000E+00
 -1      2121 0.00000E+00
 -1      2123 0.00000E+00
 -1      2124 0.00000E+00
 -1      2126 0.00000E+00
 -1      2127 0.00000E+00
 -1      2129 0.00000E+00
 -1      2130 0.00000E+00
 -1      2132 0.00000E+00
 -1      2133 0.00000E+00
 -1      2135 0.00000E+00
 -1      2136 0.00000E+00
 -1      2138 0.00000E+00
 -1      2139 0.00000E+00
 -1      2141 0.00000E+00
 -1      2142 0.00000E+00
 -1      2144 0.00000E+00
 -1      2145 0.00000E+00
 -1      2147 0.00000E+00
 -1      2148 0.00000E+00
 -1      2150 0.00000E+00
 -1      2151 0.00000E+00
 -1      2153 0.00000E+00
 -1      2154 0.00000E+00
 -1      2156 0.00000E+00
 -1      2157 0.00000E+00
 -1      2159 0.00000E+00
 -1      2160 0.00000E+00
 -1      2162 0.00000E+00
 -1      2163 0.00000E+00
 -1      2165 0.00000E+00
 -1      2166 0.00000E+00
 -1      2168 0.00000E+00
 -1      2169 0.00000E+00
 -1      2171 0.00000E+00
 -1      2172 0.00000E+00
 -1      2174 0.00000E+00
 -1      2175 0.00000E+00
 -1      2177 0.00000E+00
 -1      2178 0.00000E+00
 -1      2180 0.00000E+00
 -1      2181 0.00000E+00
 -1      2183 0.00000E+00
 -1      2184 0.00000E+00
 -1      2186 0.00000E+00
 -1      2187 0.00000E+00
 -1      2189 0.00000E+00
 -1      2190 0.00000E+00
 -1      2192 0.00000E+00
 -1      2193 0.00000E+00
 -1      2195 0.00000E+00
 -1      2196 0.00000E+00
 -1      2198 0.00000E+00
 -1      2199 0.00000E+00
 -1      2201 0.00000E+00
 -1      2202 0.00000E+00
 -1      2204 0.00000E+00
 -1      2205 0.00000E+00
 -1      2207 0.00000E+00
 -1      2208 0.00000E+00
 -1      2210 0.00000E+00
 -1      2211 0.00000E+00
 -1      2213 0.00000E+00
 -1      2214 0.00000E+00
 -1      2216 0.00000E+00
 -1      2217 0.00000E+00
 -1      2219 0.00000E+00
 -1      2220 0.00000E+00
 -1      2222 0.00000E+00
 -1      2223 0.00000E+00
 -1      2225 0.00000E+00
 -1      2226 0.00000E+00
 -1      2228 0.00000E+00
 -1      2229 0.00000E+00
 -1      2231 0.00000E+00
 -1      2232 0.00000E+00
 -1      2234 0.00000E+00
 -1      2235 0.00000E+00
 -1      2237 0.00000E+00
 -1      2238 0.00000E+00
 -1      2240 0.00000E+00
 -1      2241 0.00000E+00
 -1      2243 0.00000E+00
 -1      2244 0.00000E+00
 -1      2246 0.00000E+00
 -1      2247 0.00000E+00
 -1      2249 0.00000E+00
 -1      2250 0.00000E+00
 -1      2252 0.00000E+00
 -1      2253 0.00000E+00
 -1      2255 0.00000E+00
 -1      2256 0.00000E+00
 -1      2258 0.00000E+00
 -1      2259 0.00000E+00
 -1      2261 0.00000E+00
 -1      2262 0.00000E+00
 -1      2264 0.00000E+00
 -1      2265 0.00000E+00
 -1      2267 0.00000E+00
 -1      2268 0.00000E+00
 -1      2270 0.00000E+00
 -1      2271 0.00000E+00
 -1      2273 0.00000E+00
 -1      2274 0.00000E+00
 -1      2276 0.00000E+00
 -1      2277 0.00000E+00
 -1      2279 0.00000E+00
 -1      2280 0.00000E+00
 -1      2282 0.00000E+00
 -1      2283 0.00000E+00
 -1      2285 0.00000E+00
 -1      2286 0.00000E+00
 -1      2288 0.00000E+00
 -1      2289 0.00000E+00
 -1      2291 0.00000E+00
 -1      2292 0.00000E+00
 -1      2294 0.00000E+00
 -3
    1PSTEP                        37           1           1          
    1PGM                1.000000E+00                                  
    1PGK                6.602226E+06                                  
    1PHID                         -1                                  
    1PSUBC                         0                                  
    1PMODE                        10                                  
  100CL  110 408.9453971         930                     2   10MODAL      1
 -4  DISP        4    1
 -5  D1          1    2    1    0
 -5  D2          1    2    2    0
 -5  D3          1    2    3    0
 -5  ALL         1    2    0    0    1ALL
 -1       404 0.00000E+00 0.00000E+00-4.01167E-04
 -1       406 0.00000E+00-0.00000E+00 4.01167E-04
 -1       407 4.25188E-02-1.31374E-01 1.46140E-02
 -1       409 4.25017E-02-1.33565E-01 1.46264E-02
 -1       410-5.10631E-13-1.31333E-01-4.37455E-13
 -1       412-4.98886E-13-1.33665E-01-4.41272E-13
 -1       413-2.03965E-03-1.32499E-01-7.42856E-04
 -1       415 2.03965E-03-1.32499E-01 7.42856E-04
 -1       424 0.00000E+00 0.00000E+00-4.31022E-16
 -1       426 0.00000E+00 0.00000E+00 4.31022E-16
 -1       427 0.00000E+00-2.74577E-16 0.00000E+00
 -1       429 0.00000E+00 2.74577E-16 0.00000E+00
 -1       438-4.25188E-02-1.31374E-01-1.46140E-02
 -1       440-4.25017E-02-1.33565E-01-1.46264E-02
 -1       441 0.00000E+00 0.00000E+00 4.01167E-04
 -1       443 0.00000E+00-0.00000E+00-4.01167E-04
 -1       444 0.00000E+00-1.96806E-16 0.00000E+00
 -1       446 0.00000E+00 1.96806E-16 0.00000E+00
 -1       447 0.00000E+00 0.00000E+00 3.08940E-16
 -1       449 0.00000E+00 0.00000E+00-3.08940E-16
 -1       458-2.03965E-03-1.32499E-01 7.42856E-04
 -1       460 2.03965E-03-1.32499E-01-7.42856E-04
 -1       461-2.19737E-13-1.31333E-01-4.21852E-13
 -1       463-2.27097E-13-1.33665E-01-4.18323E-13
 -1       472 0.00000E+00 0.00000E+00-4.01167E-04
 -1       474 0.00000E+00 0.00000E+00 4.01167E-04
 -1       475-4.25188E-02-1.31374E-01 1.46140E-02
 -1       477-4.25017E-02-1.33565E-01 1.46264E-02
 -1       478 4.25188E-02-1.31374E-01-1.46140E-02
 -1       480 4.25017E-02-1.33565E-01-1.46264E-02
 -1       481 0.00000E+00 0.00000E+00 4.01167E-04
 -1       483 0.00000E+00 0.00000E+00-4.01167E-04
 -1       484-1.24086E-02 1.19088E-02-3.25778E-03
 -1       486-1.16266E-02 1.22612E-02-2.97220E-03
 -1       487-1.81651E-02 3.13613E-02-7.33645E-03
 -1       489-1.78112E-02 3.21020E-02-7.19802E-03
 -1       490-1.93126E-02 5.54814E-02-1.02919E-02
 -1       492-1.88634E-02 5.65414E-02-1.03307E-02
 -1       493-1.57357E-02 7.72097E-02-1.27807E-02
 -1       495-1.54836E-02 7.85327E-02-1.30404E-02
 -1       496-8.81476E-03 9.26615E-02-1.42870E-02
 -1       498-8.65930E-03 9.41506E-02-1.45992E-02
 -1       499 2.56900E-04 9.82560E-02-1.47719E-02
 -1       501 2.47475E-04 9.98133E-02-1.51992E-02
 -1       502 9.96083E-03 9.25948E-02-1.42231E-02
 -1       504 9.81456E-03 9.41185E-02-1.45950E-02
 -1       505 1.88173E-02 7.57439E-02-1.26463E-02
 -1       507 1.85374E-02 7.71363E-02-1.29954E-02
 -1       508 2.55276E-02 4.95789E-02-1.02557E-02
 -1       510 2.51464E-02 5.07578E-02-1.04588E-02
 -1       511 2.90942E-02 1.72446E-02-7.21926E-03
 -1       513 2.86454E-02 1.81420E-02-7.30522E-03
 -1       514 2.89883E-02-1.71566E-02-3.86378E-03
 -1       516 2.85137E-02-1.65838E-02-3.77124E-03
 -1       517 2.51630E-02-4.92152E-02-4.41410E-04
 -1       519 2.47036E-02-4.89903E-02-2.19377E-04
 -1       520 1.80953E-02-7.47626E-02 2.73318E-03
 -1       522 1.76876E-02-7.48840E-02 3.08795E-03
 -1       523 8.68461E-03-9.04666E-02 5.45585E-03
 -1       525 8.35686E-03-9.09161E-02 5.87183E-03
 -1       526-1.83935E-03-9.42603E-02 7.54150E-03
 -1       528-2.07079E-03-9.50028E-02 7.98545E-03
 -1       529-1.21026E-02-8.56381E-02 8.93649E-03
 -1       531-1.22341E-02-8.66310E-02 9.33256E-03
 -1       532-2.07487E-02-6.57208E-02 9.64302E-03
 -1       534-2.07898E-02-6.69172E-02 9.95355E-03
 -1       535-2.66320E-02-3.71263E-02 9.77857E-03
 -1       537-2.66028E-02-3.84825E-02 9.94959E-03
 -1       538-2.89540E-02-3.62922E-03 9.50091E-03
 -1       540-2.88825E-02-5.10765E-03 9.51950E-03
 -1       541-2.73755E-02 3.03161E-02 9.02939E-03
 -1       543-2.72929E-02 2.87430E-02 8.88205E-03
 -1       544-2.20498E-02 6.01509E-02 8.57138E-03
 -1       546-2.19860E-02 5.85004E-02 8.28319E-03
 -1       547-1.36014E-02 8.17832E-02 8.32661E-03
 -1       549-1.35806E-02 8.00631E-02 7.92450E-03
 -1       550-3.03325E-03 9.21047E-02 8.42534E-03
 -1       552-3.07020E-03 9.03155E-02 7.96377E-03
 -1       553 8.41732E-03 8.93514E-02 8.93776E-03
 -1       555 8.31931E-03 8.74906E-02 8.46447E-03
 -1       556 1.94559E-02 7.32925E-02 9.83435E-03
 -1       558 1.93068E-02 7.13577E-02 9.40667E-03
 -1       559 2.89298E-02 4.51709E-02 1.10165E-02
 -1       561 2.87488E-02 4.31635E-02 1.06732E-02
 -1       562 3.60066E-02 7.46316E-03 1.22982E-02
 -1       564 3.58264E-02 5.38896E-03 1.20669E-02
 -1       565 4.03497E-02-3.66530E-02 1.34742E-02
 -1       567 4.01961E-02-3.87842E-02 1.33588E-02
 -1       568 4.21684E-02-8.37861E-02 1.42846E-02
 -1       570 4.20905E-02-8.59591E-02 1.42607E-02
 -1       571 2.11931E-02-1.31389E-01 7.42954E-03
 -1       573 2.11792E-02-1.33514E-01 7.41839E-03
 -1       574-2.02705E-14 9.65108E-03-2.35036E-14
 -1       576-1.47727E-14 1.03627E-02-2.26474E-14
 -1       577 9.18102E-04 1.00069E-02 2.26673E-04
 -1       579-9.18102E-04 1.00069E-02-2.26673E-04
 -1       588-3.22980E-14 3.08430E-02-4.30691E-14
 -1       590-3.21990E-14 3.24964E-02-4.29216E-14
 -1       591 1.02676E-03 3.16697E-02 5.26618E-04
 -1       593-1.02676E-03 3.16697E-02-5.26618E-04
 -1       602-4.69562E-14 5.48452E-02-4.92954E-14
 -1       604-4.60944E-14 5.72222E-02-4.86262E-14
 -1       605 1.12822E-03 5.60337E-02 7.57121E-04
 -1       607-1.12822E-03 5.60337E-02-7.57121E-04
 -1       616-6.06242E-14 7.72224E-02-5.05700E-14
 -1       618-6.15073E-14 8.02014E-02-5.03631E-14
 -1       619 8.75455E-04 7.87119E-02 9.48857E-04
 -1       621-8.75455E-04 7.87119E-02-9.48857E-04
 -1       630-7.47081E-14 9.28261E-02-5.18180E-14
 -1       632-7.42839E-14 9.61743E-02-5.07389E-14
 -1       633 5.11973E-04 9.45002E-02 1.06648E-03
 -1       635-5.11973E-04 9.45002E-02-1.06648E-03
 -1       644-8.57945E-14 9.86617E-02-5.41510E-14
 -1       646-8.58529E-14 1.02110E-01-5.35268E-14
 -1       647 3.97326E-06 1.00386E-01 1.09828E-03
 -1       649-3.97326E-06 1.00386E-01-1.09828E-03
 -1       658-9.52400E-14 9.30145E-02-5.09984E-14
 -1       660-9.64123E-14 9.62932E-02-5.09062E-14
 -1       661-5.13067E-04 9.46539E-02 1.04431E-03
 -1       663 5.13067E-04 9.46539E-02-1.04431E-03
 -1       672-1.05112E-13 7.61284E-02-3.55640E-14
 -1       674-1.08710E-13 7.89633E-02-3.50739E-14
 -1       675-9.95870E-04 7.75459E-02 9.02958E-04
 -1       677 9.95870E-04 7.75459E-02-9.02958E-04
 -1       686-1.18453E-13 4.97987E-02-9.24113E-15
 -1       688-1.22798E-13 5.19792E-02-8.91102E-15
 -1       689-1.35408E-03 5.08890E-02 6.94537E-04
 -1       691 1.35408E-03 5.08890E-02-6.94537E-04
 -1       700-1.34585E-13 1.72582E-02 1.53610E-14
 -1       702-1.37461E-13 1.86255E-02 1.54477E-14
 -1       703-1.54925E-03 1.79418E-02 4.35488E-04
 -1       705 1.54925E-03 1.79418E-02-4.35488E-04
 -1       714-1.50261E-13-1.73930E-02 3.53476E-14
 -1       716-1.52953E-13-1.68992E-02 3.62410E-14
 -1       717-1.54425E-03-1.71461E-02 1.57265E-04
 -1       719 1.54425E-03-1.71461E-02-1.57265E-04
 -1       728-1.65359E-13-4.96848E-02 6.12223E-14
 -1       730-1.69375E-13-5.00451E-02 6.11346E-14
 -1       731-1.34302E-03-4.98650E-02-1.14766E-04
 -1       733 1.34302E-03-4.98650E-02 1.14766E-04
 -1       742-1.82298E-13-7.54296E-02 9.35347E-14
 -1       744-1.87008E-13-7.65306E-02 9.45996E-14
 -1       745-9.66919E-04-7.59801E-02-3.50687E-04
 -1       747 9.66919E-04-7.59801E-02 3.50687E-04
 -1       756-2.00892E-13-9.12571E-02 1.29559E-13
 -1       758-2.05750E-13-9.29226E-02 1.31933E-13
 -1       759-4.66796E-04-9.20899E-02-5.30502E-04
 -1       761 4.66796E-04-9.20899E-02 5.30502E-04
 -1       770-2.21198E-13-9.50893E-02 1.69295E-13
 -1       772-2.26414E-13-9.70933E-02 1.67991E-13
 -1       773 9.38040E-05-9.60913E-02-6.38306E-04
 -1       775-9.38040E-05-9.60913E-02 6.38306E-04
 -1       784-2.45566E-13-8.64098E-02 1.96491E-13
 -1       786-2.47614E-13-8.85146E-02 1.98055E-13
 -1       787 6.40318E-04-8.74622E-02-6.70426E-04
 -1       789-6.40318E-04-8.74622E-02 6.70426E-04
 -1       798-2.67974E-13-6.63495E-02 2.19349E-13
 -1       800-2.71442E-13-6.83309E-02 2.20535E-13
 -1       801 1.10154E-03-6.73402E-02-6.31103E-04
 -1       803-1.10154E-03-6.73402E-02 6.31103E-04
 -1       812-2.92721E-13-3.75419E-02 2.35638E-13
 -1       814-2.93754E-13-3.92216E-02 2.36290E-13
 -1       815 1.41581E-03-3.83818E-02-5.35031E-04
 -1       817-1.41581E-03-3.83818E-02 5.35031E-04
 -1       826-3.20441E-13-3.79031E-03 2.28641E-13
 -1       828-3.17423E-13-5.05575E-03 2.30547E-13
 -1       829 1.54126E-03-4.42303E-03-4.03065E-04
 -1       831-1.54126E-03-4.42303E-03 4.03065E-04
 -1       840-3.47010E-13 3.04201E-02 2.09354E-13
 -1       842-3.44687E-13 2.96022E-02 2.09159E-13
 -1       843 1.45952E-03 3.00112E-02-2.60522E-04
 -1       845-1.45952E-03 3.00112E-02 2.60522E-04
 -1       854-3.76068E-13 6.04976E-02 1.77284E-13
 -1       856-3.70550E-13 6.00791E-02 1.79333E-13
 -1       857 1.17949E-03 6.02883E-02-1.33300E-04
 -1       859-1.17949E-03 6.02883E-02 1.33300E-04
 -1       868-4.02495E-13 8.23208E-02 1.36174E-13
 -1       870-3.97094E-13 8.21833E-02 1.36899E-13
 -1       871 7.34074E-04 8.22521E-02-4.38030E-05
 -1       873-7.34074E-04 8.22521E-02 4.38030E-05
 -1       882-4.28936E-13 9.27629E-02 7.92450E-14
 -1       884-4.20524E-13 9.27344E-02 8.06410E-14
 -1       885 1.78348E-04 9.27486E-02-9.08659E-06
 -1       887-1.78348E-04 9.27486E-02 9.08659E-06
 -1       896-4.51627E-13 9.00446E-02 9.66804E-15
 -1       898-4.42078E-13 8.99311E-02 9.32371E-15
 -1       899-4.23296E-04 8.99879E-02-3.61399E-05
 -1       901 4.23296E-04 8.99879E-02 3.61399E-05
 -1       910-4.69841E-13 7.39463E-02-6.95229E-14
 -1       912-4.58936E-13 7.35578E-02-6.69027E-14
 -1       913-9.96894E-04 7.37521E-02-1.23767E-04
 -1       915 9.96894E-04 7.37521E-02 1.23767E-04
 -1       924-4.82287E-13 4.57125E-02-1.42094E-13
 -1       926-4.73373E-13 4.49017E-02-1.42852E-13
 -1       927-1.48678E-03 4.53071E-02-2.58238E-04
 -1       929 1.48678E-03 4.53071E-02 2.58238E-04
 -1       938-4.93830E-13 7.85714E-03-2.16329E-13
 -1       940-4.83521E-13 6.54132E-03-2.13494E-13
 -1       941-1.83460E-03 7.19923E-03-4.19112E-04
 -1       943 1.83460E-03 7.19923E-03 4.19112E-04
 -1       952-5.02398E-13-3.64142E-02-2.93925E-13
 -1       954-4.91366E-13-3.82239E-02-2.91183E-13
 -1       955-2.03830E-03-3.73191E-02-5.76441E-04
 -1       957 2.03830E-03-3.73191E-02 5.76441E-04
 -1       966-5.06635E-13-8.37014E-02-3.66618E-13
 -1       968-4.97833E-13-8.58845E-02-3.67434E-13
 -1       969-2.07726E-03-8.47929E-02-6.95355E-04
 -1       971 2.07726E-03-8.47929E-02 6.95355E-04
 -1       980 0.00000E+00 0.00000E+00-1.39152E-04
 -1       982 0.00000E+00-0.00000E+00 1.39152E-04
 -1       983-2.11931E-02-1.31389E-01-7.42954E-03
 -1       985-2.11792E-02-1.33514E-01-7.41839E-03
 -1       986 1.24086E-02 1.19088E-02 3.25778E-03
 -1       988 1.16266E-02 1.22612E-02 2.97220E-03
 -1       989 1.81651E-02 3.13613E-02 7.33645E-03
 -1       991 1.78112E-02 3.21020E-02 7.19802E-03
 -1       992 1.93126E-02 5.54814E-02 1.02919E-02
 -1       994 1.88634E-02 5.65414E-02 1.03307E-02
 -1       995 1.57357E-02 7.72097E-02 1.27807E-02
 -1       997 1.54836E-02 7.85327E-02 1.30404E-02
 -1       998 8.81476E-03 9.26615E-02 1.42870E-02
 -1      1000 8.65930E-03 9.41506E-02 1.45992E-02
 -1      1001-2.56900E-04 9.82560E-02 1.47719E-02
 -1      1003-2.47475E-04 9.98133E-02 1.51992E-02
 -1      1004-9.96083E-03 9.25948E-02 1.42231E-02
 -1      1006-9.81456E-03 9.41185E-02 1.45950E-02
 -1      1007-1.88173E-02 7.57439E-02 1.26463E-02
 -1      1009-1.85374E-02 7.71363E-02 1.29954E-02
 -1      1010-2.55276E-02 4.95789E-02 1.02557E-02
 -1      1012-2.51464E-02 5.07578E-02 1.04588E-02
 -1      1013-2.90942E-02 1.72446E-02 7.21926E-03
 -1      1015-2.86454E-02 1.81420E-02 7.30522E-03
 -1      1016-2.89883E-02-1.71566E-02 3.86378E-03
 -1      1018-2.85137E-02-1.65838E-02 3.77124E-03
 -1      1019-2.51630E-02-4.92152E-02 4.41410E-04
 -1      1021-2.47036E-02-4.89903E-02 2.19377E-04
 -1      1022-1.80953E-02-7.47626E-02-2.73318E-03
 -1      1024-1.76876E-02-7.48840E-02-3.08795E-03
 -1      1025-8.68461E-03-9.04666E-02-5.45585E-03
 -1      1027-8.35686E-03-9.09161E-02-5.87183E-03
 -1      1028 1.83935E-03-9.42603E-02-7.54150E-03
 -1      1030 2.07079E-03-9.50028E-02-7.98545E-03
 -1      1031 1.21026E-02-8.56381E-02-8.93649E-03
 -1      1033 1.22341E-02-8.66310E-02-9.33256E-03
 -1      1034 2.07487E-02-6.57208E-02-9.64302E-03
 -1      1036 2.07898E-02-6.69172E-02-9.95355E-03
 -1      1037 2.66320E-02-3.71263E-02-9.77857E-03
 -1      1039 2.66028E-02-3.84825E-02-9.94959E-03
 -1      1040 2.89540E-02-3.62922E-03-9.50091E-03
 -1      1042 2.88825E-02-5.10765E-03-9.51950E-03
 -1      1043 2.73755E-02 3.03161E-02-9.02939E-03
 -1      1045 2.72929E-02 2.87430E-02-8.88205E-03
 -1      1046 2.20498E-02 6.01509E-02-8.57138E-03
 -1      1048 2.19860E-02 5.85004E-02-8.28319E-03
 -1      1049 1.36014E-02 8.17832E-02-8.32661E-03
 -1      1051 1.35806E-02 8.00631E-02-7.92450E-03
 -1      1052 3.03325E-03 9.21047E-02-8.42534E-03
 -1      1054 3.07020E-03 9.03155E-02-7.96377E-03
 -1      1055-8.41732E-03 8.93514E-02-8.93776E-03
 -1      1057-8.31931E-03 8.74906E-02-8.46447E-03
 -1      1058-1.94559E-02 7.32925E-02-9.83435E-03
 -1      1060-1.93068E-02 7.13577E-02-9.40667E-03
 -1      1061-2.89298E-02 4.51709E-02-1.10165E-02
 -1      1063-2.87488E-02 4.31635E-02-1.06732E-02
 -1      1064-3.60066E-02 7.46316E-03-1.22982E-02
 -1      1066-3.58264E-02 5.38896E-03-1.20669E-02
 -1      1067-4.03497E-02-3.66530E-02-1.34742E-02
 -1      1069-4.01961E-02-3.87842E-02-1.33588E-02
 -1      1070-4.21684E-02-8.37861E-02-1.42846E-02
 -1      1072-4.20905E-02-8.59591E-02-1.42607E-02
 -1      1073 0.00000E+00 0.00000E+00 1.39152E-04
 -1      1075 0.00000E+00-0.00000E+00-1.39152E-04
 -1      1076 0.00000E+00-3.13050E-16 0.00000E+00
 -1      1078 0.00000E+00 3.13050E-16 0.00000E+00
 -1      1079 0.00000E+00-3.31712E-16 0.00000E+00
 -1      1081 0.00000E+00 3.31712E-16 0.00000E+00
 -1      1082 0.00000E+00-1.81482E-16 0.00000E+00
 -1      1084 0.00000E+00 1.81482E-16 0.00000E+00
 -1      1085 9.18102E-04 1.00069E-02-2.26673E-04
 -1      1087-9.18102E-04 1.00069E-02 2.26673E-04
 -1      1088-1.81048E-14 9.65108E-03-7.19904E-16
 -1      1090-1.82689E-14 1.03627E-02-1.78504E-15
 -1      1099 1.02676E-03 3.16697E-02-5.26618E-04
 -1      1101-1.02676E-03 3.16697E-02 5.26618E-04
 -1      1102-3.63897E-14 3.08430E-02-1.33542E-14
 -1      1104-3.90950E-14 3.24964E-02-1.39711E-14
 -1      1113 1.12822E-03 5.60337E-02-7.57121E-04
 -1      1115-1.12822E-03 5.60337E-02 7.57121E-04
 -1      1116-5.78704E-14 5.48452E-02-2.80045E-14
 -1      1118-5.90292E-14 5.72222E-02-2.91026E-14
 -1      1127 8.75455E-04 7.87119E-02-9.48857E-04
 -1      1129-8.75455E-04 7.87119E-02 9.48857E-04
 -1      1130-7.98623E-14 7.72224E-02-3.87072E-14
 -1      1132-8.12449E-14 8.02014E-02-3.94525E-14
 -1      1141 5.11973E-04 9.45002E-02-1.06648E-03
 -1      1143-5.11973E-04 9.45002E-02 1.06648E-03
 -1      1144-1.03827E-13 9.28261E-02-4.41983E-14
 -1      1146-1.04062E-13 9.61743E-02-4.55841E-14
 -1      1155 3.97326E-06 1.00386E-01-1.09828E-03
 -1      1157-3.97326E-06 1.00386E-01 1.09828E-03
 -1      1158-1.27837E-13 9.86617E-02-4.13312E-14
 -1      1160-1.27021E-13 1.02110E-01-4.32609E-14
 -1      1169-5.13067E-04 9.46539E-02-1.04431E-03
 -1      1171 5.13067E-04 9.46539E-02 1.04431E-03
 -1      1172-1.50869E-13 9.30145E-02-2.76022E-14
 -1      1174-1.48169E-13 9.62932E-02-2.81865E-14
 -1      1183-9.95870E-04 7.75459E-02-9.02958E-04
 -1      1185 9.95870E-04 7.75459E-02 9.02958E-04
 -1      1186-1.70354E-13 7.61284E-02-5.20462E-15
 -1      1188-1.67522E-13 7.89633E-02-6.00863E-15
 -1      1197-1.35408E-03 5.08890E-02-6.94537E-04
 -1      1199 1.35408E-03 5.08890E-02 6.94537E-04
 -1      1200-1.88496E-13 4.97987E-02 1.45667E-14
 -1      1202-1.86998E-13 5.19792E-02 1.28836E-14
 -1      1211-1.54925E-03 1.79418E-02-4.35488E-04
 -1      1213 1.54925E-03 1.79418E-02 4.35488E-04
 -1      1214-2.07511E-13 1.72582E-02 3.12843E-14
 -1      1216-2.05481E-13 1.86255E-02 3.23037E-14
 -1      1225-1.54425E-03-1.71461E-02-1.57265E-04
 -1      1227 1.54425E-03-1.71461E-02 1.57265E-04
 -1      1228-2.25363E-13-1.73930E-02 6.04614E-14
 -1      1230-2.21297E-13-1.68992E-02 5.80965E-14
 -1      1239-1.34302E-03-4.98650E-02 1.14766E-04
 -1      1241 1.34302E-03-4.98650E-02-1.14766E-04
 -1      1242-2.39211E-13-4.96848E-02 9.51079E-14
 -1      1244-2.34875E-13-5.00451E-02 9.61697E-14
 -1      1253-9.66919E-04-7.59801E-02 3.50687E-04
 -1      1255 9.66919E-04-7.59801E-02-3.50687E-04
 -1      1256-2.52017E-13-7.54296E-02 1.36535E-13
 -1      1258-2.47087E-13-7.65306E-02 1.34273E-13
 -1      1267-4.66796E-04-9.20899E-02 5.30502E-04
 -1      1269 4.66796E-04-9.20899E-02-5.30502E-04
 -1      1270-2.61738E-13-9.12571E-02 1.71263E-13
 -1      1272-2.57988E-13-9.29226E-02 1.71504E-13
 -1      1281 9.38040E-05-9.60913E-02 6.38306E-04
 -1      1283-9.38040E-05-9.60913E-02-6.38306E-04
 -1      1284-2.69968E-13-9.50893E-02 2.02227E-13
 -1      1286-2.66259E-13-9.70933E-02 2.03386E-13
 -1      1295 6.40318E-04-8.74622E-02 6.70426E-04
 -1      1297-6.40318E-04-8.74622E-02-6.70426E-04
 -1      1298-2.74101E-13-8.64098E-02 2.35129E-13
 -1      1300-2.69897E-13-8.85146E-02 2.35737E-13
 -1      1309 1.10154E-03-6.73402E-02 6.31103E-04
 -1      1311-1.10154E-03-6.73402E-02-6.31103E-04
 -1      1312-2.71779E-13-6.63495E-02 2.55312E-13
 -1      1314-2.71364E-13-6.83309E-02 2.53767E-13
 -1      1323 1.41581E-03-3.83818E-02 5.35031E-04
 -1      1325-1.41581E-03-3.83818E-02-5.35031E-04
 -1      1326-2.67310E-13-3.75419E-02 2.53603E-13
 -1      1328-2.68318E-13-3.92216E-02 2.55782E-13
 -1      1337 1.54126E-03-4.42303E-03 4.03065E-04
 -1      1339-1.54126E-03-4.42303E-03-4.03065E-04
 -1      1340-2.60652E-13-3.79031E-03 2.48787E-13
 -1      1342-2.61430E-13-5.05575E-03 2.46844E-13
 -1      1351 1.45952E-03 3.00112E-02 2.60522E-04
 -1      1353-1.45952E-03 3.00112E-02-2.60522E-04
 -1      1354-2.50715E-13 3.04201E-02 2.26164E-13
 -1      1356-2.55408E-13 2.96022E-02 2.28875E-13
 -1      1365 1.17949E-03 6.02883E-02 1.33300E-04
 -1      1367-1.17949E-03 6.02883E-02-1.33300E-04
 -1      1368-2.43187E-13 6.04976E-02 1.94405E-13
 -1      1370-2.47826E-13 6.00791E-02 1.93062E-13
 -1      1379 7.34074E-04 8.22521E-02 4.38030E-05
 -1      1381-7.34074E-04 8.22521E-02-4.38030E-05
 -1      1382-2.36147E-13 8.23208E-02 1.54990E-13
 -1      1384-2.41530E-13 8.21833E-02 1.57038E-13
 -1      1393 1.78348E-04 9.27486E-02 9.08659E-06
 -1      1395-1.78348E-04 9.27486E-02-9.08659E-06
 -1      1396-2.29195E-13 9.27629E-02 1.09334E-13
 -1      1398-2.36740E-13 9.27344E-02 1.08443E-13
 -1      1407-4.23296E-04 8.99879E-02 3.61399E-05
 -1      1409 4.23296E-04 8.99879E-02-3.61399E-05
 -1      1410-2.24086E-13 9.00446E-02 4.33138E-14
 -1      1412-2.33917E-13 8.99311E-02 4.54694E-14
 -1      1421-9.96894E-04 7.37521E-02 1.23767E-04
 -1      1423 9.96894E-04 7.37521E-02-1.23767E-04
 -1      1424-2.21379E-13 7.39463E-02-3.18585E-14
 -1      1426-2.32064E-13 7.35578E-02-3.38320E-14
 -1      1435-1.48678E-03 4.53071E-02 2.58238E-04
 -1      1437 1.48678E-03 4.53071E-02-2.58238E-04
 -1      1438-2.20320E-13 4.57125E-02-1.13013E-13
 -1      1440-2.30826E-13 4.49017E-02-1.11658E-13
 -1      1449-1.83460E-03 7.19923E-03 4.19112E-04
 -1      1451 1.83460E-03 7.19923E-03-4.19112E-04
 -1      1452-2.19144E-13 7.85714E-03-1.89392E-13
 -1      1454-2.29556E-13 6.54132E-03-1.91942E-13
 -1      1463-2.03830E-03-3.73191E-02 5.76441E-04
 -1      1465 2.03830E-03-3.73191E-02-5.76441E-04
 -1      1466-2.18456E-13-3.64142E-02-2.68363E-13
 -1      1468-2.28440E-13-3.82239E-02-2.70179E-13
 -1      1477-2.07726E-03-8.47929E-02 6.95355E-04
 -1      1479 2.07726E-03-8.47929E-02-6.95355E-04
 -1      1480-2.17527E-13-8.37014E-02-3.50329E-13
 -1      1482-2.28786E-13-8.58845E-02-3.50069E-13
 -1      1491-2.05228E-03-1.45876E-01-3.95558E-04
 -1      1493 2.05228E-03-1.45876E-01 3.95558E-04
 -1      1494-2.06491E-03-1.50382E-01-5.08163E-13
 -1      1496 2.06491E-03-1.50382E-01-3.45064E-13
 -1      1497-2.05228E-03-1.45876E-01 3.95558E-04
 -1      1499 2.05228E-03-1.45876E-01-3.95558E-04
 -1      1500 1.24086E-02 1.19088E-02-3.25778E-03
 -1      1502 1.16266E-02 1.22612E-02-2.97220E-03
 -1      1503 1.81651E-02 3.13613E-02-7.33645E-03
 -1      1505 1.78112E-02 3.21020E-02-7.19802E-03
 -1      1506 1.93126E-02 5.54814E-02-1.02919E-02
 -1      1508 1.88634E-02 5.65414E-02-1.03307E-02
 -1      1509 1.57357E-02 7.72097E-02-1.27807E-02
 -1      1511 1.54836E-02 7.85327E-02-1.30404E-02
 -1      1512 8.81476E-03 9.26615E-02-1.42870E-02
 -1      1514 8.65930E-03 9.41506E-02-1.45992E-02
 -1      1515-2.56900E-04 9.82560E-02-1.47719E-02
 -1      1517-2.47475E-04 9.98133E-02-1.51992E-02
 -1      1518-9.96083E-03 9.25948E-02-1.42231E-02
 -1      1520-9.81456E-03 9.41185E-02-1.45950E-02
 -1      1521-1.88173E-02 7.57439E-02-1.26463E-02
 -1      1523-1.85374E-02 7.71363E-02-1.29954E-02
 -1      1524-2.55276E-02 4.95789E-02-1.02557E-02
 -1      1526-2.51464E-02 5.07578E-02-1.04588E-02
 -1      1527-2.90942E-02 1.72446E-02-7.21926E-03
 -1      1529-2.86454E-02 1.81420E-02-7.30522E-03
 -1      1530-2.89883E-02-1.71566E-02-3.86378E-03
 -1      1532-2.85137E-02-1.65838E-02-3.77124E-03
 -1      1533-2.51630E-02-4.92152E-02-4.41410E-04
 -1      1535-2.47036E-02-4.89903E-02-2.19377E-04
 -1      1536-1.80953E-02-7.47626E-02 2.73318E-03
 -1      1538-1.76876E-02-7.48840E-02 3.08795E-03
 -1      1539-8.68461E-03-9.04666E-02 5.45585E-03
 -1      1541-8.35686E-03-9.09161E-02 5.87183E-03
 -1      1542 1.83935E-03-9.42603E-02 7.54150E-03
 -1      1544 2.07079E-03-9.50028E-02 7.98545E-03
 -1      1545 1.21026E-02-8.56381E-02 8.93649E-03
 -1      1547 1.22341E-02-8.66310E-02 9.33256E-03
 -1      1548 2.07487E-02-6.57208E-02 9.64302E-03
 -1      1550 2.07898E-02-6.69172E-02 9.95355E-03
 -1      1551 2.66320E-02-3.71263E-02 9.77857E-03
 -1      1553 2.66028E-02-3.84825E-02 9.94959E-03
 -1      1554 2.89540E-02-3.62922E-03 9.50091E-03
 -1      1556 2.88825E-02-5.10765E-03 9.51950E-03
 -1      1557 2.73755E-02 3.03161E-02 9.02939E-03
 -1      1559 2.72929E-02 2.87430E-02 8.88205E-03
 -1      1560 2.20498E-02 6.01509E-02 8.57138E-03
 -1      1562 2.19860E-02 5.85004E-02 8.28319E-03
 -1      1563 1.36014E-02 8.17832E-02 8.32661E-03
 -1      1565 1.35806E-02 8.00631E-02 7.92450E-03
 -1      1566 3.03325E-03 9.21047E-02 8.42534E-03
 -1      1568 3.07020E-03 9.03155E-02 7.96377E-03
 -1      1569-8.41732E-03 8.93514E-02 8.93776E-03
 -1      1571-8.31931E-03 8.74906E-02 8.46447E-03
 -1      1572-1.94559E-02 7.32925E-02 9.83435E-03
 -1      1574-1.93068E-02 7.13577E-02 9.40667E-03
 -1      1575-2.89298E-02 4.51709E-02 1.10165E-02
 -1      1577-2.87488E-02 4.31635E-02 1.06732E-02
 -1      1578-3.60066E-02 7.46316E-03 1.22982E-02
 -1      1580-3.58264E-02 5.38896E-03 1.20669E-02
 -1      1581-4.03497E-02-3.66530E-02 1.34742E-02
 -1      1583-4.01961E-02-3.87842E-02 1.33588E-02
 -1      1584-4.21684E-02-8.37861E-02 1.42846E-02
 -1      1586-4.20905E-02-8.59591E-02 1.42607E-02
 -1      1587-2.11931E-02-1.31389E-01 7.42954E-03
 -1      1589-2.11792E-02-1.33514E-01 7.41839E-03
 -1      1590 0.00000E+00 0.00000E+00-1.39152E-04
 -1      1592 0.00000E+00 0.00000E+00 1.39152E-04
 -1      1593 2.11931E-02-1.31389E-01-7.42954E-03
 -1      1595 2.11792E-02-1.33514E-01-7.41839E-03
 -1      1596-1.24086E-02 1.19088E-02 3.25778E-03
 -1      1598-1.16266E-02 1.22612E-02 2.97220E-03
 -1      1599-1.81651E-02 3.13613E-02 7.33645E-03
 -1      1601-1.78112E-02 3.21020E-02 7.19802E-03
 -1      1602-1.93126E-02 5.54814E-02 1.02919E-02
 -1      1604-1.88634E-02 5.65414E-02 1.03307E-02
 -1      1605-1.57357E-02 7.72097E-02 1.27807E-02
 -1      1607-1.54836E-02 7.85327E-02 1.30404E-02
 -1      1608-8.81476E-03 9.26615E-02 1.42870E-02
 -1      1610-8.65930E-03 9.41506E-02 1.45992E-02
 -1      1611 2.56900E-04 9.82560E-02 1.47719E-02
 -1      1613 2.47475E-04 9.98133E-02 1.51992E-02
 -1      1614 9.96083E-03 9.25948E-02 1.42231E-02
 -1      1616 9.81456E-03 9.41185E-02 1.45950E-02
 -1      1617 1.88173E-02 7.57439E-02 1.26463E-02
 -1      1619 1.85374E-02 7.71363E-02 1.29954E-02
 -1      1620 2.55276E-02 4.95789E-02 1.02557E-02
 -1      1622 2.51464E-02 5.07578E-02 1.04588E-02
 -1      1623 2.90942E-02 1.72446E-02 7.21926E-03
 -1      1625 2.86454E-02 1.81420E-02 7.30522E-03
 -1      1626 2.89883E-02-1.71566E-02 3.86378E-03
 -1      1628 2.85137E-02-1.65838E-02 3.77124E-03
 -1      1629 2.51630E-02-4.92152E-02 4.41410E-04
 -1      1631 2.47036E-02-4.89903E-02 2.19377E-04
 -1      1632 1.80953E-02-7.47626E-02-2.73318E-03
 -1      1634 1.76876E-02-7.48840E-02-3.08795E-03
 -1      1635 8.68461E-03-9.04666E-02-5.45585E-03
 -1      1637 8.35686E-03-9.09161E-02-5.87183E-03
 -1      1638-1.83935E-03-9.42603E-02-7.54150E-03
 -1      1640-2.07079E-03-9.50028E-02-7.98545E-03
 -1      1641-1.21026E-02-8.56381E-02-8.93649E-03
 -1      1643-1.22341E-02-8.66310E-02-9.33256E-03
 -1      1644-2.07487E-02-6.57208E-02-9.64302E-03
 -1      1646-2.07898E-02-6.69172E-02-9.95355E-03
 -1      1647-2.66320E-02-3.71263E-02-9.77857E-03
 -1      1649-2.66028E-02-3.84825E-02-9.94959E-03
 -1      1650-2.89540E-02-3.62922E-03-9.50091E-03
 -1      1652-2.88825E-02-5.10765E-03-9.51950E-03
 -1      1653-2.73755E-02 3.03161E-02-9.02939E-03
 -1      1655-2.72929E-02 2.87430E-02-8.88205E-03
 -1      1656-2.20498E-02 6.01509E-02-8.57138E-03
 -1      1658-2.19860E-02 5.85004E-02-8.28319E-03
 -1      1659-1.36014E-02 8.17832E-02-8.32661E-03
 -1      1661-1.35806E-02 8.00631E-02-7.92450E-03
 -1      1662-3.03325E-03 9.21047E-02-8.42534E-03
 -1      1664-3.07020E-03 9.03155E-02-7.96377E-03
 -1      1665 8.41732E-03 8.93514E-02-8.93776E-03
 -1      1667 8.31931E-03 8.74906E-02-8.46447E-03
 -1      1668 1.94559E-02 7.32925E-02-9.83435E-03
 -1      1670 1.93068E-02 7.13577E-02-9.40667E-03
 -1      1671 2.89298E-02 4.51709E-02-1.10165E-02
 -1      1673 2.87488E-02 4.31635E-02-1.06732E-02
 -1      1674 3.60066E-02 7.46316E-03-1.22982E-02
 -1      1676 3.58264E-02 5.38896E-03-1.20669E-02
 -1      1677 4.03497E-02-3.66530E-02-1.34742E-02
 -1      1679 4.01961E-02-3.87842E-02-1.33588E-02
 -1      1680 4.21684E-02-8.37861E-02-1.42846E-02
 -1      1682 4.20905E-02-8.59591E-02-1.42607E-02
 -1      1683 0.00000E+00 0.00000E+00 1.39152E-04
 -1      1685 0.00000E+00 0.00000E+00-1.39152E-04
 -1      1686-5.27872E-03 1.02782E-02-1.94131E-03
 -1      1688-4.79495E-03 1.06900E-02-1.75307E-03
 -1      1689-8.66559E-03 3.12290E-02-4.44368E-03
 -1      1691-8.44848E-03 3.22054E-02-4.36592E-03
 -1      1692-9.09763E-03 5.52884E-02-6.23356E-03
 -1      1694-8.81957E-03 5.66766E-02-6.25668E-03
 -1      1695-7.51544E-03 7.76429E-02-7.79466E-03
 -1      1697-7.35966E-03 7.93631E-02-7.88789E-03
 -1      1698-4.16023E-03 9.32276E-02-8.68741E-03
 -1      1700-4.06625E-03 9.51547E-02-8.84267E-03
 -1      1701 2.02049E-04 9.90342E-02-8.98136E-03
 -1      1703 1.91366E-04 1.01029E-01-9.15991E-03
 -1      1704 4.89952E-03 9.33367E-02-8.57395E-03
 -1      1706 4.80047E-03 9.52685E-02-8.75234E-03
 -1      1707 9.18579E-03 7.63861E-02-7.53837E-03
 -1      1709 9.00155E-03 7.81205E-02-7.68915E-03
 -1      1710 1.24352E-02 4.99779E-02-5.96392E-03
 -1      1712 1.21868E-02 5.14110E-02-6.06076E-03
 -1      1713 1.41601E-02 1.73527E-02-4.00794E-03
 -1      1715 1.38713E-02 1.83980E-02-4.04269E-03
 -1      1716 1.41022E-02-1.73815E-02-1.86575E-03
 -1      1718 1.38014E-02-1.67693E-02-1.82438E-03
 -1      1719 1.22389E-02-4.97452E-02 2.65821E-04
 -1      1721 1.19542E-02-4.95830E-02 3.70021E-04
 -1      1722 8.80083E-03-7.55426E-02 2.18567E-03
 -1      1724 8.55712E-03-7.58085E-02 2.34857E-03
 -1      1725 4.22531E-03-9.13964E-02 3.74406E-03
 -1      1727 4.04151E-03-9.20445E-02 3.93602E-03
 -1      1728-8.90318E-04-9.52254E-02 4.82657E-03
 -1      1730-1.00391E-03-9.61864E-02 5.03067E-03
 -1      1731-5.87824E-03-8.65125E-02 5.39935E-03
 -1      1733-5.92039E-03-8.77092E-02 5.58130E-03
 -1      1734-1.00791E-02-6.63931E-02 5.48039E-03
 -1      1736-1.00580E-02-6.77466E-02 5.62286E-03
 -1      1737-1.29360E-02-3.75068E-02 5.16321E-03
 -1      1739-1.28675E-02-3.89490E-02 5.24099E-03
 -1      1740-1.40604E-02-3.66767E-03 4.57658E-03
 -1      1742-1.39658E-02-5.14686E-03 4.58419E-03
 -1      1743-1.32874E-02 3.06296E-02 3.88848E-03
 -1      1745-1.31902E-02 2.91430E-02 3.81913E-03
 -1      1746-1.06901E-02 6.07796E-02 3.26123E-03
 -1      1748-1.06129E-02 5.92926E-02 3.12687E-03
 -1      1749-6.57225E-03 8.26550E-02 2.84662E-03
 -1      1751-6.53324E-03 8.11550E-02 2.65908E-03
 -1      1752-1.41857E-03 9.31152E-02 2.74692E-03
 -1      1754-1.42882E-03 9.15749E-02 2.53154E-03
 -1      1755 4.16958E-03 9.03876E-02 3.01540E-03
 -1      1757 4.10745E-03 8.87743E-02 2.79319E-03
 -1      1758 9.56739E-03 7.42372E-02 3.63051E-03
 -1      1760 9.46099E-03 7.25205E-02 3.42881E-03
 -1      1761 1.42173E-02 4.59368E-02 4.51557E-03
 -1      1763 1.40812E-02 4.40999E-02 4.34924E-03
 -1      1764 1.77193E-02 7.97950E-03 5.51978E-03
 -1      1766 1.75794E-02 6.02298E-03 5.40490E-03
 -1      1767 1.99150E-02-3.63783E-02 6.47605E-03
 -1      1769 1.97923E-02-3.84300E-02 6.40789E-03
 -1      1770 2.09442E-02-8.37472E-02 7.15535E-03
 -1      1772 2.08809E-02-8.58531E-02 7.12496E-03
 -1      1773 5.27872E-03 1.02782E-02 1.94131E-03
 -1      1775 4.79495E-03 1.06900E-02 1.75307E-03
 -1      1776 8.66559E-03 3.12290E-02 4.44368E-03
 -1      1778 8.44848E-03 3.22054E-02 4.36592E-03
 -1      1779 9.09763E-03 5.52884E-02 6.23356E-03
 -1      1781 8.81957E-03 5.66766E-02 6.25668E-03
 -1      1782 7.51544E-03 7.76429E-02 7.79466E-03
 -1      1784 7.35966E-03 7.93631E-02 7.88789E-03
 -1      1785 4.16023E-03 9.32276E-02 8.68741E-03
 -1      1787 4.06625E-03 9.51547E-02 8.84267E-03
 -1      1788-2.02049E-04 9.90342E-02 8.98136E-03
 -1      1790-1.91366E-04 1.01029E-01 9.15991E-03
 -1      1791-4.89952E-03 9.33367E-02 8.57395E-03
 -1      1793-4.80047E-03 9.52685E-02 8.75234E-03
 -1      1794-9.18579E-03 7.63861E-02 7.53837E-03
 -1      1796-9.00155E-03 7.81205E-02 7.68915E-03
 -1      1797-1.24352E-02 4.99779E-02 5.96392E-03
 -1      1799-1.21868E-02 5.14110E-02 6.06076E-03
 -1      1800-1.41601E-02 1.73527E-02 4.00794E-03
 -1      1802-1.38713E-02 1.83980E-02 4.04269E-03
 -1      1803-1.41022E-02-1.73815E-02 1.86575E-03
 -1      1805-1.38014E-02-1.67693E-02 1.82438E-03
 -1      1806-1.22389E-02-4.97452E-02-2.65821E-04
 -1      1808-1.19542E-02-4.95830E-02-3.70021E-04
 -1      1809-8.80083E-03-7.55426E-02-2.18567E-03
 -1      1811-8.55712E-03-7.58085E-02-2.34857E-03
 -1      1812-4.22531E-03-9.13964E-02-3.74406E-03
 -1      1814-4.04151E-03-9.20445E-02-3.93602E-03
 -1      1815 8.90318E-04-9.52254E-02-4.82657E-03
 -1      1817 1.00391E-03-9.61864E-02-5.03067E-03
 -1      1818 5.87824E-03-8.65125E-02-5.39935E-03
 -1      1820 5.92039E-03-8.77092E-02-5.58130E-03
 -1      1821 1.00791E-02-6.63931E-02-5.48039E-03
 -1      1823 1.00580E-02-6.77466E-02-5.62286E-03
 -1      1824 1.29360E-02-3.75068E-02-5.16321E-03
 -1      1826 1.28675E-02-3.89490E-02-5.24099E-03
 -1      1827 1.40604E-02-3.66767E-03-4.57658E-03
 -1      1829 1.39658E-02-5.14686E-03-4.58419E-03
 -1      1830 1.32874E-02 3.06296E-02-3.88848E-03
 -1      1832 1.31902E-02 2.91430E-02-3.81913E-03
 -1      1833 1.06901E-02 6.07796E-02-3.26123E-03
 -1      1835 1.06129E-02 5.92926E-02-3.12687E-03
 -1      1836 6.57225E-03 8.26550E-02-2.84662E-03
 -1      1838 6.53324E-03 8.11550E-02-2.65908E-03
 -1      1839 1.41857E-03 9.31152E-02-2.74692E-03
 -1      1841 1.42882E-03 9.15749E-02-2.53154E-03
 -1      1842-4.16958E-03 9.03876E-02-3.01540E-03
 -1      1844-4.10745E-03 8.87743E-02-2.79319E-03
 -1      1845-9.56739E-03 7.42372E-02-3.63051E-03
 -1      1847-9.46099E-03 7.25205E-02-3.42881E-03
 -1      1848-1.42173E-02 4.59368E-02-4.51557E-03
 -1      1850-1.40812E-02 4.40999E-02-4.34924E-03
 -1      1851-1.77193E-02 7.97950E-03-5.51978E-03
 -1      1853-1.75794E-02 6.02298E-03-5.40490E-03
 -1      1854-1.99150E-02-3.63783E-02-6.47605E-03
 -1      1856-1.97923E-02-3.84300E-02-6.40789E-03
 -1      1857-2.09442E-02-8.37472E-02-7.15535E-03
 -1      1859-2.08809E-02-8.58531E-02-7.12496E-03
 -1      1860 1.21200E-03 1.51141E-02 2.11793E-04
 -1      1862-1.21200E-03 1.51141E-02-2.11793E-04
 -1      1863 1.15358E-03 4.33696E-02 4.68479E-04
 -1      1865-1.15358E-03 4.33696E-02-4.68479E-04
 -1      1866 1.30491E-03 7.27361E-02 6.72541E-04
 -1      1868-1.30491E-03 7.27361E-02-6.72541E-04
 -1      1869 9.68120E-04 9.97238E-02 8.39965E-04
 -1      1871-9.68120E-04 9.97238E-02-8.39965E-04
 -1      1872 5.70298E-04 1.17987E-01 9.40239E-04
 -1      1874-5.70298E-04 1.17987E-01-9.40239E-04
 -1      1875-9.76119E-06 1.24604E-01 9.64655E-04
 -1      1877 9.76119E-06 1.24604E-01-9.64655E-04
 -1      1878-5.83360E-04 1.17544E-01 9.10389E-04
 -1      1880 5.83360E-04 1.17544E-01-9.10389E-04
 -1      1881-1.12313E-03 9.72740E-02 7.78805E-04
 -1      1883 1.12313E-03 9.72740E-02-7.78805E-04
 -1      1884-1.52175E-03 6.58810E-02 5.87125E-04
 -1      1886 1.52175E-03 6.58810E-02-5.87125E-04
 -1      1887-1.74049E-03 2.71600E-02 3.52466E-04
 -1      1889 1.74049E-03 2.71600E-02-3.52466E-04
 -1      1890-1.73811E-03-1.41397E-02 1.03661E-04
 -1      1892 1.73811E-03-1.41397E-02-1.03661E-04
 -1      1893-1.51869E-03-5.28357E-02-1.34647E-04
 -1      1895 1.51869E-03-5.28357E-02 1.34647E-04
 -1      1896-1.10658E-03-8.40790E-02-3.34725E-04
 -1      1898 1.10658E-03-8.40790E-02 3.34725E-04
 -1      1899-5.56942E-04-1.03962E-01-4.77695E-04
 -1      1901 5.56942E-04-1.03962E-01 4.77695E-04
 -1      1902 5.96298E-05-1.10063E-01-5.49274E-04
 -1      1904-5.96298E-05-1.10063E-01 5.49274E-04
 -1      1905 6.61737E-04-1.01758E-01-5.46658E-04
 -1      1907-6.61737E-04-1.01758E-01 5.46658E-04
 -1      1908 1.17065E-03-8.03140E-02-4.75024E-04
 -1      1910-1.17065E-03-8.03140E-02 4.75024E-04
 -1      1911 1.51899E-03-4.87261E-02-3.49434E-04
 -1      1913-1.51899E-03-4.87261E-02 3.49434E-04
 -1      1914 1.66049E-03-1.13324E-02-1.91055E-04
 -1      1916-1.66049E-03-1.13324E-02 1.91055E-04
 -1      1917 1.57534E-03 2.67478E-02-2.51212E-05
 -1      1919-1.57534E-03 2.67478E-02 2.51212E-05
 -1      1920 1.27324E-03 6.02763E-02 1.22548E-04
 -1      1922-1.27324E-03 6.02763E-02-1.22548E-04
 -1      1923 7.90845E-04 8.45631E-02 2.29868E-04
 -1      1925-7.90845E-04 8.45631E-02-2.29868E-04
 -1      1926 1.88901E-04 9.60702E-02 2.79996E-04
 -1      1928-1.88901E-04 9.60702E-02-2.79996E-04
 -1      1929-4.61185E-04 9.28235E-02 2.66293E-04
 -1      1931 4.61185E-04 9.28235E-02-2.66293E-04
 -1      1932-1.07694E-03 7.46681E-02 1.90219E-04
 -1      1934 1.07694E-03 7.46681E-02-1.90219E-04
 -1      1935-1.59742E-03 4.31514E-02 6.57232E-05
 -1      1937 1.59742E-03 4.31514E-02-6.57232E-05
 -1      1938-1.95289E-03 1.36281E-03-8.63816E-05
 -1      1940 1.95289E-03 1.36281E-03 8.63816E-05
 -1      1941-2.14804E-03-4.68169E-02-2.36350E-04
 -1      1943 2.14804E-03-4.68169E-02 2.36350E-04
 -1      1944-2.13649E-03-9.70282E-02-3.50056E-04
 -1      1946 2.13649E-03-9.70282E-02 3.50056E-04
 -1      1947 1.50589E-03 1.75490E-02-1.54156E-14
 -1      1949-1.50589E-03 1.75490E-02-1.09227E-14
 -1      1950 1.28040E-03 4.88293E-02-2.98060E-14
 -1      1952-1.28040E-03 4.88293E-02-2.18645E-14
 -1      1953 1.48161E-03 8.05144E-02-4.37324E-14
 -1      1955-1.48161E-03 8.05144E-02-3.18495E-14
 -1      1956 1.06079E-03 1.09472E-01-5.45085E-14
 -1      1958-1.06079E-03 1.09472E-01-3.72792E-14
 -1      1959 6.28623E-04 1.28863E-01-6.00561E-14
 -1      1961-6.28623E-04 1.28863E-01-3.75949E-14
 -1      1962-2.34956E-05 1.35784E-01-6.00284E-14
 -1      1964 2.34956E-05 1.35784E-01-3.24185E-14
 -1      1965-6.53654E-04 1.28076E-01-5.30062E-14
 -1      1967 6.53654E-04 1.28076E-01-1.94844E-14
 -1      1968-1.25038E-03 1.06303E-01-3.90174E-14
 -1      1970 1.25038E-03 1.06303E-01 0.00000E+00
 -1      1971-1.68942E-03 7.26842E-02-1.99493E-14
 -1      1973 1.68942E-03 7.26842E-02 2.38559E-14
 -1      1974-1.93173E-03 3.12661E-02 2.06779E-15
 -1      1976 1.93173E-03 3.12661E-02 4.82669E-14
 -1      1977-1.93196E-03-1.29130E-02 2.67841E-14
 -1      1979 1.93196E-03-1.29130E-02 7.60746E-14
 -1      1980-1.69436E-03-5.43531E-02 5.52423E-14
 -1      1982 1.69436E-03-5.43531E-02 1.09100E-13
 -1      1983-1.24624E-03-8.79119E-02 8.81491E-14
 -1      1985 1.24624E-03-8.79119E-02 1.44246E-13
 -1      1986-6.47088E-04-1.09445E-01 1.22718E-13
 -1      1988 6.47088E-04-1.09445E-01 1.80574E-13
 -1      1989 2.54555E-05-1.16380E-01 1.56427E-13
 -1      1991-2.54555E-05-1.16380E-01 2.16376E-13
 -1      1992 6.83156E-04-1.08050E-01 1.85761E-13
 -1      1994-6.83156E-04-1.08050E-01 2.48229E-13
 -1      1995 1.23976E-03-8.57892E-02 2.04579E-13
 -1      1997-1.23976E-03-8.57892E-02 2.73073E-13
 -1      1998 1.62217E-03-5.27614E-02 2.10769E-13
 -1      2000-1.62217E-03-5.27614E-02 2.84349E-13
 -1      2001 1.77973E-03-1.35505E-02 2.03455E-13
 -1      2003-1.77973E-03-1.35505E-02 2.81192E-13
 -1      2004 1.69116E-03 2.64343E-02 1.80675E-13
 -1      2006-1.69116E-03 2.64343E-02 2.64032E-13
 -1      2007 1.36699E-03 6.16600E-02 1.44967E-13
 -1      2009-1.36699E-03 6.16600E-02 2.34958E-13
 -1      2010 8.47615E-04 8.71780E-02 9.95939E-14
 -1      2012-8.47615E-04 8.71780E-02 1.97120E-13
 -1      2013 1.99454E-04 9.92645E-02 4.33924E-14
 -1      2015-1.99454E-04 9.92645E-02 1.47680E-13
 -1      2016-4.99075E-04 9.58584E-02-2.68448E-14
 -1      2018 4.99075E-04 9.58584E-02 8.50951E-14
 -1      2019-1.15699E-03 7.68372E-02-1.04957E-13
 -1      2021 1.15699E-03 7.68372E-02 1.62538E-14
 -1      2022-1.70806E-03 4.38905E-02-1.88226E-13
 -1      2024 1.70806E-03 4.38905E-02-5.61721E-14
 -1      2025-2.07118E-03 3.71853E-04-2.69659E-13
 -1      2027 2.07118E-03 3.71853E-04-1.27419E-13
 -1      2028-2.25779E-03-4.95244E-02-3.53648E-13
 -1      2030 2.25779E-03-4.95244E-02-1.99930E-13
 -1      2031-2.19572E-03-1.01012E-01-4.34215E-13
 -1      2033 2.19572E-03-1.01012E-01-2.73587E-13
 -1      2034 1.21200E-03 1.51141E-02-2.11793E-04
 -1      2036-1.21200E-03 1.51141E-02 2.11793E-04
 -1      2037 1.15358E-03 4.33696E-02-4.68479E-04
 -1      2039-1.15358E-03 4.33696E-02 4.68479E-04
 -1      2040 1.30491E-03 7.27361E-02-6.72541E-04
 -1      2042-1.30491E-03 7.27361E-02 6.72541E-04
 -1      2043 9.68120E-04 9.97238E-02-8.39965E-04
 -1      2045-9.68120E-04 9.97238E-02 8.39965E-04
 -1      2046 5.70298E-04 1.17987E-01-9.40239E-04
 -1      2048-5.70298E-04 1.17987E-01 9.40239E-04
 -1      2049-9.76119E-06 1.24604E-01-9.64655E-04
 -1      2051 9.76119E-06 1.24604E-01 9.64655E-04
 -1      2052-5.83360E-04 1.17544E-01-9.10389E-04
 -1      2054 5.83360E-04 1.17544E-01 9.10389E-04
 -1      2055-1.12313E-03 9.72740E-02-7.78805E-04
 -1      2057 1.12313E-03 9.72740E-02 7.78805E-04
 -1      2058-1.52175E-03 6.58810E-02-5.87125E-04
 -1      2060 1.52175E-03 6.58810E-02 5.87125E-04
 -1      2061-1.74049E-03 2.71600E-02-3.52466E-04
 -1      2063 1.74049E-03 2.71600E-02 3.52466E-04
 -1      2064-1.73811E-03-1.41397E-02-1.03661E-04
 -1      2066 1.73811E-03-1.41397E-02 1.03661E-04
 -1      2067-1.51869E-03-5.28357E-02 1.34647E-04
 -1      2069 1.51869E-03-5.28357E-02-1.34647E-04
 -1      2070-1.10658E-03-8.40790E-02 3.34725E-04
 -1      2072 1.10658E-03-8.40790E-02-3.34725E-04
 -1      2073-5.56942E-04-1.03962E-01 4.77695E-04
 -1      2075 5.56942E-04-1.03962E-01-4.77695E-04
 -1      2076 5.96298E-05-1.10063E-01 5.49274E-04
 -1      2078-5.96298E-05-1.10063E-01-5.49274E-04
 -1      2079 6.61737E-04-1.01758E-01 5.46658E-04
 -1      2081-6.61737E-04-1.01758E-01-5.46658E-04
 -1      2082 1.17065E-03-8.03140E-02 4.75024E-04
 -1      2084-1.17065E-03-8.03140E-02-4.75024E-04
 -1      2085 1.51899E-03-4.87261E-02 3.49434E-04
 -1      2087-1.51899E-03-4.87261E-02-3.49434E-04
 -1      2088 1.66049E-03-1.13324E-02 1.91055E-04
 -1      2090-1.66049E-03-1.13324E-02-1.91055E-04
 -1      2091 1.57534E-03 2.67478E-02 2.51212E-05
 -1      2093-1.57534E-03 2.67478E-02-2.51212E-05
 -1      2094 1.27324E-03 6.02763E-02-1.22548E-04
 -1      2096-1.27324E-03 6.02763E-02 1.22548E-04
 -1      2097 7.90845E-04 8.45631E-02-2.29868E-04
 -1      2099-7.90845E-04 8.45631E-02 2.29868E-04
 -1      2100 1.88901E-04 9.60702E-02-2.79996E-04
 -1      2102-1.88901E-04 9.60702E-02 2.79996E-04
 -1      2103-4.61185E-04 9.28235E-02-2.66293E-04
 -1      2105 4.61185E-04 9.28235E-02 2.66293E-04
 -1      2106-1.07694E-03 7.46681E-02-1.90219E-04
 -1      2108 1.07694E-03 7.46681E-02 1.90219E-04
 -1      2109-1.59742E-03 4.31514E-02-6.57232E-05
 -1      2111 1.59742E-03 4.31514E-02 6.57232E-05
 -1      2112-1.95289E-03 1.36281E-03 8.63816E-05
 -1      2114 1.95289E-03 1.36281E-03-8.63816E-05
 -1      2115-2.14804E-03-4.68169E-02 2.36350E-04
 -1      2117 2.14804E-03-4.68169E-02-2.36350E-04
 -1      2118-2.13649E-03-9.70282E-02 3.50056E-04
 -1      2120 2.13649E-03-9.70282E-02-3.50056E-04
 -1      2121 5.27872E-03 1.02782E-02-1.94131E-03
 -1      2123 4.79495E-03 1.06900E-02-1.75307E-03
 -1      2124 8.66559E-03 3.12290E-02-4.44368E-03
 -1      2126 8.44848E-03 3.22054E-02-4.36592E-03
 -1      2127 9.09763E-03 5.52884E-02-6.23356E-03
 -1      2129 8.81957E-03 5.66766E-02-6.25668E-03
 -1      2130 7.51544E-03 7.76429E-02-7.79466E-03
 -1      2132 7.35966E-03 7.93631E-02-7.88789E-03
 -1      2133 4.16023E-03 9.32276E-02-8.68741E-03
 -1      2135 4.06625E-03 9.51547E-02-8.84267E-03
 -1      2136-2.02049E-04 9.90342E-02-8.98136E-03
 -1      2138-1.91366E-04 1.01029E-01-9.15991E-03
 -1      2139-4.89952E-03 9.33367E-02-8.57395E-03
 -1      2141-4.80047E-03 9.52685E-02-8.75234E-03
 -1      2142-9.18579E-03 7.63861E-02-7.53837E-03
 -1      2144-9.00155E-03 7.81205E-02-7.68915E-03
 -1      2145-1.24352E-02 4.99779E-02-5.96392E-03
 -1      2147-1.21868E-02 5.14110E-02-6.06076E-03
 -1      2148-1.41601E-02 1.73527E-02-4.00794E-03
 -1      2150-1.38713E-02 1.83980E-02-4.04269E-03
 -1      2151-1.41022E-02-1.73815E-02-1.86575E-03
 -1      2153-1.38014E-02-1.67693E-02-1.82438E-03
 -1      2154-1.22389E-02-4.97452E-02 2.65821E-04
 -1      2156-1.19542E-02-4.95830E-02 3.70021E-04
 -1      2157-8.80083E-03-7.55426E-02 2.18567E-03
 -1      2159-8.55712E-03-7.58085E-02 2.34857E-03
 -1      2160-4.22531E-03-9.13964E-02 3.74406E-03
 -1      2162-4.04151E-03-9.20445E-02 3.93602E-03
 -1      2163 8.90318E-04-9.52254E-02 4.82657E-03
 -1      2165 1.00391E-03-9.61864E-02 5.03067E-03
 -1      2166 5.87824E-03-8.65125E-02 5.39935E-03
 -1      2168 5.92039E-03-8.77092E-02 5.58130E-03
 -1      2169 1.00791E-02-6.63931E-02 5.48039E-03
 -1      2171 1.00580E-02-6.77466E-02 5.62286E-03
 -1      2172 1.29360E-02-3.75068E-02 5.16321E-03
 -1      2174 1.28675E-02-3.89490E-02 5.24099E-03
 -1      2175 1.40604E-02-3.66767E-03 4.57658E-03
 -1      2177 1.39658E-02-5.14686E-03 4.58419E-03
 -1      2178 1.32874E-02 3.06296E-02 3.88848E-03
 -1      2180 1.31902E-02 2.91430E-02 3.81913E-03
 -1      2181 1.06901E-02 6.07796E-02 3.26123E-03
 -1      2183 1.06129E-02 5.92926E-02 3.12687E-03
 -1      2184 6.57225E-03 8.26550E-02 2.84662E-03
 -1      2186 6.53324E-03 8.11550E-02 2.65908E-03
 -1      2187 1.41857E-03 9.31152E-02 2.74692E-03
 -1      2189 1.42882E-03 9.15749E-02 2.53154E-03
 -1      2190-4.16958E-03 9.03876E-02 3.01540E-03
 -1      2192-4.10745E-03 8.87743E-02 2.79319E-03
 -1      2193-9.56739E-03 7.42372E-02 3.63051E-03
 -1      2195-9.46099E-03 7.25205E-02 3.42881E-03
 -1      2196-1.42173E-02 4.59368E-02 4.51557E-03
 -1      2198-1.40812E-02 4.40999E-02 4.34924E-03
 -1      2199-1.77193E-02 7.97950E-03 5.51978E-03
 -1      2201-1.75794E-02 6.02298E-03 5.40490E-03
 -1      2202-1.99150E-02-3.63783E-02 6.47605E-03
 -1      2204-1.97923E-02-3.84300E-02 6.40789E-03
 -1      2205-2.09442E-02-8.37472E-02 7.15535E-03
 -1      2207-2.08809E-02-8.58531E-02 7.12496E-03
 -1      2208-5.27872E-03 1.02782E-02 1.94131E-03
 -1      2210-4.79495E-03 1.06900E-02 1.75307E-03
 -1      2211-8.66559E-03 3.12290E-02 4.44368E-03
 -1      2213-8.44848E-03 3.22054E-02 4.36592E-03
 -1      2214-9.09763E-03 5.52884E-02 6.23356E-03
 -1      2216-8.81957E-03 5.66766E-02 6.25668E-03
 -1      2217-7.51544E-03 7.76429E-02 7.79466E-03
 -1      2219-7.35966E-03 7.93631E-02 7.88789E-03
 -1      2220-4.16023E-03 9.32276E-02 8.68741E-03
 -1      2222-4.06625E-03 9.51547E-02 8.84267E-03
 -1      2223 2.02049E-04 9.90342E-02 8.98136E-03
 -1      2225 1.91366E-04 1.01029E-01 9.15991E-03
 -1      2226 4.89952E-03 9.33367E-02 8.57395E-03
 -1      2228 4.80047E-03 9.52685E-02 8.75234E-03
 -1      2229 9.18579E-03 7.63861E-02 7.53837E-03
 -1      2231 9.00155E-03 7.81205E-02 7.68915E-03
 -1      2232 1.24352E-02 4.99779E-02 5.96392E-03
 -1      2234 1.21868E-02 5.14110E-02 6.06076E-03
 -1      2235 1.41601E-02 1.73527E-02 4.00794E-03
 -1      2237 1.38713E-02 1.83980E-02 4.04269E-03
 -1      2238 1.41022E-02-1.73815E-02 1.86575E-03
 -1      2240 1.38014E-02-1.67693E-02 1.82438E-03
 -1      2241 1.22389E-02-4.97452E-02-2.65821E-04
 -1      2243 1.19542E-02-4.95830E-02-3.70021E-04
 -1      2244 8.80083E-03-7.55426E-02-2.18567E-03
 -1      2246 8.55712E-03-7.58085E-02-2.34857E-03
 -1      2247 4.22531E-03-9.13964E-02-3.74406E-03
 -1      2249 4.04151E-03-9.20445E-02-3.93602E-03
 -1      2250-8.90318E-04-9.52254E-02-4.82657E-03
 -1      2252-1.00391E-03-9.61864E-02-5.03067E-03
 -1      2253-5.87824E-03-8.65125E-02-5.39935E-03
 -1      2255-5.92039E-03-8.77092E-02-5.58130E-03
 -1      2256-1.00791E-02-6.63931E-02-5.48039E-03
 -1      2258-1.00580E-02-6.77466E-02-5.62286E-03
 -1      2259-1.29360E-02-3.75068E-02-5.16321E-03
 -1      2261-1.28675E-02-3.89490E-02-5.24099E-03
 -1      2262-1.40604E-02-3.66767E-03-4.57658E-03
 -1      2264-1.39658E-02-5.14686E-03-4.58419E-03
 -1      2265-1.32874E-02 3.06296E-02-3.88848E-03
 -1      2267-1.31902E-02 2.91430E-02-3.81913E-03
 -1      2268-1.06901E-02 6.07796E-02-3.26123E-03
 -1      2270-1.06129E-02 5.92926E-02-3.12687E-03
 -1      2271-6.57225E-03 8.26550E-02-2.84662E-03
 -1      2273-6.53324E-03 8.11550E-02-2.65908E-03
 -1      2274-1.41857E-03 9.31152E-02-2.74692E-03
 -1      2276-1.42882E-03 9.15749E-02-2.53154E-03
 -1      2277 4.16958E-03 9.03876E-02-3.01540E-03
 -1      2279 4.10745E-03 8.87743E-02-2.79319E-03
 -1      2280 9.56739E-03 7.42372E-02-3.63051E-03
 -1      2282 9.46099E-03 7.25205E-02-3.42881E-03
 -1      2283 1.42173E-02 4.59368E-02-4.51557E-03
 -1      2285 1.40812E-02 4.40999E-02-4.34924E-03
 -1      2286 1.77193E-02 7.97950E-03-5.51978E-03
 -1      2288 1.75794E-02 6.02298E-03-5.40490E-03
 -1      2289 1.99150E-02-3.63783E-02-6.47605E-03
 -1      2291 1.97923E-02-3.84300E-02-6.40789E-03
 -1      2292 2.09442E-02-8.37472E-02-7.15535E-03
 -1      2294 2.08809E-02-8.58531E-02-7.12496E-03
 -3
    1PSTEP                        38           1           1          
    1PGM                1.000000E+00                                  
    1PGK                6.602226E+06                                  
    1PHID                         -1                                  
    1PSUBC                         0                                  
    1PMODE                        10                                  
  100CL  110 408.9453971         930                     2   10MODAL      1
 -4  STRESS      6    1
 -5  SXX         1    4    1    1
 -5  SYY         1    4    2    2
 -5  SZZ         1    4    3    3
 -5  SXY         1    4    1    2
 -5  SYZ         1    4    2    3
 -5  SZX         1    4    3    1
 -1       404-1.84632E+10-1.81515E+09-3.84039E+07 2.84964E+09 5.26086E+06-1.10762E+08
 -1       406-1.84632E+10-1.81515E+09-3.84039E+07 2.84964E+09 5.26086E+06-1.10762E+08
 -1       407 6.84784E+08-5.66264E+06-2.38652E+06-2.87787E+08 3.89473E+06-2.41129E+06
 -1       409 6.84784E+08-5.66264E+06-2.38652E+06-2.87787E+08 3.89473E+06-2.41129E+06
 -1       410-5.02750E-03-1.14889E-03 7.70457E-04-7.28873E+08-1.17947E+07-1.71603E-04
 -1       412-5.02750E-03-1.14889E-03 7.70457E-04-7.28873E+08-1.17947E+07-1.71603E-04
 -1       413-2.55497E-03-2.15874E-03 1.24566E-02 9.81263E+06-8.83067E+07-2.34094E-03
 -1       415-2.55497E-03-2.15874E-03 1.24566E-02 9.81263E+06-8.83067E+07-2.34094E-03
 -1       424-3.61028E-02-5.18596E-03 5.50747E-05 3.75499E+09 2.26671E+07-1.08524E-03
 -1       426-3.61028E-02-5.18596E-03 5.50747E-05 3.75499E+09 2.26671E+07-1.08524E-03
 -1       427-3.60967E-02-2.47430E-05-5.79676E-03 1.42296E+08 3.52111E+06-1.57628E-02
 -1       429-3.60967E-02-2.47430E-05-5.79676E-03 1.42296E+08 3.52111E+06-1.57628E-02
 -1       438-6.84784E+08 5.66264E+06 2.38652E+06-2.87787E+08 3.89473E+06 2.41129E+06
 -1       440-6.84784E+08 5.66264E+06 2.38652E+06-2.87787E+08 3.89473E+06 2.41129E+06
 -1       441 1.84632E+10 1.81515E+09 3.84039E+07 2.84964E+09 5.26086E+06 1.10762E+08
 -1       443 1.84632E+10 1.81515E+09 3.84039E+07 2.84964E+09 5.26086E+06 1.10762E+08
 -1       444-4.02542E-02 1.96083E-04-5.29413E-03 1.42296E+08-3.52111E+06-3.38910E-03
 -1       446-4.02542E-02 1.96083E-04-5.29413E-03 1.42296E+08-3.52111E+06-3.38910E-03
 -1       447-4.01897E-02-5.68074E-03-1.85966E-05 3.75499E+09-2.26671E+07 4.97608E-04
 -1       449-4.01897E-02-5.68074E-03-1.85966E-05 3.75499E+09-2.26671E+07 4.97608E-04
 -1       458-5.03625E-04-1.14533E-04 1.36530E-03 9.81263E+06 8.83067E+07-1.86612E-04
 -1       460-5.03625E-04-1.14533E-04 1.36530E-03 9.81263E+06 8.83067E+07-1.86612E-04
 -1       461 9.04500E-05 9.01029E-04-2.73332E-04-7.28873E+08 1.17947E+07 1.64790E-04
 -1       463 9.04500E-05 9.01029E-04-2.73332E-04-7.28873E+08 1.17947E+07 1.64790E-04
 -1       472 1.84632E+10 1.81515E+09 3.84039E+07 2.84964E+09-5.26086E+06-1.10762E+08
 -1       474 1.84632E+10 1.81515E+09 3.84039E+07 2.84964E+09-5.26086E+06-1.10762E+08
 -1       475-6.84784E+08 5.66264E+06 2.38652E+06-2.87787E+08-3.89473E+06-2.41129E+06
 -1       477-6.84784E+08 5.66264E+06 2.38652E+06-2.87787E+08-3.89473E+06-2.41129E+06
 -1       478 6.84784E+08-5.66264E+06-2.38652E+06-2.87787E+08-3.89473E+06 2.41129E+06
 -1       480 6.84784E+08-5.66264E+06-2.38652E+06-2.87787E+08-3.89473E+06 2.41129E+06
 -1       481-1.84632E+10-1.81515E+09-3.84039E+07 2.84964E+09-5.26086E+06 1.10762E+08
 -1       483-1.84632E+10-1.81515E+09-3.84039E+07 2.84964E+09-5.26086E+06 1.10762E+08
 -1       484-1.40777E+10-4.71275E+08-4.66016E+05 2.31508E+09 4.94821E+06-3.65875E+07
 -1       486-1.40777E+10-4.71275E+08-4.66016E+05 2.31508E+09 4.94821E+06-3.65875E+07
 -1       487-5.70500E+09 2.22676E+08-3.05336E+06 1.91547E+09 8.37016E+06 3.52230E+06
 -1       489-5.70500E+09 2.22676E+08-3.05336E+06 1.91547E+09 8.37016E+06 3.52230E+06
 -1       490 1.80309E+09-1.11750E+08 5.77041E+05 1.77440E+09 1.36511E+07-1.34650E+07
 -1       492 1.80309E+09-1.11750E+08 5.77041E+05 1.77440E+09 1.36511E+07-1.34650E+07
 -1       493 7.99442E+09 4.46873E+07 9.77980E+06 1.31210E+09 1.58589E+07-2.60182E+06
 -1       495 7.99442E+09 4.46873E+07 9.77980E+06 1.31210E+09 1.58589E+07-2.60182E+06
 -1       496 1.23280E+10-3.16538E+07 7.00069E+06 8.28864E+08 1.75764E+07-4.14267E+06
 -1       498 1.23280E+10-3.16538E+07 7.00069E+06 8.28864E+08 1.75764E+07-4.14267E+06
 -1       499 1.44894E+10 5.31450E+06 1.37950E+07 2.48038E+08 1.76038E+07 4.56079E+05
 -1       501 1.44894E+10 5.31450E+06 1.37950E+07 2.48038E+08 1.76038E+07 4.56079E+05
 -1       502 1.43428E+10-1.34072E+07 8.91801E+06-3.15526E+08 1.62435E+07 2.26607E+06
 -1       504 1.43428E+10-1.34072E+07 8.91801E+06-3.15526E+08 1.62435E+07 2.26607E+06
 -1       505 1.20305E+10-2.33862E+06 1.09431E+07-8.19974E+08 1.37145E+07 5.05546E+06
 -1       507 1.20305E+10-2.33862E+06 1.09431E+07-8.19974E+08 1.37145E+07 5.05546E+06
 -1       508 7.93446E+09-6.88774E+06 4.69646E+06-1.19648E+09 1.00100E+07 6.83512E+06
 -1       510 7.93446E+09-6.88774E+06 4.69646E+06-1.19648E+09 1.00100E+07 6.83512E+06
 -1       511 2.65417E+09-1.94548E+06 3.25053E+06-1.40468E+09 5.84164E+06 8.23741E+06
 -1       513 2.65417E+09-1.94548E+06 3.25053E+06-1.40468E+09 5.84164E+06 8.23741E+06
 -1       514-3.07588E+09-2.42727E+06-3.09783E+06-1.41875E+09 1.36169E+06 8.86590E+06
 -1       516-3.07588E+09-2.42727E+06-3.09783E+06-1.41875E+09 1.36169E+06 8.86590E+06
 -1       517-8.47096E+09 5.53355E+05-5.47923E+06-1.24016E+09-2.64296E+06 8.82340E+06
 -1       519-8.47096E+09 5.53355E+05-5.47923E+06-1.24016E+09-2.64296E+06 8.82340E+06
 -1       520-1.28000E+10 1.05047E+06-1.00789E+07-8.93450E+08-5.95913E+06 8.15876E+06
 -1       522-1.28000E+10 1.05047E+06-1.00789E+07-8.93450E+08-5.95913E+06 8.15876E+06
 -1       523-1.54756E+10 2.82210E+06-1.09792E+07-4.25460E+08-8.01243E+06 6.99006E+06
 -1       525-1.54756E+10 2.82210E+06-1.09792E+07-4.25460E+08-8.01243E+06 6.99006E+06
 -1       526-1.61317E+10 3.07447E+06-1.24101E+07 1.01977E+08-8.75300E+06 5.52603E+06
 -1       528-1.61317E+10 3.07447E+06-1.24101E+07 1.01977E+08-8.75300E+06 5.52603E+06
 -1       529-1.46682E+10 3.76591E+06-1.05764E+07 6.19324E+08-7.99799E+06 3.94205E+06
 -1       531-1.46682E+10 3.76591E+06-1.05764E+07 6.19324E+08-7.99799E+06 3.94205E+06
 -1       532-1.12636E+10 3.39624E+06-8.71901E+06 1.05892E+09-5.99158E+06 2.46765E+06
 -1       534-1.12636E+10 3.39624E+06-8.71901E+06 1.05892E+09-5.99158E+06 2.46765E+06
 -1       535-6.34951E+09 3.26721E+06-4.54098E+06 1.36357E+09-2.95379E+06 1.25145E+06
 -1       537-6.34951E+09 3.26721E+06-4.54098E+06 1.36357E+09-2.95379E+06 1.25145E+06
 -1       538-5.52754E+08 2.44311E+06-7.44986E+05 1.49436E+09 6.28180E+05 4.37116E+05
 -1       540-5.52754E+08 2.44311E+06-7.44986E+05 1.49436E+09 6.28180E+05 4.37116E+05
 -1       541 5.38934E+09 1.99307E+06 4.04978E+06 1.43566E+09 4.29673E+06 6.35929E+04
 -1       543 5.38934E+09 1.99307E+06 4.04978E+06 1.43566E+09 4.29673E+06 6.35929E+04
 -1       544 1.07280E+10 1.15310E+06 7.58926E+06 1.19766E+09 7.53197E+06 1.29603E+05
 -1       546 1.07280E+10 1.15310E+06 7.58926E+06 1.19766E+09 7.53197E+06 1.29603E+05
 -1       547 1.48054E+10 9.51299E+05 1.08844E+07 8.14916E+08 9.90905E+06 5.46381E+05
 -1       549 1.48054E+10 9.51299E+05 1.08844E+07 8.14916E+08 9.90905E+06 5.46381E+05
 -1       550 1.71453E+10 4.15588E+05 1.22236E+07 3.42690E+08 1.11441E+07 1.17028E+06
 -1       552 1.71453E+10 4.15588E+05 1.22236E+07 3.42690E+08 1.11441E+07 1.17028E+06
 -1       553 1.75239E+10 1.01179E+06 1.26361E+07-1.49999E+08 1.11040E+07 1.86958E+06
 -1       555 1.75239E+10 1.01179E+06 1.26361E+07-1.49999E+08 1.11040E+07 1.86958E+06
 -1       556 1.60063E+10 2.41766E+05 1.11101E+07-5.89252E+08 9.94626E+06 2.37071E+06
 -1       558 1.60063E+10 2.41766E+05 1.11101E+07-5.89252E+08 9.94626E+06 2.37071E+06
 -1       559 1.29554E+10 2.78981E+06 8.71922E+06-9.01959E+08 7.99007E+06 2.76514E+06
 -1       561 1.29554E+10 2.78981E+06 8.71922E+06-9.01959E+08 7.99007E+06 2.76514E+06
 -1       562 8.99890E+09-6.81620E+05 5.39427E+06-1.02986E+09 5.86008E+06 2.41384E+06
 -1       564 8.99890E+09-6.81620E+05 5.39427E+06-1.02986E+09 5.86008E+06 2.41384E+06
 -1       565 4.97675E+09 4.30300E+06 1.80476E+06-9.29940E+08 4.33827E+06 2.49852E+06
 -1       567 4.97675E+09 4.30300E+06 1.80476E+06-9.29940E+08 4.33827E+06 2.49852E+06
 -1       568 1.87555E+09 5.75481E+06-1.15442E+06-5.52830E+08 3.80002E+06 3.86870E+05
 -1       570 1.87555E+09 5.75481E+06-1.15442E+06-5.52830E+08 3.80002E+06 3.86870E+05
 -1       571 5.16170E+08 9.64158E+07-6.16029E+04-5.08330E+08-3.94997E+06-1.60562E+06
 -1       573 5.16170E+08 9.64158E+07-6.16029E+04-5.08330E+08-3.94997E+06-1.60562E+06
 -1       574-3.39117E-02-2.23702E-03 5.99027E-06 4.43935E+09 1.28388E+07-1.86909E-04
 -1       576-3.39117E-02-2.23702E-03 5.99027E-06 4.43935E+09 1.28388E+07-1.86909E-04
 -1       577-3.43756E-02 1.58351E-04-4.57189E-04 3.01645E+07 2.95669E+07-1.47586E-02
 -1       579-3.43756E-02 1.58351E-04-4.57189E-04 3.01645E+07 2.95669E+07-1.47586E-02
 -1       588-3.08290E-02 2.83569E-04-4.06057E-05 4.52166E+09 5.23101E+06 1.84037E-04
 -1       590-3.08290E-02 2.83569E-04-4.06057E-05 4.52166E+09 5.23101E+06 1.84037E-04
 -1       591-3.23528E-02 4.12801E-04 5.44033E-03-2.36787E+07 6.96861E+07-1.10839E-02
 -1       593-3.23528E-02 4.12801E-04 5.44033E-03-2.36787E+07 6.96861E+07-1.10839E-02
 -1       602-3.03710E-02-1.10000E-04 1.58995E-05 3.72921E+09 1.30942E+07-6.27355E-05
 -1       604-3.03710E-02-1.10000E-04 1.58995E-05 3.72921E+09 1.30942E+07-6.27355E-05
 -1       605-3.25248E-02 3.38695E-04 2.25669E-03 4.52212E+06 1.00442E+08-7.76395E-03
 -1       607-3.25248E-02 3.38695E-04 2.25669E-03 4.52212E+06 1.00442E+08-7.76395E-03
 -1       616-2.95318E-02-9.50396E-05-7.39992E-05 2.94219E+09 1.74027E+07 8.14228E-05
 -1       618-2.95318E-02-9.50396E-05-7.39992E-05 2.94219E+09 1.74027E+07 8.14228E-05
 -1       619-3.19370E-02 2.38581E-04-3.63861E-03-6.63509E+06 1.32233E+08-7.03793E-03
 -1       621-3.19370E-02 2.38581E-04-3.63861E-03-6.63509E+06 1.32233E+08-7.03793E-03
 -1       630-2.62353E-02-4.71592E-04 8.54433E-05 1.78309E+09 2.05570E+07 2.76721E-05
 -1       632-2.62353E-02-4.71592E-04 8.54433E-05 1.78309E+09 2.05570E+07 2.76721E-05
 -1       633-2.89414E-02-5.23931E-05-4.49549E-03 3.11736E+06 1.51166E+08-7.39145E-03
 -1       635-2.89414E-02-5.23931E-05-4.49549E-03 3.11736E+06 1.51166E+08-7.39145E-03
 -1       644-2.31254E-02-7.21902E-04 2.02119E-04 5.60652E+08 2.22218E+07 1.18115E-04
 -1       646-2.31254E-02-7.21902E-04 2.02119E-04 5.60652E+08 2.22218E+07 1.18115E-04
 -1       647-2.56965E-02-8.46589E-04 4.92394E-04 1.91870E+06 1.56567E+08-6.72284E-03
 -1       649-2.56965E-02-8.46589E-04 4.92394E-04 1.91870E+06 1.56567E+08-6.72284E-03
 -1       658-2.30200E-02-2.16007E-04-9.14335E-05-6.90036E+08 1.98907E+07 1.26767E-04
 -1       660-2.30200E-02-2.16007E-04-9.14335E-05-6.90036E+08 1.98907E+07 1.26767E-04
 -1       661-2.50600E-02-1.54180E-03 6.08724E-03 7.10858E+06 1.46480E+08-2.72964E-03
 -1       663-2.50600E-02-1.54180E-03 6.08724E-03 7.10858E+06 1.46480E+08-2.72964E-03
 -1       672-2.62675E-02 6.38336E-04-1.93417E-05-1.78120E+09 1.56751E+07 1.38308E-04
 -1       674-2.62675E-02 6.38336E-04-1.93417E-05-1.78120E+09 1.56751E+07 1.38308E-04
 -1       675-2.80235E-02-2.15496E-03 6.30753E-03 8.11564E+06 1.20265E+08 2.64050E-03
 -1       677-2.80235E-02-2.15496E-03 6.30753E-03 8.11564E+06 1.20265E+08 2.64050E-03
 -1       686-3.02755E-02 7.12156E-04 1.13249E-05-2.60728E+09 8.23663E+06 1.03928E-04
 -1       688-3.02755E-02 7.12156E-04 1.13249E-05-2.60728E+09 8.23663E+06 1.03928E-04
 -1       689-3.03940E-02-1.53238E-03 3.44794E-03 1.09332E+07 8.21210E+07 4.60181E-03
 -1       691-3.03940E-02-1.53238E-03 3.44794E-03 1.09332E+07 8.21210E+07 4.60181E-03
 -1       700-3.27274E-02-4.91474E-04-3.07997E-04-3.05934E+09-2.45083E+04 3.65344E-05
 -1       702-3.27274E-02-4.91474E-04-3.07997E-04-3.05934E+09-2.45083E+04 3.65344E-05
 -1       703-2.98324E-02 7.23213E-04 4.26553E-03 1.14640E+07 3.49904E+07 3.65249E-03
 -1       705-2.98324E-02 7.23213E-04 4.26553E-03 1.14640E+07 3.49904E+07 3.65249E-03
 -1       714-3.37176E-02-1.03909E-03-3.81516E-05-3.09164E+09-9.11878E+06 4.53964E-05
 -1       716-3.37176E-02-1.03909E-03-3.81516E-05-3.09164E+09-9.11878E+06 4.53964E-05
 -1       717-2.98182E-02-2.99976E-04 8.53451E-03 1.20804E+07-1.40969E+07 5.38315E-03
 -1       719-2.98182E-02-2.99976E-04 8.53451E-03 1.20804E+07-1.40969E+07 5.38315E-03
 -1       728-3.51470E-02-4.36068E-04-9.35346E-05-2.70195E+09-1.68592E+07 5.16663E-05
 -1       730-3.51470E-02-4.36068E-04-9.35346E-05-2.70195E+09-1.68592E+07 5.16663E-05
 -1       731-3.07843E-02-1.07893E-03 1.28105E-02 1.11788E+07-6.01233E+07 1.02442E-02
 -1       733-3.07843E-02-1.07893E-03 1.28105E-02 1.11788E+07-6.01233E+07 1.02442E-02
 -1       742-3.75962E-02 2.25008E-04 4.79102E-04-1.94682E+09-2.27625E+07-3.87763E-05
 -1       744-3.75962E-02 2.25008E-04 4.79102E-04-1.94682E+09-2.27625E+07-3.87763E-05
 -1       745-3.20321E-02 2.98089E-05 1.41014E-02 9.91011E+06-9.64598E+07 1.47650E-02
 -1       747-3.20321E-02 2.98089E-05 1.41014E-02 9.91011E+06-9.64598E+07 1.47650E-02
 -1       756-4.14288E-02-4.05848E-04 6.15209E-04-9.26609E+08-2.53486E+07-1.01004E-04
 -1       758-4.14288E-02-4.05848E-04 6.15209E-04-9.26609E+08-2.53486E+07-1.01004E-04
 -1       759-3.42037E-02 2.96549E-04 1.14112E-02 7.77807E+06-1.19194E+08 1.80882E-02
 -1       761-3.42037E-02 2.96549E-04 1.14112E-02 7.77807E+06-1.19194E+08 1.80882E-02
 -1       770-4.64046E-02-1.92690E-03-6.24597E-04 2.22849E+08-2.44647E+07 8.89716E-06
 -1       772-4.64046E-02-1.92690E-03-6.24597E-04 2.22849E+08-2.44647E+07 8.89716E-06
 -1       773-3.76114E-02 7.16365E-04 8.44674E-03 5.51221E+06-1.24991E+08 1.86782E-02
 -1       775-3.76114E-02 7.16365E-04 8.44674E-03 5.51221E+06-1.24991E+08 1.86782E-02
 -1       784-4.87919E-02-2.29600E-03-1.77145E-04 1.35062E+09-1.97150E+07-1.40814E-04
 -1       786-4.87919E-02-2.29600E-03-1.77145E-04 1.35062E+09-1.97150E+07-1.40814E-04
 -1       787-4.09115E-02-3.26374E-04 7.57156E-03 3.09596E+06-1.13571E+08 1.68113E-02
 -1       789-4.09115E-02-3.26374E-04 7.57156E-03 3.09596E+06-1.13571E+08 1.68113E-02
 -1       798-4.90707E-02-1.45519E-03-2.57760E-04 2.30882E+09-1.17104E+07 3.00007E-05
 -1       800-4.90707E-02-1.45519E-03-2.57760E-04 2.30882E+09-1.17104E+07 3.00007E-05
 -1       801-4.18491E-02-6.72316E-04 5.33544E-03 1.03688E+06-8.62725E+07 1.46388E-02
 -1       803-4.18491E-02-6.72316E-04 5.33544E-03 1.03688E+06-8.62725E+07 1.46388E-02
 -1       812-5.09709E-02 5.20937E-04-3.33622E-04 2.97309E+09-1.14113E+06 4.66222E-05
 -1       814-5.09709E-02 5.20937E-04-3.33622E-04 2.97309E+09-1.14113E+06 4.66222E-05
 -1       815-4.33288E-02-2.57684E-04 1.30972E-03-5.69127E+05-4.69410E+07 8.73977E-03
 -1       817-4.33288E-02-2.57684E-04 1.30972E-03-5.69127E+05-4.69410E+07 8.73977E-03
 -1       826-5.41358E-02 1.57243E-03-8.00714E-05 3.25836E+09 1.07202E+07-3.51598E-05
 -1       828-5.41358E-02 1.57243E-03-8.00714E-05 3.25836E+09 1.07202E+07-3.51598E-05
 -1       829-4.57219E-02-1.65350E-04 7.85382E-04-1.43787E+06-7.61838E+05 1.69288E-03
 -1       831-4.57219E-02-1.65350E-04 7.85382E-04-1.43787E+06-7.61838E+05 1.69288E-03
 -1       840-5.61216E-02 1.61637E-03 3.18043E-04 3.13093E+09 2.25307E+07 1.70289E-04
 -1       842-5.61216E-02 1.61637E-03 3.18043E-04 3.13093E+09 2.25307E+07 1.70289E-04
 -1       843-4.70406E-02 1.13186E-04 1.60452E-03-1.60197E+06 4.60609E+07-1.55746E-03
 -1       845-4.70406E-02 1.13186E-04 1.60452E-03-1.60197E+06 4.60609E+07-1.55746E-03
 -1       854-5.60697E-02 1.30382E-03 7.91848E-05 2.61258E+09 3.28890E+07 4.48099E-05
 -1       856-5.60697E-02 1.30382E-03 7.91848E-05 2.61258E+09 3.28890E+07 4.48099E-05
 -1       857-4.68565E-02 4.00487E-04 6.29549E-04-9.77416E+05 8.71403E+07-3.17640E-03
 -1       859-4.68565E-02 4.00487E-04 6.29549E-04-9.77416E+05 8.71403E+07-3.17640E-03
 -1       868-5.35936E-02 5.70834E-04-1.09017E-04 1.77937E+09 4.04817E+07 1.65803E-04
 -1       870-5.35936E-02 5.70834E-04-1.09017E-04 1.77937E+09 4.04817E+07 1.65803E-04
 -1       871-4.46853E-02 1.72595E-04 4.96449E-04 9.23689E+04 1.17016E+08-5.94736E-03
 -1       873-4.46853E-02 1.72595E-04 4.96449E-04 9.23689E+04 1.17016E+08-5.94736E-03
 -1       882-4.88417E-02-1.14024E-04-1.20282E-04 7.51007E+08 4.44389E+07 1.81307E-04
 -1       884-4.88417E-02-1.14024E-04-1.20282E-04 7.51007E+08 4.44389E+07 1.81307E-04
 -1       885-4.04544E-02-3.72002E-04 3.93153E-03 1.72959E+06 1.31245E+08-1.02490E-02
 -1       887-4.04544E-02-3.72002E-04 3.93153E-03 1.72959E+06 1.31245E+08-1.02490E-02
 -1       896-4.20487E-02-1.20258E-03-8.95083E-04-3.21153E+08 4.40775E+07 2.74449E-04
 -1       898-4.20487E-02-1.20258E-03-8.95083E-04-3.21153E+08 4.40775E+07 2.74449E-04
 -1       899-3.26346E-02 6.17188E-04 1.15326E-02 2.97499E+06 1.27981E+08-1.33999E-02
 -1       901-3.26346E-02 6.17188E-04 1.15326E-02 2.97499E+06 1.27981E+08-1.33999E-02
 -1       910-3.31385E-02-1.01894E-03-1.63913E-04-1.27589E+09 3.94865E+07 5.68330E-05
 -1       912-3.31385E-02-1.01894E-03-1.63913E-04-1.27589E+09 3.94865E+07 5.68330E-05
 -1       913-2.40534E-02 1.13139E-03 1.71000E-02 4.71005E+06 1.06841E+08-1.28058E-02
 -1       915-2.40534E-02 1.13139E-03 1.71000E-02 4.71005E+06 1.06841E+08-1.28058E-02
 -1       924-2.54910E-02 5.47528E-04 1.17004E-04-1.95493E+09 3.08428E+07 8.80782E-05
 -1       926-2.54910E-02 5.47528E-04 1.17004E-04-1.95493E+09 3.08428E+07 8.80782E-05
 -1       927-1.78256E-02 6.51899E-04 1.64917E-02 4.52062E+06 7.07853E+07-9.44363E-03
 -1       929-1.78256E-02 6.51899E-04 1.64917E-02 4.52062E+06 7.07853E+07-9.44363E-03
 -1       938-2.01472E-02 4.06295E-04-5.86510E-05-2.23026E+09 1.92263E+07-2.08765E-05
 -1       940-2.01472E-02 4.06295E-04-5.86510E-05-2.23026E+09 1.92263E+07-2.08765E-05
 -1       941-1.25723E-02 9.21295E-04 1.49341E-02 5.62705E+06 2.40049E+07-8.24284E-03
 -1       943-1.25723E-02 9.21295E-04 1.49341E-02 5.62705E+06 2.40049E+07-8.24284E-03
 -1       952-1.49100E-02-1.24761E-03 1.04249E-04-1.99137E+09 5.72077E+06-6.65270E-05
 -1       954-1.49100E-02-1.24761E-03 1.04249E-04-1.99137E+09 5.72077E+06-6.65270E-05
 -1       955-8.01228E-03 4.53447E-04 1.40313E-02 2.25326E+06-2.65717E+07-7.45352E-03
 -1       957-8.01228E-03 4.53447E-04 1.40313E-02 2.25326E+06-2.65717E+07-7.45352E-03
 -1       966-8.61424E-03-1.51733E-03 4.76960E-04-1.22835E+09-6.79012E+06 1.37406E-04
 -1       968-8.61424E-03-1.51733E-03 4.76960E-04-1.22835E+09-6.79012E+06 1.37406E-04
 -1       969-4.32965E-03-1.13698E-03 1.28188E-02 2.92488E+06-6.96330E+07-4.16422E-03
 -1       971-4.32965E-03-1.13698E-03 1.28188E-02 2.92488E+06-6.96330E+07-4.16422E-03
 -1       980-1.19467E+10-1.16030E+09-2.38374E+06 3.30232E+09 1.39640E+07-6.65791E+07
 -1       982-1.19467E+10-1.16030E+09-2.38374E+06 3.30232E+09 1.39640E+07-6.65791E+07
 -1       983-5.16170E+08-9.64158E+07 6.16029E+04-5.08330E+08-3.94997E+06 1.60562E+06
 -1       985-5.16170E+08-9.64158E+07 6.16029E+04-5.08330E+08-3.94997E+06 1.60562E+06
 -1       986 1.40777E+10 4.71275E+08 4.66016E+05 2.31508E+09 4.94821E+06 3.65875E+07
 -1       988 1.40777E+10 4.71275E+08 4.66016E+05 2.31508E+09 4.94821E+06 3.65875E+07
 -1       989 5.70500E+09-2.22676E+08 3.05336E+06 1.91547E+09 8.37016E+06-3.52230E+06
 -1       991 5.70500E+09-2.22676E+08 3.05336E+06 1.91547E+09 8.37016E+06-3.52230E+06
 -1       992-1.80309E+09 1.11750E+08-5.77041E+05 1.77440E+09 1.36511E+07 1.34650E+07
 -1       994-1.80309E+09 1.11750E+08-5.77041E+05 1.77440E+09 1.36511E+07 1.34650E+07
 -1       995-7.99442E+09-4.46873E+07-9.77980E+06 1.31210E+09 1.58589E+07 2.60182E+06
 -1       997-7.99442E+09-4.46873E+07-9.77980E+06 1.31210E+09 1.58589E+07 2.60182E+06
 -1       998-1.23280E+10 3.16538E+07-7.00069E+06 8.28864E+08 1.75764E+07 4.14267E+06
 -1      1000-1.23280E+10 3.16538E+07-7.00069E+06 8.28864E+08 1.75764E+07 4.14267E+06
 -1      1001-1.44894E+10-5.31450E+06-1.37950E+07 2.48038E+08 1.76038E+07-4.56079E+05
 -1      1003-1.44894E+10-5.31450E+06-1.37950E+07 2.48038E+08 1.76038E+07-4.56079E+05
 -1      1004-1.43428E+10 1.34072E+07-8.91801E+06-3.15526E+08 1.62435E+07-2.26607E+06
 -1      1006-1.43428E+10 1.34072E+07-8.91801E+06-3.15526E+08 1.62435E+07-2.26607E+06
 -1      1007-1.20305E+10 2.33862E+06-1.09431E+07-8.19974E+08 1.37145E+07-5.05546E+06
 -1      1009-1.20305E+10 2.33862E+06-1.09431E+07-8.19974E+08 1.37145E+07-5.05546E+06
 -1      1010-7.93446E+09 6.88774E+06-4.69646E+06-1.19648E+09 1.00100E+07-6.83512E+06
 -1      1012-7.93446E+09 6.88774E+06-4.69646E+06-1.19648E+09 1.00100E+07-6.83512E+06
 -1      1013-2.65417E+09 1.94548E+06-3.25053E+06-1.40468E+09 5.84164E+06-8.23741E+06
 -1      1015-2.65417E+09 1.94548E+06-3.25053E+06-1.40468E+09 5.84164E+06-8.23741E+06
 -1      1016 3.07588E+09 2.42727E+06 3.09783E+06-1.41875E+09 1.36169E+06-8.86590E+06
 -1      1018 3.07588E+09 2.42727E+06 3.09783E+06-1.41875E+09 1.36169E+06-8.86590E+06
 -1      1019 8.47096E+09-5.53355E+05 5.47923E+06-1.24016E+09-2.64296E+06-8.82340E+06
 -1      1021 8.47096E+09-5.53355E+05 5.47923E+06-1.24016E+09-2.64296E+06-8.82340E+06
 -1      1022 1.28000E+10-1.05047E+06 1.00789E+07-8.93450E+08-5.95913E+06-8.15876E+06
 -1      1024 1.28000E+10-1.05047E+06 1.00789E+07-8.93450E+08-5.95913E+06-8.15876E+06
 -1      1025 1.54756E+10-2.82210E+06 1.09792E+07-4.25460E+08-8.01243E+06-6.99006E+06
 -1      1027 1.54756E+10-2.82210E+06 1.09792E+07-4.25460E+08-8.01243E+06-6.99006E+06
 -1      1028 1.61317E+10-3.07447E+06 1.24101E+07 1.01977E+08-8.75300E+06-5.52603E+06
 -1      1030 1.61317E+10-3.07447E+06 1.24101E+07 1.01977E+08-8.75300E+06-5.52603E+06
 -1      1031 1.46682E+10-3.76591E+06 1.05764E+07 6.19324E+08-7.99799E+06-3.94205E+06
 -1      1033 1.46682E+10-3.76591E+06 1.05764E+07 6.19324E+08-7.99799E+06-3.94205E+06
 -1      1034 1.12636E+10-3.39624E+06 8.71901E+06 1.05892E+09-5.99158E+06-2.46765E+06
 -1      1036 1.12636E+10-3.39624E+06 8.71901E+06 1.05892E+09-5.99158E+06-2.46765E+06
 -1      1037 6.34951E+09-3.26721E+06 4.54098E+06 1.36357E+09-2.95379E+06-1.25145E+06
 -1      1039 6.34951E+09-3.26721E+06 4.54098E+06 1.36357E+09-2.95379E+06-1.25145E+06
 -1      1040 5.52754E+08-2.44311E+06 7.44986E+05 1.49436E+09 6.28180E+05-4.37116E+05
 -1      1042 5.52754E+08-2.44311E+06 7.44986E+05 1.49436E+09 6.28180E+05-4.37116E+05
 -1      1043-5.38934E+09-1.99307E+06-4.04978E+06 1.43566E+09 4.29673E+06-6.35929E+04
 -1      1045-5.38934E+09-1.99307E+06-4.04978E+06 1.43566E+09 4.29673E+06-6.35929E+04
 -1      1046-1.07280E+10-1.15310E+06-7.58926E+06 1.19766E+09 7.53197E+06-1.29603E+05
 -1      1048-1.07280E+10-1.15310E+06-7.58926E+06 1.19766E+09 7.53197E+06-1.29603E+05
 -1      1049-1.48054E+10-9.51299E+05-1.08844E+07 8.14916E+08 9.90905E+06-5.46381E+05
 -1      1051-1.48054E+10-9.51299E+05-1.08844E+07 8.14916E+08 9.90905E+06-5.46381E+05
 -1      1052-1.71453E+10-4.15588E+05-1.22236E+07 3.42690E+08 1.11441E+07-1.17028E+06
 -1      1054-1.71453E+10-4.15588E+05-1.22236E+07 3.42690E+08 1.11441E+07-1.17028E+06
 -1      1055-1.75239E+10-1.01179E+06-1.26361E+07-1.49999E+08 1.11040E+07-1.86958E+06
 -1      1057-1.75239E+10-1.01179E+06-1.26361E+07-1.49999E+08 1.11040E+07-1.86958E+06
 -1      1058-1.60063E+10-2.41766E+05-1.11101E+07-5.89252E+08 9.94626E+06-2.37071E+06
 -1      1060-1.60063E+10-2.41766E+05-1.11101E+07-5.89252E+08 9.94626E+06-2.37071E+06
 -1      1061-1.29554E+10-2.78981E+06-8.71922E+06-9.01959E+08 7.99007E+06-2.76514E+06
 -1      1063-1.29554E+10-2.78981E+06-8.71922E+06-9.01959E+08 7.99007E+06-2.76514E+06
 -1      1064-8.99890E+09 6.81620E+05-5.39427E+06-1.02986E+09 5.86008E+06-2.41384E+06
 -1      1066-8.99890E+09 6.81620E+05-5.39427E+06-1.02986E+09 5.86008E+06-2.41384E+06
 -1      1067-4.97675E+09-4.30300E+06-1.80476E+06-9.29940E+08 4.33827E+06-2.49852E+06
 -1      1069-4.97675E+09-4.30300E+06-1.80476E+06-9.29940E+08 4.33827E+06-2.49852E+06
 -1      1070-1.87555E+09-5.75481E+06 1.15442E+06-5.52830E+08 3.80002E+06-3.86870E+05
 -1      1072-1.87555E+09-5.75481E+06 1.15442E+06-5.52830E+08 3.80002E+06-3.86870E+05
 -1      1073 1.19467E+10 1.16030E+09 2.38374E+06 3.30232E+09 1.39640E+07 6.65791E+07
 -1      1075 1.19467E+10 1.16030E+09 2.38374E+06 3.30232E+09 1.39640E+07 6.65791E+07
 -1      1076-3.53710E-02 2.53122E-05-5.40364E-03 2.85110E+08-3.85115E+06-1.44703E-02
 -1      1078-3.53710E-02 2.53122E-05-5.40364E-03 2.85110E+08-3.85115E+06-1.44703E-02
 -1      1079-3.65759E-02 1.19019E-04-5.36299E-03 4.27924E+08-2.08697E-04-1.12614E-02
 -1      1081-3.65759E-02 1.19019E-04-5.36299E-03 4.27924E+08-2.08697E-04-1.12614E-02
 -1      1082-3.93803E-02 1.79377E-04-5.50479E-03 2.85110E+08 3.85115E+06-6.36698E-03
 -1      1084-3.93803E-02 1.79377E-04-5.50479E-03 2.85110E+08 3.85115E+06-6.36698E-03
 -1      1085-4.07507E-02 2.51880E-04-2.41618E-03 3.01645E+07-2.95669E+07-6.28394E-03
 -1      1087-4.07507E-02 2.51880E-04-2.41618E-03 3.01645E+07-2.95669E+07-6.28394E-03
 -1      1088-4.08599E-02-2.22865E-03-1.01030E-05 4.43935E+09-1.28388E+07 1.20286E-04
 -1      1090-4.08599E-02-2.22865E-03-1.01030E-05 4.43935E+09-1.28388E+07 1.20286E-04
 -1      1099-4.17548E-02 4.13239E-04-6.21648E-04-2.36787E+07-6.96861E+07-1.03036E-02
 -1      1101-4.17548E-02 4.13239E-04-6.21648E-04-2.36787E+07-6.96861E+07-1.03036E-02
 -1      1102-4.23527E-02 1.15504E-03 1.90273E-04 4.52166E+09-5.23101E+06-2.63061E-05
 -1      1104-4.23527E-02 1.15504E-03 1.90273E-04 4.52166E+09-5.23101E+06-2.63061E-05
 -1      1113-4.35705E-02 2.94604E-04-3.00945E-03 4.52212E+06-1.00442E+08-1.06557E-02
 -1      1115-4.35705E-02 2.94604E-04-3.00945E-03 4.52212E+06-1.00442E+08-1.06557E-02
 -1      1116-4.50840E-02-1.04517E-04 1.85192E-04 3.72921E+09-1.30942E+07 8.60642E-05
 -1      1118-4.50840E-02-1.04517E-04 1.85192E-04 3.72921E+09-1.30942E+07 8.60642E-05
 -1      1127-4.58705E-02 5.73987E-04-5.68455E-03-6.63509E+06-1.32233E+08-9.01150E-03
 -1      1129-4.58705E-02 5.73987E-04-5.68455E-03-6.63509E+06-1.32233E+08-9.01150E-03
 -1      1130-4.77169E-02-6.56903E-04 1.89826E-04 2.94219E+09-1.74027E+07 6.18269E-06
 -1      1132-4.77169E-02-6.56903E-04 1.89826E-04 2.94219E+09-1.74027E+07 6.18269E-06
 -1      1141-4.75529E-02 2.62581E-06-9.01528E-03 3.11736E+06-1.51166E+08-6.63557E-03
 -1      1143-4.75529E-02 2.62581E-06-9.01528E-03 3.11736E+06-1.51166E+08-6.63557E-03
 -1      1144-4.83854E-02 5.56558E-04 2.89142E-04 1.78309E+09-2.05570E+07 3.38152E-05
 -1      1146-4.83854E-02 5.56558E-04 2.89142E-04 1.78309E+09-2.05570E+07 3.38152E-05
 -1      1155-4.75560E-02-1.52673E-03-1.03798E-02 1.91870E+06-1.56567E+08-2.39852E-03
 -1      1157-4.75560E-02-1.52673E-03-1.03798E-02 1.91870E+06-1.56567E+08-2.39852E-03
 -1      1158-4.67877E-02 8.39978E-04 2.57969E-04 5.60652E+08-2.22218E+07-2.25187E-05
 -1      1160-4.67877E-02 8.39978E-04 2.57969E-04 5.60652E+08-2.22218E+07-2.25187E-05
 -1      1169-4.49114E-02-2.29633E-03-6.73004E-03 7.10858E+06-1.46480E+08 2.74708E-03
 -1      1171-4.49114E-02-2.29633E-03-6.73004E-03 7.10858E+06-1.46480E+08 2.74708E-03
 -1      1172-4.31676E-02-1.81109E-04-1.50889E-04-6.90036E+08-1.98907E+07-7.27708E-06
 -1      1174-4.31676E-02-1.81109E-04-1.50889E-04-6.90036E+08-1.98907E+07-7.27708E-06
 -1      1183-4.09776E-02-1.35102E-03-1.29560E-03 8.11564E+06-1.20265E+08 4.66290E-03
 -1      1185-4.09776E-02-1.35102E-03-1.29560E-03 8.11564E+06-1.20265E+08 4.66290E-03
 -1      1186-4.03476E-02-8.19236E-04-1.92046E-04-1.78120E+09-1.56751E+07-6.61680E-05
 -1      1188-4.03476E-02-8.19236E-04-1.92046E-04-1.78120E+09-1.56751E+07-6.61680E-05
 -1      1197-3.85404E-02-5.77372E-04-6.87658E-04 1.09332E+07-8.21210E+07 3.70341E-03
 -1      1199-3.85404E-02-5.77372E-04-6.87658E-04 1.09332E+07-8.21210E+07 3.70341E-03
 -1      1200-3.92060E-02 3.12716E-04-6.15865E-05-2.60728E+09-8.23663E+06-1.64562E-04
 -1      1202-3.92060E-02 3.12716E-04-6.15865E-05-2.60728E+09-8.23663E+06-1.64562E-04
 -1      1211-3.60440E-02-4.06539E-04-3.17810E-03 1.14640E+07-3.49904E+07 5.49261E-03
 -1      1213-3.60440E-02-4.06539E-04-3.17810E-03 1.14640E+07-3.49904E+07 5.49261E-03
 -1      1214-3.63724E-02 1.49838E-03 1.97249E-04-3.05934E+09 2.45083E+04-1.90272E-04
 -1      1216-3.63724E-02 1.49838E-03 1.97249E-04-3.05934E+09 2.45083E+04-1.90272E-04
 -1      1225-3.12380E-02-1.12931E-03-1.84459E-03 1.20804E+07 1.40969E+07 1.00771E-02
 -1      1227-3.12380E-02-1.12931E-03-1.84459E-03 1.20804E+07 1.40969E+07 1.00771E-02
 -1      1228-3.13188E-02 1.38452E-03 6.55862E-04-3.09164E+09 9.11878E+06-1.58957E-04
 -1      1230-3.13188E-02 1.38452E-03 6.55862E-04-3.09164E+09 9.11878E+06-1.58957E-04
 -1      1239-2.61389E-02-1.48971E-04 4.96997E-03 1.11788E+07 6.01233E+07 1.37315E-02
 -1      1241-2.61389E-02-1.48971E-04 4.96997E-03 1.11788E+07 6.01233E+07 1.37315E-02
 -1      1242-2.72973E-02 9.10237E-04 3.33011E-04-2.70195E+09 1.68592E+07-2.34653E-04
 -1      1244-2.72973E-02 9.10237E-04 3.33011E-04-2.70195E+09 1.68592E+07-2.34653E-04
 -1      1253-2.33310E-02-2.03637E-03 1.06367E-02 9.91011E+06 9.64598E+07 1.48597E-02
 -1      1255-2.33310E-02-2.03637E-03 1.06367E-02 9.91011E+06 9.64598E+07 1.48597E-02
 -1      1256-2.37064E-02 5.91666E-04 4.79400E-04-1.94682E+09 2.27625E+07-1.67084E-04
 -1      1258-2.37064E-02 5.91666E-04 4.79400E-04-1.94682E+09 2.27625E+07-1.67084E-04
 -1      1267-2.04861E-02-4.58008E-03 1.17472E-02 7.77807E+06 1.19194E+08 1.46283E-02
 -1      1269-2.04861E-02-4.58008E-03 1.17472E-02 7.77807E+06 1.19194E+08 1.46283E-02
 -1      1270-1.85711E-02 1.29846E-03 6.92666E-04-9.26609E+08 2.53486E+07-1.67592E-04
 -1      1272-1.85711E-02 1.29846E-03 6.92666E-04-9.26609E+08 2.53486E+07-1.67592E-04
 -1      1281-1.39081E-02-1.40984E-03 1.30944E-02 5.51221E+06 1.24991E+08 1.61125E-02
 -1      1283-1.39081E-02-1.40984E-03 1.30944E-02 5.51221E+06 1.24991E+08 1.61125E-02
 -1      1284-1.17371E-02 1.18023E-03 2.15769E-05 2.22849E+08 2.44647E+07-9.94273E-05
 -1      1286-1.17371E-02 1.18023E-03 2.15769E-05 2.22849E+08 2.44647E+07-9.94273E-05
 -1      1295-6.15573E-03-2.72186E-04 1.48852E-02 3.09596E+06 1.13571E+08 1.55017E-02
 -1      1297-6.15573E-03-2.72186E-04 1.48852E-02 3.09596E+06 1.13571E+08 1.55017E-02
 -1      1298-3.87907E-03-4.50522E-04 4.73559E-04 1.35062E+09 1.97150E+07 4.41826E-05
 -1      1300-3.87907E-03-4.50522E-04 4.73559E-04 1.35062E+09 1.97150E+07 4.41826E-05
 -1      1309 5.52868E-04 6.89933E-04 1.34820E-02 1.03688E+06 8.62725E+07 9.34530E-03
 -1      1311 5.52868E-04 6.89933E-04 1.34820E-02 1.03688E+06 8.62725E+07 9.34530E-03
 -1      1312 3.38185E-03-1.04371E-03 3.08305E-04 2.30882E+09 1.17104E+07-1.01127E-04
 -1      1314 3.38185E-03-1.04371E-03 3.08305E-04 2.30882E+09 1.17104E+07-1.01127E-04
 -1      1323 5.74845E-03 3.18153E-04 8.93172E-03-5.69127E+05 4.69410E+07 4.77497E-03
 -1      1325 5.74845E-03 3.18153E-04 8.93172E-03-5.69127E+05 4.69410E+07 4.77497E-03
 -1      1326 9.76723E-03-1.21937E-03-4.78767E-04 2.97309E+09 1.14113E+06-6.59795E-05
 -1      1328 9.76723E-03-1.21937E-03-4.78767E-04 2.97309E+09 1.14113E+06-6.59795E-05
 -1      1337 9.85900E-03 9.94093E-04 7.85146E-03-1.43787E+06 7.61838E+05 1.77613E-03
 -1      1339 9.85900E-03 9.94093E-04 7.85146E-03-1.43787E+06 7.61838E+05 1.77613E-03
 -1      1340 1.40058E-02-2.54472E-03 2.00473E-04 3.25836E+09-1.07202E+07 4.49496E-05
 -1      1342 1.40058E-02-2.54472E-03 2.00473E-04 3.25836E+09-1.07202E+07 4.49496E-05
 -1      1351 1.12411E-02 2.69432E-03 8.23153E-03-1.60197E+06-4.60609E+07-2.41587E-03
 -1      1353 1.12411E-02 2.69432E-03 8.23153E-03-1.60197E+06-4.60609E+07-2.41587E-03
 -1      1354 1.49548E-02-2.44660E-03-3.84003E-05 3.13093E+09-2.25307E+07-9.29995E-05
 -1      1356 1.49548E-02-2.44660E-03-3.84003E-05 3.13093E+09-2.25307E+07-9.29995E-05
 -1      1365 9.95341E-03 1.45753E-03 7.33951E-03-9.77416E+05-8.71403E+07-3.75005E-03
 -1      1367 9.95341E-03 1.45753E-03 7.33951E-03-9.77416E+05-8.71403E+07-3.75005E-03
 -1      1368 1.44023E-02-6.19560E-04-2.44528E-04 2.61258E+09-3.28890E+07 2.37578E-05
 -1      1370 1.44023E-02-6.19560E-04-2.44528E-04 2.61258E+09-3.28890E+07 2.37578E-05
 -1      1379 8.42985E-03 9.16773E-04 9.85832E-03 9.23689E+04-1.17016E+08-3.96809E-03
 -1      1381 8.42985E-03 9.16773E-04 9.85832E-03 9.23689E+04-1.17016E+08-3.96809E-03
 -1      1382 1.26274E-02-7.40409E-04-4.55499E-04 1.77937E+09-4.04817E+07 6.82613E-06
 -1      1384 1.26274E-02-7.40409E-04-4.55499E-04 1.77937E+09-4.04817E+07 6.82613E-06
 -1      1393 5.98855E-03 7.09775E-04 1.36302E-02 1.72959E+06-1.31245E+08-8.12546E-03
 -1      1395 5.98855E-03 7.09775E-04 1.36302E-02 1.72959E+06-1.31245E+08-8.12546E-03
 -1      1396 9.28330E-03-1.35481E-03-9.37045E-04 7.51007E+08-4.44389E+07 2.60962E-06
 -1      1398 9.28330E-03-1.35481E-03-9.37045E-04 7.51007E+08-4.44389E+07 2.60962E-06
 -1      1407 3.35760E-03 1.88404E-04 1.42124E-02 2.97499E+06-1.27981E+08-1.31795E-02
 -1      1409 3.35760E-03 1.88404E-04 1.42124E-02 2.97499E+06-1.27981E+08-1.31795E-02
 -1      1410 5.96809E-03-6.92129E-04-1.16432E-03-3.21153E+08-4.40775E+07-5.67762E-05
 -1      1412 5.96809E-03-6.92129E-04-1.16432E-03-3.21153E+08-4.40775E+07-5.67762E-05
 -1      1421 1.41013E-03-1.05508E-03 1.08492E-02 4.71005E+06-1.06841E+08-1.37576E-02
 -1      1423 1.41013E-03-1.05508E-03 1.08492E-02 4.71005E+06-1.06841E+08-1.37576E-02
 -1      1424 4.12512E-03 1.08600E-03-1.36435E-04-1.27589E+09-3.94865E+07 3.28826E-05
 -1      1426 4.12512E-03 1.08600E-03-1.36435E-04-1.27589E+09-3.94865E+07 3.28826E-05
 -1      1435 8.92207E-04-1.43191E-03 7.20399E-03 4.52062E+06-7.07853E+07-1.11954E-02
 -1      1437 8.92207E-04-1.43191E-03 7.20399E-03 4.52062E+06-7.07853E+07-1.11954E-02
 -1      1438 3.05343E-03 1.11595E-03 8.92282E-05-1.95493E+09-3.08428E+07 9.07052E-05
 -1      1440 3.05343E-03 1.11595E-03 8.92282E-05-1.95493E+09-3.08428E+07 9.07052E-05
 -1      1449 1.19821E-03-1.21305E-03 5.68462E-03 5.62705E+06-2.40049E+07-9.05735E-03
 -1      1451 1.19821E-03-1.21305E-03 5.68462E-03 5.62705E+06-2.40049E+07-9.05735E-03
 -1      1452 2.39968E-03 3.35529E-04 1.67280E-04-2.23026E+09-1.92263E+07 1.44211E-04
 -1      1454 2.39968E-03 3.35529E-04 1.67280E-04-2.23026E+09-1.92263E+07 1.44211E-04
 -1      1463 7.66436E-04-7.64921E-04 4.14453E-03 2.25326E+06 2.65717E+07-8.25845E-03
 -1      1465 7.66436E-04-7.64921E-04 4.14453E-03 2.25326E+06 2.65717E+07-8.25845E-03
 -1      1466 1.51938E-03 2.06247E-04 5.71817E-04-1.99137E+09-5.72077E+06 1.77566E-04
 -1      1468 1.51938E-03 2.06247E-04 5.71817E-04-1.99137E+09-5.72077E+06 1.77566E-04
 -1      1477-8.58429E-05-1.97799E-05 2.19595E-03 2.92488E+06 6.96330E+07-4.08242E-03
 -1      1479-8.58429E-05-1.97799E-05 2.19595E-03 2.92488E+06 6.96330E+07-4.08242E-03
 -1      1480 3.82558E-04 2.39134E-04-2.46041E-04-1.22835E+09 6.79012E+06-5.67455E-05
 -1      1482 3.82558E-04 2.39134E-04-2.46041E-04-1.22835E+09 6.79012E+06-5.67455E-05
 -1      1491-2.70871E-03-2.88112E-03 1.19122E-02 1.12360E+07-7.83983E+06-2.22520E-03
 -1      1493-2.70871E-03-2.88112E-03 1.19122E-02 1.12360E+07-7.83983E+06-2.22520E-03
 -1      1494-2.11865E-03-3.34716E-03 9.61321E-03 1.26594E+07-7.45061E-03-1.12727E-03
 -1      1496-2.11865E-03-3.34716E-03 9.61321E-03 1.26594E+07-7.45061E-03-1.12727E-03
 -1      1497-9.39243E-04-1.60267E-03 4.61201E-03 1.12360E+07 7.83983E+06-1.65849E-04
 -1      1499-9.39243E-04-1.60267E-03 4.61201E-03 1.12360E+07 7.83983E+06-1.65849E-04
 -1      1500 1.40777E+10 4.71275E+08 4.66016E+05 2.31508E+09-4.94821E+06-3.65875E+07
 -1      1502 1.40777E+10 4.71275E+08 4.66016E+05 2.31508E+09-4.94821E+06-3.65875E+07
 -1      1503 5.70500E+09-2.22676E+08 3.05336E+06 1.91547E+09-8.37016E+06 3.52230E+06
 -1      1505 5.70500E+09-2.22676E+08 3.05336E+06 1.91547E+09-8.37016E+06 3.52230E+06
 -1      1506-1.80309E+09 1.11750E+08-5.77041E+05 1.77440E+09-1.36511E+07-1.34650E+07
 -1      1508-1.80309E+09 1.11750E+08-5.77041E+05 1.77440E+09-1.36511E+07-1.34650E+07
 -1      1509-7.99442E+09-4.46873E+07-9.77980E+06 1.31210E+09-1.58589E+07-2.60182E+06
 -1      1511-7.99442E+09-4.46873E+07-9.77980E+06 1.31210E+09-1.58589E+07-2.60182E+06
 -1      1512-1.23280E+10 3.16538E+07-7.00069E+06 8.28864E+08-1.75764E+07-4.14267E+06
 -1      1514-1.23280E+10 3.16538E+07-7.00069E+06 8.28864E+08-1.75764E+07-4.14267E+06
 -1      1515-1.44894E+10-5.31450E+06-1.37950E+07 2.48038E+08-1.76038E+07 4.56079E+05
 -1      1517-1.44894E+10-5.31450E+06-1.37950E+07 2.48038E+08-1.76038E+07 4.56079E+05
 -1      1518-1.43428E+10 1.34072E+07-8.91801E+06-3.15526E+08-1.62435E+07 2.26607E+06
 -1      1520-1.43428E+10 1.34072E+07-8.91801E+06-3.15526E+08-1.62435E+07 2.26607E+06
 -1      1521-1.20305E+10 2.33862E+06-1.09431E+07-8.19974E+08-1.37145E+07 5.05546E+06
 -1      1523-1.20305E+10 2.33862E+06-1.09431E+07-8.19974E+08-1.37145E+07 5.05546E+06
 -1      1524-7.93446E+09 6.88774E+06-4.69646E+06-1.19648E+09-1.00100E+07 6.83512E+06
 -1      1526-7.93446E+09 6.88774E+06-4.69646E+06-1.19648E+09-1.00100E+07 6.83512E+06
 -1      1527-2.65417E+09 1.94548E+06-3.25053E+06-1.40468E+09-5.84164E+06 8.23741E+06
 -1      1529-2.65417E+09 1.94548E+06-3.25053E+06-1.40468E+09-5.84164E+06 8.23741E+06
 -1      1530 3.07588E+09 2.42727E+06 3.09783E+06-1.41875E+09-1.36169E+06 8.86590E+06
 -1      1532 3.07588E+09 2.42727E+06 3.09783E+06-1.41875E+09-1.36169E+06 8.86590E+06
 -1      1533 8.47096E+09-5.53355E+05 5.47923E+06-1.24016E+09 2.64296E+06 8.82340E+06
 -1      1535 8.47096E+09-5.53355E+05 5.47923E+06-1.24016E+09 2.64296E+06 8.82340E+06
 -1      1536 1.28000E+10-1.05047E+06 1.00789E+07-8.93450E+08 5.95913E+06 8.15876E+06
 -1      1538 1.28000E+10-1.05047E+06 1.00789E+07-8.93450E+08 5.95913E+06 8.15876E+06
 -1      1539 1.54756E+10-2.82210E+06 1.09792E+07-4.25460E+08 8.01243E+06 6.99006E+06
 -1      1541 1.54756E+10-2.82210E+06 1.09792E+07-4.25460E+08 8.01243E+06 6.99006E+06
 -1      1542 1.61317E+10-3.07447E+06 1.24101E+07 1.01977E+08 8.75300E+06 5.52603E+06
 -1      1544 1.61317E+10-3.07447E+06 1.24101E+07 1.01977E+08 8.75300E+06 5.52603E+06
 -1      1545 1.46682E+10-3.76591E+06 1.05764E+07 6.19324E+08 7.99799E+06 3.94205E+06
 -1      1547 1.46682E+10-3.76591E+06 1.05764E+07 6.19324E+08 7.99799E+06 3.94205E+06
 -1      1548 1.12636E+10-3.39624E+06 8.71901E+06 1.05892E+09 5.99158E+06 2.46765E+06
 -1      1550 1.12636E+10-3.39624E+06 8.71901E+06 1.05892E+09 5.99158E+06 2.46765E+06
 -1      1551 6.34951E+09-3.26721E+06 4.54098E+06 1.36357E+09 2.95379E+06 1.25145E+06
 -1      1553 6.34951E+09-3.26721E+06 4.54098E+06 1.36357E+09 2.95379E+06 1.25145E+06
 -1      1554 5.52754E+08-2.44311E+06 7.44986E+05 1.49436E+09-6.28180E+05 4.37116E+05
 -1      1556 5.52754E+08-2.44311E+06 7.44986E+05 1.49436E+09-6.28180E+05 4.37116E+05
 -1      1557-5.38934E+09-1.99307E+06-4.04978E+06 1.43566E+09-4.29673E+06 6.35929E+04
 -1      1559-5.38934E+09-1.99307E+06-4.04978E+06 1.43566E+09-4.29673E+06 6.35929E+04
 -1      1560-1.07280E+10-1.15310E+06-7.58926E+06 1.19766E+09-7.53197E+06 1.29603E+05
 -1      1562-1.07280E+10-1.15310E+06-7.58926E+06 1.19766E+09-7.53197E+06 1.29603E+05
 -1      1563-1.48054E+10-9.51299E+05-1.08844E+07 8.14916E+08-9.90905E+06 5.46381E+05
 -1      1565-1.48054E+10-9.51299E+05-1.08844E+07 8.14916E+08-9.90905E+06 5.46381E+05
 -1      1566-1.71453E+10-4.15588E+05-1.22236E+07 3.42690E+08-1.11441E+07 1.17028E+06
 -1      1568-1.71453E+10-4.15588E+05-1.22236E+07 3.42690E+08-1.11441E+07 1.17028E+06
 -1      1569-1.75239E+10-1.01179E+06-1.26361E+07-1.49999E+08-1.11040E+07 1.86958E+06
 -1      1571-1.75239E+10-1.01179E+06-1.26361E+07-1.49999E+08-1.11040E+07 1.86958E+06
 -1      1572-1.60063E+10-2.41766E+05-1.11101E+07-5.89252E+08-9.94626E+06 2.37071E+06
 -1      1574-1.60063E+10-2.41766E+05-1.11101E+07-5.89252E+08-9.94626E+06 2.37071E+06
 -1      1575-1.29554E+10-2.78981E+06-8.71922E+06-9.01959E+08-7.99007E+06 2.76514E+06
 -1      1577-1.29554E+10-2.78981E+06-8.71922E+06-9.01959E+08-7.99007E+06 2.76514E+06
 -1      1578-8.99890E+09 6.81620E+05-5.39427E+06-1.02986E+09-5.86008E+06 2.41384E+06
 -1      1580-8.99890E+09 6.81620E+05-5.39427E+06-1.02986E+09-5.86008E+06 2.41384E+06
 -1      1581-4.97675E+09-4.30300E+06-1.80476E+06-9.29940E+08-4.33827E+06 2.49852E+06
 -1      1583-4.97675E+09-4.30300E+06-1.80476E+06-9.29940E+08-4.33827E+06 2.49852E+06
 -1      1584-1.87555E+09-5.75481E+06 1.15442E+06-5.52830E+08-3.80002E+06 3.86870E+05
 -1      1586-1.87555E+09-5.75481E+06 1.15442E+06-5.52830E+08-3.80002E+06 3.86870E+05
 -1      1587-5.16170E+08-9.64158E+07 6.16029E+04-5.08330E+08 3.94997E+06-1.60562E+06
 -1      1589-5.16170E+08-9.64158E+07 6.16029E+04-5.08330E+08 3.94997E+06-1.60562E+06
 -1      1590 1.19467E+10 1.16030E+09 2.38374E+06 3.30232E+09-1.39640E+07-6.65791E+07
 -1      1592 1.19467E+10 1.16030E+09 2.38374E+06 3.30232E+09-1.39640E+07-6.65791E+07
 -1      1593 5.16170E+08 9.64158E+07-6.16029E+04-5.08330E+08 3.94997E+06 1.60562E+06
 -1      1595 5.16170E+08 9.64158E+07-6.16029E+04-5.08330E+08 3.94997E+06 1.60562E+06
 -1      1596-1.40777E+10-4.71275E+08-4.66016E+05 2.31508E+09-4.94821E+06 3.65875E+07
 -1      1598-1.40777E+10-4.71275E+08-4.66016E+05 2.31508E+09-4.94821E+06 3.65875E+07
 -1      1599-5.70500E+09 2.22676E+08-3.05336E+06 1.91547E+09-8.37016E+06-3.52230E+06
 -1      1601-5.70500E+09 2.22676E+08-3.05336E+06 1.91547E+09-8.37016E+06-3.52230E+06
 -1      1602 1.80309E+09-1.11750E+08 5.77041E+05 1.77440E+09-1.36511E+07 1.34650E+07
 -1      1604 1.80309E+09-1.11750E+08 5.77041E+05 1.77440E+09-1.36511E+07 1.34650E+07
 -1      1605 7.99442E+09 4.46873E+07 9.77980E+06 1.31210E+09-1.58589E+07 2.60182E+06
 -1      1607 7.99442E+09 4.46873E+07 9.77980E+06 1.31210E+09-1.58589E+07 2.60182E+06
 -1      1608 1.23280E+10-3.16538E+07 7.00069E+06 8.28864E+08-1.75764E+07 4.14267E+06
 -1      1610 1.23280E+10-3.16538E+07 7.00069E+06 8.28864E+08-1.75764E+07 4.14267E+06
 -1      1611 1.44894E+10 5.31450E+06 1.37950E+07 2.48038E+08-1.76038E+07-4.56079E+05
 -1      1613 1.44894E+10 5.31450E+06 1.37950E+07 2.48038E+08-1.76038E+07-4.56079E+05
 -1      1614 1.43428E+10-1.34072E+07 8.91801E+06-3.15526E+08-1.62435E+07-2.26607E+06
 -1      1616 1.43428E+10-1.34072E+07 8.91801E+06-3.15526E+08-1.62435E+07-2.26607E+06
 -1      1617 1.20305E+10-2.33862E+06 1.09431E+07-8.19974E+08-1.37145E+07-5.05546E+06
 -1      1619 1.20305E+10-2.33862E+06 1.09431E+07-8.19974E+08-1.37145E+07-5.05546E+06
 -1      1620 7.93446E+09-6.88774E+06 4.69646E+06-1.19648E+09-1.00100E+07-6.83512E+06
 -1      1622 7.93446E+09-6.88774E+06 4.69646E+06-1.19648E+09-1.00100E+07-6.83512E+06
 -1      1623 2.65417E+09-1.94548E+06 3.25053E+06-1.40468E+09-5.84164E+06-8.23741E+06
 -1      1625 2.65417E+09-1.94548E+06 3.25053E+06-1.40468E+09-5.84164E+06-8.23741E+06
 -1      1626-3.07588E+09-2.42727E+06-3.09783E+06-1.41875E+09-1.36169E+06-8.86590E+06
 -1      1628-3.07588E+09-2.42727E+06-3.09783E+06-1.41875E+09-1.36169E+06-8.86590E+06
 -1      1629-8.47096E+09 5.53355E+05-5.47923E+06-1.24016E+09 2.64296E+06-8.82340E+06
 -1      1631-8.47096E+09 5.53355E+05-5.47923E+06-1.24016E+09 2.64296E+06-8.82340E+06
 -1      1632-1.28000E+10 1.05047E+06-1.00789E+07-8.93450E+08 5.95913E+06-8.15876E+06
 -1      1634-1.28000E+10 1.05047E+06-1.00789E+07-8.93450E+08 5.95913E+06-8.15876E+06
 -1      1635-1.54756E+10 2.82210E+06-1.09792E+07-4.25460E+08 8.01243E+06-6.99006E+06
 -1      1637-1.54756E+10 2.82210E+06-1.09792E+07-4.25460E+08 8.01243E+06-6.99006E+06
 -1      1638-1.61317E+10 3.07447E+06-1.24101E+07 1.01977E+08 8.75300E+06-5.52603E+06
 -1      1640-1.61317E+10 3.07447E+06-1.24101E+07 1.01977E+08 8.75300E+06-5.52603E+06
 -1      1641-1.46682E+10 3.76591E+06-1.05764E+07 6.19324E+08 7.99799E+06-3.94205E+06
 -1      1643-1.46682E+10 3.76591E+06-1.05764E+07 6.19324E+08 7.99799E+06-3.94205E+06
 -1      1644-1.12636E+10 3.39624E+06-8.71901E+06 1.05892E+09 5.99158E+06-2.46765E+06
 -1      1646-1.12636E+10 3.39624E+06-8.71901E+06 1.05892E+09 5.99158E+06-2.46765E+06
 -1      1647-6.34951E+09 3.26721E+06-4.54098E+06 1.36357E+09 2.95379E+06-1.25145E+06
 -1      1649-6.34951E+09 3.26721E+06-4.54098E+06 1.36357E+09 2.95379E+06-1.25145E+06
 -1      1650-5.52754E+08 2.44311E+06-7.44986E+05 1.49436E+09-6.28180E+05-4.37116E+05
 -1      1652-5.52754E+08 2.44311E+06-7.44986E+05 1.49436E+09-6.28180E+05-4.37116E+05
 -1      1653 5.38934E+09 1.99307E+06 4.04978E+06 1.43566E+09-4.29673E+06-6.35929E+04
 -1      1655 5.38934E+09 1.99307E+06 4.04978E+06 1.43566E+09-4.29673E+06-6.35929E+04
 -1      1656 1.07280E+10 1.15310E+06 7.58926E+06 1.19766E+09-7.53197E+06-1.29603E+05
 -1      1658 1.07280E+10 1.15310E+06 7.58926E+06 1.19766E+09-7.53197E+06-1.29603E+05
 -1      1659 1.48054E+10 9.51299E+05 1.08844E+07 8.14916E+08-9.90905E+06-5.46381E+05
 -1      1661 1.48054E+10 9.51299E+05 1.08844E+07 8.14916E+08-9.90905E+06-5.46381E+05
 -1      1662 1.71453E+10 4.15588E+05 1.22236E+07 3.42690E+08-1.11441E+07-1.17028E+06
 -1      1664 1.71453E+10 4.15588E+05 1.22236E+07 3.42690E+08-1.11441E+07-1.17028E+06
 -1      1665 1.75239E+10 1.01179E+06 1.26361E+07-1.49999E+08-1.11040E+07-1.86958E+06
 -1      1667 1.75239E+10 1.01179E+06 1.26361E+07-1.49999E+08-1.11040E+07-1.86958E+06
 -1      1668 1.60063E+10 2.41766E+05 1.11101E+07-5.89252E+08-9.94626E+06-2.37071E+06
 -1      1670 1.60063E+10 2.41766E+05 1.11101E+07-5.89252E+08-9.94626E+06-2.37071E+06
 -1      1671 1.29554E+10 2.78981E+06 8.71922E+06-9.01959E+08-7.99007E+06-2.76514E+06
 -1      1673 1.29554E+10 2.78981E+06 8.71922E+06-9.01959E+08-7.99007E+06-2.76514E+06
 -1      1674 8.99890E+09-6.81620E+05 5.39427E+06-1.02986E+09-5.86008E+06-2.41384E+06
 -1      1676 8.99890E+09-6.81620E+05 5.39427E+06-1.02986E+09-5.86008E+06-2.41384E+06
 -1      1677 4.97675E+09 4.30300E+06 1.80476E+06-9.29940E+08-4.33827E+06-2.49852E+06
 -1      1679 4.97675E+09 4.30300E+06 1.80476E+06-9.29940E+08-4.33827E+06-2.49852E+06
 -1      1680 1.87555E+09 5.75481E+06-1.15442E+06-5.52830E+08-3.80002E+06-3.86870E+05
 -1      1682 1.87555E+09 5.75481E+06-1.15442E+06-5.52830E+08-3.80002E+06-3.86870E+05
 -1      1683-1.19467E+10-1.16030E+09-2.38374E+06 3.30232E+09-1.39640E+07 6.65791E+07
 -1      1685-1.19467E+10-1.16030E+09-2.38374E+06 3.30232E+09-1.39640E+07 6.65791E+07
 -1      1686-9.31455E+09-3.33850E+08-2.01966E+05 3.37722E+09 8.89351E+06-2.00337E+07
 -1      1688-9.31455E+09-3.33850E+08-2.01966E+05 3.37722E+09 8.89351E+06-2.00337E+07
 -1      1689-3.88312E+09 1.06411E+08-4.60066E+05 3.21857E+09 6.80059E+06 4.97480E+06
 -1      1691-3.88312E+09 1.06411E+08-4.60066E+05 3.21857E+09 6.80059E+06 4.97480E+06
 -1      1692 1.17374E+09-1.28100E+08 2.76541E+05 2.75181E+09 1.33726E+07-6.30245E+06
 -1      1694 1.17374E+09-1.28100E+08 2.76541E+05 2.75181E+09 1.33726E+07-6.30245E+06
 -1      1695 5.24293E+09-5.94146E+07-6.29597E+05 2.12714E+09 1.66308E+07-9.54523E+04
 -1      1697 5.24293E+09-5.94146E+07-6.29597E+05 2.12714E+09 1.66308E+07-9.54523E+04
 -1      1698 8.13758E+09-1.13813E+08 4.86363E+04 1.30598E+09 1.90667E+07-1.64752E+06
 -1      1700 8.13758E+09-1.13813E+08 4.86363E+04 1.30598E+09 1.90667E+07-1.64752E+06
 -1      1701 9.56391E+09-1.02248E+08-3.67123E+05 4.04345E+08 1.99128E+07 6.28944E+05
 -1      1703 9.56391E+09-1.02248E+08-3.67123E+05 4.04345E+08 1.99128E+07 6.28944E+05
 -1      1704 9.47632E+09-1.03754E+08-2.21189E+05-5.02781E+08 1.80671E+07 1.25897E+06
 -1      1706 9.47632E+09-1.03754E+08-2.21189E+05-5.02781E+08 1.80671E+07 1.25897E+06
 -1      1707 7.94760E+09-8.27936E+07-8.35060E+04-1.30059E+09 1.46948E+07 2.48867E+06
 -1      1709 7.94760E+09-8.27936E+07-8.35060E+04-1.30059E+09 1.46948E+07 2.48867E+06
 -1      1710 5.24206E+09-5.81395E+07-2.92695E+05-1.90188E+09 9.12334E+06 3.14853E+06
 -1      1712 5.24206E+09-5.81395E+07-2.92695E+05-1.90188E+09 9.12334E+06 3.14853E+06
 -1      1713 1.75038E+09-2.42245E+07 1.36345E+05-2.23201E+09 2.90857E+06 3.55975E+06
 -1      1715 1.75038E+09-2.42245E+07 1.36345E+05-2.23201E+09 2.90857E+06 3.55975E+06
 -1      1716-2.03794E+09 1.00387E+07-2.11101E+05-2.25519E+09-3.87855E+06 3.51527E+06
 -1      1718-2.03794E+09 1.00387E+07-2.11101E+05-2.25519E+09-3.87855E+06 3.51527E+06
 -1      1719-5.60578E+09 4.33026E+07 2.87274E+05-1.97105E+09-9.75110E+06 3.05173E+06
 -1      1721-5.60578E+09 4.33026E+07 2.87274E+05-1.97105E+09-9.75110E+06 3.05173E+06
 -1      1722-8.46811E+09 6.95466E+07-8.68603E+04-1.42013E+09-1.43608E+07 2.23320E+06
 -1      1724-8.46811E+09 6.95466E+07-8.68603E+04-1.42013E+09-1.43608E+07 2.23320E+06
 -1      1725-1.02373E+10 8.68367E+07 3.54854E+05-6.76035E+08-1.66805E+07 1.13944E+06
 -1      1727-1.02373E+10 8.68367E+07 3.54854E+05-6.76035E+08-1.66805E+07 1.13944E+06
 -1      1728-1.06704E+10 9.21634E+07-8.17575E+03 1.62413E+08-1.66088E+07-6.37009E+04
 -1      1730-1.06704E+10 9.21634E+07-8.17575E+03 1.62413E+08-1.66088E+07-6.37009E+04
 -1      1731-9.70165E+09 8.57373E+07 3.27210E+05 9.84972E+08-1.38565E+07-1.24546E+06
 -1      1733-9.70165E+09 8.57373E+07 3.27210E+05 9.84972E+08-1.38565E+07-1.24546E+06
 -1      1734-7.44875E+09 6.80358E+07-1.15072E+04 1.68387E+09-8.85100E+06-2.23180E+06
 -1      1736-7.44875E+09 6.80358E+07-1.15072E+04 1.68387E+09-8.85100E+06-2.23180E+06
 -1      1737-4.19733E+09 4.20190E+07 2.20205E+05 2.16833E+09-2.04746E+06-2.91287E+06
 -1      1739-4.19733E+09 4.20190E+07 2.20205E+05 2.16833E+09-2.04746E+06-2.91287E+06
 -1      1740-3.61834E+08 1.09674E+07-7.90705E+04 2.37636E+09 5.67421E+06-3.18542E+06
 -1      1742-3.61834E+08 1.09674E+07-7.90705E+04 2.37636E+09 5.67421E+06-3.18542E+06
 -1      1743 3.57002E+09-2.06121E+07 8.31137E+04 2.28329E+09 1.34137E+07-3.02723E+06
 -1      1745 3.57002E+09-2.06121E+07 8.31137E+04 2.28329E+09 1.34137E+07-3.02723E+06
 -1      1746 7.10319E+09-4.84093E+07-1.57867E+05 1.90512E+09 2.02105E+07-2.45226E+06
 -1      1748 7.10319E+09-4.84093E+07-1.57867E+05 1.90512E+09 2.02105E+07-2.45226E+06
 -1      1749 9.80262E+09-6.86335E+07-1.70735E+04 1.29715E+09 2.51954E+07-1.54226E+06
 -1      1751 9.80262E+09-6.86335E+07-1.70735E+04 1.29715E+09 2.51954E+07-1.54226E+06
 -1      1752 1.13538E+10-7.79918E+07-1.93948E+05 5.46849E+08 2.77915E+07-4.31546E+05
 -1      1754 1.13538E+10-7.79918E+07-1.93948E+05 5.46849E+08 2.77915E+07-4.31546E+05
 -1      1755 1.16085E+10-7.52514E+07-2.01079E+04-2.35576E+08 2.75908E+07 7.55232E+05
 -1      1757 1.16085E+10-7.52514E+07-2.01079E+04-2.35576E+08 2.75908E+07 7.55232E+05
 -1      1758 1.06111E+10-6.03890E+07-1.65613E+05-9.32569E+08 2.47164E+07 1.75850E+06
 -1      1760 1.06111E+10-6.03890E+07-1.65613E+05-9.32569E+08 2.47164E+07 1.75850E+06
 -1      1761 8.60166E+09-3.27305E+07 1.00039E+05-1.42844E+09 1.94164E+07 2.60926E+06
 -1      1763 8.60166E+09-3.27305E+07 1.00039E+05-1.42844E+09 1.94164E+07 2.60926E+06
 -1      1764 5.99574E+09-1.32917E+06-6.74274E+04-1.63006E+09 1.25432E+07 2.70173E+06
 -1      1766 5.99574E+09-1.32917E+06-6.74274E+04-1.63006E+09 1.25432E+07 2.70173E+06
 -1      1767 3.35720E+09 4.36346E+07 2.39490E+05-1.46066E+09 5.02952E+06 2.90449E+06
 -1      1769 3.35720E+09 4.36346E+07 2.39490E+05-1.46066E+09 5.02952E+06 2.90449E+06
 -1      1770 1.31250E+09 8.51153E+07 3.20629E+05-8.90588E+08-1.49505E+06 9.28870E+05
 -1      1772 1.31250E+09 8.51153E+07 3.20629E+05-8.90588E+08-1.49505E+06 9.28870E+05
 -1      1773 9.31455E+09 3.33850E+08 2.01966E+05 3.37722E+09 8.89351E+06 2.00337E+07
 -1      1775 9.31455E+09 3.33850E+08 2.01966E+05 3.37722E+09 8.89351E+06 2.00337E+07
 -1      1776 3.88312E+09-1.06411E+08 4.60066E+05 3.21857E+09 6.80059E+06-4.97480E+06
 -1      1778 3.88312E+09-1.06411E+08 4.60066E+05 3.21857E+09 6.80059E+06-4.97480E+06
 -1      1779-1.17374E+09 1.28100E+08-2.76541E+05 2.75181E+09 1.33726E+07 6.30245E+06
 -1      1781-1.17374E+09 1.28100E+08-2.76541E+05 2.75181E+09 1.33726E+07 6.30245E+06
 -1      1782-5.24293E+09 5.94146E+07 6.29597E+05 2.12714E+09 1.66308E+07 9.54523E+04
 -1      1784-5.24293E+09 5.94146E+07 6.29597E+05 2.12714E+09 1.66308E+07 9.54523E+04
 -1      1785-8.13758E+09 1.13813E+08-4.86363E+04 1.30598E+09 1.90667E+07 1.64752E+06
 -1      1787-8.13758E+09 1.13813E+08-4.86363E+04 1.30598E+09 1.90667E+07 1.64752E+06
 -1      1788-9.56391E+09 1.02248E+08 3.67123E+05 4.04345E+08 1.99128E+07-6.28944E+05
 -1      1790-9.56391E+09 1.02248E+08 3.67123E+05 4.04345E+08 1.99128E+07-6.28944E+05
 -1      1791-9.47632E+09 1.03754E+08 2.21189E+05-5.02781E+08 1.80671E+07-1.25897E+06
 -1      1793-9.47632E+09 1.03754E+08 2.21189E+05-5.02781E+08 1.80671E+07-1.25897E+06
 -1      1794-7.94760E+09 8.27936E+07 8.35060E+04-1.30059E+09 1.46948E+07-2.48867E+06
 -1      1796-7.94760E+09 8.27936E+07 8.35060E+04-1.30059E+09 1.46948E+07-2.48867E+06
 -1      1797-5.24206E+09 5.81395E+07 2.92695E+05-1.90188E+09 9.12334E+06-3.14853E+06
 -1      1799-5.24206E+09 5.81395E+07 2.92695E+05-1.90188E+09 9.12334E+06-3.14853E+06
 -1      1800-1.75038E+09 2.42245E+07-1.36345E+05-2.23201E+09 2.90857E+06-3.55975E+06
 -1      1802-1.75038E+09 2.42245E+07-1.36345E+05-2.23201E+09 2.90857E+06-3.55975E+06
 -1      1803 2.03794E+09-1.00387E+07 2.11101E+05-2.25519E+09-3.87855E+06-3.51527E+06
 -1      1805 2.03794E+09-1.00387E+07 2.11101E+05-2.25519E+09-3.87855E+06-3.51527E+06
 -1      1806 5.60578E+09-4.33026E+07-2.87274E+05-1.97105E+09-9.75110E+06-3.05173E+06
 -1      1808 5.60578E+09-4.33026E+07-2.87274E+05-1.97105E+09-9.75110E+06-3.05173E+06
 -1      1809 8.46811E+09-6.95466E+07 8.68603E+04-1.42013E+09-1.43608E+07-2.23320E+06
 -1      1811 8.46811E+09-6.95466E+07 8.68603E+04-1.42013E+09-1.43608E+07-2.23320E+06
 -1      1812 1.02373E+10-8.68367E+07-3.54854E+05-6.76035E+08-1.66805E+07-1.13944E+06
 -1      1814 1.02373E+10-8.68367E+07-3.54854E+05-6.76035E+08-1.66805E+07-1.13944E+06
 -1      1815 1.06704E+10-9.21634E+07 8.17575E+03 1.62413E+08-1.66088E+07 6.37009E+04
 -1      1817 1.06704E+10-9.21634E+07 8.17575E+03 1.62413E+08-1.66088E+07 6.37009E+04
 -1      1818 9.70165E+09-8.57373E+07-3.27210E+05 9.84972E+08-1.38565E+07 1.24546E+06
 -1      1820 9.70165E+09-8.57373E+07-3.27210E+05 9.84972E+08-1.38565E+07 1.24546E+06
 -1      1821 7.44875E+09-6.80358E+07 1.15072E+04 1.68387E+09-8.85100E+06 2.23180E+06
 -1      1823 7.44875E+09-6.80358E+07 1.15072E+04 1.68387E+09-8.85100E+06 2.23180E+06
 -1      1824 4.19733E+09-4.20190E+07-2.20205E+05 2.16833E+09-2.04746E+06 2.91287E+06
 -1      1826 4.19733E+09-4.20190E+07-2.20205E+05 2.16833E+09-2.04746E+06 2.91287E+06
 -1      1827 3.61834E+08-1.09674E+07 7.90705E+04 2.37636E+09 5.67421E+06 3.18542E+06
 -1      1829 3.61834E+08-1.09674E+07 7.90705E+04 2.37636E+09 5.67421E+06 3.18542E+06
 -1      1830-3.57002E+09 2.06121E+07-8.31137E+04 2.28329E+09 1.34137E+07 3.02723E+06
 -1      1832-3.57002E+09 2.06121E+07-8.31137E+04 2.28329E+09 1.34137E+07 3.02723E+06
 -1      1833-7.10319E+09 4.84093E+07 1.57867E+05 1.90512E+09 2.02105E+07 2.45226E+06
 -1      1835-7.10319E+09 4.84093E+07 1.57867E+05 1.90512E+09 2.02105E+07 2.45226E+06
 -1      1836-9.80262E+09 6.86335E+07 1.70735E+04 1.29715E+09 2.51954E+07 1.54226E+06
 -1      1838-9.80262E+09 6.86335E+07 1.70735E+04 1.29715E+09 2.51954E+07 1.54226E+06
 -1      1839-1.13538E+10 7.79918E+07 1.93948E+05 5.46849E+08 2.77915E+07 4.31546E+05
 -1      1841-1.13538E+10 7.79918E+07 1.93948E+05 5.46849E+08 2.77915E+07 4.31546E+05
 -1      1842-1.16085E+10 7.52514E+07 2.01079E+04-2.35576E+08 2.75908E+07-7.55232E+05
 -1      1844-1.16085E+10 7.52514E+07 2.01079E+04-2.35576E+08 2.75908E+07-7.55232E+05
 -1      1845-1.06111E+10 6.03890E+07 1.65613E+05-9.32569E+08 2.47164E+07-1.75850E+06
 -1      1847-1.06111E+10 6.03890E+07 1.65613E+05-9.32569E+08 2.47164E+07-1.75850E+06
 -1      1848-8.60166E+09 3.27305E+07-1.00039E+05-1.42844E+09 1.94164E+07-2.60926E+06
 -1      1850-8.60166E+09 3.27305E+07-1.00039E+05-1.42844E+09 1.94164E+07-2.60926E+06
 -1      1851-5.99574E+09 1.32917E+06 6.74274E+04-1.63006E+09 1.25432E+07-2.70173E+06
 -1      1853-5.99574E+09 1.32917E+06 6.74274E+04-1.63006E+09 1.25432E+07-2.70173E+06
 -1      1854-3.35720E+09-4.36346E+07-2.39490E+05-1.46066E+09 5.02952E+06-2.90449E+06
 -1      1856-3.35720E+09-4.36346E+07-2.39490E+05-1.46066E+09 5.02952E+06-2.90449E+06
 -1      1857-1.31250E+09-8.51153E+07-3.20629E+05-8.90588E+08-1.49505E+06-9.28870E+05
 -1      1859-1.31250E+09-8.51153E+07-3.20629E+05-8.90588E+08-1.49505E+06-9.28870E+05
 -1      1860-3.53679E-02 2.58787E-04-8.30060E-04 8.47559E+07 1.04175E+07-1.39182E-02
 -1      1862-3.53679E-02 2.58787E-04-8.30060E-04 8.47559E+07 1.04175E+07-1.39182E-02
 -1      1863-3.52808E-02 4.07118E-04 4.07498E-03-1.39940E+07 3.02893E+07-1.15942E-02
 -1      1865-3.52808E-02 4.07118E-04 4.07498E-03-1.39940E+07 3.02893E+07-1.15942E-02
 -1      1866-3.50369E-02 2.99676E-04 1.14151E-03 3.25653E+07 4.10944E+07-8.89639E-03
 -1      1868-3.50369E-02 2.99676E-04 1.14151E-03 3.25653E+07 4.10944E+07-8.89639E-03
 -1      1869-3.36183E-02 5.75203E-04-3.94386E-03 4.07173E+06 5.22495E+07-7.49813E-03
 -1      1871-3.36183E-02 5.75203E-04-3.94386E-03 4.07173E+06 5.22495E+07-7.49813E-03
 -1      1872-3.08529E-02 6.80256E-04-4.57163E-03 1.21579E+07 5.82676E+07-6.92580E-03
 -1      1874-3.08529E-02 6.80256E-04-4.57163E-03 1.21579E+07 5.82676E+07-6.92580E-03
 -1      1875-2.89365E-02-3.26076E-04-2.83447E-04-4.30951E+05 5.94971E+07-5.52327E-03
 -1      1877-2.89365E-02-3.26076E-04-2.83447E-04-4.30951E+05 5.94971E+07-5.52327E-03
 -1      1878-2.91797E-02-1.40198E-03 4.68895E-03-2.25711E+06 5.58384E+07-1.72583E-03
 -1      1880-2.91797E-02-1.40198E-03 4.68895E-03-2.25711E+06 5.58384E+07-1.72583E-03
 -1      1881-3.07148E-02-1.42526E-03 5.40817E-03-9.41635E+06 4.67983E+07 2.87523E-03
 -1      1883-3.07148E-02-1.42526E-03 5.40817E-03-9.41635E+06 4.67983E+07 2.87523E-03
 -1      1884-3.10099E-02-8.50249E-04 2.93755E-03-1.20009E+07 3.42821E+07 4.71790E-03
 -1      1886-3.10099E-02-8.50249E-04 2.93755E-03-1.20009E+07 3.42821E+07 4.71790E-03
 -1      1887-2.97566E-02 3.08875E-04 3.28455E-03-1.47525E+07 1.87676E+07 4.46799E-03
 -1      1889-2.97566E-02 3.08875E-04 3.28455E-03-1.47525E+07 1.87676E+07 4.46799E-03
 -1      1890-2.93827E-02-2.53321E-04 7.38994E-03-1.44790E+07 2.88606E+06 6.65055E-03
 -1      1892-2.93827E-02-2.53321E-04 7.38994E-03-1.44790E+07 2.88606E+06 6.65055E-03
 -1      1893-2.99205E-02-8.61241E-04 1.17008E-02-1.28557E+07-1.21868E+07 1.13740E-02
 -1      1895-2.99205E-02-8.61241E-04 1.17008E-02-1.28557E+07-1.21868E+07 1.13740E-02
 -1      1896-3.04043E-02-1.68183E-04 1.34457E-02-9.17499E+06-2.41071E+07 1.56723E-02
 -1      1898-3.04043E-02-1.68183E-04 1.34457E-02-9.17499E+06-2.41071E+07 1.56723E-02
 -1      1899-3.11632E-02 6.85434E-05 1.21182E-02-4.46554E+06-3.19289E+07 1.85321E-02
 -1      1901-3.11632E-02 6.85434E-05 1.21182E-02-4.46554E+06-3.19289E+07 1.85321E-02
 -1      1902-3.31400E-02-1.82595E-04 9.99380E-03 9.64977E+05-3.44422E+07 1.89526E-02
 -1      1904-3.31400E-02-1.82595E-04 9.99380E-03 9.64977E+05-3.44422E+07 1.89526E-02
 -1      1905-3.53423E-02-2.98203E-04 9.28504E-03 6.21740E+06-3.17069E+07 1.69926E-02
 -1      1907-3.53423E-02-2.98203E-04 9.28504E-03 6.21740E+06-3.17069E+07 1.69926E-02
 -1      1908-3.56542E-02-8.07254E-04 7.20068E-03 1.07128E+07-2.40247E+07 1.38439E-02
 -1      1910-3.56542E-02-8.07254E-04 7.20068E-03 1.07128E+07-2.40247E+07 1.38439E-02
 -1      1911-3.53606E-02-6.31744E-04 3.59171E-03 1.37988E+07-1.26228E+07 7.87709E-03
 -1      1913-3.53606E-02-6.31744E-04 3.59171E-03 1.37988E+07-1.26228E+07 7.87709E-03
 -1      1914-3.61258E-02 2.73174E-05 2.33773E-03 1.51213E+07 9.69561E+05 1.25594E-03
 -1      1916-3.61258E-02 2.73174E-05 2.33773E-03 1.51213E+07 9.69561E+05 1.25594E-03
 -1      1917-3.72876E-02 6.08294E-05 2.11037E-03 1.44737E+07 1.48936E+07-2.32596E-03
 -1      1919-3.72876E-02 6.08294E-05 2.11037E-03 1.44737E+07 1.48936E+07-2.32596E-03
 -1      1920-3.72046E-02 2.70493E-04 1.57991E-03 1.20284E+07 2.72198E+07-3.96610E-03
 -1      1922-3.72046E-02 2.70493E-04 1.57991E-03 1.20284E+07 2.72198E+07-3.96610E-03
 -1      1923-3.53841E-02-2.56936E-05 2.73561E-03 7.97559E+06 3.64150E+07-6.40299E-03
 -1      1925-3.53841E-02-2.56936E-05 2.73561E-03 7.97559E+06 3.64150E+07-6.40299E-03
 -1      1926-3.22056E-02-1.06452E-04 6.74863E-03 3.21187E+06 4.11254E+07-1.06969E-02
 -1      1928-3.22056E-02-1.06452E-04 6.74863E-03 3.21187E+06 4.11254E+07-1.06969E-02
 -1      1929-2.68992E-02 1.51482E-04 1.26382E-02-2.29016E+06 4.10334E+07-1.39551E-02
 -1      1931-2.68992E-02 1.51482E-04 1.26382E-02-2.29016E+06 4.10334E+07-1.39551E-02
 -1      1932-2.02307E-02 6.29528E-04 1.71222E-02-6.35676E+06 3.60344E+07-1.36964E-02
 -1      1934-2.02307E-02 6.29528E-04 1.71222E-02-6.35676E+06 3.60344E+07-1.36964E-02
 -1      1935-1.46019E-02 4.79863E-04 1.69701E-02-1.10083E+07 2.73591E+07-1.05589E-02
 -1      1937-1.46019E-02 4.79863E-04 1.69701E-02-1.10083E+07 2.73591E+07-1.05589E-02
 -1      1938-1.00928E-02-9.07419E-06 1.50279E-02-1.06959E+07 1.63047E+07-8.80891E-03
 -1      1940-1.00928E-02-9.07419E-06 1.50279E-02-1.06959E+07 1.63047E+07-8.80891E-03
 -1      1941-6.16013E-03 5.47927E-05 1.41921E-02-1.37902E+07 5.07069E+06-7.85613E-03
 -1      1943-6.16013E-03 5.47927E-05 1.41921E-02-1.37902E+07 5.07069E+06-7.85613E-03
 -1      1944-3.57834E-03-1.27636E-03 1.29240E-02-4.84719E+06-3.78349E+06-4.40203E-03
 -1      1946-3.57834E-03-1.27636E-03 1.29240E-02-4.84719E+06-3.78349E+06-4.40203E-03
 -1      1947-3.80393E-02 3.65867E-04-1.92071E-03 1.39347E+08-2.89437E-04-1.18701E-02
 -1      1949-3.80393E-02 3.65867E-04-1.92071E-03 1.39347E+08-2.89437E-04-1.18701E-02
 -1      1950-3.94339E-02 4.38241E-04 1.37633E-03-4.30920E+06-3.73399E-04-1.22273E-02
 -1      1952-3.94339E-02 4.38241E-04 1.37633E-03-4.30920E+06-3.73399E-04-1.22273E-02
 -1      1953-3.89351E-02 3.12124E-04-1.13603E-03 6.06084E+07-5.01604E-04-1.07748E-02
 -1      1955-3.89351E-02 3.12124E-04-1.13603E-03 6.06084E+07-5.01604E-04-1.07748E-02
 -1      1956-3.76161E-02 8.81965E-04-4.90763E-03 1.47785E+07-7.63332E-04-8.45537E-03
 -1      1958-3.76161E-02 8.81965E-04-4.90763E-03 1.47785E+07-7.63332E-04-8.45537E-03
 -1      1959-3.59607E-02 1.30830E-03-5.76369E-03 2.11984E+07-1.00432E-03-6.29857E-03
 -1      1961-3.59607E-02 1.30830E-03-5.76369E-03 2.11984E+07-1.00432E-03-6.29857E-03
 -1      1962-3.56642E-02 2.13045E-04-3.26065E-03-2.78060E+06-1.26101E-03-3.32832E-03
 -1      1964-3.56642E-02 2.13045E-04-3.26065E-03-2.78060E+06-1.26101E-03-3.32832E-03
 -1      1965-3.63657E-02-7.86649E-04 1.02529E-03-1.16228E+07-1.48127E-03 6.55034E-04
 -1      1967-3.63657E-02-7.86649E-04 1.02529E-03-1.16228E+07-1.48127E-03 6.55034E-04
 -1      1968-3.56344E-02-5.58781E-04 3.38498E-03-2.69483E+07-1.64015E-03 3.74665E-03
 -1      1970-3.56344E-02-5.58781E-04 3.38498E-03-2.69483E+07-1.64015E-03 3.74665E-03
 -1      1971-3.30236E-02 6.42678E-05 2.13217E-03-3.49350E+07-1.84374E-03 4.74961E-03
 -1      1973-3.30236E-02 6.42678E-05 2.13217E-03-3.49350E+07-1.84374E-03 4.74961E-03
 -1      1974-3.04476E-02 3.47166E-04 1.33458E-03-4.09690E+07-1.97271E-03 5.69241E-03
 -1      1976-3.04476E-02 3.47166E-04 1.33458E-03-4.09690E+07-1.97271E-03 5.69241E-03
 -1      1977-2.89196E-02-5.32304E-04 4.12205E-03-4.10384E+07-2.19547E-03 8.93198E-03
 -1      1979-2.89196E-02-5.32304E-04 4.12205E-03-4.10384E+07-2.19547E-03 8.93198E-03
 -1      1980-2.81564E-02-1.02133E-03 8.74253E-03-3.68901E+07-2.54224E-03 1.32790E-02
 -1      1982-2.81564E-02-1.02133E-03 8.74253E-03-3.68901E+07-2.54224E-03 1.32790E-02
 -1      1983-2.74349E-02-8.41536E-04 1.19621E-02-2.82601E+07-2.54521E-03 1.64761E-02
 -1      1985-2.74349E-02-8.41536E-04 1.19621E-02-2.82601E+07-2.54521E-03 1.64761E-02
 -1      1986-2.59978E-02-2.32456E-04 1.28662E-02-1.67091E+07-2.66227E-03 1.80755E-02
 -1      1988-2.59978E-02-2.32456E-04 1.28662E-02-1.67091E+07-2.66227E-03 1.80755E-02
 -1      1989-2.50437E-02-7.49044E-04 1.22884E-02-3.58225E+06-2.77689E-03 1.82422E-02
 -1      1991-2.50437E-02-7.49044E-04 1.22884E-02-3.58225E+06-2.77689E-03 1.82422E-02
 -1      1992-2.44629E-02-8.07830E-04 1.21334E-02 9.33884E+06-2.81990E-03 1.62321E-02
 -1      1994-2.44629E-02-8.07830E-04 1.21334E-02 9.33884E+06-2.81990E-03 1.62321E-02
 -1      1995-2.27019E-02-1.14036E-03 1.03520E-02 2.03888E+07-3.26195E-03 1.16817E-02
 -1      1997-2.27019E-02-1.14036E-03 1.03520E-02 2.03888E+07-3.26195E-03 1.16817E-02
 -1      1998-1.97100E-02-1.52112E-03 6.58627E-03 2.81668E+07-3.48992E-03 6.18268E-03
 -1      2000-1.97100E-02-1.52112E-03 6.58627E-03 2.81668E+07-3.48992E-03 6.18268E-03
 -1      2001-1.79450E-02-9.06488E-04 4.05292E-03 3.16805E+07-3.68369E-03 9.55670E-04
 -1      2003-1.79450E-02-9.06488E-04 4.05292E-03 3.16805E+07-3.68369E-03 9.55670E-04
 -1      2004-1.78577E-02 2.47037E-04 3.27401E-03 3.05494E+07-4.19876E-03-2.84720E-03
 -1      2006-1.78577E-02 2.47037E-04 3.27401E-03 3.05494E+07-4.19876E-03-2.84720E-03
 -1      2007-1.75180E-02 1.12109E-03 3.84671E-03 2.50342E+07-4.41306E-03-4.28448E-03
 -1      2009-1.75180E-02 1.12109E-03 3.84671E-03 2.50342E+07-4.41306E-03-4.28448E-03
 -1      2010-1.72205E-02 4.07547E-04 6.37761E-03 1.58588E+07-4.58118E-03-5.77152E-03
 -1      2012-1.72205E-02 4.07547E-04 6.37761E-03 1.58588E+07-4.58118E-03-5.77152E-03
 -1      2013-1.69921E-02 1.81991E-04 1.05266E-02 4.69416E+06-4.81692E-03-1.01348E-02
 -1      2015-1.69921E-02 1.81991E-04 1.05266E-02 4.69416E+06-4.81692E-03-1.01348E-02
 -1      2016-1.54736E-02 2.19008E-04 1.34836E-02-7.55532E+06-5.01777E-03-1.41706E-02
 -1      2018-1.54736E-02 2.19008E-04 1.34836E-02-7.55532E+06-5.01777E-03-1.41706E-02
 -1      2019-1.21272E-02 2.65799E-04 1.47229E-02-1.74236E+07-5.51002E-03-1.45474E-02
 -1      2021-1.21272E-02 2.65799E-04 1.47229E-02-1.74236E+07-5.51002E-03-1.45474E-02
 -1      2022-8.39515E-03-2.36137E-04 1.43796E-02-2.65372E+07-6.06625E-03-1.18016E-02
 -1      2024-8.39515E-03-2.36137E-04 1.43796E-02-2.65372E+07-6.06625E-03-1.18016E-02
 -1      2025-4.99495E-03-3.09109E-04 1.31065E-02-2.70188E+07-6.67136E-03-9.32859E-03
 -1      2027-4.99495E-03-3.09109E-04 1.31065E-02-2.70188E+07-6.67136E-03-9.32859E-03
 -1      2028-2.35623E-03 8.88416E-04 1.23509E-02-2.98336E+07-7.33978E-03-7.83750E-03
 -1      2030-2.35623E-03 8.88416E-04 1.23509E-02-2.98336E+07-7.33978E-03-7.83750E-03
 -1      2031-1.77172E-03-7.03257E-04 1.09294E-02-1.26193E+07-7.56340E-03-3.87883E-03
 -1      2033-1.77172E-03-7.03257E-04 1.09294E-02-1.26193E+07-7.56340E-03-3.87883E-03
 -1      2034-4.02345E-02 3.12195E-04-2.52733E-03 8.47559E+07-1.04175E+07-8.47318E-03
 -1      2036-4.02345E-02 3.12195E-04-2.52733E-03 8.47559E+07-1.04175E+07-8.47318E-03
 -1      2037-4.12069E-02 4.44143E-04-2.89310E-04-1.39940E+07-3.02893E+07-1.13269E-02
 -1      2039-4.12069E-02 4.44143E-04-2.89310E-04-1.39940E+07-3.02893E+07-1.13269E-02
 -1      2040-4.19459E-02 3.29097E-04-2.65393E-03 3.25653E+07-4.10944E+07-1.10882E-02
 -1      2042-4.19459E-02 3.29097E-04-2.65393E-03 3.25653E+07-4.10944E+07-1.10882E-02
 -1      2043-4.29015E-02 7.13047E-04-5.62535E-03 4.07173E+06-5.22495E+07-8.98196E-03
 -1      2045-4.29015E-02 7.13047E-04-5.62535E-03 4.07173E+06-5.22495E+07-8.98196E-03
 -1      2046-4.33549E-02 6.03160E-04-7.94745E-03 1.21579E+07-5.82676E+07-6.38628E-03
 -1      2048-4.33549E-02 6.03160E-04-7.94745E-03 1.21579E+07-5.82676E+07-6.38628E-03
 -1      2049-4.33538E-02-6.47539E-04-7.92089E-03-4.30951E+05-5.94971E+07-2.36573E-03
 -1      2051-4.33538E-02-6.47539E-04-7.92089E-03-4.30951E+05-5.94971E+07-2.36573E-03
 -1      2052-4.21717E-02-1.30374E-03-3.98506E-03-2.25711E+06-5.58384E+07 2.38958E-03
 -1      2054-4.21717E-02-1.30374E-03-3.98506E-03-2.25711E+06-5.58384E+07 2.38958E-03
 -1      2055-3.94201E-02-8.86506E-04 4.82768E-04-9.41635E+06-4.67983E+07 4.52312E-03
 -1      2057-3.94201E-02-8.86506E-04 4.82768E-04-9.41635E+06-4.67983E+07 4.52312E-03
 -1      2058-3.64809E-02-1.40360E-04 5.74765E-04-1.20009E+07-3.42821E+07 4.18433E-03
 -1      2060-3.64809E-02-1.40360E-04 5.74765E-04-1.20009E+07-3.42821E+07 4.18433E-03
 -1      2061-3.36292E-02 1.96628E-04-1.40626E-03-1.47525E+07-1.87676E+07 5.79697E-03
 -1      2063-3.36292E-02 1.96628E-04-1.40626E-03-1.47525E+07-1.87676E+07 5.79697E-03
 -1      2064-3.00651E-02-9.93628E-04 7.70749E-05-1.44790E+07-2.88606E+06 1.00116E-02
 -1      2066-3.00651E-02-9.93628E-04 7.70749E-05-1.44790E+07-2.88606E+06 1.00116E-02
 -1      2067-2.66975E-02-7.74042E-04 5.93192E-03-1.28557E+07 1.21868E+07 1.38929E-02
 -1      2069-2.66975E-02-7.74042E-04 5.93192E-03-1.28557E+07 1.21868E+07 1.38929E-02
 -1      2070-2.47121E-02-1.67663E-03 1.08855E-02-9.17499E+06 2.41071E+07 1.56161E-02
 -1      2072-2.47121E-02-1.67663E-03 1.08855E-02-9.17499E+06 2.41071E+07 1.56161E-02
 -1      2073-2.21795E-02-2.44277E-03 1.23272E-02-4.46554E+06 3.19289E+07 1.59017E-02
 -1      2075-2.21795E-02-2.44277E-03 1.23272E-02-4.46554E+06 3.19289E+07 1.59017E-02
 -1      2076-1.76634E-02-9.13189E-04 1.30652E-02 9.64977E+05 3.44422E+07 1.66850E-02
 -1      2078-1.76634E-02-9.13189E-04 1.30652E-02 9.64977E+05 3.44422E+07 1.66850E-02
 -1      2079-1.26541E-02-8.08908E-04 1.40767E-02 6.21740E+06 3.17069E+07 1.53960E-02
 -1      2081-1.26541E-02-8.08908E-04 1.40767E-02 6.21740E+06 3.17069E+07 1.53960E-02
 -1      2082-7.69580E-03-3.24296E-04 1.25601E-02 1.07128E+07 2.40247E+07 9.82983E-03
 -1      2084-7.69580E-03-3.24296E-04 1.25601E-02 1.07128E+07 2.40247E+07 9.82983E-03
 -1      2085-3.13952E-03-8.59142E-04 8.11528E-03 1.37988E+07 1.26228E+07 5.06296E-03
 -1      2087-3.13952E-03-8.59142E-04 8.11528E-03 1.37988E+07 1.26228E+07 5.06296E-03
 -1      2088 2.49362E-04-5.19435E-04 6.03361E-03 1.51213E+07-9.69561E+05 1.43424E-03
 -1      2090 2.49362E-04-5.19435E-04 6.03361E-03 1.51213E+07-9.69561E+05 1.43424E-03
 -1      2091 1.53024E-03 1.58996E-03 6.08166E-03 1.44737E+07-1.48936E+07-2.50790E-03
 -1      2093 1.53024E-03 1.58996E-03 6.08166E-03 1.44737E+07-1.48936E+07-2.50790E-03
 -1      2094 1.23501E-03 1.77961E-03 6.25133E-03 1.20284E+07-2.72198E+07-3.78161E-03
 -1      2096 1.23501E-03 1.77961E-03 6.25133E-03 1.20284E+07-2.72198E+07-3.78161E-03
 -1      2097 3.58956E-05 9.77925E-04 8.81938E-03 7.97559E+06-3.64150E+07-4.32626E-03
 -1      2099 3.58956E-05 9.77925E-04 8.81938E-03 7.97559E+06-3.64150E+07-4.32626E-03
 -1      2100-2.01943E-03 4.57329E-04 1.25589E-02 3.21187E+06-4.11254E+07-8.62507E-03
 -1      2102-2.01943E-03 4.57329E-04 1.25589E-02 3.21187E+06-4.11254E+07-8.62507E-03
 -1      2103-3.21284E-03 4.70321E-04 1.37179E-02-2.29016E+06-4.10334E+07-1.35052E-02
 -1      2105-3.21284E-03 4.70321E-04 1.37179E-02-2.29016E+06-4.10334E+07-1.35052E-02
 -1      2106-3.21812E-03-3.25574E-04 1.15753E-02-6.35676E+06-3.60344E+07-1.41328E-02
 -1      2108-3.21812E-03-3.25574E-04 1.15753E-02-6.35676E+06-3.60344E+07-1.41328E-02
 -1      2109-2.25993E-03-1.10600E-03 9.25733E-03-1.10083E+07-2.73591E+07-1.15623E-02
 -1      2111-2.25993E-03-1.10600E-03 9.25733E-03-1.10083E+07-2.73591E+07-1.15623E-02
 -1      2112-5.89142E-04-4.45912E-04 8.38796E-03-1.06959E+07-1.63047E+07-9.16977E-03
 -1      2114-5.89142E-04-4.45912E-04 8.38796E-03-1.06959E+07-1.63047E+07-9.16977E-03
 -1      2115 1.80978E-04 6.77886E-04 7.24673E-03-1.37902E+07-5.07069E+06-7.83735E-03
 -1      2117 1.80978E-04 6.77886E-04 7.24673E-03-1.37902E+07-5.07069E+06-7.83735E-03
 -1      2118-4.01126E-04-5.27391E-06 5.51278E-03-4.84719E+06 3.78349E+06-3.60012E-03
 -1      2120-4.01126E-04-5.27391E-06 5.51278E-03-4.84719E+06 3.78349E+06-3.60012E-03
 -1      2121 9.31455E+09 3.33850E+08 2.01966E+05 3.37722E+09-8.89351E+06-2.00337E+07
 -1      2123 9.31455E+09 3.33850E+08 2.01966E+05 3.37722E+09-8.89351E+06-2.00337E+07
 -1      2124 3.88312E+09-1.06411E+08 4.60066E+05 3.21857E+09-6.80059E+06 4.97480E+06
 -1      2126 3.88312E+09-1.06411E+08 4.60066E+05 3.21857E+09-6.80059E+06 4.97480E+06
 -1      2127-1.17374E+09 1.28100E+08-2.76541E+05 2.75181E+09-1.33726E+07-6.30245E+06
 -1      2129-1.17374E+09 1.28100E+08-2.76541E+05 2.75181E+09-1.33726E+07-6.30245E+06
 -1      2130-5.24293E+09 5.94146E+07 6.29597E+05 2.12714E+09-1.66308E+07-9.54523E+04
 -1      2132-5.24293E+09 5.94146E+07 6.29597E+05 2.12714E+09-1.66308E+07-9.54523E+04
 -1      2133-8.13758E+09 1.13813E+08-4.86363E+04 1.30598E+09-1.90667E+07-1.64752E+06
 -1      2135-8.13758E+09 1.13813E+08-4.86363E+04 1.30598E+09-1.90667E+07-1.64752E+06
 -1      2136-9.56391E+09 1.02248E+08 3.67123E+05 4.04345E+08-1.99128E+07 6.28944E+05
 -1      2138-9.56391E+09 1.02248E+08 3.67123E+05 4.04345E+08-1.99128E+07 6.28944E+05
 -1      2139-9.47632E+09 1.03754E+08 2.21189E+05-5.02781E+08-1.80671E+07 1.25897E+06
 -1      2141-9.47632E+09 1.03754E+08 2.21189E+05-5.02781E+08-1.80671E+07 1.25897E+06
 -1      2142-7.94760E+09 8.27936E+07 8.35060E+04-1.30059E+09-1.46948E+07 2.48867E+06
 -1      2144-7.94760E+09 8.27936E+07 8.35060E+04-1.30059E+09-1.46948E+07 2.48867E+06
 -1      2145-5.24206E+09 5.81395E+07 2.92695E+05-1.90188E+09-9.12334E+06 3.14853E+06
 -1      2147-5.24206E+09 5.81395E+07 2.92695E+05-1.90188E+09-9.12334E+06 3.14853E+06
 -1      2148-1.75038E+09 2.42245E+07-1.36345E+05-2.23201E+09-2.90857E+06 3.55975E+06
 -1      2150-1.75038E+09 2.42245E+07-1.36345E+05-2.23201E+09-2.90857E+06 3.55975E+06
 -1      2151 2.03794E+09-1.00387E+07 2.11101E+05-2.25519E+09 3.87855E+06 3.51527E+06
 -1      2153 2.03794E+09-1.00387E+07 2.11101E+05-2.25519E+09 3.87855E+06 3.51527E+06
 -1      2154 5.60578E+09-4.33026E+07-2.87274E+05-1.97105E+09 9.75110E+06 3.05173E+06
 -1      2156 5.60578E+09-4.33026E+07-2.87274E+05-1.97105E+09 9.75110E+06 3.05173E+06
 -1      2157 8.46811E+09-6.95466E+07 8.68603E+04-1.42013E+09 1.43608E+07 2.23320E+06
 -1      2159 8.46811E+09-6.95466E+07 8.68603E+04-1.42013E+09 1.43608E+07 2.23320E+06
 -1      2160 1.02373E+10-8.68367E+07-3.54854E+05-6.76035E+08 1.66805E+07 1.13944E+06
 -1      2162 1.02373E+10-8.68367E+07-3.54854E+05-6.76035E+08 1.66805E+07 1.13944E+06
 -1      2163 1.06704E+10-9.21634E+07 8.17575E+03 1.62413E+08 1.66088E+07-6.37009E+04
 -1      2165 1.06704E+10-9.21634E+07 8.17575E+03 1.62413E+08 1.66088E+07-6.37009E+04
 -1      2166 9.70165E+09-8.57373E+07-3.27210E+05 9.84972E+08 1.38565E+07-1.24546E+06
 -1      2168 9.70165E+09-8.57373E+07-3.27210E+05 9.84972E+08 1.38565E+07-1.24546E+06
 -1      2169 7.44875E+09-6.80358E+07 1.15072E+04 1.68387E+09 8.85100E+06-2.23180E+06
 -1      2171 7.44875E+09-6.80358E+07 1.15072E+04 1.68387E+09 8.85100E+06-2.23180E+06
 -1      2172 4.19733E+09-4.20190E+07-2.20205E+05 2.16833E+09 2.04746E+06-2.91287E+06
 -1      2174 4.19733E+09-4.20190E+07-2.20205E+05 2.16833E+09 2.04746E+06-2.91287E+06
 -1      2175 3.61834E+08-1.09674E+07 7.90705E+04 2.37636E+09-5.67421E+06-3.18542E+06
 -1      2177 3.61834E+08-1.09674E+07 7.90705E+04 2.37636E+09-5.67421E+06-3.18542E+06
 -1      2178-3.57002E+09 2.06121E+07-8.31137E+04 2.28329E+09-1.34137E+07-3.02723E+06
 -1      2180-3.57002E+09 2.06121E+07-8.31137E+04 2.28329E+09-1.34137E+07-3.02723E+06
 -1      2181-7.10319E+09 4.84093E+07 1.57867E+05 1.90512E+09-2.02105E+07-2.45226E+06
 -1      2183-7.10319E+09 4.84093E+07 1.57867E+05 1.90512E+09-2.02105E+07-2.45226E+06
 -1      2184-9.80262E+09 6.86335E+07 1.70735E+04 1.29715E+09-2.51954E+07-1.54226E+06
 -1      2186-9.80262E+09 6.86335E+07 1.70735E+04 1.29715E+09-2.51954E+07-1.54226E+06
 -1      2187-1.13538E+10 7.79918E+07 1.93948E+05 5.46849E+08-2.77915E+07-4.31546E+05
 -1      2189-1.13538E+10 7.79918E+07 1.93948E+05 5.46849E+08-2.77915E+07-4.31546E+05
 -1      2190-1.16085E+10 7.52514E+07 2.01079E+04-2.35576E+08-2.75908E+07 7.55232E+05
 -1      2192-1.16085E+10 7.52514E+07 2.01079E+04-2.35576E+08-2.75908E+07 7.55232E+05
 -1      2193-1.06111E+10 6.03890E+07 1.65613E+05-9.32569E+08-2.47164E+07 1.75850E+06
 -1      2195-1.06111E+10 6.03890E+07 1.65613E+05-9.32569E+08-2.47164E+07 1.75850E+06
 -1      2196-8.60166E+09 3.27305E+07-1.00039E+05-1.42844E+09-1.94164E+07 2.60926E+06
 -1      2198-8.60166E+09 3.27305E+07-1.00039E+05-1.42844E+09-1.94164E+07 2.60926E+06
 -1      2199-5.99574E+09 1.32917E+06 6.74274E+04-1.63006E+09-1.25432E+07 2.70173E+06
 -1      2201-5.99574E+09 1.32917E+06 6.74274E+04-1.63006E+09-1.25432E+07 2.70173E+06
 -1      2202-3.35720E+09-4.36346E+07-2.39490E+05-1.46066E+09-5.02952E+06 2.90449E+06
 -1      2204-3.35720E+09-4.36346E+07-2.39490E+05-1.46066E+09-5.02952E+06 2.90449E+06
 -1      2205-1.31250E+09-8.51153E+07-3.20629E+05-8.90588E+08 1.49505E+06 9.28870E+05
 -1      2207-1.31250E+09-8.51153E+07-3.20629E+05-8.90588E+08 1.49505E+06 9.28870E+05
 -1      2208-9.31455E+09-3.33850E+08-2.01966E+05 3.37722E+09-8.89351E+06 2.00337E+07
 -1      2210-9.31455E+09-3.33850E+08-2.01966E+05 3.37722E+09-8.89351E+06 2.00337E+07
 -1      2211-3.88312E+09 1.06411E+08-4.60066E+05 3.21857E+09-6.80059E+06-4.97480E+06
 -1      2213-3.88312E+09 1.06411E+08-4.60066E+05 3.21857E+09-6.80059E+06-4.97480E+06
 -1      2214 1.17374E+09-1.28100E+08 2.76541E+05 2.75181E+09-1.33726E+07 6.30245E+06
 -1      2216 1.17374E+09-1.28100E+08 2.76541E+05 2.75181E+09-1.33726E+07 6.30245E+06
 -1      2217 5.24293E+09-5.94146E+07-6.29597E+05 2.12714E+09-1.66308E+07 9.54523E+04
 -1      2219 5.24293E+09-5.94146E+07-6.29597E+05 2.12714E+09-1.66308E+07 9.54523E+04
 -1      2220 8.13758E+09-1.13813E+08 4.86363E+04 1.30598E+09-1.90667E+07 1.64752E+06
 -1      2222 8.13758E+09-1.13813E+08 4.86363E+04 1.30598E+09-1.90667E+07 1.64752E+06
 -1      2223 9.56391E+09-1.02248E+08-3.67123E+05 4.04345E+08-1.99128E+07-6.28944E+05
 -1      2225 9.56391E+09-1.02248E+08-3.67123E+05 4.04345E+08-1.99128E+07-6.28944E+05
 -1      2226 9.47632E+09-1.03754E+08-2.21189E+05-5.02781E+08-1.80671E+07-1.25897E+06
 -1      2228 9.47632E+09-1.03754E+08-2.21189E+05-5.02781E+08-1.80671E+07-1.25897E+06
 -1      2229 7.94760E+09-8.27936E+07-8.35060E+04-1.30059E+09-1.46948E+07-2.48867E+06
 -1      2231 7.94760E+09-8.27936E+07-8.35060E+04-1.30059E+09-1.46948E+07-2.48867E+06
 -1      2232 5.24206E+09-5.81395E+07-2.92695E+05-1.90188E+09-9.12334E+06-3.14853E+06
 -1      2234 5.24206E+09-5.81395E+07-2.92695E+05-1.90188E+09-9.12334E+06-3.14853E+06
 -1      2235 1.75038E+09-2.42245E+07 1.36345E+05-2.23201E+09-2.90857E+06-3.55975E+06
 -1      2237 1.75038E+09-2.42245E+07 1.36345E+05-2.23201E+09-2.90857E+06-3.55975E+06
 -1      2238-2.03794E+09 1.00387E+07-2.11101E+05-2.25519E+09 3.87855E+06-3.51527E+06
 -1      2240-2.03794E+09 1.00387E+07-2.11101E+05-2.25519E+09 3.87855E+06-3.51527E+06
 -1      2241-5.60578E+09 4.33026E+07 2.87274E+05-1.97105E+09 9.75110E+06-3.05173E+06
 -1      2243-5.60578E+09 4.33026E+07 2.87274E+05-1.97105E+09 9.75110E+06-3.05173E+06
 -1      2244-8.46811E+09 6.95466E+07-8.68603E+04-1.42013E+09 1.43608E+07-2.23320E+06
 -1      2246-8.46811E+09 6.95466E+07-8.68603E+04-1.42013E+09 1.43608E+07-2.23320E+06
 -1      2247-1.02373E+10 8.68367E+07 3.54854E+05-6.76035E+08 1.66805E+07-1.13944E+06
 -1      2249-1.02373E+10 8.68367E+07 3.54854E+05-6.76035E+08 1.66805E+07-1.13944E+06
 -1      2250-1.06704E+10 9.21634E+07-8.17575E+03 1.62413E+08 1.66088E+07 6.37009E+04
 -1      2252-1.06704E+10 9.21634E+07-8.17575E+03 1.62413E+08 1.66088E+07 6.37009E+04
 -1      2253-9.70165E+09 8.57373E+07 3.27210E+05 9.84972E+08 1.38565E+07 1.24546E+06
 -1      2255-9.70165E+09 8.57373E+07 3.27210E+05 9.84972E+08 1.38565E+07 1.24546E+06
 -1      2256-7.44875E+09 6.80358E+07-1.15072E+04 1.68387E+09 8.85100E+06 2.23180E+06
 -1      2258-7.44875E+09 6.80358E+07-1.15072E+04 1.68387E+09 8.85100E+06 2.23180E+06
 -1      2259-4.19733E+09 4.20190E+07 2.20205E+05 2.16833E+09 2.04746E+06 2.91287E+06
 -1      2261-4.19733E+09 4.20190E+07 2.20205E+05 2.16833E+09 2.04746E+06 2.91287E+06
 -1      2262-3.61834E+08 1.09674E+07-7.90705E+04 2.37636E+09-5.67421E+06 3.18542E+06
 -1      2264-3.61834E+08 1.09674E+07-7.90705E+04 2.37636E+09-5.67421E+06 3.18542E+06
 -1      2265 3.57002E+09-2.06121E+07 8.31137E+04 2.28329E+09-1.34137E+07 3.02723E+06
 -1      2267 3.57002E+09-2.06121E+07 8.31137E+04 2.28329E+09-1.34137E+07 3.02723E+06
 -1      2268 7.10319E+09-4.84093E+07-1.57867E+05 1.90512E+09-2.02105E+07 2.45226E+06
 -1      2270 7.10319E+09-4.84093E+07-1.57867E+05 1.90512E+09-2.02105E+07 2.45226E+06
 -1      2271 9.80262E+09-6.86335E+07-1.70735E+04 1.29715E+09-2.51954E+07 1.54226E+06
 -1      2273 9.80262E+09-6.86335E+07-1.70735E+04 1.29715E+09-2.51954E+07 1.54226E+06
 -1      2274 1.13538E+10-7.79918E+07-1.93948E+05 5.46849E+08-2.77915E+07 4.31546E+05
 -1      2276 1.13538E+10-7.79918E+07-1.93948E+05 5.46849E+08-2.77915E+07 4.31546E+05
 -1      2277 1.16085E+10-7.52514E+07-2.01079E+04-2.35576E+08-2.75908E+07-7.55232E+05
 -1      2279 1.16085E+10-7.52514E+07-2.01079E+04-2.35576E+08-2.75908E+07-7.55232E+05
 -1      2280 1.06111E+10-6.03890E+07-1.65613E+05-9.32569E+08-2.47164E+07-1.75850E+06
 -1      2282 1.06111E+10-6.03890E+07-1.65613E+05-9.32569E+08-2.47164E+07-1.75850E+06
 -1      2283 8.60166E+09-3.27305E+07 1.00039E+05-1.42844E+09-1.94164E+07-2.60926E+06
 -1      2285 8.60166E+09-3.27305E+07 1.00039E+05-1.42844E+09-1.94164E+07-2.60926E+06
 -1      2286 5.99574E+09-1.32917E+06-6.74274E+04-1.63006E+09-1.25432E+07-2.70173E+06
 -1      2288 5.99574E+09-1.32917E+06-6.74274E+04-1.63006E+09-1.25432E+07-2.70173E+06
 -1      2289 3.35720E+09 4.36346E+07 2.39490E+05-1.46066E+09-5.02952E+06-2.90449E+06
 -1      2291 3.35720E+09 4.36346E+07 2.39490E+05-1.46066E+09-5.02952E+06-2.90449E+06
 -1      2292 1.31250E+09 8.51153E+07 3.20629E+05-8.90588E+08 1.49505E+06-9.28870E+05
 -1      2294 1.31250E+09 8.51153E+07 3.20629E+05-8.90588E+08 1.49505E+06-9.28870E+05
 -3
    1PSTEP                        39           1           1          
    1PGM                1.000000E+00                                  
    1PGK                6.602226E+06                                  
    1PHID                         -1                                  
    1PSUBC                         0                                  
    1PMODE                        10                                  
  100CL  110 408.9453971         930                     2   10MODAL      1
 -4  FORC        4    1
 -5  F1          1    2    1    0
 -5  F2          1    2    2    0
 -5  F3          1    2    3    0
 -5  ALL         1    2    0    0    1ALL
 -1       404 4.28801E+06-1.11496E+06 8.47950E+04
 -1       406 3.97270E+06-1.14302E+06 8.47950E+04
 -1       407 1.24699E+04-4.27602E+04 4.27579E+03
 -1       409 1.24699E+04-4.27602E+04 4.27579E+03
 -1       410-2.04865E-06-3.04115E+05 2.10356E-06
 -1       412-2.17064E-06-4.18024E+05 3.90394E-06
 -1       413 1.63659E-07 2.11460E+05 8.94053E+04
 -1       415-1.46751E-07 2.11460E+05-8.94053E+04
 -1       424 1.23980E-05-7.41901E+05-7.14638E-07
 -1       426 6.12042E-06-7.57222E+05-4.40464E-07
 -1       427-7.11013E+05 8.20458E+05-8.19332E+04
 -1       429 7.11013E+05 8.20458E+05 8.19332E+04
 -1       438-1.24699E+04-4.27602E+04-4.27579E+03
 -1       440-1.24699E+04-4.27602E+04-4.27579E+03
 -1       441-4.28801E+06-1.11496E+06-8.47950E+04
 -1       443-3.97270E+06-1.14302E+06-8.47950E+04
 -1       444-7.11013E+05 8.20458E+05 8.19332E+04
 -1       446 7.11013E+05 8.20458E+05-8.19332E+04
 -1       447 1.25505E-05-7.41901E+05-7.42363E-07
 -1       449 1.05681E-05-7.57222E+05-5.48159E-07
 -1       458-4.31589E-07 2.11460E+05-8.94053E+04
 -1       460 2.40097E-07 2.11460E+05 8.94053E+04
 -1       461 7.43192E-07-3.04115E+05-2.65596E-06
 -1       463 6.58907E-07-4.18024E+05 3.37048E-08
 -1       472-4.28801E+06-1.11496E+06 8.47950E+04
 -1       474-3.97270E+06-1.14302E+06 8.47950E+04
 -1       475-1.24699E+04-4.27602E+04 4.27579E+03
 -1       477-1.24699E+04-4.27602E+04 4.27579E+03
 -1       478 1.24699E+04-4.27602E+04-4.27579E+03
 -1       480 1.24699E+04-4.27602E+04-4.27579E+03
 -1       481 4.28801E+06-1.11496E+06-8.47950E+04
 -1       483 3.97270E+06-1.14302E+06-8.47950E+04
 -1       484-5.96783E+03 1.06840E+04-2.12490E+03
 -1       486-5.96783E+03 1.06840E+04-2.12490E+03
 -1       487-9.66117E+03 2.57254E+04-4.41409E+03
 -1       489-9.66117E+03 2.57254E+04-4.41409E+03
 -1       490-1.03985E+04 4.36671E+04-6.44823E+03
 -1       492-1.03985E+04 4.36671E+04-6.44823E+03
 -1       493-8.55918E+03 6.02488E+04-7.99607E+03
 -1       495-8.55918E+03 6.02488E+04-7.99607E+03
 -1       496-4.75218E+03 7.18881E+04-8.97567E+03
 -1       498-4.75218E+03 7.18881E+04-8.97567E+03
 -1       499 2.74040E+02 7.60947E+04-9.28742E+03
 -1       501 2.74040E+02 7.60947E+04-9.28742E+03
 -1       502 5.67671E+03 7.16365E+04-8.91771E+03
 -1       504 5.67671E+03 7.16365E+04-8.91771E+03
 -1       505 1.06191E+04 5.86322E+04-7.90190E+03
 -1       507 1.06191E+04 5.86322E+04-7.90190E+03
 -1       508 1.43604E+04 3.84698E+04-6.34243E+03
 -1       510 1.43604E+04 3.84698E+04-6.34243E+03
 -1       511 1.63449E+04 1.35833E+04-4.38896E+03
 -1       513 1.63449E+04 1.35833E+04-4.38896E+03
 -1       514 1.62661E+04-1.28981E+04-2.22612E+03
 -1       516 1.62661E+04-1.28981E+04-2.22612E+03
 -1       517 1.41027E+04-3.75833E+04-5.01624E+01
 -1       519 1.41027E+04-3.75833E+04-5.01624E+01
 -1       520 1.01171E+04-5.72811E+04 1.95275E+03
 -1       522 1.01171E+04-5.72811E+04 1.95275E+03
 -1       523 4.81887E+03-6.94307E+04 3.62843E+03
 -1       525 4.81887E+03-6.94307E+04 3.62843E+03
 -1       526-1.10374E+03-7.24486E+04 4.87164E+03
 -1       528-1.10374E+03-7.24486E+04 4.87164E+03
 -1       529-6.87511E+03-6.59435E+04 5.63700E+03
 -1       531-6.87511E+03-6.59435E+04 5.63700E+03
 -1       532-1.17344E+04-5.07753E+04 5.94193E+03
 -1       534-1.17344E+04-5.07753E+04 5.94193E+03
 -1       535-1.50349E+04-2.89496E+04 5.86145E+03
 -1       537-1.50349E+04-2.89496E+04 5.86145E+03
 -1       538-1.63285E+04-3.36181E+03 5.51550E+03
 -1       540-1.63285E+04-3.36181E+03 5.51550E+03
 -1       541-1.54225E+04 2.25727E+04 5.05052E+03
 -1       543-1.54225E+04 2.25727E+04 5.05052E+03
 -1       544-1.24028E+04 4.53552E+04 4.61756E+03
 -1       546-1.24028E+04 4.53552E+04 4.61756E+03
 -1       547-7.61866E+03 6.18461E+04 4.35007E+03
 -1       549-7.61866E+03 6.18461E+04 4.35007E+03
 -1       550-1.63209E+03 6.96551E+04 4.34411E+03
 -1       552-1.63209E+03 6.96551E+04 4.34411E+03
 -1       553 4.86385E+03 6.74239E+04 4.64355E+03
 -1       555 4.86385E+03 6.74239E+04 4.64355E+03
 -1       556 1.11464E+04 5.49609E+04 5.23274E+03
 -1       558 1.11464E+04 5.49609E+04 5.23274E+03
 -1       559 1.65729E+04 3.32073E+04 6.03625E+03
 -1       561 1.65729E+04 3.32073E+04 6.03625E+03
 -1       562 2.06864E+04 4.02592E+03 6.92925E+03
 -1       564 2.06864E+04 4.02592E+03 6.92925E+03
 -1       565 2.33050E+04-3.01560E+04 7.75073E+03
 -1       567 2.33050E+04-3.01560E+04 7.75073E+03
 -1       568 2.45886E+04-6.68459E+04 8.33652E+03
 -1       570 2.45886E+04-6.68459E+04 8.33652E+03
 -1       571 1.66121E+04-8.55155E+04 5.70877E+03
 -1       573 1.66121E+04-8.55155E+04 5.70877E+03
 -1       574-5.44276E-06-3.45696E+05-9.41495E-07
 -1       576-5.41873E-06-1.44881E+05-7.53934E-07
 -1       577 4.67850E-06 2.83277E+05-1.57616E+05
 -1       579 4.71386E-06 2.83277E+05 1.57616E+05
 -1       588-3.73825E-06 2.29333E+05 3.46758E-06
 -1       590-3.71176E-06 5.97901E+05 2.73686E-06
 -1       591 4.49830E-06-3.20256E+05-2.89284E+05
 -1       593 4.54575E-06-3.20256E+05 2.89284E+05
 -1       602-2.62100E-06 2.85495E+04 5.89536E-07
 -1       604-2.64291E-06 5.80485E+05 8.00274E-07
 -1       605 3.86362E-06-1.45843E+05-4.33205E+05
 -1       607 3.83803E-06-1.45843E+05 4.33205E+05
 -1       616-3.32078E-06 2.29308E+05-7.01478E-07
 -1       618-3.36879E-06 9.49103E+05-1.66730E-06
 -1       619 2.73969E-06-3.70917E+05-5.64956E+05
 -1       621 2.73626E-06-3.70917E+05 5.64956E+05
 -1       630-3.49275E-06 2.01329E+05-2.91719E-06
 -1       632-3.57404E-06 1.02266E+06-1.67953E-06
 -1       633 2.18732E-06-3.51969E+05-6.44645E+05
 -1       635 2.14989E-06-3.51969E+05 6.44645E+05
 -1       644-2.36396E-06 2.64790E+05-1.17406E-06
 -1       646-2.31797E-06 1.11365E+06 7.73637E-07
 -1       647 2.01624E-06-4.14199E+05-6.66255E+05
 -1       649 1.97046E-06-4.14199E+05 6.66255E+05
 -1       658 7.01948E-08 2.34562E+05 2.79240E-06
 -1       660 3.56700E-07 1.01887E+06 1.67945E-06
 -1       661 1.42727E-06-3.67646E+05-6.15587E+05
 -1       663 1.47600E-06-3.67646E+05 6.15587E+05
 -1       672 2.24066E-06 2.11728E+05 2.92259E-06
 -1       674 2.29628E-06 8.45308E+05 2.74581E-06
 -1       675 1.72889E-07-3.15900E+05-4.97287E+05
 -1       677 2.16924E-07-3.15900E+05 4.97287E+05
 -1       686 2.63927E-06 1.42645E+05 1.80181E-06
 -1       688 2.48695E-06 5.54594E+05 1.70426E-06
 -1       689-1.43711E-06-2.07969E+05-3.23332E+05
 -1       691-1.34644E-06-2.07969E+05 3.23332E+05
 -1       700 1.85079E-06 6.79304E+04 2.78318E-06
 -1       702 1.87439E-06 2.13184E+05-4.31724E-07
 -1       703-1.82156E-06-8.87341E+04-1.14007E+05
 -1       705-1.96012E-06-8.87341E+04 1.14007E+05
 -1       714 1.86257E-06-2.24051E+04 2.69394E-06
 -1       716 2.05337E-06-1.54225E+05 2.54289E-06
 -1       717-2.50707E-06 4.55710E+04 1.03463E+05
 -1       719-1.86359E-06 4.55710E+04-1.03463E+05
 -1       728 3.41758E-06-1.06415E+05 5.09475E-06
 -1       730 3.53003E-06-4.90525E+05 3.61495E-06
 -1       731-4.39240E-06 1.67460E+05 3.01481E+05
 -1       733-3.99228E-06 1.67460E+05-3.01481E+05
 -1       742 4.07143E-06-1.81185E+05 2.13288E-06
 -1       744 3.95907E-06-7.58044E+05 6.70375E-06
 -1       745-5.72448E-06 2.67971E+05 4.52767E+05
 -1       747-5.63716E-06 2.67971E+05-4.52767E+05
 -1       756 5.57475E-06-2.34351E+05 1.40745E-07
 -1       758 5.49094E-06-9.18303E+05 6.95004E-06
 -1       759-6.93163E-06 3.30777E+05 5.36823E+05
 -1       761-6.87684E-06 3.30777E+05-5.36823E+05
 -1       770 6.23820E-06-2.63292E+05 4.61319E-06
 -1       772 6.35698E-06-9.52004E+05-2.84393E-06
 -1       773-7.03075E-06 3.50548E+05 5.40559E+05
 -1       775-6.78362E-06 3.50548E+05-5.40559E+05
 -1       784 4.80474E-06-2.64478E+05 2.10556E-06
 -1       786 5.24737E-06-8.52915E+05 1.00378E-06
 -1       787-7.10117E-06 3.23807E+05 4.61855E+05
 -1       789-6.74194E-06 3.23807E+05-4.61855E+05
 -1       798 4.35304E-06-2.40833E+05 1.55957E-06
 -1       800 4.54074E-06-6.34230E+05-5.70168E-07
 -1       801-6.27301E-06 2.55583E+05 3.08771E+05
 -1       803-5.72942E-06 2.55583E+05-3.08771E+05
 -1       812 3.77053E-06-1.96790E+05-1.29077E-06
 -1       814 3.94138E-06-3.23470E+05-4.54423E-06
 -1       815-2.95607E-06 1.54766E+05 9.94291E+04
 -1       817-2.40575E-06 1.54766E+05-9.94291E+04
 -1       826 2.50258E-06-1.40653E+05 3.67505E-07
 -1       828 2.70648E-06 3.85545E+04 3.97119E-07
 -1       829-4.65363E-07 3.56692E+04-1.40657E+05
 -1       831-2.64307E-07 3.56692E+04 1.40657E+05
 -1       840 5.05074E-07-8.15698E+04 3.34485E-07
 -1       842 7.28317E-07 4.04809E+05 2.13558E-06
 -1       843 8.56191E-07-8.56958E+04-3.81750E+05
 -1       845 1.02392E-06-8.56958E+04 3.81750E+05
 -1       854-7.51238E-07-2.93302E+04-5.33527E-07
 -1       856-2.52262E-07 7.26666E+05 1.00280E-06
 -1       857 6.28074E-07-1.92495E+05-5.93369E+05
 -1       859 1.36731E-06-1.92495E+05 5.93369E+05
 -1       868-1.80618E-06 6.62397E+03 6.94705E-07
 -1       870-2.07400E-06 9.60887E+05-5.26839E-07
 -1       871 1.49911E-06-2.69485E+05-7.48986E+05
 -1       873 2.24926E-06-2.69485E+05 7.48986E+05
 -1       882-3.63694E-06 2.07134E+04-1.63596E-07
 -1       884-3.45881E-06 1.07582E+06-8.60611E-07
 -1       885 2.95935E-06-3.06484E+05-8.28137E+05
 -1       887 2.80984E-06-3.06484E+05 8.28137E+05
 -1       896-5.84105E-06 5.05931E+03 7.82179E-06
 -1       898-5.35351E-06 1.05129E+06-1.17226E-06
 -1       899 3.13945E-06-2.94227E+05-8.21168E+05
 -1       901 3.09941E-06-2.94227E+05 8.21168E+05
 -1       910-6.28966E-06-3.47118E+04 6.30588E-06
 -1       912-6.16634E-06 8.92545E+05 6.47851E-06
 -1       913 3.32148E-06-2.38771E+05-7.27789E+05
 -1       915 4.09698E-06-2.38771E+05 7.27789E+05
 -1       924-4.85067E-06-1.12335E+05 5.52780E-06
 -1       926-5.00173E-06 6.02481E+05 5.53800E-06
 -1       927 3.24874E-06-1.31269E+05-5.61048E+05
 -1       929 2.81095E-06-1.31269E+05 5.61048E+05
 -1       938-3.76206E-06-1.98505E+05 1.51751E-06
 -1       940-3.94932E-06 2.38442E+05 3.03982E-06
 -1       941 2.14026E-06-8.32213E+03-3.42953E+05
 -1       943 2.58264E-06-8.32213E+03 3.42953E+05
 -1       952-3.32382E-06-3.43608E+05 2.71632E-06
 -1       954-3.55357E-06-2.07934E+05 5.68299E-06
 -1       955 2.61186E-06 1.68213E+05-1.06488E+05
 -1       957 1.73481E-06 1.68213E+05 1.06488E+05
 -1       966-3.60369E-06-4.67707E+05 1.73800E-06
 -1       968-3.50367E-06-5.88124E+05 5.15981E-06
 -1       969 1.11886E-06 2.93184E+05 9.45130E+04
 -1       971 4.41118E-07 2.93184E+05-9.45130E+04
 -1       980 4.02835E+06-4.84523E+05 5.63507E+04
 -1       982 3.63739E+06-5.20249E+05 5.63507E+04
 -1       983-1.66121E+04-8.55155E+04-5.70877E+03
 -1       985-1.66121E+04-8.55155E+04-5.70877E+03
 -1       986 5.96783E+03 1.06840E+04 2.12490E+03
 -1       988 5.96783E+03 1.06840E+04 2.12490E+03
 -1       989 9.66117E+03 2.57254E+04 4.41409E+03
 -1       991 9.66117E+03 2.57254E+04 4.41409E+03
 -1       992 1.03985E+04 4.36671E+04 6.44823E+03
 -1       994 1.03985E+04 4.36671E+04 6.44823E+03
 -1       995 8.55918E+03 6.02488E+04 7.99607E+03
 -1       997 8.55918E+03 6.02488E+04 7.99607E+03
 -1       998 4.75218E+03 7.18881E+04 8.97567E+03
 -1      1000 4.75218E+03 7.18881E+04 8.97567E+03
 -1      1001-2.74040E+02 7.60947E+04 9.28742E+03
 -1      1003-2.74040E+02 7.60947E+04 9.28742E+03
 -1      1004-5.67671E+03 7.16365E+04 8.91771E+03
 -1      1006-5.67671E+03 7.16365E+04 8.91771E+03
 -1      1007-1.06191E+04 5.86322E+04 7.90190E+03
 -1      1009-1.06191E+04 5.86322E+04 7.90190E+03
 -1      1010-1.43604E+04 3.84698E+04 6.34243E+03
 -1      1012-1.43604E+04 3.84698E+04 6.34243E+03
 -1      1013-1.63449E+04 1.35833E+04 4.38896E+03
 -1      1015-1.63449E+04 1.35833E+04 4.38896E+03
 -1      1016-1.62661E+04-1.28981E+04 2.22612E+03
 -1      1018-1.62661E+04-1.28981E+04 2.22612E+03
 -1      1019-1.41027E+04-3.75833E+04 5.01624E+01
 -1      1021-1.41027E+04-3.75833E+04 5.01624E+01
 -1      1022-1.01171E+04-5.72811E+04-1.95275E+03
 -1      1024-1.01171E+04-5.72811E+04-1.95275E+03
 -1      1025-4.81887E+03-6.94307E+04-3.62843E+03
 -1      1027-4.81887E+03-6.94307E+04-3.62843E+03
 -1      1028 1.10374E+03-7.24486E+04-4.87164E+03
 -1      1030 1.10374E+03-7.24486E+04-4.87164E+03
 -1      1031 6.87511E+03-6.59435E+04-5.63700E+03
 -1      1033 6.87511E+03-6.59435E+04-5.63700E+03
 -1      1034 1.17344E+04-5.07753E+04-5.94193E+03
 -1      1036 1.17344E+04-5.07753E+04-5.94193E+03
 -1      1037 1.50349E+04-2.89496E+04-5.86145E+03
 -1      1039 1.50349E+04-2.89496E+04-5.86145E+03
 -1      1040 1.63285E+04-3.36181E+03-5.51550E+03
 -1      1042 1.63285E+04-3.36181E+03-5.51550E+03
 -1      1043 1.54225E+04 2.25727E+04-5.05052E+03
 -1      1045 1.54225E+04 2.25727E+04-5.05052E+03
 -1      1046 1.24028E+04 4.53552E+04-4.61756E+03
 -1      1048 1.24028E+04 4.53552E+04-4.61756E+03
 -1      1049 7.61866E+03 6.18461E+04-4.35007E+03
 -1      1051 7.61866E+03 6.18461E+04-4.35007E+03
 -1      1052 1.63209E+03 6.96551E+04-4.34411E+03
 -1      1054 1.63209E+03 6.96551E+04-4.34411E+03
 -1      1055-4.86385E+03 6.74239E+04-4.64355E+03
 -1      1057-4.86385E+03 6.74239E+04-4.64355E+03
 -1      1058-1.11464E+04 5.49609E+04-5.23274E+03
 -1      1060-1.11464E+04 5.49609E+04-5.23274E+03
 -1      1061-1.65729E+04 3.32073E+04-6.03625E+03
 -1      1063-1.65729E+04 3.32073E+04-6.03625E+03
 -1      1064-2.06864E+04 4.02592E+03-6.92925E+03
 -1      1066-2.06864E+04 4.02592E+03-6.92925E+03
 -1      1067-2.33050E+04-3.01560E+04-7.75073E+03
 -1      1069-2.33050E+04-3.01560E+04-7.75073E+03
 -1      1070-2.45886E+04-6.68459E+04-8.33652E+03
 -1      1072-2.45886E+04-6.68459E+04-8.33652E+03
 -1      1073-4.02835E+06-4.84523E+05-5.63507E+04
 -1      1075-3.63739E+06-5.20249E+05-5.63507E+04
 -1      1076-2.23413E+06-5.65122E+05-8.91991E+04
 -1      1078 2.23413E+06-5.65122E+05 8.91991E+04
 -1      1079-3.04624E+06-1.00106E+06 6.91077E-06
 -1      1081 3.04624E+06-1.00106E+06 3.21294E-06
 -1      1082-2.23413E+06-5.65122E+05 8.91991E+04
 -1      1084 2.23413E+06-5.65122E+05-8.91991E+04
 -1      1085-2.49841E-06 2.83277E+05 1.57616E+05
 -1      1087-2.43673E-06 2.83277E+05-1.57616E+05
 -1      1088 4.28025E-07-3.45696E+05 3.59719E-08
 -1      1090 3.58884E-07-1.44881E+05-7.01398E-08
 -1      1099-3.87399E-06-3.20256E+05 2.89284E+05
 -1      1101-3.91824E-06-3.20256E+05-2.89284E+05
 -1      1102 2.68582E-06 2.29333E+05 1.12125E-06
 -1      1104 2.54830E-06 5.97901E+05-4.34062E-07
 -1      1113-3.75688E-06-1.45843E+05 4.33205E+05
 -1      1115-3.88859E-06-1.45843E+05-4.33205E+05
 -1      1116 4.03443E-06 2.85495E+04 1.77289E-06
 -1      1118 4.04676E-06 5.80485E+05-7.42484E-08
 -1      1127-3.10730E-06-3.70917E+05 5.64956E+05
 -1      1129-3.39536E-06-3.70917E+05-5.64956E+05
 -1      1130 3.20601E-06 2.29308E+05 1.94066E-06
 -1      1132 3.25731E-06 9.49103E+05 3.98343E-07
 -1      1141-2.35183E-06-3.51969E+05 6.44645E+05
 -1      1143-2.55816E-06-3.51969E+05-6.44645E+05
 -1      1144 1.92589E-06 2.01329E+05 4.32845E-06
 -1      1146 1.77857E-06 1.02266E+06 1.35376E-06
 -1      1155-1.64748E-06-4.14199E+05 6.66255E+05
 -1      1157-1.52715E-06-4.14199E+05-6.66255E+05
 -1      1158 1.02910E-07 2.64790E+05 4.99426E-06
 -1      1160-2.83877E-07 1.11365E+06 1.81254E-06
 -1      1169-2.49967E-07-3.67646E+05 6.15587E+05
 -1      1171-1.31446E-07-3.67646E+05-6.15587E+05
 -1      1172-1.63186E-06 2.34562E+05 1.21400E-06
 -1      1174-2.04110E-06 1.01887E+06 2.77267E-06
 -1      1183 8.52268E-07-3.15900E+05 4.97287E+05
 -1      1185 1.61309E-06-3.15900E+05-4.97287E+05
 -1      1186-1.78665E-06 2.11728E+05-1.81563E-07
 -1      1188-1.86920E-06 8.45308E+05 1.52879E-06
 -1      1197 1.38852E-06-2.07969E+05 3.23332E+05
 -1      1199 2.08185E-06-2.07969E+05-3.23332E+05
 -1      1200-2.11285E-06 1.42645E+05 3.67411E-07
 -1      1202-2.15472E-06 5.54594E+05 1.37148E-07
 -1      1211 1.37858E-06-8.87341E+04 1.14007E+05
 -1      1213 1.62136E-06-8.87341E+04-1.14007E+05
 -1      1214-3.63055E-06 6.79304E+04 1.80839E-06
 -1      1216-3.77539E-06 2.13184E+05 1.45403E-06
 -1      1225 3.22754E-06 4.55710E+04-1.03463E+05
 -1      1227 2.60538E-06 4.55710E+04 1.03463E+05
 -1      1228-4.49812E-06-2.24051E+04 4.87717E-06
 -1      1230-4.82602E-06-1.54225E+05-2.48788E-06
 -1      1239 4.67713E-06 1.67460E+05-3.01481E+05
 -1      1241 4.44717E-06 1.67460E+05 3.01481E+05
 -1      1242-3.84685E-06-1.06415E+05-8.54825E-07
 -1      1244-4.09611E-06-4.90525E+05-2.52564E-06
 -1      1253 6.24189E-06 2.67971E+05-4.52767E+05
 -1      1255 5.60056E-06 2.67971E+05 4.52767E+05
 -1      1256-4.37082E-06-1.81185E+05-8.53690E-07
 -1      1258-4.33591E-06-7.58044E+05-6.65705E-06
 -1      1267 4.85991E-06 3.30777E+05-5.36823E+05
 -1      1269 5.44942E-06 3.30777E+05 5.36823E+05
 -1      1270-5.22177E-06-2.34351E+05-1.58743E-06
 -1      1272-5.21836E-06-9.18303E+05-7.30169E-06
 -1      1281 4.35440E-06 3.50548E+05-5.40559E+05
 -1      1283 5.14742E-06 3.50548E+05 5.40559E+05
 -1      1284-6.64555E-06-2.63292E+05-4.42500E-06
 -1      1286-6.84975E-06-9.52004E+05-3.47915E-06
 -1      1295 4.79624E-06 3.23807E+05-4.61855E+05
 -1      1297 4.80149E-06 3.23807E+05 4.61855E+05
 -1      1298-7.22445E-06-2.64478E+05-3.18232E-06
 -1      1300-7.45919E-06-8.52915E+05-6.84112E-06
 -1      1309 2.56400E-06 2.55583E+05-3.08771E+05
 -1      1311 2.68624E-06 2.55583E+05 3.08771E+05
 -1      1312-6.07606E-06-2.40833E+05-3.16798E-06
 -1      1314-5.97924E-06-6.34230E+05-7.25328E-06
 -1      1323 1.31933E-06 1.54766E+05-9.94291E+04
 -1      1325 1.11329E-06 1.54766E+05 9.94291E+04
 -1      1326-3.97166E-06-1.96790E+05-5.88521E-06
 -1      1328-3.93747E-06-3.23470E+05 7.96849E-08
 -1      1337-2.80342E-07 3.56692E+04 1.40657E+05
 -1      1339-1.79985E-07 3.56692E+04-1.40657E+05
 -1      1340-9.99647E-07-1.40653E+05-2.37580E-06
 -1      1342-7.40820E-07 3.85545E+04-5.97801E-06
 -1      1351-7.59582E-07-8.56958E+04 3.81750E+05
 -1      1353-5.57070E-07-8.56958E+04-3.81750E+05
 -1      1354 9.96868E-07-8.15698E+04-5.64350E-06
 -1      1356 1.00274E-06 4.04809E+05-3.23418E-06
 -1      1365-1.45837E-06-1.92495E+05 5.93369E+05
 -1      1367-9.56228E-07-1.92495E+05-5.93369E+05
 -1      1368 2.44829E-06-2.93302E+04-2.99479E-06
 -1      1370 2.30049E-06 7.26666E+05-2.15020E-06
 -1      1379-1.64062E-06-2.69485E+05 7.48986E+05
 -1      1381-1.49305E-06-2.69485E+05-7.48986E+05
 -1      1382 3.79986E-06 6.62397E+03-6.33694E-06
 -1      1384 3.61521E-06 9.60887E+05-7.43901E-07
 -1      1393-2.51177E-06-3.06484E+05 8.28137E+05
 -1      1395-3.08275E-06-3.06484E+05-8.28137E+05
 -1      1396 4.86048E-06 2.07134E+04-8.86707E-06
 -1      1398 4.51573E-06 1.07582E+06-1.35649E-06
 -1      1407-4.57218E-06-2.94227E+05 8.21168E+05
 -1      1409-5.18045E-06-2.94227E+05-8.21168E+05
 -1      1410 4.60328E-06 5.05931E+03-1.19018E-05
 -1      1412 4.97654E-06 1.05129E+06 2.32119E-07
 -1      1421-5.09972E-06-2.38771E+05 7.27789E+05
 -1      1423-5.11937E-06-2.38771E+05-7.27789E+05
 -1      1424 3.93979E-06-3.47118E+04-4.46591E-06
 -1      1426 4.02453E-06 8.92545E+05-4.97819E-06
 -1      1435-4.98266E-06-1.31269E+05 5.61048E+05
 -1      1437-4.67047E-06-1.31269E+05-5.61048E+05
 -1      1438 4.00949E-06-1.12335E+05-3.10696E-06
 -1      1440 4.00210E-06 6.02481E+05-2.83952E-06
 -1      1449-3.50831E-06-8.32213E+03 3.42953E+05
 -1      1451-3.91297E-06-8.32213E+03-3.42953E+05
 -1      1452 3.40351E-06-1.98505E+05 3.55806E-07
 -1      1454 2.94200E-06 2.38442E+05-3.31284E-06
 -1      1463-3.24900E-06 1.68213E+05 1.06488E+05
 -1      1465-3.29600E-06 1.68213E+05-1.06488E+05
 -1      1466 3.91521E-06-3.43608E+05 2.51967E-06
 -1      1468 3.52449E-06-2.07934E+05-4.14336E-06
 -1      1477-1.67580E-06 2.93184E+05-9.45130E+04
 -1      1479-1.19692E-06 2.93184E+05 9.45130E+04
 -1      1480 2.86677E-06-4.67707E+05-3.17195E-07
 -1      1482 2.50734E-06-5.88124E+05 2.09114E-06
 -1      1491-1.13560E-06-1.32948E+05 2.93635E-07
 -1      1493-1.65454E-06-1.32948E+05-6.71794E-07
 -1      1494-1.49076E-06-1.37698E+05 3.56826E-07
 -1      1496-1.42941E-06-1.37698E+05-8.64429E-07
 -1      1497-4.03807E-07-1.32948E+05 1.52267E-06
 -1      1499 1.38489E-08-1.32948E+05 1.08783E-06
 -1      1500 5.96783E+03 1.06840E+04-2.12490E+03
 -1      1502 5.96783E+03 1.06840E+04-2.12490E+03
 -1      1503 9.66117E+03 2.57254E+04-4.41409E+03
 -1      1505 9.66117E+03 2.57254E+04-4.41409E+03
 -1      1506 1.03985E+04 4.36671E+04-6.44823E+03
 -1      1508 1.03985E+04 4.36671E+04-6.44823E+03
 -1      1509 8.55918E+03 6.02488E+04-7.99607E+03
 -1      1511 8.55918E+03 6.02488E+04-7.99607E+03
 -1      1512 4.75218E+03 7.18881E+04-8.97567E+03
 -1      1514 4.75218E+03 7.18881E+04-8.97567E+03
 -1      1515-2.74040E+02 7.60947E+04-9.28742E+03
 -1      1517-2.74040E+02 7.60947E+04-9.28742E+03
 -1      1518-5.67671E+03 7.16365E+04-8.91771E+03
 -1      1520-5.67671E+03 7.16365E+04-8.91771E+03
 -1      1521-1.06191E+04 5.86322E+04-7.90190E+03
 -1      1523-1.06191E+04 5.86322E+04-7.90190E+03
 -1      1524-1.43604E+04 3.84698E+04-6.34243E+03
 -1      1526-1.43604E+04 3.84698E+04-6.34243E+03
 -1      1527-1.63449E+04 1.35833E+04-4.38896E+03
 -1      1529-1.63449E+04 1.35833E+04-4.38896E+03
 -1      1530-1.62661E+04-1.28981E+04-2.22612E+03
 -1      1532-1.62661E+04-1.28981E+04-2.22612E+03
 -1      1533-1.41027E+04-3.75833E+04-5.01624E+01
 -1      1535-1.41027E+04-3.75833E+04-5.01624E+01
 -1      1536-1.01171E+04-5.72811E+04 1.95275E+03
 -1      1538-1.01171E+04-5.72811E+04 1.95275E+03
 -1      1539-4.81887E+03-6.94307E+04 3.62843E+03
 -1      1541-4.81887E+03-6.94307E+04 3.62843E+03
 -1      1542 1.10374E+03-7.24486E+04 4.87164E+03
 -1      1544 1.10374E+03-7.24486E+04 4.87164E+03
 -1      1545 6.87511E+03-6.59435E+04 5.63700E+03
 -1      1547 6.87511E+03-6.59435E+04 5.63700E+03
 -1      1548 1.17344E+04-5.07753E+04 5.94193E+03
 -1      1550 1.17344E+04-5.07753E+04 5.94193E+03
 -1      1551 1.50349E+04-2.89496E+04 5.86145E+03
 -1      1553 1.50349E+04-2.89496E+04 5.86145E+03
 -1      1554 1.63285E+04-3.36181E+03 5.51550E+03
 -1      1556 1.63285E+04-3.36181E+03 5.51550E+03
 -1      1557 1.54225E+04 2.25727E+04 5.05052E+03
 -1      1559 1.54225E+04 2.25727E+04 5.05052E+03
 -1      1560 1.24028E+04 4.53552E+04 4.61756E+03
 -1      1562 1.24028E+04 4.53552E+04 4.61756E+03
 -1      1563 7.61866E+03 6.18461E+04 4.35007E+03
 -1      1565 7.61866E+03 6.18461E+04 4.35007E+03
 -1      1566 1.63209E+03 6.96551E+04 4.34411E+03
 -1      1568 1.63209E+03 6.96551E+04 4.34411E+03
 -1      1569-4.86385E+03 6.74239E+04 4.64355E+03
 -1      1571-4.86385E+03 6.74239E+04 4.64355E+03
 -1      1572-1.11464E+04 5.49609E+04 5.23274E+03
 -1      1574-1.11464E+04 5.49609E+04 5.23274E+03
 -1      1575-1.65729E+04 3.32073E+04 6.03625E+03
 -1      1577-1.65729E+04 3.32073E+04 6.03625E+03
 -1      1578-2.06864E+04 4.02592E+03 6.92925E+03
 -1      1580-2.06864E+04 4.02592E+03 6.92925E+03
 -1      1581-2.33050E+04-3.01560E+04 7.75073E+03
 -1      1583-2.33050E+04-3.01560E+04 7.75073E+03
 -1      1584-2.45886E+04-6.68459E+04 8.33652E+03
 -1      1586-2.45886E+04-6.68459E+04 8.33652E+03
 -1      1587-1.66121E+04-8.55155E+04 5.70877E+03
 -1      1589-1.66121E+04-8.55155E+04 5.70877E+03
 -1      1590-4.02835E+06-4.84523E+05 5.63507E+04
 -1      1592-3.63739E+06-5.20249E+05 5.63507E+04
 -1      1593 1.66121E+04-8.55155E+04-5.70877E+03
 -1      1595 1.66121E+04-8.55155E+04-5.70877E+03
 -1      1596-5.96783E+03 1.06840E+04 2.12490E+03
 -1      1598-5.96783E+03 1.06840E+04 2.12490E+03
 -1      1599-9.66117E+03 2.57254E+04 4.41409E+03
 -1      1601-9.66117E+03 2.57254E+04 4.41409E+03
 -1      1602-1.03985E+04 4.36671E+04 6.44823E+03
 -1      1604-1.03985E+04 4.36671E+04 6.44823E+03
 -1      1605-8.55918E+03 6.02488E+04 7.99607E+03
 -1      1607-8.55918E+03 6.02488E+04 7.99607E+03
 -1      1608-4.75218E+03 7.18881E+04 8.97567E+03
 -1      1610-4.75218E+03 7.18881E+04 8.97567E+03
 -1      1611 2.74040E+02 7.60947E+04 9.28742E+03
 -1      1613 2.74040E+02 7.60947E+04 9.28742E+03
 -1      1614 5.67671E+03 7.16365E+04 8.91771E+03
 -1      1616 5.67671E+03 7.16365E+04 8.91771E+03
 -1      1617 1.06191E+04 5.86322E+04 7.90190E+03
 -1      1619 1.06191E+04 5.86322E+04 7.90190E+03
 -1      1620 1.43604E+04 3.84698E+04 6.34243E+03
 -1      1622 1.43604E+04 3.84698E+04 6.34243E+03
 -1      1623 1.63449E+04 1.35833E+04 4.38896E+03
 -1      1625 1.63449E+04 1.35833E+04 4.38896E+03
 -1      1626 1.62661E+04-1.28981E+04 2.22612E+03
 -1      1628 1.62661E+04-1.28981E+04 2.22612E+03
 -1      1629 1.41027E+04-3.75833E+04 5.01624E+01
 -1      1631 1.41027E+04-3.75833E+04 5.01624E+01
 -1      1632 1.01171E+04-5.72811E+04-1.95275E+03
 -1      1634 1.01171E+04-5.72811E+04-1.95275E+03
 -1      1635 4.81887E+03-6.94307E+04-3.62843E+03
 -1      1637 4.81887E+03-6.94307E+04-3.62843E+03
 -1      1638-1.10374E+03-7.24486E+04-4.87164E+03
 -1      1640-1.10374E+03-7.24486E+04-4.87164E+03
 -1      1641-6.87511E+03-6.59435E+04-5.63700E+03
 -1      1643-6.87511E+03-6.59435E+04-5.63700E+03
 -1      1644-1.17344E+04-5.07753E+04-5.94193E+03
 -1      1646-1.17344E+04-5.07753E+04-5.94193E+03
 -1      1647-1.50349E+04-2.89496E+04-5.86145E+03
 -1      1649-1.50349E+04-2.89496E+04-5.86145E+03
 -1      1650-1.63285E+04-3.36181E+03-5.51550E+03
 -1      1652-1.63285E+04-3.36181E+03-5.51550E+03
 -1      1653-1.54225E+04 2.25727E+04-5.05052E+03
 -1      1655-1.54225E+04 2.25727E+04-5.05052E+03
 -1      1656-1.24028E+04 4.53552E+04-4.61756E+03
 -1      1658-1.24028E+04 4.53552E+04-4.61756E+03
 -1      1659-7.61866E+03 6.18461E+04-4.35007E+03
 -1      1661-7.61866E+03 6.18461E+04-4.35007E+03
 -1      1662-1.63209E+03 6.96551E+04-4.34411E+03
 -1      1664-1.63209E+03 6.96551E+04-4.34411E+03
 -1      1665 4.86385E+03 6.74239E+04-4.64355E+03
 -1      1667 4.86385E+03 6.74239E+04-4.64355E+03
 -1      1668 1.11464E+04 5.49609E+04-5.23274E+03
 -1      1670 1.11464E+04 5.49609E+04-5.23274E+03
 -1      1671 1.65729E+04 3.32073E+04-6.03625E+03
 -1      1673 1.65729E+04 3.32073E+04-6.03625E+03
 -1      1674 2.06864E+04 4.02592E+03-6.92925E+03
 -1      1676 2.06864E+04 4.02592E+03-6.92925E+03
 -1      1677 2.33050E+04-3.01560E+04-7.75073E+03
 -1      1679 2.33050E+04-3.01560E+04-7.75073E+03
 -1      1680 2.45886E+04-6.68459E+04-8.33652E+03
 -1      1682 2.45886E+04-6.68459E+04-8.33652E+03
 -1      1683 4.02835E+06-4.84523E+05-5.63507E+04
 -1      1685 3.63739E+06-5.20249E+05-5.63507E+04
 -1      1686-7.80092E+03 2.09530E+04-2.92179E+03
 -1      1688-7.80092E+03 2.09530E+04-2.92179E+03
 -1      1689-1.27221E+04 5.12364E+04-6.07709E+03
 -1      1691-1.27221E+04 5.12364E+04-6.07709E+03
 -1      1692-1.37352E+04 8.74152E+04-8.88207E+03
 -1      1694-1.37352E+04 8.74152E+04-8.88207E+03
 -1      1695-1.13089E+04 1.20773E+05-1.10160E+04
 -1      1697-1.13089E+04 1.20773E+05-1.10160E+04
 -1      1698-6.27403E+03 1.44207E+05-1.23645E+04
 -1      1700-6.27403E+03 1.44207E+05-1.23645E+04
 -1      1701 3.85239E+02 1.52690E+05-1.27871E+04
 -1      1703 3.85239E+02 1.52690E+05-1.27871E+04
 -1      1704 7.54520E+03 1.43770E+05-1.22641E+04
 -1      1706 7.54520E+03 1.43770E+05-1.22641E+04
 -1      1707 1.40971E+04 1.17681E+05-1.08441E+04
 -1      1709 1.40971E+04 1.17681E+05-1.08441E+04
 -1      1710 1.90568E+04 7.72146E+04-8.67074E+03
 -1      1712 1.90568E+04 7.72146E+04-8.67074E+03
 -1      1713 2.16870E+04 2.72594E+04-5.95418E+03
 -1      1715 2.16870E+04 2.72594E+04-5.95418E+03
 -1      1716 2.15808E+04-2.59009E+04-2.95397E+03
 -1      1718 2.15808E+04-2.59009E+04-2.95397E+03
 -1      1719 1.87098E+04-7.54576E+04 5.39257E+01
 -1      1721 1.87098E+04-7.54576E+04 5.39257E+01
 -1      1722 1.34218E+04-1.15002E+05 2.80799E+03
 -1      1724 1.34218E+04-1.15002E+05 2.80799E+03
 -1      1725 6.39300E+03-1.39394E+05 5.09208E+03
 -1      1727 6.39300E+03-1.39394E+05 5.09208E+03
 -1      1728-1.46386E+03-1.45453E+05 6.75953E+03
 -1      1730-1.46386E+03-1.45453E+05 6.75953E+03
 -1      1731-9.11983E+03-1.32392E+05 7.74856E+03
 -1      1733-9.11983E+03-1.32392E+05 7.74856E+03
 -1      1734-1.55655E+04-1.01939E+05 8.08643E+03
 -1      1736-1.55655E+04-1.01939E+05 8.08643E+03
 -1      1737-1.99432E+04-5.81186E+04 7.88203E+03
 -1      1739-1.99432E+04-5.81186E+04 7.88203E+03
 -1      1740-2.16580E+04-6.74379E+03 7.30787E+03
 -1      1742-2.16580E+04-6.74379E+03 7.30787E+03
 -1      1743-2.04544E+04 4.53295E+04 6.57381E+03
 -1      1745-2.04544E+04 4.53295E+04 6.57381E+03
 -1      1746-1.64461E+04 9.10779E+04 5.89613E+03
 -1      1748-1.64461E+04 9.10779E+04 5.89613E+03
 -1      1749-1.00962E+04 1.24200E+05 5.46572E+03
 -1      1751-1.00962E+04 1.24200E+05 5.46572E+03
 -1      1752-2.14979E+03 1.39898E+05 5.42008E+03
 -1      1754-2.14979E+03 1.39898E+05 5.42008E+03
 -1      1755 6.47427E+03 1.35448E+05 5.82203E+03
 -1      1757 6.47427E+03 1.35448E+05 5.82203E+03
 -1      1758 1.48180E+04 1.10469E+05 6.64918E+03
 -1      1760 1.48180E+04 1.10469E+05 6.64918E+03
 -1      1761 2.20298E+04 6.68553E+04 7.79320E+03
 -1      1763 2.20298E+04 6.68553E+04 7.79320E+03
 -1      1764 2.75051E+04 8.35545E+03 9.07408E+03
 -1      1766 2.75051E+04 8.35545E+03 9.07408E+03
 -1      1767 3.10060E+04-6.01495E+04 1.02584E+04
 -1      1769 3.10060E+04-6.01495E+04 1.02584E+04
 -1      1770 3.27418E+04-1.33640E+05 1.11059E+04
 -1      1772 3.27418E+04-1.33640E+05 1.11059E+04
 -1      1773 7.80092E+03 2.09530E+04 2.92179E+03
 -1      1775 7.80092E+03 2.09530E+04 2.92179E+03
 -1      1776 1.27221E+04 5.12364E+04 6.07709E+03
 -1      1778 1.27221E+04 5.12364E+04 6.07709E+03
 -1      1779 1.37352E+04 8.74152E+04 8.88207E+03
 -1      1781 1.37352E+04 8.74152E+04 8.88207E+03
 -1      1782 1.13089E+04 1.20773E+05 1.10160E+04
 -1      1784 1.13089E+04 1.20773E+05 1.10160E+04
 -1      1785 6.27403E+03 1.44207E+05 1.23645E+04
 -1      1787 6.27403E+03 1.44207E+05 1.23645E+04
 -1      1788-3.85239E+02 1.52690E+05 1.27871E+04
 -1      1790-3.85239E+02 1.52690E+05 1.27871E+04
 -1      1791-7.54520E+03 1.43770E+05 1.22641E+04
 -1      1793-7.54520E+03 1.43770E+05 1.22641E+04
 -1      1794-1.40971E+04 1.17681E+05 1.08441E+04
 -1      1796-1.40971E+04 1.17681E+05 1.08441E+04
 -1      1797-1.90568E+04 7.72146E+04 8.67074E+03
 -1      1799-1.90568E+04 7.72146E+04 8.67074E+03
 -1      1800-2.16870E+04 2.72594E+04 5.95418E+03
 -1      1802-2.16870E+04 2.72594E+04 5.95418E+03
 -1      1803-2.15808E+04-2.59009E+04 2.95397E+03
 -1      1805-2.15808E+04-2.59009E+04 2.95397E+03
 -1      1806-1.87098E+04-7.54576E+04-5.39257E+01
 -1      1808-1.87098E+04-7.54576E+04-5.39257E+01
 -1      1809-1.34218E+04-1.15002E+05-2.80799E+03
 -1      1811-1.34218E+04-1.15002E+05-2.80799E+03
 -1      1812-6.39300E+03-1.39394E+05-5.09208E+03
 -1      1814-6.39300E+03-1.39394E+05-5.09208E+03
 -1      1815 1.46386E+03-1.45453E+05-6.75953E+03
 -1      1817 1.46386E+03-1.45453E+05-6.75953E+03
 -1      1818 9.11983E+03-1.32392E+05-7.74856E+03
 -1      1820 9.11983E+03-1.32392E+05-7.74856E+03
 -1      1821 1.55655E+04-1.01939E+05-8.08643E+03
 -1      1823 1.55655E+04-1.01939E+05-8.08643E+03
 -1      1824 1.99432E+04-5.81186E+04-7.88203E+03
 -1      1826 1.99432E+04-5.81186E+04-7.88203E+03
 -1      1827 2.16580E+04-6.74379E+03-7.30787E+03
 -1      1829 2.16580E+04-6.74379E+03-7.30787E+03
 -1      1830 2.04544E+04 4.53295E+04-6.57381E+03
 -1      1832 2.04544E+04 4.53295E+04-6.57381E+03
 -1      1833 1.64461E+04 9.10779E+04-5.89613E+03
 -1      1835 1.64461E+04 9.10779E+04-5.89613E+03
 -1      1836 1.00962E+04 1.24200E+05-5.46572E+03
 -1      1838 1.00962E+04 1.24200E+05-5.46572E+03
 -1      1839 2.14979E+03 1.39898E+05-5.42008E+03
 -1      1841 2.14979E+03 1.39898E+05-5.42008E+03
 -1      1842-6.47427E+03 1.35448E+05-5.82203E+03
 -1      1844-6.47427E+03 1.35448E+05-5.82203E+03
 -1      1845-1.48180E+04 1.10469E+05-6.64918E+03
 -1      1847-1.48180E+04 1.10469E+05-6.64918E+03
 -1      1848-2.20298E+04 6.68553E+04-7.79320E+03
 -1      1850-2.20298E+04 6.68553E+04-7.79320E+03
 -1      1851-2.75051E+04 8.35545E+03-9.07408E+03
 -1      1853-2.75051E+04 8.35545E+03-9.07408E+03
 -1      1854-3.10060E+04-6.01495E+04-1.02584E+04
 -1      1856-3.10060E+04-6.01495E+04-1.02584E+04
 -1      1857-3.27418E+04-1.33640E+05-1.11059E+04
 -1      1859-3.27418E+04-1.33640E+05-1.11059E+04
 -1      1860 1.04079E-07 3.93910E+04-2.51959E-07
 -1      1862 1.75278E-07 3.93910E+04-5.96970E-07
 -1      1863 4.41281E-07 9.39181E+04 2.21109E-07
 -1      1865 6.18513E-07 9.39181E+04-1.88746E-07
 -1      1866 5.19951E-07 1.55849E+05-2.36221E-07
 -1      1868 4.94514E-07 1.55849E+05 2.91780E-07
 -1      1869-1.02460E-06 2.11245E+05-8.06580E-07
 -1      1871-9.93811E-07 2.11245E+05 7.27548E-07
 -1      1872-1.75038E-06 2.49557E+05-7.14941E-07
 -1      1874-1.48790E-06 2.49557E+05 1.90405E-07
 -1      1875-1.03424E-06 2.62960E+05-5.06807E-07
 -1      1877-1.18118E-06 2.62960E+05-1.70545E-07
 -1      1878-2.68637E-07 2.47847E+05-1.23875E-06
 -1      1880-2.39410E-07 2.47847E+05-6.32761E-07
 -1      1881 3.76664E-07 2.04743E+05-2.13779E-06
 -1      1883 7.06232E-07 2.04743E+05-2.01326E-08
 -1      1884-1.32584E-06 1.38255E+05-7.48551E-08
 -1      1886-9.38491E-07 1.38255E+05 1.41693E-06
 -1      1887-1.15909E-06 5.62790E+04 1.46523E-07
 -1      1889-8.90919E-07 5.62790E+04 1.40865E-06
 -1      1890-6.45866E-07-3.10662E+04-3.12626E-07
 -1      1892-4.47255E-07-3.10662E+04-1.32203E-06
 -1      1893-5.42398E-07-1.12845E+05-1.04296E-06
 -1      1895-8.03832E-07-1.12845E+05-1.24732E-06
 -1      1896-6.10860E-07-1.78767E+05-2.27024E-06
 -1      1898-1.13466E-06-1.78767E+05 5.06203E-07
 -1      1899-2.22703E-07-2.20569E+05-2.14230E-06
 -1      1901-1.95450E-07-2.20569E+05-6.45710E-07
 -1      1902 1.85152E-06-2.33121E+05-1.46832E-06
 -1      1904 3.53582E-07-2.33121E+05-1.22278E-06
 -1      1905 7.91221E-07-2.15115E+05-9.82001E-07
 -1      1907 9.35513E-07-2.15115E+05 9.81161E-07
 -1      1908-2.84982E-07-1.69252E+05-5.12991E-07
 -1      1910 1.59041E-07-1.69252E+05 8.07835E-07
 -1      1911 5.68221E-07-1.01900E+05-3.28146E-08
 -1      1913 1.15132E-06-1.01900E+05 1.75902E-06
 -1      1914 1.12477E-06-2.22762E+04 6.73022E-07
 -1      1916 1.19304E-06-2.22762E+04 1.79118E-06
 -1      1917 7.82467E-07 5.87433E+04 1.06712E-06
 -1      1919 1.39880E-06 5.87433E+04 1.57623E-07
 -1      1920-5.96876E-07 1.30024E+05 2.77228E-06
 -1      1922 7.58757E-07 1.30024E+05-2.81774E-06
 -1      1923-1.14725E-06 1.81597E+05-6.70820E-07
 -1      1925-4.44926E-07 1.81597E+05-2.69594E-07
 -1      1926-9.76063E-07 2.05915E+05-2.54005E-06
 -1      1928-1.53317E-06 2.05915E+05 1.01471E-06
 -1      1929-1.62870E-06 1.98771E+05-2.79106E-06
 -1      1931-2.31664E-06 1.98771E+05 2.42619E-06
 -1      1932-2.28465E-06 1.59740E+05-6.87916E-07
 -1      1934-1.75828E-06 1.59740E+05-2.73580E-07
 -1      1935-1.55021E-06 9.20994E+04-2.75785E-06
 -1      1937-1.09804E-06 9.20994E+04-2.28189E-06
 -1      1938-1.76945E-06 2.17518E+03-6.18264E-07
 -1      1940-1.13591E-06 2.17518E+03 8.09556E-07
 -1      1941-6.94259E-07-1.01751E+05-8.01003E-07
 -1      1943-1.51078E-06-1.01751E+05-5.69889E-07
 -1      1944 8.05620E-07-2.10995E+05-1.78889E-06
 -1      1946-1.58185E-06-2.10995E+05-4.01060E-06
 -1      1947 5.56502E-07 4.38822E+04 9.92397E-07
 -1      1949 5.37002E-07 4.38822E+04 4.71548E-07
 -1      1950 6.37083E-08 1.03159E+05 1.51955E-06
 -1      1952 1.59260E-07 1.03159E+05 1.28452E-06
 -1      1953-2.09366E-09 1.69343E+05 9.29758E-08
 -1      1955 2.59333E-08 1.69343E+05 9.57880E-09
 -1      1956-4.35002E-07 2.28009E+05-8.49050E-07
 -1      1958-3.63541E-07 2.28009E+05-4.69645E-07
 -1      1959-6.17780E-07 2.68344E+05-3.34829E-07
 -1      1961-7.47485E-07 2.68344E+05 1.10760E-07
 -1      1962-2.30153E-07 2.82262E+05 5.39692E-07
 -1      1964-2.74165E-07 2.82262E+05 6.57183E-08
 -1      1965-1.18339E-06 2.66094E+05 3.27844E-07
 -1      1967-7.13546E-07 2.66094E+05 1.01376E-06
 -1      1968-2.18526E-06 2.20445E+05-1.15861E-06
 -1      1970-1.34488E-06 2.20445E+05 8.89100E-07
 -1      1971-1.70482E-06 1.50188E+05-1.15029E-06
 -1      1973-9.25097E-07 1.50188E+05 1.01382E-06
 -1      1974-1.12415E-06 6.36162E+04 1.17376E-07
 -1      1976-1.18031E-06 6.36162E+04-1.88069E-07
 -1      1977-6.61094E-07-2.86562E+04 8.77946E-07
 -1      1979-1.78990E-06-2.86562E+04-5.94082E-07
 -1      1980-7.75552E-07-1.15168E+05 3.43702E-07
 -1      1982-1.36443E-06-1.15168E+05-2.31317E-07
 -1      1983-8.64629E-07-1.85133E+05-1.55855E-06
 -1      1985 2.82524E-07-1.85133E+05 6.42449E-07
 -1      1986 4.11110E-08-2.29892E+05-1.54666E-06
 -1      1988 1.64631E-07-2.29892E+05 4.62756E-07
 -1      1989 7.50262E-07-2.44058E+05-9.69534E-07
 -1      1991 7.50837E-07-2.44058E+05 5.30298E-07
 -1      1992-5.87735E-07-2.26246E+05-2.29460E-07
 -1      1994 1.82157E-06-2.26246E+05 7.74648E-07
 -1      1995-6.41834E-07-1.79262E+05 1.39521E-06
 -1      1997 1.19441E-06-1.79262E+05 1.16388E-06
 -1      1998-9.73431E-07-1.09747E+05 1.57824E-06
 -1      2000-8.61895E-07-1.09747E+05 1.97202E-06
 -1      2001-3.87138E-07-2.73200E+04 1.98293E-06
 -1      2003-6.45414E-07-2.73200E+04 2.01579E-06
 -1      2004-7.85085E-08 5.66666E+04 2.60427E-06
 -1      2006-1.38640E-07 5.66666E+04-1.03461E-06
 -1      2007-1.14392E-06 1.30594E+05-7.28855E-07
 -1      2009-7.67377E-08 1.30594E+05-1.47913E-06
 -1      2010-8.31849E-07 1.84068E+05-1.57209E-06
 -1      2012-1.17805E-06 1.84068E+05 1.64254E-06
 -1      2013-1.23763E-07 2.09234E+05 5.05579E-07
 -1      2015-1.95405E-06 2.09234E+05 2.59017E-06
 -1      2016-3.33257E-07 2.01743E+05-7.91873E-07
 -1      2018-2.55506E-06 2.01743E+05 2.05489E-06
 -1      2019-1.31278E-06 1.61220E+05 1.80591E-06
 -1      2021-2.01556E-06 1.61220E+05 2.76671E-06
 -1      2022-1.60159E-06 9.11835E+04 5.32498E-07
 -1      2024-9.59216E-07 9.11835E+04 1.03221E-06
 -1      2025-1.89644E-06-1.62409E+03 3.01184E-06
 -1      2027-1.36370E-06-1.62409E+03-4.02928E-07
 -1      2028-8.79707E-07-1.08361E+05 2.61666E-06
 -1      2030-1.24899E-06-1.08361E+05-1.55778E-06
 -1      2031-3.71268E-07-2.19704E+05 2.63690E-06
 -1      2033-3.23963E-07-2.19704E+05-2.39682E-06
 -1      2034-1.44332E-06 3.93910E+04 1.44261E-06
 -1      2036-1.45981E-06 3.93910E+04 1.16023E-06
 -1      2037-1.16932E-06 9.39181E+04 1.29036E-06
 -1      2039-1.24716E-06 9.39181E+04 1.30169E-06
 -1      2040 2.65742E-07 1.55849E+05 8.30250E-08
 -1      2042 2.25113E-07 1.55849E+05-8.62495E-07
 -1      2043 4.27146E-07 2.11245E+05-5.23526E-07
 -1      2045 2.38828E-07 2.11245E+05-2.10045E-06
 -1      2046 4.11916E-07 2.49557E+05-7.84545E-07
 -1      2048-1.10940E-08 2.49557E+05-1.86485E-07
 -1      2049 5.74528E-08 2.62960E+05 1.70291E-07
 -1      2051 2.94331E-08 2.62960E+05-6.86740E-11
 -1      2052-1.00970E-06 2.47847E+05-4.60441E-08
 -1      2054-5.16638E-07 2.47847E+05 1.37880E-06
 -1      2055-1.95862E-06 2.04743E+05 2.68516E-07
 -1      2057-1.22473E-06 2.04743E+05 3.23435E-06
 -1      2058-1.75845E-06 1.38255E+05-2.81766E-08
 -1      2060-3.54778E-07 1.38255E+05 1.87394E-06
 -1      2061-9.98065E-07 5.62790E+04 6.67567E-07
 -1      2063-1.66634E-06 5.62790E+04-8.87723E-07
 -1      2064-1.35967E-06-3.10662E+04 2.24039E-06
 -1      2066-2.30438E-06-3.10662E+04-2.48580E-06
 -1      2067-4.59413E-07-1.12845E+05 7.32797E-07
 -1      2069-7.82631E-07-1.12845E+05-1.52254E-06
 -1      2070 2.37251E-07-1.78767E+05-3.54951E-07
 -1      2072 4.32228E-07-1.78767E+05 2.75832E-07
 -1      2073-6.08277E-07-2.20569E+05-2.81937E-07
 -1      2075-6.04650E-07-2.20569E+05 4.47016E-07
 -1      2076-1.02550E-06-2.33121E+05-1.03302E-06
 -1      2078-2.17883E-06-2.33121E+05 5.44871E-07
 -1      2079-2.97888E-06-2.15115E+05 1.96105E-08
 -1      2081-1.58173E-06-2.15115E+05 1.36302E-06
 -1      2082-2.71738E-06-1.69252E+05 2.55573E-06
 -1      2084-1.09541E-06-1.69252E+05 2.28847E-06
 -1      2085-1.87012E-06-1.01900E+05 5.37304E-07
 -1      2087-1.62972E-06-1.01900E+05 4.58907E-07
 -1      2088-1.35297E-06-2.22762E+04 2.20707E-06
 -1      2090-1.22273E-06-2.22762E+04-8.19576E-07
 -1      2091-5.66527E-07 5.87433E+04-4.54139E-07
 -1      2093 1.09111E-07 5.87433E+04-1.98436E-06
 -1      2094 4.98403E-10 1.30024E+05-8.59700E-08
 -1      2096 1.37683E-07 1.30024E+05-8.10316E-07
 -1      2097 1.32371E-06 1.81597E+05-1.74291E-06
 -1      2099 8.66416E-07 1.81597E+05 2.73055E-07
 -1      2100 1.38001E-06 2.05915E+05 9.01805E-07
 -1      2102-3.45954E-08 2.05915E+05 4.07223E-06
 -1      2103 5.79596E-07 1.98771E+05-1.82836E-06
 -1      2105-1.31448E-06 1.98771E+05 2.75603E-06
 -1      2106-4.04051E-07 1.59740E+05-1.88677E-06
 -1      2108-1.26316E-06 1.59740E+05 1.58632E-06
 -1      2109-1.32508E-06 9.20994E+04 1.18518E-07
 -1      2111-6.92678E-07 9.20994E+04 7.51813E-07
 -1      2112-8.34227E-07 2.17518E+03 3.92642E-06
 -1      2114-7.40428E-07 2.17518E+03 1.99510E-07
 -1      2115 6.20556E-07-1.01751E+05 3.34999E-06
 -1      2117 1.73557E-07-1.01751E+05-3.58141E-07
 -1      2118 3.00896E-07-2.10995E+05 2.31561E-07
 -1      2120 1.34257E-06-2.10995E+05 1.76877E-07
 -1      2121 7.80092E+03 2.09530E+04-2.92179E+03
 -1      2123 7.80092E+03 2.09530E+04-2.92179E+03
 -1      2124 1.27221E+04 5.12364E+04-6.07709E+03
 -1      2126 1.27221E+04 5.12364E+04-6.07709E+03
 -1      2127 1.37352E+04 8.74152E+04-8.88207E+03
 -1      2129 1.37352E+04 8.74152E+04-8.88207E+03
 -1      2130 1.13089E+04 1.20773E+05-1.10160E+04
 -1      2132 1.13089E+04 1.20773E+05-1.10160E+04
 -1      2133 6.27403E+03 1.44207E+05-1.23645E+04
 -1      2135 6.27403E+03 1.44207E+05-1.23645E+04
 -1      2136-3.85239E+02 1.52690E+05-1.27871E+04
 -1      2138-3.85239E+02 1.52690E+05-1.27871E+04
 -1      2139-7.54520E+03 1.43770E+05-1.22641E+04
 -1      2141-7.54520E+03 1.43770E+05-1.22641E+04
 -1      2142-1.40971E+04 1.17681E+05-1.08441E+04
 -1      2144-1.40971E+04 1.17681E+05-1.08441E+04
 -1      2145-1.90568E+04 7.72146E+04-8.67074E+03
 -1      2147-1.90568E+04 7.72146E+04-8.67074E+03
 -1      2148-2.16870E+04 2.72594E+04-5.95418E+03
 -1      2150-2.16870E+04 2.72594E+04-5.95418E+03
 -1      2151-2.15808E+04-2.59009E+04-2.95397E+03
 -1      2153-2.15808E+04-2.59009E+04-2.95397E+03
 -1      2154-1.87098E+04-7.54576E+04 5.39257E+01
 -1      2156-1.87098E+04-7.54576E+04 5.39257E+01
 -1      2157-1.34218E+04-1.15002E+05 2.80799E+03
 -1      2159-1.34218E+04-1.15002E+05 2.80799E+03
 -1      2160-6.39300E+03-1.39394E+05 5.09208E+03
 -1      2162-6.39300E+03-1.39394E+05 5.09208E+03
 -1      2163 1.46386E+03-1.45453E+05 6.75953E+03
 -1      2165 1.46386E+03-1.45453E+05 6.75953E+03
 -1      2166 9.11983E+03-1.32392E+05 7.74856E+03
 -1      2168 9.11983E+03-1.32392E+05 7.74856E+03
 -1      2169 1.55655E+04-1.01939E+05 8.08643E+03
 -1      2171 1.55655E+04-1.01939E+05 8.08643E+03
 -1      2172 1.99432E+04-5.81186E+04 7.88203E+03
 -1      2174 1.99432E+04-5.81186E+04 7.88203E+03
 -1      2175 2.16580E+04-6.74379E+03 7.30787E+03
 -1      2177 2.16580E+04-6.74379E+03 7.30787E+03
 -1      2178 2.04544E+04 4.53295E+04 6.57381E+03
 -1      2180 2.04544E+04 4.53295E+04 6.57381E+03
 -1      2181 1.64461E+04 9.10779E+04 5.89613E+03
 -1      2183 1.64461E+04 9.10779E+04 5.89613E+03
 -1      2184 1.00962E+04 1.24200E+05 5.46572E+03
 -1      2186 1.00962E+04 1.24200E+05 5.46572E+03
 -1      2187 2.14979E+03 1.39898E+05 5.42008E+03
 -1      2189 2.14979E+03 1.39898E+05 5.42008E+03
 -1      2190-6.47427E+03 1.35448E+05 5.82203E+03
 -1      2192-6.47427E+03 1.35448E+05 5.82203E+03
 -1      2193-1.48180E+04 1.10469E+05 6.64918E+03
 -1      2195-1.48180E+04 1.10469E+05 6.64918E+03
 -1      2196-2.20298E+04 6.68553E+04 7.79320E+03
 -1      2198-2.20298E+04 6.68553E+04 7.79320E+03
 -1      2199-2.75051E+04 8.35545E+03 9.07408E+03
 -1      2201-2.75051E+04 8.35545E+03 9.07408E+03
 -1      2202-3.10060E+04-6.01495E+04 1.02584E+04
 -1      2204-3.10060E+04-6.01495E+04 1.02584E+04
 -1      2205-3.27418E+04-1.33640E+05 1.11059E+04
 -1      2207-3.27418E+04-1.33640E+05 1.11059E+04
 -1      2208-7.80092E+03 2.09530E+04 2.92179E+03
 -1      2210-7.80092E+03 2.09530E+04 2.92179E+03
 -1      2211-1.27221E+04 5.12364E+04 6.07709E+03
 -1      2213-1.27221E+04 5.12364E+04 6.07709E+03
 -1      2214-1.37352E+04 8.74152E+04 8.88207E+03
 -1      2216-1.37352E+04 8.74152E+04 8.88207E+03
 -1      2217-1.13089E+04 1.20773E+05 1.10160E+04
 -1      2219-1.13089E+04 1.20773E+05 1.10160E+04
 -1      2220-6.27403E+03 1.44207E+05 1.23645E+04
 -1      2222-6.27403E+03 1.44207E+05 1.23645E+04
 -1      2223 3.85239E+02 1.52690E+05 1.27871E+04
 -1      2225 3.85239E+02 1.52690E+05 1.27871E+04
 -1      2226 7.54520E+03 1.43770E+05 1.22641E+04
 -1      2228 7.54520E+03 1.43770E+05 1.22641E+04
 -1      2229 1.40971E+04 1.17681E+05 1.08441E+04
 -1      2231 1.40971E+04 1.17681E+05 1.08441E+04
 -1      2232 1.90568E+04 7.72146E+04 8.67074E+03
 -1      2234 1.90568E+04 7.72146E+04 8.67074E+03
 -1      2235 2.16870E+04 2.72594E+04 5.95418E+03
 -1      2237 2.16870E+04 2.72594E+04 5.95418E+03
 -1      2238 2.15808E+04-2.59009E+04 2.95397E+03
 -1      2240 2.15808E+04-2.59009E+04 2.95397E+03
 -1      2241 1.87098E+04-7.54576E+04-5.39257E+01
 -1      2243 1.87098E+04-7.54576E+04-5.39257E+01
 -1      2244 1.34218E+04-1.15002E+05-2.80799E+03
 -1      2246 1.34218E+04-1.15002E+05-2.80799E+03
 -1      2247 6.39300E+03-1.39394E+05-5.09208E+03
 -1      2249 6.39300E+03-1.39394E+05-5.09208E+03
 -1      2250-1.46386E+03-1.45453E+05-6.75953E+03
 -1      2252-1.46386E+03-1.45453E+05-6.75953E+03
 -1      2253-9.11983E+03-1.32392E+05-7.74856E+03
 -1      2255-9.11983E+03-1.32392E+05-7.74856E+03
 -1      2256-1.55655E+04-1.01939E+05-8.08643E+03
 -1      2258-1.55655E+04-1.01939E+05-8.08643E+03
 -1      2259-1.99432E+04-5.81186E+04-7.88203E+03
 -1      2261-1.99432E+04-5.81186E+04-7.88203E+03
 -1      2262-2.16580E+04-6.74379E+03-7.30787E+03
 -1      2264-2.16580E+04-6.74379E+03-7.30787E+03
 -1      2265-2.04544E+04 4.53295E+04-6.57381E+03
 -1      2267-2.04544E+04 4.53295E+04-6.57381E+03
 -1      2268-1.64461E+04 9.10779E+04-5.89613E+03
 -1      2270-1.64461E+04 9.10779E+04-5.89613E+03
 -1      2271-1.00962E+04 1.24200E+05-5.46572E+03
 -1      2273-1.00962E+04 1.24200E+05-5.46572E+03
 -1      2274-2.14979E+03 1.39898E+05-5.42008E+03
 -1      2276-2.14979E+03 1.39898E+05-5.42008E+03
 -1      2277 6.47427E+03 1.35448E+05-5.82203E+03
 -1      2279 6.47427E+03 1.35448E+05-5.82203E+03
 -1      2280 1.48180E+04 1.10469E+05-6.64918E+03
 -1      2282 1.48180E+04 1.10469E+05-6.64918E+03
 -1      2283 2.20298E+04 6.68553E+04-7.79320E+03
 -1      2285 2.20298E+04 6.68553E+04-7.79320E+03
 -1      2286 2.75051E+04 8.35545E+03-9.07408E+03
 -1      2288 2.75051E+04 8.35545E+03-9.07408E+03
 -1      2289 3.10060E+04-6.01495E+04-1.02584E+04
 -1      2291 3.10060E+04-6.01495E+04-1.02584E+04
 -1      2292 3.27418E+04-1.33640E+05-1.11059E+04
 -1      2294 3.27418E+04-1.33640E+05-1.11059E+04
 -3
    1PSTEP                        40           1           1          
    1PGM                1.000000E+00                                  
    1PGK                6.602226E+06                                  
    1PHID                         -1                                  
    1PSUBC                         0                                  
    1PMODE                        10                                  
  100CL  110 408.9453971         930                     2   10MODAL      1
 -4  ERROR       1    1
 -5  STR(%)      1    1    0    0
 -1       404 0.00000E+00
 -1       406 0.00000E+00
 -1       407 0.00000E+00
 -1       409 0.00000E+00
 -1       410 0.00000E+00
 -1       412 0.00000E+00
 -1       413 0.00000E+00
 -1       415 0.00000E+00
 -1       424 0.00000E+00
 -1       426 0.00000E+00
 -1       427 0.00000E+00
 -1       429 0.00000E+00
 -1       438 0.00000E+00
 -1       440 0.00000E+00
 -1       441 0.00000E+00
 -1       443 0.00000E+00
 -1       444 0.00000E+00
 -1       446 0.00000E+00
 -1       447 0.00000E+00
 -1       449 0.00000E+00
 -1       458 0.00000E+00
 -1       460 0.00000E+00
 -1       461 0.00000E+00
 -1       463 0.00000E+00
 -1       472 0.00000E+00
 -1       474 0.00000E+00
 -1       475 0.00000E+00
 -1       477 0.00000E+00
 -1       478 0.00000E+00
 -1       480 0.00000E+00
 -1       481 0.00000E+00
 -1       483 0.00000E+00
 -1       484 0.00000E+00
 -1       486 0.00000E+00
 -1       487 0.00000E+00
 -1       489 0.00000E+00
 -1       490 0.00000E+00
 -1       492 0.00000E+00
 -1       493 0.00000E+00
 -1       495 0.00000E+00
 -1       496 0.00000E+00
 -1       498 0.00000E+00
 -1       499 0.00000E+00
 -1       501 0.00000E+00
 -1       502 0.00000E+00
 -1       504 0.00000E+00
 -1       505 0.00000E+00
 -1       507 0.00000E+00
 -1       508 0.00000E+00
 -1       510 0.00000E+00
 -1       511 0.00000E+00
 -1       513 0.00000E+00
 -1       514 0.00000E+00
 -1       516 0.00000E+00
 -1       517 0.00000E+00
 -1       519 0.00000E+00
 -1       520 0.00000E+00
 -1       522 0.00000E+00
 -1       523 0.00000E+00
 -1       525 0.00000E+00
 -1       526 0.00000E+00
 -1       528 0.00000E+00
 -1       529 0.00000E+00
 -1       531 0.00000E+00
 -1       532 0.00000E+00
 -1       534 0.00000E+00
 -1       535 0.00000E+00
 -1       537 0.00000E+00
 -1       538 0.00000E+00
 -1       540 0.00000E+00
 -1       541 0.00000E+00
 -1       543 0.00000E+00
 -1       544 0.00000E+00
 -1       546 0.00000E+00
 -1       547 0.00000E+00
 -1       549 0.00000E+00
 -1       550 0.00000E+00
 -1       552 0.00000E+00
 -1       553 0.00000E+00
 -1       555 0.00000E+00
 -1       556 0.00000E+00
 -1       558 0.00000E+00
 -1       559 0.00000E+00
 -1       561 0.00000E+00
 -1       562 0.00000E+00
 -1       564 0.00000E+00
 -1       565 0.00000E+00
 -1       567 0.00000E+00
 -1       568 0.00000E+00
 -1       570 0.00000E+00
 -1       571 0.00000E+00
 -1       573 0.00000E+00
 -1       574 0.00000E+00
 -1       576 0.00000E+00
 -1       577 0.00000E+00
 -1       579 0.00000E+00
 -1       588 0.00000E+00
 -1       590 0.00000E+00
 -1       591 0.00000E+00
 -1       593 0.00000E+00
 -1       602 0.00000E+00
 -1       604 0.00000E+00
 -1       605 0.00000E+00
 -1       607 0.00000E+00
 -1       616 0.00000E+00
 -1       618 0.00000E+00
 -1       619 0.00000E+00
 -1       621 0.00000E+00
 -1       630 0.00000E+00
 -1       632 0.00000E+00
 -1       633 0.00000E+00
 -1       635 0.00000E+00
 -1       644 0.00000E+00
 -1       646 0.00000E+00
 -1       647 0.00000E+00
 -1       649 0.00000E+00
 -1       658 0.00000E+00
 -1       660 0.00000E+00
 -1       661 0.00000E+00
 -1       663 0.00000E+00
 -1       672 0.00000E+00
 -1       674 0.00000E+00
 -1       675 0.00000E+00
 -1       677 0.00000E+00
 -1       686 0.00000E+00
 -1       688 0.00000E+00
 -1       689 0.00000E+00
 -1       691 0.00000E+00
 -1       700 0.00000E+00
 -1       702 0.00000E+00
 -1       703 0.00000E+00
 -1       705 0.00000E+00
 -1       714 0.00000E+00
 -1       716 0.00000E+00
 -1       717 0.00000E+00
 -1       719 0.00000E+00
 -1       728 0.00000E+00
 -1       730 0.00000E+00
 -1       731 0.00000E+00
 -1       733 0.00000E+00
 -1       742 0.00000E+00
 -1       744 0.00000E+00
 -1       745 0.00000E+00
 -1       747 0.00000E+00
 -1       756 0.00000E+00
 -1       758 0.00000E+00
 -1       759 0.00000E+00
 -1       761 0.00000E+00
 -1       770 0.00000E+00
 -1       772 0.00000E+00
 -1       773 0.00000E+00
 -1       775 0.00000E+00
 -1       784 0.00000E+00
 -1       786 0.00000E+00
 -1       787 0.00000E+00
 -1       789 0.00000E+00
 -1       798 0.00000E+00
 -1       800 0.00000E+00
 -1       801 0.00000E+00
 -1       803 0.00000E+00
 -1       812 0.00000E+00
 -1       814 0.00000E+00
 -1       815 0.00000E+00
 -1       817 0.00000E+00
 -1       826 0.00000E+00
 -1       828 0.00000E+00
 -1       829 0.00000E+00
 -1       831 0.00000E+00
 -1       840 0.00000E+00
 -1       842 0.00000E+00
 -1       843 0.00000E+00
 -1       845 0.00000E+00
 -1       854 0.00000E+00
 -1       856 0.00000E+00
 -1       857 0.00000E+00
 -1       859 0.00000E+00
 -1       868 0.00000E+00
 -1       870 0.00000E+00
 -1       871 0.00000E+00
 -1       873 0.00000E+00
 -1       882 0.00000E+00
 -1       884 0.00000E+00
 -1       885 0.00000E+00
 -1       887 0.00000E+00
 -1       896 0.00000E+00
 -1       898 0.00000E+00
 -1       899 0.00000E+00
 -1       901 0.00000E+00
 -1       910 0.00000E+00
 -1       912 0.00000E+00
 -1       913 0.00000E+00
 -1       915 0.00000E+00
 -1       924 0.00000E+00
 -1       926 0.00000E+00
 -1       927 0.00000E+00
 -1       929 0.00000E+00
 -1       938 0.00000E+00
 -1       940 0.00000E+00
 -1       941 0.00000E+00
 -1       943 0.00000E+00
 -1       952 0.00000E+00
 -1       954 0.00000E+00
 -1       955 0.00000E+00
 -1       957 0.00000E+00
 -1       966 0.00000E+00
 -1       968 0.00000E+00
 -1       969 0.00000E+00
 -1       971 0.00000E+00
 -1       980 0.00000E+00
 -1       982 0.00000E+00
 -1       983 0.00000E+00
 -1       985 0.00000E+00
 -1       986 0.00000E+00
 -1       988 0.00000E+00
 -1       989 0.00000E+00
 -1       991 0.00000E+00
 -1       992 0.00000E+00
 -1       994 0.00000E+00
 -1       995 0.00000E+00
 -1       997 0.00000E+00
 -1       998 0.00000E+00
 -1      1000 0.00000E+00
 -1      1001 0.00000E+00
 -1      1003 0.00000E+00
 -1      1004 0.00000E+00
 -1      1006 0.00000E+00
 -1      1007 0.00000E+00
 -1      1009 0.00000E+00
 -1      1010 0.00000E+00
 -1      1012 0.00000E+00
 -1      1013 0.00000E+00
 -1      1015 0.00000E+00
 -1      1016 0.00000E+00
 -1      1018 0.00000E+00
 -1      1019 0.00000E+00
 -1      1021 0.00000E+00
 -1      1022 0.00000E+00
 -1      1024 0.00000E+00
 -1      1025 0.00000E+00
 -1      1027 0.00000E+00
 -1      1028 0.00000E+00
 -1      1030 0.00000E+00
 -1      1031 0.00000E+00
 -1      1033 0.00000E+00
 -1      1034 0.00000E+00
 -1      1036 0.00000E+00
 -1      1037 0.00000E+00
 -1      1039 0.00000E+00
 -1      1040 0.00000E+00
 -1      1042 0.00000E+00
 -1      1043 0.00000E+00
 -1      1045 0.00000E+00
 -1      1046 0.00000E+00
 -1      1048 0.00000E+00
 -1      1049 0.00000E+00
 -1      1051 0.00000E+00
 -1      1052 0.00000E+00
 -1      1054 0.00000E+00
 -1      1055 0.00000E+00
 -1      1057 0.00000E+00
 -1      1058 0.00000E+00
 -1      1060 0.00000E+00
 -1      1061 0.00000E+00
 -1      1063 0.00000E+00
 -1      1064 0.00000E+00
 -1      1066 0.00000E+00
 -1      1067 0.00000E+00
 -1      1069 0.00000E+00
 -1      1070 0.00000E+00
 -1      1072 0.00000E+00
 -1      1073 0.00000E+00
 -1      1075 0.00000E+00
 -1      1076 0.00000E+00
 -1      1078 0.00000E+00
 -1      1079 0.00000E+00
 -1      1081 0.00000E+00
 -1      1082 0.00000E+00
 -1      1084 0.00000E+00
 -1      1085 0.00000E+00
 -1      1087 0.00000E+00
 -1      1088 0.00000E+00
 -1      1090 0.00000E+00
 -1      1099 0.00000E+00
 -1      1101 0.00000E+00
 -1      1102 0.00000E+00
 -1      1104 0.00000E+00
 -1      1113 0.00000E+00
 -1      1115 0.00000E+00
 -1      1116 0.00000E+00
 -1      1118 0.00000E+00
 -1      1127 0.00000E+00
 -1      1129 0.00000E+00
 -1      1130 0.00000E+00
 -1      1132 0.00000E+00
 -1      1141 0.00000E+00
 -1      1143 0.00000E+00
 -1      1144 0.00000E+00
 -1      1146 0.00000E+00
 -1      1155 0.00000E+00
 -1      1157 0.00000E+00
 -1      1158 0.00000E+00
 -1      1160 0.00000E+00
 -1      1169 0.00000E+00
 -1      1171 0.00000E+00
 -1      1172 0.00000E+00
 -1      1174 0.00000E+00
 -1      1183 0.00000E+00
 -1      1185 0.00000E+00
 -1      1186 0.00000E+00
 -1      1188 0.00000E+00
 -1      1197 0.00000E+00
 -1      1199 0.00000E+00
 -1      1200 0.00000E+00
 -1      1202 0.00000E+00
 -1      1211 0.00000E+00
 -1      1213 0.00000E+00
 -1      1214 0.00000E+00
 -1      1216 0.00000E+00
 -1      1225 0.00000E+00
 -1      1227 0.00000E+00
 -1      1228 0.00000E+00
 -1      1230 0.00000E+00
 -1      1239 0.00000E+00
 -1      1241 0.00000E+00
 -1      1242 0.00000E+00
 -1      1244 0.00000E+00
 -1      1253 0.00000E+00
 -1      1255 0.00000E+00
 -1      1256 0.00000E+00
 -1      1258 0.00000E+00
 -1      1267 0.00000E+00
 -1      1269 0.00000E+00
 -1      1270 0.00000E+00
 -1      1272 0.00000E+00
 -1      1281 0.00000E+00
 -1      1283 0.00000E+00
 -1      1284 0.00000E+00
 -1      1286 0.00000E+00
 -1      1295 0.00000E+00
 -1      1297 0.00000E+00
 -1      1298 0.00000E+00
 -1      1300 0.00000E+00
 -1      1309 0.00000E+00
 -1      1311 0.00000E+00
 -1      1312 0.00000E+00
 -1      1314 0.00000E+00
 -1      1323 0.00000E+00
 -1      1325 0.00000E+00
 -1      1326 0.00000E+00
 -1      1328 0.00000E+00
 -1      1337 0.00000E+00
 -1      1339 0.00000E+00
 -1      1340 0.00000E+00
 -1      1342 0.00000E+00
 -1      1351 0.00000E+00
 -1      1353 0.00000E+00
 -1      1354 0.00000E+00
 -1      1356 0.00000E+00
 -1      1365 0.00000E+00
 -1      1367 0.00000E+00
 -1      1368 0.00000E+00
 -1      1370 0.00000E+00
 -1      1379 0.00000E+00
 -1      1381 0.00000E+00
 -1      1382 0.00000E+00
 -1      1384 0.00000E+00
 -1      1393 0.00000E+00
 -1      1395 0.00000E+00
 -1      1396 0.00000E+00
 -1      1398 0.00000E+00
 -1      1407 0.00000E+00
 -1      1409 0.00000E+00
 -1      1410 0.00000E+00
 -1      1412 0.00000E+00
 -1      1421 0.00000E+00
 -1      1423 0.00000E+00
 -1      1424 0.00000E+00
 -1      1426 0.00000E+00
 -1      1435 0.00000E+00
 -1      1437 0.00000E+00
 -1      1438 0.00000E+00
 -1      1440 0.00000E+00
 -1      1449 0.00000E+00
 -1      1451 0.00000E+00
 -1      1452 0.00000E+00
 -1      1454 0.00000E+00
 -1      1463 0.00000E+00
 -1      1465 0.00000E+00
 -1      1466 0.00000E+00
 -1      1468 0.00000E+00
 -1      1477 0.00000E+00
 -1      1479 0.00000E+00
 -1      1480 0.00000E+00
 -1      1482 0.00000E+00
 -1      1491 0.00000E+00
 -1      1493 0.00000E+00
 -1      1494 0.00000E+00
 -1      1496 0.00000E+00
 -1      1497 0.00000E+00
 -1      1499 0.00000E+00
 -1      1500 0.00000E+00
 -1      1502 0.00000E+00
 -1      1503 0.00000E+00
 -1      1505 0.00000E+00
 -1      1506 0.00000E+00
 -1      1508 0.00000E+00
 -1      1509 0.00000E+00
 -1      1511 0.00000E+00
 -1      1512 0.00000E+00
 -1      1514 0.00000E+00
 -1      1515 0.00000E+00
 -1      1517 0.00000E+00
 -1      1518 0.00000E+00
 -1      1520 0.00000E+00
 -1      1521 0.00000E+00
 -1      1523 0.00000E+00
 -1      1524 0.00000E+00
 -1      1526 0.00000E+00
 -1      1527 0.00000E+00
 -1      1529 0.00000E+00
 -1      1530 0.00000E+00
 -1      1532 0.00000E+00
 -1      1533 0.00000E+00
 -1      1535 0.00000E+00
 -1      1536 0.00000E+00
 -1      1538 0.00000E+00
 -1      1539 0.00000E+00
 -1      1541 0.00000E+00
 -1      1542 0.00000E+00
 -1      1544 0.00000E+00
 -1      1545 0.00000E+00
 -1      1547 0.00000E+00
 -1      1548 0.00000E+00
 -1      1550 0.00000E+00
 -1      1551 0.00000E+00
 -1      1553 0.00000E+00
 -1      1554 0.00000E+00
 -1      1556 0.00000E+00
 -1      1557 0.00000E+00
 -1      1559 0.00000E+00
 -1      1560 0.00000E+00
 -1      1562 0.00000E+00
 -1      1563 0.00000E+00
 -1      1565 0.00000E+00
 -1      1566 0.00000E+00
 -1      1568 0.00000E+00
 -1      1569 0.00000E+00
 -1      1571 0.00000E+00
 -1      1572 0.00000E+00
 -1      1574 0.00000E+00
 -1      1575 0.00000E+00
 -1      1577 0.00000E+00
 -1      1578 0.00000E+00
 -1      1580 0.00000E+00
 -1      1581 0.00000E+00
 -1      1583 0.00000E+00
 -1      1584 0.00000E+00
 -1      1586 0.00000E+00
 -1      1587 0.00000E+00
 -1      1589 0.00000E+00
 -1      1590 0.00000E+00
 -1      1592 0.00000E+00
 -1      1593 0.00000E+00
 -1      1595 0.00000E+00
 -1      1596 0.00000E+00
 -1      1598 0.00000E+00
 -1      1599 0.00000E+00
 -1      1601 0.00000E+00
 -1      1602 0.00000E+00
 -1      1604 0.00000E+00
 -1      1605 0.00000E+00
 -1      1607 0.00000E+00
 -1      1608 0.00000E+00
 -1      1610 0.00000E+00
 -1      1611 0.00000E+00
 -1      1613 0.00000E+00
 -1      1614 0.00000E+00
 -1      1616 0.00000E+00
 -1      1617 0.00000E+00
 -1      1619 0.00000E+00
 -1      1620 0.00000E+00
 -1      1622 0.00000E+00
 -1      1623 0.00000E+00
 -1      1625 0.00000E+00
 -1      1626 0.00000E+00
 -1      1628 0.00000E+00
 -1      1629 0.00000E+00
 -1      1631 0.00000E+00
 -1      1632 0.00000E+00
 -1      1634 0.00000E+00
 -1      1635 0.00000E+00
 -1      1637 0.00000E+00
 -1      1638 0.00000E+00
 -1      1640 0.00000E+00
 -1      1641 0.00000E+00
 -1      1643 0.00000E+00
 -1      1644 0.00000E+00
 -1      1646 0.00000E+00
 -1      1647 0.00000E+00
 -1      1649 0.00000E+00
 -1      1650 0.00000E+00
 -1      1652 0.00000E+00
 -1      1653 0.00000E+00
 -1      1655 0.00000E+00
 -1      1656 0.00000E+00
 -1      1658 0.00000E+00
 -1      1659 0.00000E+00
 -1      1661 0.00000E+00
 -1      1662 0.00000E+00
 -1      1664 0.00000E+00
 -1      1665 0.00000E+00
 -1      1667 0.00000E+00
 -1      1668 0.00000E+00
 -1      1670 0.00000E+00
 -1      1671 0.00000E+00
 -1      1673 0.00000E+00
 -1      1674 0.00000E+00
 -1      1676 0.00000E+00
 -1      1677 0.00000E+00
 -1      1679 0.00000E+00
 -1      1680 0.00000E+00
 -1      1682 0.00000E+00
 -1      1683 0.00000E+00
 -1      1685 0.00000E+00
 -1      1686 0.00000E+00
 -1      1688 0.00000E+00
 -1      1689 0.00000E+00
 -1      1691 0.00000E+00
 -1      1692 0.00000E+00
 -1      1694 0.00000E+00
 -1      1695 0.00000E+00
 -1      1697 0.00000E+00
 -1      1698 0.00000E+00
 -1      1700 0.00000E+00
 -1      1701 0.00000E+00
 -1      1703 0.00000E+00
 -1      1704 0.00000E+00
 -1      1706 0.00000E+00
 -1      1707 0.00000E+00
 -1      1709 0.00000E+00
 -1      1710 0.00000E+00
 -1      1712 0.00000E+00
 -1      1713 0.00000E+00
 -1      1715 0.00000E+00
 -1      1716 0.00000E+00
 -1      1718 0.00000E+00
 -1      1719 0.00000E+00
 -1      1721 0.00000E+00
 -1      1722 0.00000E+00
 -1      1724 0.00000E+00
 -1      1725 0.00000E+00
 -1      1727 0.00000E+00
 -1      1728 0.00000E+00
 -1      1730 0.00000E+00
 -1      1731 0.00000E+00
 -1      1733 0.00000E+00
 -1      1734 0.00000E+00
 -1      1736 0.00000E+00
 -1      1737 0.00000E+00
 -1      1739 0.00000E+00
 -1      1740 0.00000E+00
 -1      1742 0.00000E+00
 -1      1743 0.00000E+00
 -1      1745 0.00000E+00
 -1      1746 0.00000E+00
 -1      1748 0.00000E+00
 -1      1749 0.00000E+00
 -1      1751 0.00000E+00
 -1      1752 0.00000E+00
 -1      1754 0.00000E+00
 -1      1755 0.00000E+00
 -1      1757 0.00000E+00
 -1      1758 0.00000E+00
 -1      1760 0.00000E+00
 -1      1761 0.00000E+00
 -1      1763 0.00000E+00
 -1      1764 0.00000E+00
 -1      1766 0.00000E+00
 -1      1767 0.00000E+00
 -1      1769 0.00000E+00
 -1      1770 0.00000E+00
 -1      1772 0.00000E+00
 -1      1773 0.00000E+00
 -1      1775 0.00000E+00
 -1      1776 0.00000E+00
 -1      1778 0.00000E+00
 -1      1779 0.00000E+00
 -1      1781 0.00000E+00
 -1      1782 0.00000E+00
 -1      1784 0.00000E+00
 -1      1785 0.00000E+00
 -1      1787 0.00000E+00
 -1      1788 0.00000E+00
 -1      1790 0.00000E+00
 -1      1791 0.00000E+00
 -1      1793 0.00000E+00
 -1      1794 0.00000E+00
 -1      1796 0.00000E+00
 -1      1797 0.00000E+00
 -1      1799 0.00000E+00
 -1      1800 0.00000E+00
 -1      1802 0.00000E+00
 -1      1803 0.00000E+00
 -1      1805 0.00000E+00
 -1      1806 0.00000E+00
 -1      1808 0.00000E+00
 -1      1809 0.00000E+00
 -1      1811 0.00000E+00
 -1      1812 0.00000E+00
 -1      1814 0.00000E+00
 -1      1815 0.00000E+00
 -1      1817 0.00000E+00
 -1      1818 0.00000E+00
 -1      1820 0.00000E+00
 -1      1821 0.00000E+00
 -1      1823 0.00000E+00
 -1      1824 0.00000E+00
 -1      1826 0.00000E+00
 -1      1827 0.00000E+00
 -1      1829 0.00000E+00
 -1      1830 0.00000E+00
 -1      1832 0.00000E+00
 -1      1833 0.00000E+00
 -1      1835 0.00000E+00
 -1      1836 0.00000E+00
 -1      1838 0.00000E+00
 -1      1839 0.00000E+00
 -1      1841 0.00000E+00
 -1      1842 0.00000E+00
 -1      1844 0.00000E+00
 -1      1845 0.00000E+00
 -1      1847 0.00000E+00
 -1      1848 0.00000E+00
 -1      1850 0.00000E+00
 -1      1851 0.00000E+00
 -1      1853 0.00000E+00
 -1      1854 0.00000E+00
 -1      1856 0.00000E+00
 -1      1857 0.00000E+00
 -1      1859 0.00000E+00
 -1      1860 0.00000E+00
 -1      1862 0.00000E+00
 -1      1863 0.00000E+00
 -1      1865 0.00000E+00
 -1      1866 0.00000E+00
 -1      1868 0.00000E+00
 -1      1869 0.00000E+00
 -1      1871 0.00000E+00
 -1      1872 0.00000E+00
 -1      1874 0.00000E+00
 -1      1875 0.00000E+00
 -1      1877 0.00000E+00
 -1      1878 0.00000E+00
 -1      1880 0.00000E+00
 -1      1881 0.00000E+00
 -1      1883 0.00000E+00
 -1      1884 0.00000E+00
 -1      1886 0.00000E+00
 -1      1887 0.00000E+00
 -1      1889 0.00000E+00
 -1      1890 0.00000E+00
 -1      1892 0.00000E+00
 -1      1893 0.00000E+00
 -1      1895 0.00000E+00
 -1      1896 0.00000E+00
 -1      1898 0.00000E+00
 -1      1899 0.00000E+00
 -1      1901 0.00000E+00
 -1      1902 0.00000E+00
 -1      1904 0.00000E+00
 -1      1905 0.00000E+00
 -1      1907 0.00000E+00
 -1      1908 0.00000E+00
 -1      1910 0.00000E+00
 -1      1911 0.00000E+00
 -1      1913 0.00000E+00
 -1      1914 0.00000E+00
 -1      1916 0.00000E+00
 -1      1917 0.00000E+00
 -1      1919 0.00000E+00
 -1      1920 0.00000E+00
 -1      1922 0.00000E+00
 -1      1923 0.00000E+00
 -1      1925 0.00000E+00
 -1      1926 0.00000E+00
 -1      1928 0.00000E+00
 -1      1929 0.00000E+00
 -1      1931 0.00000E+00
 -1      1932 0.00000E+00
 -1      1934 0.00000E+00
 -1      1935 0.00000E+00
 -1      1937 0.00000E+00
 -1      1938 0.00000E+00
 -1      1940 0.00000E+00
 -1      1941 0.00000E+00
 -1      1943 0.00000E+00
 -1      1944 0.00000E+00
 -1      1946 0.00000E+00
 -1      1947 0.00000E+00
 -1      1949 0.00000E+00
 -1      1950 0.00000E+00
 -1      1952 0.00000E+00
 -1      1953 0.00000E+00
 -1      1955 0.00000E+00
 -1      1956 0.00000E+00
 -1      1958 0.00000E+00
 -1      1959 0.00000E+00
 -1      1961 0.00000E+00
 -1      1962 0.00000E+00
 -1      1964 0.00000E+00
 -1      1965 0.00000E+00
 -1      1967 0.00000E+00
 -1      1968 0.00000E+00
 -1      1970 0.00000E+00
 -1      1971 0.00000E+00
 -1      1973 0.00000E+00
 -1      1974 0.00000E+00
 -1      1976 0.00000E+00
 -1      1977 0.00000E+00
 -1      1979 0.00000E+00
 -1      1980 0.00000E+00
 -1      1982 0.00000E+00
 -1      1983 0.00000E+00
 -1      1985 0.00000E+00
 -1      1986 0.00000E+00
 -1      1988 0.00000E+00
 -1      1989 0.00000E+00
 -1      1991 0.00000E+00
 -1      1992 0.00000E+00
 -1      1994 0.00000E+00
 -1      1995 0.00000E+00
 -1      1997 0.00000E+00
 -1      1998 0.00000E+00
 -1      2000 0.00000E+00
 -1      2001 0.00000E+00
 -1      2003 0.00000E+00
 -1      2004 0.00000E+00
 -1      2006 0.00000E+00
 -1      2007 0.00000E+00
 -1      2009 0.00000E+00
 -1      2010 0.00000E+00
 -1      2012 0.00000E+00
 -1      2013 0.00000E+00
 -1      2015 0.00000E+00
 -1      2016 0.00000E+00
 -1      2018 0.00000E+00
 -1      2019 0.00000E+00
 -1      2021 0.00000E+00
 -1      2022 0.00000E+00
 -1      2024 0.00000E+00
 -1      2025 0.00000E+00
 -1      2027 0.00000E+00
 -1      2028 0.00000E+00
 -1      2030 0.00000E+00
 -1      2031 0.00000E+00
 -1      2033 0.00000E+00
 -1      2034 0.00000E+00
 -1      2036 0.00000E+00
 -1      2037 0.00000E+00
 -1      2039 0.00000E+00
 -1      2040 0.00000E+00
 -1      2042 0.00000E+00
 -1      2043 0.00000E+00
 -1      2045 0.00000E+00
 -1      2046 0.00000E+00
 -1      2048 0.00000E+00
 -1      2049 0.00000E+00
 -1      2051 0.00000E+00
 -1      2052 0.00000E+00
 -1      2054 0.00000E+00
 -1      2055 0.00000E+00
 -1      2057 0.00000E+00
 -1      2058 0.00000E+00
 -1      2060 0.00000E+00
 -1      2061 0.00000E+00
 -1      2063 0.00000E+00
 -1      2064 0.00000E+00
 -1      2066 0.00000E+00
 -1      2067 0.00000E+00
 -1      2069 0.00000E+00
 -1      2070 0.00000E+00
 -1      2072 0.00000E+00
 -1      2073 0.00000E+00
 -1      2075 0.00000E+00
 -1      2076 0.00000E+00
 -1      2078 0.00000E+00
 -1      2079 0.00000E+00
 -1      2081 0.00000E+00
 -1      2082 0.00000E+00
 -1      2084 0.00000E+00
 -1      2085 0.00000E+00
 -1      2087 0.00000E+00
 -1      2088 0.00000E+00
 -1      2090 0.00000E+00
 -1      2091 0.00000E+00
 -1      2093 0.00000E+00
 -1      2094 0.00000E+00
 -1      2096 0.00000E+00
 -1      2097 0.00000E+00
 -1      2099 0.00000E+00
 -1      2100 0.00000E+00
 -1      2102 0.00000E+00
 -1      2103 0.00000E+00
 -1      2105 0.00000E+00
 -1      2106 0.00000E+00
 -1      2108 0.00000E+00
 -1      2109 0.00000E+00
 -1      2111 0.00000E+00
 -1      2112 0.00000E+00
 -1      2114 0.00000E+00
 -1      2115 0.00000E+00
 -1      2117 0.00000E+00
 -1      2118 0.00000E+00
 -1      2120 0.00000E+00
 -1      2121 0.00000E+00
 -1      2123 0.00000E+00
 -1      2124 0.00000E+00
 -1      2126 0.00000E+00
 -1      2127 0.00000E+00
 -1      2129 0.00000E+00
 -1      2130 0.00000E+00
 -1      2132 0.00000E+00
 -1      2133 0.00000E+00
 -1      2135 0.00000E+00
 -1      2136 0.00000E+00
 -1      2138 0.00000E+00
 -1      2139 0.00000E+00
 -1      2141 0.00000E+00
 -1      2142 0.00000E+00
 -1      2144 0.00000E+00
 -1      2145 0.00000E+00
 -1      2147 0.00000E+00
 -1      2148 0.00000E+00
 -1      2150 0.00000E+00
 -1      2151 0.00000E+00
 -1      2153 0.00000E+00
 -1      2154 0.00000E+00
 -1      2156 0.00000E+00
 -1      2157 0.00000E+00
 -1      2159 0.00000E+00
 -1      2160 0.00000E+00
 -1      2162 0.00000E+00
 -1      2163 0.00000E+00
 -1      2165 0.00000E+00
 -1      2166 0.00000E+00
 -1      2168 0.00000E+00
 -1      2169 0.00000E+00
 -1      2171 0.00000E+00
 -1      2172 0.00000E+00
 -1      2174 0.00000E+00
 -1      2175 0.00000E+00
 -1      2177 0.00000E+00
 -1      2178 0.00000E+00
 -1      2180 0.00000E+00
 -1      2181 0.00000E+00
 -1      2183 0.00000E+00
 -1      2184 0.00000E+00
 -1      2186 0.00000E+00
 -1      2187 0.00000E+00
 -1      2189 0.00000E+00
 -1      2190 0.00000E+00
 -1      2192 0.00000E+00
 -1      2193 0.00000E+00
 -1      2195 0.00000E+00
 -1      2196 0.00000E+00
 -1      2198 0.00000E+00
 -1      2199 0.00000E+00
 -1      2201 0.00000E+00
 -1      2202 0.00000E+00
 -1      2204 0.00000E+00
 -1      2205 0.00000E+00
 -1      2207 0.00000E+00
 -1      2208 0.00000E+00
 -1      2210 0.00000E+00
 -1      2211 0.00000E+00
 -1      2213 0.00000E+00
 -1      2214 0.00000E+00
 -1      2216 0.00000E+00
 -1      2217 0.00000E+00
 -1      2219 0.00000E+00
 -1      2220 0.00000E+00
 -1      2222 0.00000E+00
 -1      2223 0.00000E+00
 -1      2225 0.00000E+00
 -1      2226 0.00000E+00
 -1      2228 0.00000E+00
 -1      2229 0.00000E+00
 -1      2231 0.00000E+00
 -1      2232 0.00000E+00
 -1      2234 0.00000E+00
 -1      2235 0.00000E+00
 -1      2237 0.00000E+00
 -1      2238 0.00000E+00
 -1      2240 0.00000E+00
 -1      2241 0.00000E+00
 -1      2243 0.00000E+00
 -1      2244 0.00000E+00
 -1      2246 0.00000E+00
 -1      2247 0.00000E+00
 -1      2249 0.00000E+00
 -1      2250 0.00000E+00
 -1      2252 0.00000E+00
 -1      2253 0.00000E+00
 -1      2255 0.00000E+00
 -1      2256 0.00000E+00
 -1      2258 0.00000E+00
 -1      2259 0.00000E+00
 -1      2261 0.00000E+00
 -1      2262 0.00000E+00
 -1      2264 0.00000E+00
 -1      2265 0.00000E+00
 -1      2267 0.00000E+00
 -1      2268 0.00000E+00
 -1      2270 0.00000E+00
 -1      2271 0.00000E+00
 -1      2273 0.00000E+00
 -1      2274 0.00000E+00
 -1      2276 0.00000E+00
 -1      2277 0.00000E+00
 -1      2279 0.00000E+00
 -1      2280 0.00000E+00
 -1      2282 0.00000E+00
 -1      2283 0.00000E+00
 -1      2285 0.00000E+00
 -1      2286 0.00000E+00
 -1      2288 0.00000E+00
 -1      2289 0.00000E+00
 -1      2291 0.00000E+00
 -1      2292 0.00000E+00
 -1      2294 0.00000E+00
 -3
    1PSTEP                        41           1           1          
    1PGM                1.000000E+00                                  
    1PGK                7.353946E+06                                  
    1PHID                         -1                                  
    1PSUBC                         0                                  
    1PMODE                        11                                  
  100CL  111 431.5989067         930                     2   11MODAL      1
 -4  DISP        4    1
 -5  D1          1    2    1    0
 -5  D2          1    2    2    0
 -5  D3          1    2    3    0
 -5  ALL         1    2    0    0    1ALL
 -1       404 0.00000E+00 0.00000E+00-1.54021E-04
 -1       406 0.00000E+00-0.00000E+00 1.54021E-04
 -1       407-1.01137E-01-1.25394E-04-1.15329E-03
 -1       409-1.01154E-01 1.35293E-04-1.15414E-03
 -1       410-1.01173E-01 5.55440E-13-5.30221E-05
 -1       412-1.01188E-01 5.80277E-13-5.32352E-05
 -1       413-1.01181E-01 6.78855E-08-5.31286E-05
 -1       415-1.01181E-01-6.78844E-08-5.31286E-05
 -1       424 0.00000E+00 0.00000E+00-1.33783E-04
 -1       426 0.00000E+00 0.00000E+00 1.33783E-04
 -1       427 0.00000E+00-8.52244E-05 0.00000E+00
 -1       429 0.00000E+00 8.52244E-05 0.00000E+00
 -1       438-1.01137E-01 1.25394E-04-1.15329E-03
 -1       440-1.01154E-01-1.35293E-04-1.15414E-03
 -1       441 0.00000E+00 0.00000E+00-1.54021E-04
 -1       443 0.00000E+00-0.00000E+00 1.54021E-04
 -1       444 0.00000E+00-8.52244E-05 0.00000E+00
 -1       446 0.00000E+00 8.52244E-05 0.00000E+00
 -1       447 0.00000E+00 0.00000E+00 1.33783E-04
 -1       449 0.00000E+00 0.00000E+00-1.33783E-04
 -1       458-1.01181E-01 6.78853E-08 5.31286E-05
 -1       460-1.01181E-01-6.78846E-08 5.31286E-05
 -1       461-1.01173E-01 3.59674E-13 5.30221E-05
 -1       463-1.01188E-01 3.02893E-13 5.32352E-05
 -1       472 0.00000E+00 0.00000E+00 1.54021E-04
 -1       474 0.00000E+00 0.00000E+00-1.54021E-04
 -1       475-1.01137E-01 1.25394E-04 1.15329E-03
 -1       477-1.01154E-01-1.35293E-04 1.15414E-03
 -1       478-1.01137E-01-1.25394E-04 1.15329E-03
 -1       480-1.01154E-01 1.35293E-04 1.15414E-03
 -1       481 0.00000E+00 0.00000E+00 1.54021E-04
 -1       483 0.00000E+00 0.00000E+00-1.54021E-04
 -1       484-5.68678E-03 1.69670E-03-2.16392E-03
 -1       486-5.15612E-03 1.84317E-03-1.99174E-03
 -1       487-1.03653E-02 1.28136E-03-4.20478E-03
 -1       489-1.03501E-02 1.43764E-03-3.98463E-03
 -1       490-1.57323E-02 1.28060E-03-4.57870E-03
 -1       492-1.56558E-02 1.54730E-03-4.36066E-03
 -1       493-2.08799E-02 1.20679E-03-5.07249E-03
 -1       495-2.08358E-02 1.56450E-03-4.87570E-03
 -1       496-2.59963E-02 1.17993E-03-5.30055E-03
 -1       498-2.59855E-02 1.60378E-03-5.08224E-03
 -1       499-3.10855E-02 1.11303E-03-5.47130E-03
 -1       501-3.10576E-02 1.59980E-03-5.27826E-03
 -1       502-3.60641E-02 1.07934E-03-5.59079E-03
 -1       504-3.60643E-02 1.60569E-03-5.38174E-03
 -1       505-4.09719E-02 1.02754E-03-5.63535E-03
 -1       507-4.09626E-02 1.58856E-03-5.44717E-03
 -1       508-4.57510E-02 9.89254E-04-5.65246E-03
 -1       510-4.57582E-02 1.57029E-03-5.45512E-03
 -1       511-5.04182E-02 9.44024E-04-5.60860E-03
 -1       513-5.04231E-02 1.53946E-03-5.42816E-03
 -1       514-5.49384E-02 9.03947E-04-5.54029E-03
 -1       516-5.49526E-02 1.50432E-03-5.35613E-03
 -1       517-5.93143E-02 8.60487E-04-5.42593E-03
 -1       519-5.93293E-02 1.46083E-03-5.25602E-03
 -1       520-6.35228E-02 8.18798E-04-5.28975E-03
 -1       522-6.35435E-02 1.41261E-03-5.12016E-03
 -1       523-6.75603E-02 7.74808E-04-5.11907E-03
 -1       525-6.75828E-02 1.35812E-03-4.96214E-03
 -1       526-7.14097E-02 7.31044E-04-4.92995E-03
 -1       528-7.14359E-02 1.29929E-03-4.77630E-03
 -1       529-7.50647E-02 6.85309E-04-4.71508E-03
 -1       531-7.50928E-02 1.23555E-03-4.57323E-03
 -1       532-7.85121E-02 6.39000E-04-4.48552E-03
 -1       534-7.85426E-02 1.16808E-03-4.34918E-03
 -1       535-8.17448E-02 5.90817E-04-4.23727E-03
 -1       537-8.17769E-02 1.09676E-03-4.11232E-03
 -1       538-8.47520E-02 5.41585E-04-3.97833E-03
 -1       540-8.47857E-02 1.02243E-03-3.86060E-03
 -1       541-8.75269E-02 4.90496E-04-3.70696E-03
 -1       543-8.75618E-02 9.45212E-04-3.60045E-03
 -1       544-9.00608E-02 4.38017E-04-3.42928E-03
 -1       546-9.00965E-02 8.65760E-04-3.33132E-03
 -1       547-9.23476E-02 3.83654E-04-3.14525E-03
 -1       549-9.23838E-02 7.84409E-04-3.05847E-03
 -1       550-9.43803E-02 3.27557E-04-2.85992E-03
 -1       552-9.44166E-02 7.01655E-04-2.78271E-03
 -1       553-9.61540E-02 2.69537E-04-2.57468E-03
 -1       555-9.61901E-02 6.18119E-04-2.50864E-03
 -1       556-9.76633E-02 2.09271E-04-2.29423E-03
 -1       558-9.76987E-02 5.34050E-04-2.23857E-03
 -1       559-9.89048E-02 1.47141E-04-2.02116E-03
 -1       561-9.89390E-02 4.50643E-04-1.97664E-03
 -1       562-9.98747E-02 8.17709E-05-1.76173E-03
 -1       564-9.99069E-02 3.67428E-04-1.72814E-03
 -1       565-1.00571E-01 1.52505E-05-1.51901E-03
 -1       567-1.00601E-01 2.87305E-04-1.49660E-03
 -1       568-1.00992E-01-5.77484E-05-1.31017E-03
 -1       570-1.01015E-01 2.05798E-04-1.29886E-03
 -1       571-1.01161E-01-9.82962E-05-3.86348E-04
 -1       573-1.01177E-01 1.00775E-04-3.85709E-04
 -1       574-5.41168E-03-4.45401E-14-2.30495E-03
 -1       576-4.91245E-03-4.41564E-14-2.07187E-03
 -1       577-5.16207E-03-7.42416E-05-2.18841E-03
 -1       579-5.16207E-03 7.42416E-05-2.18841E-03
 -1       588-1.03652E-02-1.36640E-13-3.26649E-03
 -1       590-1.05378E-02-1.35112E-13-3.06620E-03
 -1       591-1.04515E-02-6.37969E-05-3.16634E-03
 -1       593-1.04515E-02 6.37969E-05-3.16634E-03
 -1       602-1.57434E-02-2.41214E-13-3.28937E-03
 -1       604-1.56194E-02-2.37805E-13-3.07621E-03
 -1       605-1.56814E-02-6.78926E-05-3.18279E-03
 -1       607-1.56814E-02 6.78926E-05-3.18279E-03
 -1       616-2.07935E-02-3.38376E-13-3.36745E-03
 -1       618-2.08772E-02-3.32848E-13-3.15835E-03
 -1       619-2.08354E-02-6.66000E-05-3.26290E-03
 -1       621-2.08354E-02 6.66000E-05-3.26290E-03
 -1       630-2.60130E-02-4.07910E-13-3.27408E-03
 -1       632-2.59791E-02-4.00194E-13-3.06864E-03
 -1       633-2.59961E-02-6.54370E-05-3.17136E-03
 -1       635-2.59961E-02 6.54370E-05-3.17136E-03
 -1       644-3.10524E-02-4.36320E-13-3.23269E-03
 -1       646-3.10921E-02-4.26407E-13-3.02777E-03
 -1       647-3.10723E-02-6.52714E-05-3.13023E-03
 -1       649-3.10723E-02 6.52714E-05-3.13023E-03
 -1       658-3.60791E-02-4.15839E-13-3.15129E-03
 -1       660-3.60722E-02-4.03027E-13-2.95249E-03
 -1       661-3.60757E-02-6.33220E-05-3.05189E-03
 -1       663-3.60757E-02 6.33220E-05-3.05189E-03
 -1       672-4.09666E-02-3.48132E-13-3.08674E-03
 -1       674-4.09893E-02-3.32143E-13-2.88994E-03
 -1       675-4.09779E-02-6.26850E-05-2.98834E-03
 -1       677-4.09779E-02 6.26850E-05-2.98834E-03
 -1       686-4.57684E-02-2.43617E-13-3.00342E-03
 -1       688-4.57726E-02-2.24633E-13-2.81329E-03
 -1       689-4.57705E-02-6.05597E-05-2.90835E-03
 -1       691-4.57705E-02 6.05597E-05-2.90835E-03
 -1       700-5.04279E-02-1.16782E-13-2.92191E-03
 -1       702-5.04448E-02-9.55346E-14-2.73560E-03
 -1       703-5.04364E-02-5.93434E-05-2.82876E-03
 -1       705-5.04364E-02 5.93434E-05-2.82876E-03
 -1       714-5.49598E-02 1.73669E-14-2.82744E-03
 -1       716-5.49693E-02 3.98789E-14-2.64818E-03
 -1       717-5.49645E-02-5.70987E-05-2.73781E-03
 -1       719-5.49645E-02 5.70987E-05-2.73781E-03
 -1       728-5.93335E-02 1.41743E-13-2.72934E-03
 -1       730-5.93488E-02 1.65407E-13-2.55550E-03
 -1       731-5.93412E-02-5.53711E-05-2.64242E-03
 -1       733-5.93412E-02 5.53711E-05-2.64242E-03
 -1       742-6.35487E-02 2.45321E-13-2.62122E-03
 -1       744-6.35614E-02 2.70850E-13-2.45491E-03
 -1       745-6.35550E-02-5.29730E-05-2.53807E-03
 -1       747-6.35550E-02 5.29730E-05-2.53807E-03
 -1       756-6.75861E-02 3.18094E-13-2.50771E-03
 -1       758-6.76017E-02 3.47180E-13-2.34815E-03
 -1       759-6.75939E-02-5.08217E-05-2.42793E-03
 -1       761-6.75939E-02 5.08217E-05-2.42793E-03
 -1       770-7.14397E-02 3.47489E-13-2.38603E-03
 -1       772-7.14546E-02 3.79152E-13-2.23460E-03
 -1       773-7.14471E-02-4.82362E-05-2.31031E-03
 -1       775-7.14471E-02 4.82362E-05-2.31031E-03
 -1       784-7.50956E-02 3.30189E-13-2.25863E-03
 -1       786-7.51120E-02 3.64436E-13-2.11503E-03
 -1       787-7.51038E-02-4.57387E-05-2.18683E-03
 -1       789-7.51038E-02 4.57387E-05-2.18683E-03
 -1       798-7.85458E-02 2.66705E-13-2.12439E-03
 -1       800-7.85623E-02 3.02062E-13-1.98955E-03
 -1       801-7.85540E-02-4.29490E-05-2.05697E-03
 -1       803-7.85540E-02 4.29490E-05-2.05697E-03
 -1       812-8.17795E-02 1.63251E-13-1.98471E-03
 -1       814-8.17970E-02 1.97825E-13-1.85860E-03
 -1       815-8.17882E-02-4.01701E-05-1.92166E-03
 -1       817-8.17882E-02 4.01701E-05-1.92166E-03
 -1       826-8.47886E-02 3.69348E-14-1.83926E-03
 -1       828-8.48065E-02 6.89492E-14-1.72254E-03
 -1       829-8.47976E-02-3.71758E-05-1.78090E-03
 -1       831-8.47976E-02 3.71758E-05-1.78090E-03
 -1       840-8.75644E-02-9.16577E-14-1.68898E-03
 -1       842-8.75831E-02-6.40858E-14-1.58170E-03
 -1       843-8.75737E-02-3.41718E-05-1.63534E-03
 -1       845-8.75737E-02 3.41718E-05-1.63534E-03
 -1       854-9.00996E-02-2.02515E-13-1.53385E-03
 -1       856-9.01187E-02-1.78229E-13-1.43658E-03
 -1       857-9.01091E-02-3.09843E-05-1.48522E-03
 -1       859-9.01091E-02 3.09843E-05-1.48522E-03
 -1       868-9.23869E-02-2.78405E-13-1.37469E-03
 -1       870-9.24066E-02-2.56259E-13-1.28739E-03
 -1       871-9.23968E-02-2.78064E-05-1.33104E-03
 -1       873-9.23968E-02 2.78064E-05-1.33104E-03
 -1       882-9.44202E-02-3.08617E-13-1.21155E-03
 -1       884-9.44404E-02-2.87961E-13-1.13480E-03
 -1       885-9.44303E-02-2.44444E-05-1.17317E-03
 -1       887-9.44303E-02 2.44444E-05-1.17317E-03
 -1       896-9.61939E-02-2.87569E-13-1.04521E-03
 -1       898-9.62147E-02-2.67779E-13-9.78835E-04
 -1       899-9.62043E-02-2.11432E-05-1.01203E-03
 -1       901-9.62043E-02 2.11432E-05-1.01203E-03
 -1       910-9.77033E-02-2.16916E-13-8.75745E-04
 -1       912-9.77243E-02-1.97918E-13-8.20400E-04
 -1       913-9.77138E-02-1.76285E-05-8.48073E-04
 -1       915-9.77138E-02 1.76285E-05-8.48073E-04
 -1       924-9.89439E-02-1.03534E-13-7.04011E-04
 -1       926-9.89657E-02-8.37246E-14-6.59243E-04
 -1       927-9.89548E-02-1.42596E-05-6.81627E-04
 -1       929-9.89548E-02 1.42596E-05-6.81627E-04
 -1       938-9.99132E-02 4.35162E-14-5.30684E-04
 -1       940-9.99348E-02 6.54175E-14-4.97380E-04
 -1       941-9.99240E-02-1.06081E-05-5.14032E-04
 -1       943-9.99240E-02 1.06081E-05-5.14032E-04
 -1       952-1.00608E-01 2.10049E-13-3.57516E-04
 -1       954-1.00630E-01 2.32805E-13-3.34771E-04
 -1       955-1.00619E-01-7.24491E-06-3.46143E-04
 -1       957-1.00619E-01 7.24491E-06-3.46143E-04
 -1       966-1.01028E-01 3.86101E-13-1.90472E-04
 -1       968-1.01048E-01 4.10349E-13-1.79637E-04
 -1       969-1.01038E-01-3.45144E-06-1.85054E-04
 -1       971-1.01038E-01 3.45144E-06-1.85054E-04
 -1       980 0.00000E+00 0.00000E+00-1.36630E-04
 -1       982 0.00000E+00-0.00000E+00 1.36630E-04
 -1       983-1.01161E-01 9.82962E-05-3.86348E-04
 -1       985-1.01177E-01-1.00775E-04-3.85709E-04
 -1       986-5.68678E-03-1.69670E-03-2.16392E-03
 -1       988-5.15612E-03-1.84317E-03-1.99174E-03
 -1       989-1.03653E-02-1.28136E-03-4.20478E-03
 -1       991-1.03501E-02-1.43764E-03-3.98463E-03
 -1       992-1.57323E-02-1.28060E-03-4.57870E-03
 -1       994-1.56558E-02-1.54730E-03-4.36066E-03
 -1       995-2.08799E-02-1.20679E-03-5.07249E-03
 -1       997-2.08358E-02-1.56450E-03-4.87570E-03
 -1       998-2.59963E-02-1.17993E-03-5.30055E-03
 -1      1000-2.59855E-02-1.60378E-03-5.08224E-03
 -1      1001-3.10855E-02-1.11303E-03-5.47130E-03
 -1      1003-3.10576E-02-1.59980E-03-5.27826E-03
 -1      1004-3.60641E-02-1.07934E-03-5.59079E-03
 -1      1006-3.60643E-02-1.60569E-03-5.38174E-03
 -1      1007-4.09719E-02-1.02754E-03-5.63535E-03
 -1      1009-4.09626E-02-1.58856E-03-5.44717E-03
 -1      1010-4.57510E-02-9.89254E-04-5.65246E-03
 -1      1012-4.57582E-02-1.57029E-03-5.45512E-03
 -1      1013-5.04182E-02-9.44024E-04-5.60860E-03
 -1      1015-5.04231E-02-1.53946E-03-5.42816E-03
 -1      1016-5.49384E-02-9.03947E-04-5.54029E-03
 -1      1018-5.49526E-02-1.50432E-03-5.35613E-03
 -1      1019-5.93143E-02-8.60487E-04-5.42593E-03
 -1      1021-5.93293E-02-1.46083E-03-5.25602E-03
 -1      1022-6.35228E-02-8.18798E-04-5.28975E-03
 -1      1024-6.35435E-02-1.41261E-03-5.12016E-03
 -1      1025-6.75603E-02-7.74808E-04-5.11907E-03
 -1      1027-6.75828E-02-1.35812E-03-4.96214E-03
 -1      1028-7.14097E-02-7.31044E-04-4.92995E-03
 -1      1030-7.14359E-02-1.29929E-03-4.77630E-03
 -1      1031-7.50647E-02-6.85309E-04-4.71508E-03
 -1      1033-7.50928E-02-1.23555E-03-4.57323E-03
 -1      1034-7.85121E-02-6.39000E-04-4.48552E-03
 -1      1036-7.85426E-02-1.16808E-03-4.34918E-03
 -1      1037-8.17448E-02-5.90817E-04-4.23727E-03
 -1      1039-8.17769E-02-1.09676E-03-4.11232E-03
 -1      1040-8.47520E-02-5.41585E-04-3.97833E-03
 -1      1042-8.47857E-02-1.02243E-03-3.86060E-03
 -1      1043-8.75269E-02-4.90496E-04-3.70696E-03
 -1      1045-8.75618E-02-9.45212E-04-3.60045E-03
 -1      1046-9.00608E-02-4.38017E-04-3.42928E-03
 -1      1048-9.00965E-02-8.65760E-04-3.33132E-03
 -1      1049-9.23476E-02-3.83654E-04-3.14525E-03
 -1      1051-9.23838E-02-7.84409E-04-3.05847E-03
 -1      1052-9.43803E-02-3.27557E-04-2.85992E-03
 -1      1054-9.44166E-02-7.01655E-04-2.78271E-03
 -1      1055-9.61540E-02-2.69537E-04-2.57468E-03
 -1      1057-9.61901E-02-6.18119E-04-2.50864E-03
 -1      1058-9.76633E-02-2.09271E-04-2.29423E-03
 -1      1060-9.76987E-02-5.34050E-04-2.23857E-03
 -1      1061-9.89048E-02-1.47141E-04-2.02116E-03
 -1      1063-9.89390E-02-4.50643E-04-1.97664E-03
 -1      1064-9.98747E-02-8.17709E-05-1.76173E-03
 -1      1066-9.99069E-02-3.67428E-04-1.72814E-03
 -1      1067-1.00571E-01-1.52505E-05-1.51901E-03
 -1      1069-1.00601E-01-2.87305E-04-1.49660E-03
 -1      1070-1.00992E-01 5.77484E-05-1.31017E-03
 -1      1072-1.01015E-01-2.05798E-04-1.29886E-03
 -1      1073 0.00000E+00 0.00000E+00-1.36630E-04
 -1      1075 0.00000E+00-0.00000E+00 1.36630E-04
 -1      1076 0.00000E+00-8.83559E-05 0.00000E+00
 -1      1078 0.00000E+00 8.83559E-05 0.00000E+00
 -1      1079 0.00000E+00-7.71932E-05 0.00000E+00
 -1      1081 0.00000E+00 7.71932E-05 0.00000E+00
 -1      1082 0.00000E+00-8.83559E-05 0.00000E+00
 -1      1084 0.00000E+00 8.83559E-05 0.00000E+00
 -1      1085-5.16207E-03-7.42416E-05 2.18841E-03
 -1      1087-5.16207E-03 7.42416E-05 2.18841E-03
 -1      1088-5.41168E-03-3.06101E-14 2.30495E-03
 -1      1090-4.91245E-03-3.26379E-14 2.07187E-03
 -1      1099-1.04515E-02-6.37969E-05 3.16634E-03
 -1      1101-1.04515E-02 6.37969E-05 3.16634E-03
 -1      1102-1.03652E-02-1.00954E-13 3.26649E-03
 -1      1104-1.05378E-02-1.05576E-13 3.06620E-03
 -1      1113-1.56814E-02-6.78926E-05 3.18279E-03
 -1      1115-1.56814E-02 6.78926E-05 3.18279E-03
 -1      1116-1.57434E-02-1.86987E-13 3.28937E-03
 -1      1118-1.56194E-02-1.92889E-13 3.07621E-03
 -1      1127-2.08354E-02-6.66000E-05 3.26290E-03
 -1      1129-2.08354E-02 6.66000E-05 3.26290E-03
 -1      1130-2.07935E-02-2.75279E-13 3.36745E-03
 -1      1132-2.08772E-02-2.81430E-13 3.15835E-03
 -1      1141-2.59961E-02-6.54370E-05 3.17136E-03
 -1      1143-2.59961E-02 6.54370E-05 3.17136E-03
 -1      1144-2.60130E-02-3.48799E-13 3.27408E-03
 -1      1146-2.59791E-02-3.53938E-13 3.06864E-03
 -1      1155-3.10723E-02-6.52714E-05 3.13023E-03
 -1      1157-3.10723E-02 6.52714E-05 3.13023E-03
 -1      1158-3.10524E-02-3.93441E-13 3.23269E-03
 -1      1160-3.10921E-02-3.96497E-13 3.02777E-03
 -1      1169-3.60757E-02-6.33220E-05 3.05189E-03
 -1      1171-3.60757E-02 6.33220E-05 3.05189E-03
 -1      1172-3.60791E-02-3.98720E-13 3.15129E-03
 -1      1174-3.60722E-02-3.99141E-13 2.95249E-03
 -1      1183-4.09779E-02-6.26850E-05 2.98834E-03
 -1      1185-4.09779E-02 6.26850E-05 2.98834E-03
 -1      1186-4.09666E-02-3.61041E-13 3.08674E-03
 -1      1188-4.09893E-02-3.58466E-13 2.88994E-03
 -1      1197-4.57705E-02-6.05597E-05 2.90835E-03
 -1      1199-4.57705E-02 6.05597E-05 2.90835E-03
 -1      1200-4.57684E-02-2.84246E-13 3.00342E-03
 -1      1202-4.57726E-02-2.79151E-13 2.81329E-03
 -1      1211-5.04364E-02-5.93434E-05 2.82876E-03
 -1      1213-5.04364E-02 5.93434E-05 2.82876E-03
 -1      1214-5.04279E-02-1.78009E-13 2.92191E-03
 -1      1216-5.04448E-02-1.70226E-13 2.73560E-03
 -1      1225-5.49645E-02-5.70987E-05 2.73781E-03
 -1      1227-5.49645E-02 5.70987E-05 2.73781E-03
 -1      1228-5.49598E-02-5.38489E-14 2.82744E-03
 -1      1230-5.49693E-02-4.41352E-14 2.64818E-03
 -1      1239-5.93412E-02-5.53711E-05 2.64242E-03
 -1      1241-5.93412E-02 5.53711E-05 2.64242E-03
 -1      1242-5.93335E-02 6.92704E-14 2.72934E-03
 -1      1244-5.93488E-02 8.03946E-14 2.55550E-03
 -1      1253-6.35550E-02-5.29730E-05 2.53807E-03
 -1      1255-6.35550E-02 5.29730E-05 2.53807E-03
 -1      1256-6.35487E-02 1.84624E-13 2.62122E-03
 -1      1258-6.35614E-02 1.96389E-13 2.45491E-03
 -1      1267-6.75939E-02-5.08217E-05 2.42793E-03
 -1      1269-6.75939E-02 5.08217E-05 2.42793E-03
 -1      1270-6.75861E-02 2.76554E-13 2.50771E-03
 -1      1272-6.76017E-02 2.88071E-13 2.34815E-03
 -1      1281-7.14471E-02-4.82362E-05 2.31031E-03
 -1      1283-7.14471E-02 4.82362E-05 2.31031E-03
 -1      1284-7.14397E-02 3.29136E-13 2.38603E-03
 -1      1286-7.14546E-02 3.35291E-13 2.23460E-03
 -1      1295-7.51038E-02-4.57387E-05 2.18683E-03
 -1      1297-7.51038E-02 4.57387E-05 2.18683E-03
 -1      1298-7.50956E-02 3.36721E-13 2.25863E-03
 -1      1300-7.51120E-02 3.34257E-13 2.11503E-03
 -1      1309-7.85540E-02-4.29490E-05 2.05697E-03
 -1      1311-7.85540E-02 4.29490E-05 2.05697E-03
 -1      1312-7.85458E-02 2.97608E-13 2.12439E-03
 -1      1314-7.85623E-02 2.84507E-13 1.98955E-03
 -1      1323-8.17882E-02-4.01701E-05 1.92166E-03
 -1      1325-8.17882E-02 4.01701E-05 1.92166E-03
 -1      1326-8.17795E-02 2.20549E-13 1.98471E-03
 -1      1328-8.17970E-02 1.95590E-13 1.85860E-03
 -1      1337-8.47976E-02-3.71758E-05 1.78090E-03
 -1      1339-8.47976E-02 3.71758E-05 1.78090E-03
 -1      1340-8.47886E-02 1.19726E-13 1.83926E-03
 -1      1342-8.48065E-02 8.41530E-14 1.72254E-03
 -1      1351-8.75737E-02-3.41718E-05 1.63534E-03
 -1      1353-8.75737E-02 3.41718E-05 1.63534E-03
 -1      1354-8.75644E-02 9.91671E-15 1.68898E-03
 -1      1356-8.75831E-02-3.48690E-14 1.58170E-03
 -1      1365-9.01091E-02-3.09843E-05 1.48522E-03
 -1      1367-9.01091E-02 3.09843E-05 1.48522E-03
 -1      1368-9.00996E-02-8.85893E-14 1.53385E-03
 -1      1370-9.01187E-02-1.41359E-13 1.43658E-03
 -1      1379-9.23968E-02-2.78064E-05 1.33104E-03
 -1      1381-9.23968E-02 2.78064E-05 1.33104E-03
 -1      1382-9.23869E-02-1.64929E-13 1.37469E-03
 -1      1384-9.24066E-02-2.23254E-13 1.28739E-03
 -1      1393-9.44303E-02-2.44444E-05 1.17317E-03
 -1      1395-9.44303E-02 2.44444E-05 1.17317E-03
 -1      1396-9.44202E-02-2.08012E-13 1.21155E-03
 -1      1398-9.44404E-02-2.70161E-13 1.13480E-03
 -1      1407-9.62043E-02-2.11432E-05 1.01203E-03
 -1      1409-9.62043E-02 2.11432E-05 1.01203E-03
 -1      1410-9.61939E-02-2.11894E-13 1.04521E-03
 -1      1412-9.62147E-02-2.75771E-13 9.78835E-04
 -1      1421-9.77138E-02-1.76285E-05 8.48073E-04
 -1      1423-9.77138E-02 1.76285E-05 8.48073E-04
 -1      1424-9.77033E-02-1.77237E-13 8.75745E-04
 -1      1426-9.77243E-02-2.40241E-13 8.20400E-04
 -1      1435-9.89548E-02-1.42596E-05 6.81627E-04
 -1      1437-9.89548E-02 1.42596E-05 6.81627E-04
 -1      1438-9.89439E-02-1.07440E-13 7.04011E-04
 -1      1440-9.89657E-02-1.69422E-13 6.59243E-04
 -1      1449-9.99240E-02-1.06081E-05 5.14032E-04
 -1      1451-9.99240E-02 1.06081E-05 5.14032E-04
 -1      1452-9.99132E-02-1.02327E-14 5.30684E-04
 -1      1454-9.99348E-02-7.11050E-14 4.97380E-04
 -1      1463-1.00619E-01-7.24491E-06 3.46143E-04
 -1      1465-1.00619E-01 7.24491E-06 3.46143E-04
 -1      1466-1.00608E-01 1.05917E-13 3.57516E-04
 -1      1468-1.00630E-01 4.63220E-14 3.34771E-04
 -1      1477-1.01038E-01-3.45144E-06 1.85054E-04
 -1      1479-1.01038E-01 3.45144E-06 1.85054E-04
 -1      1480-1.01028E-01 2.30483E-13 1.90472E-04
 -1      1482-1.01048E-01 1.72695E-13 1.79637E-04
 -1      1491-1.01298E-01 5.12369E-07-2.19932E-05
 -1      1493-1.01298E-01-5.12368E-07-2.19932E-05
 -1      1494-1.01339E-01-1.92016E-07-1.45696E-13
 -1      1496-1.01339E-01 1.92017E-07-1.17864E-13
 -1      1497-1.01298E-01 5.12369E-07 2.19932E-05
 -1      1499-1.01298E-01-5.12368E-07 2.19932E-05
 -1      1500-5.68678E-03-1.69670E-03 2.16392E-03
 -1      1502-5.15612E-03-1.84317E-03 1.99174E-03
 -1      1503-1.03653E-02-1.28136E-03 4.20478E-03
 -1      1505-1.03501E-02-1.43764E-03 3.98463E-03
 -1      1506-1.57323E-02-1.28060E-03 4.57870E-03
 -1      1508-1.56558E-02-1.54730E-03 4.36066E-03
 -1      1509-2.08799E-02-1.20679E-03 5.07249E-03
 -1      1511-2.08358E-02-1.56450E-03 4.87570E-03
 -1      1512-2.59963E-02-1.17993E-03 5.30055E-03
 -1      1514-2.59855E-02-1.60378E-03 5.08224E-03
 -1      1515-3.10855E-02-1.11303E-03 5.47130E-03
 -1      1517-3.10576E-02-1.59980E-03 5.27826E-03
 -1      1518-3.60641E-02-1.07934E-03 5.59079E-03
 -1      1520-3.60643E-02-1.60569E-03 5.38174E-03
 -1      1521-4.09719E-02-1.02754E-03 5.63535E-03
 -1      1523-4.09626E-02-1.58856E-03 5.44717E-03
 -1      1524-4.57510E-02-9.89254E-04 5.65246E-03
 -1      1526-4.57582E-02-1.57029E-03 5.45512E-03
 -1      1527-5.04182E-02-9.44024E-04 5.60860E-03
 -1      1529-5.04231E-02-1.53946E-03 5.42816E-03
 -1      1530-5.49384E-02-9.03947E-04 5.54029E-03
 -1      1532-5.49526E-02-1.50432E-03 5.35613E-03
 -1      1533-5.93143E-02-8.60487E-04 5.42593E-03
 -1      1535-5.93293E-02-1.46083E-03 5.25602E-03
 -1      1536-6.35228E-02-8.18798E-04 5.28975E-03
 -1      1538-6.35435E-02-1.41261E-03 5.12016E-03
 -1      1539-6.75603E-02-7.74808E-04 5.11907E-03
 -1      1541-6.75828E-02-1.35812E-03 4.96214E-03
 -1      1542-7.14097E-02-7.31044E-04 4.92995E-03
 -1      1544-7.14359E-02-1.29929E-03 4.77630E-03
 -1      1545-7.50647E-02-6.85309E-04 4.71508E-03
 -1      1547-7.50928E-02-1.23555E-03 4.57323E-03
 -1      1548-7.85121E-02-6.39000E-04 4.48552E-03
 -1      1550-7.85426E-02-1.16808E-03 4.34918E-03
 -1      1551-8.17448E-02-5.90817E-04 4.23727E-03
 -1      1553-8.17769E-02-1.09676E-03 4.11232E-03
 -1      1554-8.47520E-02-5.41585E-04 3.97833E-03
 -1      1556-8.47857E-02-1.02243E-03 3.86060E-03
 -1      1557-8.75269E-02-4.90496E-04 3.70696E-03
 -1      1559-8.75618E-02-9.45212E-04 3.60045E-03
 -1      1560-9.00608E-02-4.38017E-04 3.42928E-03
 -1      1562-9.00965E-02-8.65760E-04 3.33132E-03
 -1      1563-9.23476E-02-3.83654E-04 3.14525E-03
 -1      1565-9.23838E-02-7.84409E-04 3.05847E-03
 -1      1566-9.43803E-02-3.27557E-04 2.85992E-03
 -1      1568-9.44166E-02-7.01655E-04 2.78271E-03
 -1      1569-9.61540E-02-2.69537E-04 2.57468E-03
 -1      1571-9.61901E-02-6.18119E-04 2.50864E-03
 -1      1572-9.76633E-02-2.09271E-04 2.29423E-03
 -1      1574-9.76987E-02-5.34050E-04 2.23857E-03
 -1      1575-9.89048E-02-1.47141E-04 2.02116E-03
 -1      1577-9.89390E-02-4.50643E-04 1.97664E-03
 -1      1578-9.98747E-02-8.17709E-05 1.76173E-03
 -1      1580-9.99069E-02-3.67428E-04 1.72814E-03
 -1      1581-1.00571E-01-1.52505E-05 1.51901E-03
 -1      1583-1.00601E-01-2.87305E-04 1.49660E-03
 -1      1584-1.00992E-01 5.77484E-05 1.31017E-03
 -1      1586-1.01015E-01-2.05798E-04 1.29886E-03
 -1      1587-1.01161E-01 9.82962E-05 3.86348E-04
 -1      1589-1.01177E-01-1.00775E-04 3.85709E-04
 -1      1590 0.00000E+00 0.00000E+00 1.36630E-04
 -1      1592 0.00000E+00 0.00000E+00-1.36630E-04
 -1      1593-1.01161E-01-9.82962E-05 3.86348E-04
 -1      1595-1.01177E-01 1.00775E-04 3.85709E-04
 -1      1596-5.68678E-03 1.69670E-03 2.16392E-03
 -1      1598-5.15612E-03 1.84317E-03 1.99174E-03
 -1      1599-1.03653E-02 1.28136E-03 4.20478E-03
 -1      1601-1.03501E-02 1.43764E-03 3.98463E-03
 -1      1602-1.57323E-02 1.28060E-03 4.57870E-03
 -1      1604-1.56558E-02 1.54730E-03 4.36066E-03
 -1      1605-2.08799E-02 1.20679E-03 5.07249E-03
 -1      1607-2.08358E-02 1.56450E-03 4.87570E-03
 -1      1608-2.59963E-02 1.17993E-03 5.30055E-03
 -1      1610-2.59855E-02 1.60378E-03 5.08224E-03
 -1      1611-3.10855E-02 1.11303E-03 5.47130E-03
 -1      1613-3.10576E-02 1.59980E-03 5.27826E-03
 -1      1614-3.60641E-02 1.07934E-03 5.59079E-03
 -1      1616-3.60643E-02 1.60569E-03 5.38174E-03
 -1      1617-4.09719E-02 1.02754E-03 5.63535E-03
 -1      1619-4.09626E-02 1.58856E-03 5.44717E-03
 -1      1620-4.57510E-02 9.89254E-04 5.65246E-03
 -1      1622-4.57582E-02 1.57029E-03 5.45512E-03
 -1      1623-5.04182E-02 9.44024E-04 5.60860E-03
 -1      1625-5.04231E-02 1.53946E-03 5.42816E-03
 -1      1626-5.49384E-02 9.03947E-04 5.54029E-03
 -1      1628-5.49526E-02 1.50432E-03 5.35613E-03
 -1      1629-5.93143E-02 8.60487E-04 5.42593E-03
 -1      1631-5.93293E-02 1.46083E-03 5.25602E-03
 -1      1632-6.35228E-02 8.18798E-04 5.28975E-03
 -1      1634-6.35435E-02 1.41261E-03 5.12016E-03
 -1      1635-6.75603E-02 7.74808E-04 5.11907E-03
 -1      1637-6.75828E-02 1.35812E-03 4.96214E-03
 -1      1638-7.14097E-02 7.31044E-04 4.92995E-03
 -1      1640-7.14359E-02 1.29929E-03 4.77630E-03
 -1      1641-7.50647E-02 6.85309E-04 4.71508E-03
 -1      1643-7.50928E-02 1.23555E-03 4.57323E-03
 -1      1644-7.85121E-02 6.39000E-04 4.48552E-03
 -1      1646-7.85426E-02 1.16808E-03 4.34918E-03
 -1      1647-8.17448E-02 5.90817E-04 4.23727E-03
 -1      1649-8.17769E-02 1.09676E-03 4.11232E-03
 -1      1650-8.47520E-02 5.41585E-04 3.97833E-03
 -1      1652-8.47857E-02 1.02243E-03 3.86060E-03
 -1      1653-8.75269E-02 4.90496E-04 3.70696E-03
 -1      1655-8.75618E-02 9.45212E-04 3.60045E-03
 -1      1656-9.00608E-02 4.38017E-04 3.42928E-03
 -1      1658-9.00965E-02 8.65760E-04 3.33132E-03
 -1      1659-9.23476E-02 3.83654E-04 3.14525E-03
 -1      1661-9.23838E-02 7.84409E-04 3.05847E-03
 -1      1662-9.43803E-02 3.27557E-04 2.85992E-03
 -1      1664-9.44166E-02 7.01655E-04 2.78271E-03
 -1      1665-9.61540E-02 2.69537E-04 2.57468E-03
 -1      1667-9.61901E-02 6.18119E-04 2.50864E-03
 -1      1668-9.76633E-02 2.09271E-04 2.29423E-03
 -1      1670-9.76987E-02 5.34050E-04 2.23857E-03
 -1      1671-9.89048E-02 1.47141E-04 2.02116E-03
 -1      1673-9.89390E-02 4.50643E-04 1.97664E-03
 -1      1674-9.98747E-02 8.17709E-05 1.76173E-03
 -1      1676-9.99069E-02 3.67428E-04 1.72814E-03
 -1      1677-1.00571E-01 1.52505E-05 1.51901E-03
 -1      1679-1.00601E-01 2.87305E-04 1.49660E-03
 -1      1680-1.00992E-01-5.77484E-05 1.31017E-03
 -1      1682-1.01015E-01 2.05798E-04 1.29886E-03
 -1      1683 0.00000E+00 0.00000E+00 1.36630E-04
 -1      1685 0.00000E+00 0.00000E+00-1.36630E-04
 -1      1686-5.32259E-03 8.34729E-04-2.07162E-03
 -1      1688-4.80765E-03 7.44221E-04-1.86499E-03
 -1      1689-1.04924E-02 6.76469E-04-3.64435E-03
 -1      1691-1.05711E-02 8.59787E-04-3.44084E-03
 -1      1692-1.56956E-02 5.20935E-04-3.68519E-03
 -1      1694-1.55954E-02 7.83076E-04-3.46903E-03
 -1      1695-2.08561E-02 5.59891E-04-3.94806E-03
 -1      1697-2.08759E-02 8.84197E-04-3.74086E-03
 -1      1698-2.60048E-02 4.83789E-04-3.92275E-03
 -1      1700-2.59825E-02 8.79779E-04-3.71370E-03
 -1      1701-3.10741E-02 4.74676E-04-3.96046E-03
 -1      1703-3.10800E-02 8.98928E-04-3.75720E-03
 -1      1704-3.60746E-02 4.34254E-04-3.92973E-03
 -1      1706-3.60713E-02 8.99743E-04-3.72709E-03
 -1      1707-4.09732E-02 4.16373E-04-3.90167E-03
 -1      1709-4.09799E-02 8.97776E-04-3.70624E-03
 -1      1710-4.57636E-02 3.88408E-04-3.84473E-03
 -1      1712-4.57692E-02 8.88559E-04-3.65111E-03
 -1      1713-5.04274E-02 3.69242E-04-3.77456E-03
 -1      1715-5.04382E-02 8.75045E-04-3.58916E-03
 -1      1716-5.49537E-02 3.46819E-04-3.68592E-03
 -1      1718-5.49656E-02 8.56428E-04-3.50369E-03
 -1      1719-5.93288E-02 3.27849E-04-3.58160E-03
 -1      1721-5.93440E-02 8.34106E-04-3.40823E-03
 -1      1722-6.35410E-02 3.07813E-04-3.46344E-03
 -1      1724-6.35578E-02 8.07684E-04-3.29468E-03
 -1      1725-6.75788E-02 2.89050E-04-3.33084E-03
 -1      1727-6.75979E-02 7.78219E-04-3.17140E-03
 -1      1728-7.14306E-02 2.69799E-04-3.18724E-03
 -1      1730-7.14511E-02 7.45422E-04-3.03381E-03
 -1      1731-7.50864E-02 2.50850E-04-3.03136E-03
 -1      1733-7.51086E-02 7.10147E-04-2.88766E-03
 -1      1734-7.85354E-02 2.31471E-04-2.86665E-03
 -1      1736-7.85590E-02 6.72218E-04-2.73019E-03
 -1      1737-8.17689E-02 2.11892E-04-2.69198E-03
 -1      1739-8.17937E-02 6.32323E-04-2.56562E-03
 -1      1740-8.47773E-02 1.91781E-04-2.51040E-03
 -1      1742-8.48032E-02 5.90407E-04-2.39237E-03
 -1      1743-8.75529E-02 1.71138E-04-2.32123E-03
 -1      1745-8.75797E-02 5.47035E-04-2.21364E-03
 -1      1746-9.00877E-02 1.49815E-04-2.12707E-03
 -1      1748-9.01151E-02 5.02265E-04-2.02875E-03
 -1      1749-9.23749E-02 1.27656E-04-1.92778E-03
 -1      1751-9.24029E-02 4.56583E-04-1.84018E-03
 -1      1752-9.44081E-02 1.04661E-04-1.72557E-03
 -1      1754-9.44364E-02 4.10165E-04-1.64800E-03
 -1      1755-9.61820E-02 8.04351E-05-1.52078E-03
 -1      1757-9.62104E-02 3.63427E-04-1.45415E-03
 -1      1758-9.76914E-02 5.52541E-05-1.31557E-03
 -1      1760-9.77196E-02 3.16753E-04-1.25956E-03
 -1      1761-9.89327E-02 2.81862E-05-1.11049E-03
 -1      1763-9.89607E-02 2.70349E-04-1.06555E-03
 -1      1764-9.99023E-02 2.04457E-07-9.09084E-04
 -1      1766-9.99291E-02 2.25245E-04-8.75236E-04
 -1      1767-1.00598E-01-3.07514E-05-7.11803E-04
 -1      1769-1.00624E-01 1.80782E-04-6.89057E-04
 -1      1770-1.01019E-01-6.32665E-05-5.31412E-04
 -1      1772-1.01040E-01 1.39506E-04-5.20028E-04
 -1      1773-5.32259E-03-8.34729E-04-2.07162E-03
 -1      1775-4.80765E-03-7.44221E-04-1.86499E-03
 -1      1776-1.04924E-02-6.76469E-04-3.64435E-03
 -1      1778-1.05711E-02-8.59787E-04-3.44084E-03
 -1      1779-1.56956E-02-5.20935E-04-3.68519E-03
 -1      1781-1.55954E-02-7.83076E-04-3.46903E-03
 -1      1782-2.08561E-02-5.59891E-04-3.94806E-03
 -1      1784-2.08759E-02-8.84197E-04-3.74086E-03
 -1      1785-2.60048E-02-4.83789E-04-3.92275E-03
 -1      1787-2.59825E-02-8.79779E-04-3.71370E-03
 -1      1788-3.10741E-02-4.74676E-04-3.96046E-03
 -1      1790-3.10800E-02-8.98928E-04-3.75720E-03
 -1      1791-3.60746E-02-4.34254E-04-3.92973E-03
 -1      1793-3.60713E-02-8.99743E-04-3.72709E-03
 -1      1794-4.09732E-02-4.16373E-04-3.90167E-03
 -1      1796-4.09799E-02-8.97776E-04-3.70624E-03
 -1      1797-4.57636E-02-3.88408E-04-3.84473E-03
 -1      1799-4.57692E-02-8.88559E-04-3.65111E-03
 -1      1800-5.04274E-02-3.69242E-04-3.77456E-03
 -1      1802-5.04382E-02-8.75045E-04-3.58916E-03
 -1      1803-5.49537E-02-3.46819E-04-3.68592E-03
 -1      1805-5.49656E-02-8.56428E-04-3.50369E-03
 -1      1806-5.93288E-02-3.27849E-04-3.58160E-03
 -1      1808-5.93440E-02-8.34106E-04-3.40823E-03
 -1      1809-6.35410E-02-3.07813E-04-3.46344E-03
 -1      1811-6.35578E-02-8.07684E-04-3.29468E-03
 -1      1812-6.75788E-02-2.89050E-04-3.33084E-03
 -1      1814-6.75979E-02-7.78219E-04-3.17140E-03
 -1      1815-7.14306E-02-2.69799E-04-3.18724E-03
 -1      1817-7.14511E-02-7.45422E-04-3.03381E-03
 -1      1818-7.50864E-02-2.50850E-04-3.03136E-03
 -1      1820-7.51086E-02-7.10147E-04-2.88766E-03
 -1      1821-7.85354E-02-2.31471E-04-2.86665E-03
 -1      1823-7.85590E-02-6.72218E-04-2.73019E-03
 -1      1824-8.17689E-02-2.11892E-04-2.69198E-03
 -1      1826-8.17937E-02-6.32323E-04-2.56562E-03
 -1      1827-8.47773E-02-1.91781E-04-2.51040E-03
 -1      1829-8.48032E-02-5.90407E-04-2.39237E-03
 -1      1830-8.75529E-02-1.71138E-04-2.32123E-03
 -1      1832-8.75797E-02-5.47035E-04-2.21364E-03
 -1      1833-9.00877E-02-1.49815E-04-2.12707E-03
 -1      1835-9.01151E-02-5.02265E-04-2.02875E-03
 -1      1836-9.23749E-02-1.27656E-04-1.92778E-03
 -1      1838-9.24029E-02-4.56583E-04-1.84018E-03
 -1      1839-9.44081E-02-1.04661E-04-1.72557E-03
 -1      1841-9.44364E-02-4.10165E-04-1.64800E-03
 -1      1842-9.61820E-02-8.04351E-05-1.52078E-03
 -1      1844-9.62104E-02-3.63427E-04-1.45415E-03
 -1      1845-9.76914E-02-5.52541E-05-1.31557E-03
 -1      1847-9.77196E-02-3.16753E-04-1.25956E-03
 -1      1848-9.89327E-02-2.81862E-05-1.11049E-03
 -1      1850-9.89607E-02-2.70349E-04-1.06555E-03
 -1      1851-9.99023E-02-2.04457E-07-9.09084E-04
 -1      1853-9.99291E-02-2.25245E-04-8.75236E-04
 -1      1854-1.00598E-01 3.07514E-05-7.11803E-04
 -1      1856-1.00624E-01-1.80782E-04-6.89057E-04
 -1      1857-1.01019E-01 6.32665E-05-5.31412E-04
 -1      1859-1.01040E-01-1.39506E-04-5.20028E-04
 -1      1860-4.82948E-03-7.46809E-05-9.55264E-04
 -1      1862-4.82948E-03 7.46809E-05-9.55264E-04
 -1      1863-1.01206E-02-7.11554E-05-1.50789E-03
 -1      1865-1.01206E-02 7.11554E-05-1.50789E-03
 -1      1866-1.54738E-02-6.81270E-05-1.62414E-03
 -1      1868-1.54738E-02 6.81270E-05-1.62414E-03
 -1      1869-2.07599E-02-6.53887E-05-1.63888E-03
 -1      1871-2.07599E-02 6.53887E-05-1.63888E-03
 -1      1872-2.59673E-02-6.66475E-05-1.60253E-03
 -1      1874-2.59673E-02 6.66475E-05-1.60253E-03
 -1      1875-3.10855E-02-6.33847E-05-1.57087E-03
 -1      1877-3.10855E-02 6.33847E-05-1.57087E-03
 -1      1878-3.61074E-02-6.38828E-05-1.53296E-03
 -1      1880-3.61074E-02 6.38828E-05-1.53296E-03
 -1      1881-4.10244E-02-6.12284E-05-1.49730E-03
 -1      1883-4.10244E-02 6.12284E-05-1.49730E-03
 -1      1884-4.58255E-02-6.06333E-05-1.45788E-03
 -1      1886-4.58255E-02 6.06333E-05-1.45788E-03
 -1      1887-5.04995E-02-5.82683E-05-1.41676E-03
 -1      1889-5.04995E-02 5.82683E-05-1.41676E-03
 -1      1890-5.50338E-02-5.68885E-05-1.37159E-03
 -1      1892-5.50338E-02 5.68885E-05-1.37159E-03
 -1      1893-5.94166E-02-5.45527E-05-1.32338E-03
 -1      1895-5.94166E-02 5.45527E-05-1.32338E-03
 -1      1896-6.36359E-02-5.26185E-05-1.27131E-03
 -1      1898-6.36359E-02 5.26185E-05-1.27131E-03
 -1      1899-6.76802E-02-5.01715E-05-1.21598E-03
 -1      1901-6.76802E-02 5.01715E-05-1.21598E-03
 -1      1902-7.15383E-02-4.78250E-05-1.15717E-03
 -1      1904-7.15383E-02 4.78250E-05-1.15717E-03
 -1      1905-7.51998E-02-4.52055E-05-1.09525E-03
 -1      1907-7.51998E-02 4.52055E-05-1.09525E-03
 -1      1908-7.86545E-02-4.25334E-05-1.03025E-03
 -1      1910-7.86545E-02 4.25334E-05-1.03025E-03
 -1      1911-8.18929E-02-3.97273E-05-9.62444E-04
 -1      1913-8.18929E-02 3.97273E-05-9.62444E-04
 -1      1914-8.49060E-02-3.67860E-05-8.91965E-04
 -1      1916-8.49060E-02 3.67860E-05-8.91965E-04
 -1      1917-8.76858E-02-3.38068E-05-8.19041E-04
 -1      1919-8.76858E-02 3.38068E-05-8.19041E-04
 -1      1920-9.02243E-02-3.06368E-05-7.43856E-04
 -1      1922-9.02243E-02 3.06368E-05-7.43856E-04
 -1      1923-9.25149E-02-2.75140E-05-6.66617E-04
 -1      1925-9.25149E-02 2.75140E-05-6.66617E-04
 -1      1926-9.45508E-02-2.41472E-05-5.87525E-04
 -1      1928-9.45508E-02 2.41472E-05-5.87525E-04
 -1      1929-9.63268E-02-2.09201E-05-5.06763E-04
 -1      1931-9.63268E-02 2.09201E-05-5.06763E-04
 -1      1932-9.78376E-02-1.73830E-05-4.24552E-04
 -1      1934-9.78376E-02 1.73830E-05-4.24552E-04
 -1      1935-9.90792E-02-1.40946E-05-3.41104E-04
 -1      1937-9.90792E-02 1.40946E-05-3.41104E-04
 -1      1938-1.00048E-01-1.04073E-05-2.56996E-04
 -1      1940-1.00048E-01 1.04073E-05-2.56996E-04
 -1      1941-1.00740E-01-7.08836E-06-1.73450E-04
 -1      1943-1.00740E-01 7.08836E-06-1.73450E-04
 -1      1944-1.01156E-01-3.23087E-06-9.49174E-05
 -1      1946-1.01156E-01 3.23087E-06-9.49174E-05
 -1      1947-4.78720E-03-7.90476E-05-1.13607E-14
 -1      1949-4.78720E-03 7.90476E-05-1.13676E-14
 -1      1950-1.00150E-02-7.19170E-05-2.29781E-14
 -1      1952-1.00150E-02 7.19170E-05-2.33546E-14
 -1      1953-1.53907E-02-6.89160E-05-3.34004E-14
 -1      1955-1.53907E-02 6.89160E-05-3.39624E-14
 -1      1956-2.07179E-02-6.83616E-05-4.23550E-14
 -1      1958-2.07179E-02 6.83616E-05-4.26326E-14
 -1      1959-2.59527E-02-6.50787E-05-4.94674E-14
 -1      1961-2.59527E-02 6.50787E-05-4.91621E-14
 -1      1962-3.10857E-02-6.57046E-05-5.38042E-14
 -1      1964-3.10857E-02 6.57046E-05-5.25899E-14
 -1      1965-3.61168E-02-6.31733E-05-5.47479E-14
 -1      1967-3.61168E-02 6.31733E-05-5.24095E-14
 -1      1968-4.10390E-02-6.26606E-05-5.19619E-14
 -1      1970-4.10390E-02 6.26606E-05-4.83155E-14
 -1      1971-4.58438E-02-6.05941E-05-4.59305E-14
 -1      1973-4.58438E-02 6.05941E-05-4.12019E-14
 -1      1974-5.05203E-02-5.91926E-05-3.77762E-14
 -1      1976-5.05203E-02 5.91926E-05-3.23118E-14
 -1      1977-5.50569E-02-5.71861E-05-2.77452E-14
 -1      1979-5.50569E-02 5.71861E-05-2.16736E-14
 -1      1980-5.94418E-02-5.52093E-05-1.55431E-14
 -1      1982-5.94418E-02 5.52093E-05-8.58688E-15
 -1      1983-6.36629E-02-5.30523E-05-5.89806E-16
 -1      1985-6.36629E-02 5.30523E-05 6.82093E-15
 -1      1986-6.77090E-02-5.06864E-05 1.62023E-14
 -1      1988-6.77090E-02 5.06864E-05 2.38212E-14
 -1      1989-7.15688E-02-4.82891E-05 3.32061E-14
 -1      1991-7.15688E-02 4.82891E-05 4.10991E-14
 -1      1992-7.52319E-02-4.56369E-05 4.94986E-14
 -1      1994-7.52319E-02 4.56369E-05 5.77090E-14
 -1      1995-7.86880E-02-4.29761E-05 6.29774E-14
 -1      1997-7.86880E-02 4.29761E-05 7.21506E-14
 -1      1998-8.19278E-02-4.00977E-05 7.20049E-14
 -1      2000-8.19278E-02 4.00977E-05 8.17332E-14
 -1      2001-8.49422E-02-3.71843E-05 7.57484E-14
 -1      2003-8.49422E-02 3.71843E-05 8.57855E-14
 -1      2004-8.77232E-02-3.41212E-05 7.38160E-14
 -1      2006-8.77232E-02 3.41212E-05 8.46753E-14
 -1      2007-9.02628E-02-3.09826E-05 6.67244E-14
 -1      2009-9.02628E-02 3.09826E-05 7.88050E-14
 -1      2010-9.25543E-02-2.77693E-05 5.57297E-14
 -1      2012-9.25543E-02 2.77693E-05 6.91565E-14
 -1      2013-9.45911E-02-2.44408E-05 4.01103E-14
 -1      2015-9.45911E-02 2.44408E-05 5.45917E-14
 -1      2016-9.63677E-02-2.11098E-05 1.85824E-14
 -1      2018-9.63677E-02 2.11098E-05 3.46528E-14
 -1      2019-9.78789E-02-1.76289E-05-6.93196E-15
 -1      2021-9.78789E-02 1.76289E-05 1.12549E-14
 -1      2022-9.91205E-02-1.42099E-05-3.52721E-14
 -1      2024-9.91205E-02 1.42099E-05-1.46480E-14
 -1      2025-1.00089E-01-1.06015E-05-6.38625E-14
 -1      2027-1.00089E-01 1.06015E-05-4.11528E-14
 -1      2028-1.00781E-01-7.09823E-06-9.27028E-14
 -1      2030-1.00781E-01 7.09823E-06-6.72565E-14
 -1      2031-1.01197E-01-3.31640E-06-1.20265E-13
 -1      2033-1.01197E-01 3.31640E-06-9.30575E-14
 -1      2034-4.82948E-03-7.46809E-05 9.55264E-04
 -1      2036-4.82948E-03 7.46809E-05 9.55264E-04
 -1      2037-1.01206E-02-7.11554E-05 1.50789E-03
 -1      2039-1.01206E-02 7.11554E-05 1.50789E-03
 -1      2040-1.54738E-02-6.81270E-05 1.62414E-03
 -1      2042-1.54738E-02 6.81270E-05 1.62414E-03
 -1      2043-2.07599E-02-6.53887E-05 1.63888E-03
 -1      2045-2.07599E-02 6.53887E-05 1.63888E-03
 -1      2046-2.59673E-02-6.66475E-05 1.60253E-03
 -1      2048-2.59673E-02 6.66475E-05 1.60253E-03
 -1      2049-3.10855E-02-6.33847E-05 1.57087E-03
 -1      2051-3.10855E-02 6.33847E-05 1.57087E-03
 -1      2052-3.61074E-02-6.38828E-05 1.53296E-03
 -1      2054-3.61074E-02 6.38828E-05 1.53296E-03
 -1      2055-4.10244E-02-6.12284E-05 1.49730E-03
 -1      2057-4.10244E-02 6.12284E-05 1.49730E-03
 -1      2058-4.58255E-02-6.06333E-05 1.45788E-03
 -1      2060-4.58255E-02 6.06333E-05 1.45788E-03
 -1      2061-5.04995E-02-5.82683E-05 1.41676E-03
 -1      2063-5.04995E-02 5.82683E-05 1.41676E-03
 -1      2064-5.50338E-02-5.68885E-05 1.37159E-03
 -1      2066-5.50338E-02 5.68885E-05 1.37159E-03
 -1      2067-5.94166E-02-5.45527E-05 1.32338E-03
 -1      2069-5.94166E-02 5.45527E-05 1.32338E-03
 -1      2070-6.36359E-02-5.26185E-05 1.27131E-03
 -1      2072-6.36359E-02 5.26185E-05 1.27131E-03
 -1      2073-6.76802E-02-5.01715E-05 1.21598E-03
 -1      2075-6.76802E-02 5.01715E-05 1.21598E-03
 -1      2076-7.15383E-02-4.78250E-05 1.15717E-03
 -1      2078-7.15383E-02 4.78250E-05 1.15717E-03
 -1      2079-7.51998E-02-4.52055E-05 1.09525E-03
 -1      2081-7.51998E-02 4.52055E-05 1.09525E-03
 -1      2082-7.86545E-02-4.25334E-05 1.03025E-03
 -1      2084-7.86545E-02 4.25334E-05 1.03025E-03
 -1      2085-8.18929E-02-3.97273E-05 9.62444E-04
 -1      2087-8.18929E-02 3.97273E-05 9.62444E-04
 -1      2088-8.49060E-02-3.67860E-05 8.91965E-04
 -1      2090-8.49060E-02 3.67860E-05 8.91965E-04
 -1      2091-8.76858E-02-3.38068E-05 8.19041E-04
 -1      2093-8.76858E-02 3.38068E-05 8.19041E-04
 -1      2094-9.02243E-02-3.06368E-05 7.43856E-04
 -1      2096-9.02243E-02 3.06368E-05 7.43856E-04
 -1      2097-9.25149E-02-2.75140E-05 6.66617E-04
 -1      2099-9.25149E-02 2.75140E-05 6.66617E-04
 -1      2100-9.45508E-02-2.41472E-05 5.87525E-04
 -1      2102-9.45508E-02 2.41472E-05 5.87525E-04
 -1      2103-9.63268E-02-2.09201E-05 5.06763E-04
 -1      2105-9.63268E-02 2.09201E-05 5.06763E-04
 -1      2106-9.78376E-02-1.73830E-05 4.24552E-04
 -1      2108-9.78376E-02 1.73830E-05 4.24552E-04
 -1      2109-9.90792E-02-1.40946E-05 3.41104E-04
 -1      2111-9.90792E-02 1.40946E-05 3.41104E-04
 -1      2112-1.00048E-01-1.04073E-05 2.56996E-04
 -1      2114-1.00048E-01 1.04073E-05 2.56996E-04
 -1      2115-1.00740E-01-7.08836E-06 1.73450E-04
 -1      2117-1.00740E-01 7.08836E-06 1.73450E-04
 -1      2118-1.01156E-01-3.23087E-06 9.49174E-05
 -1      2120-1.01156E-01 3.23087E-06 9.49174E-05
 -1      2121-5.32259E-03-8.34729E-04 2.07162E-03
 -1      2123-4.80765E-03-7.44221E-04 1.86499E-03
 -1      2124-1.04924E-02-6.76469E-04 3.64435E-03
 -1      2126-1.05711E-02-8.59787E-04 3.44084E-03
 -1      2127-1.56956E-02-5.20935E-04 3.68519E-03
 -1      2129-1.55954E-02-7.83076E-04 3.46903E-03
 -1      2130-2.08561E-02-5.59891E-04 3.94806E-03
 -1      2132-2.08759E-02-8.84197E-04 3.74086E-03
 -1      2133-2.60048E-02-4.83789E-04 3.92275E-03
 -1      2135-2.59825E-02-8.79779E-04 3.71370E-03
 -1      2136-3.10741E-02-4.74676E-04 3.96046E-03
 -1      2138-3.10800E-02-8.98928E-04 3.75720E-03
 -1      2139-3.60746E-02-4.34254E-04 3.92973E-03
 -1      2141-3.60713E-02-8.99743E-04 3.72709E-03
 -1      2142-4.09732E-02-4.16373E-04 3.90167E-03
 -1      2144-4.09799E-02-8.97776E-04 3.70624E-03
 -1      2145-4.57636E-02-3.88408E-04 3.84473E-03
 -1      2147-4.57692E-02-8.88559E-04 3.65111E-03
 -1      2148-5.04274E-02-3.69242E-04 3.77456E-03
 -1      2150-5.04382E-02-8.75045E-04 3.58916E-03
 -1      2151-5.49537E-02-3.46819E-04 3.68592E-03
 -1      2153-5.49656E-02-8.56428E-04 3.50369E-03
 -1      2154-5.93288E-02-3.27849E-04 3.58160E-03
 -1      2156-5.93440E-02-8.34106E-04 3.40823E-03
 -1      2157-6.35410E-02-3.07813E-04 3.46344E-03
 -1      2159-6.35578E-02-8.07684E-04 3.29468E-03
 -1      2160-6.75788E-02-2.89050E-04 3.33084E-03
 -1      2162-6.75979E-02-7.78219E-04 3.17140E-03
 -1      2163-7.14306E-02-2.69799E-04 3.18724E-03
 -1      2165-7.14511E-02-7.45422E-04 3.03381E-03
 -1      2166-7.50864E-02-2.50850E-04 3.03136E-03
 -1      2168-7.51086E-02-7.10147E-04 2.88766E-03
 -1      2169-7.85354E-02-2.31471E-04 2.86665E-03
 -1      2171-7.85590E-02-6.72218E-04 2.73019E-03
 -1      2172-8.17689E-02-2.11892E-04 2.69198E-03
 -1      2174-8.17937E-02-6.32323E-04 2.56562E-03
 -1      2175-8.47773E-02-1.91781E-04 2.51040E-03
 -1      2177-8.48032E-02-5.90407E-04 2.39237E-03
 -1      2178-8.75529E-02-1.71138E-04 2.32123E-03
 -1      2180-8.75797E-02-5.47035E-04 2.21364E-03
 -1      2181-9.00877E-02-1.49815E-04 2.12707E-03
 -1      2183-9.01151E-02-5.02265E-04 2.02875E-03
 -1      2184-9.23749E-02-1.27656E-04 1.92778E-03
 -1      2186-9.24029E-02-4.56583E-04 1.84018E-03
 -1      2187-9.44081E-02-1.04661E-04 1.72557E-03
 -1      2189-9.44364E-02-4.10165E-04 1.64800E-03
 -1      2190-9.61820E-02-8.04351E-05 1.52078E-03
 -1      2192-9.62104E-02-3.63427E-04 1.45415E-03
 -1      2193-9.76914E-02-5.52541E-05 1.31557E-03
 -1      2195-9.77196E-02-3.16753E-04 1.25956E-03
 -1      2196-9.89327E-02-2.81862E-05 1.11049E-03
 -1      2198-9.89607E-02-2.70349E-04 1.06555E-03
 -1      2199-9.99023E-02-2.04457E-07 9.09084E-04
 -1      2201-9.99291E-02-2.25245E-04 8.75236E-04
 -1      2202-1.00598E-01 3.07514E-05 7.11803E-04
 -1      2204-1.00624E-01-1.80782E-04 6.89057E-04
 -1      2205-1.01019E-01 6.32665E-05 5.31412E-04
 -1      2207-1.01040E-01-1.39506E-04 5.20028E-04
 -1      2208-5.32259E-03 8.34729E-04 2.07162E-03
 -1      2210-4.80765E-03 7.44221E-04 1.86499E-03
 -1      2211-1.04924E-02 6.76469E-04 3.64435E-03
 -1      2213-1.05711E-02 8.59787E-04 3.44084E-03
 -1      2214-1.56956E-02 5.20935E-04 3.68519E-03
 -1      2216-1.55954E-02 7.83076E-04 3.46903E-03
 -1      2217-2.08561E-02 5.59891E-04 3.94806E-03
 -1      2219-2.08759E-02 8.84197E-04 3.74086E-03
 -1      2220-2.60048E-02 4.83789E-04 3.92275E-03
 -1      2222-2.59825E-02 8.79779E-04 3.71370E-03
 -1      2223-3.10741E-02 4.74676E-04 3.96046E-03
 -1      2225-3.10800E-02 8.98928E-04 3.75720E-03
 -1      2226-3.60746E-02 4.34254E-04 3.92973E-03
 -1      2228-3.60713E-02 8.99743E-04 3.72709E-03
 -1      2229-4.09732E-02 4.16373E-04 3.90167E-03
 -1      2231-4.09799E-02 8.97776E-04 3.70624E-03
 -1      2232-4.57636E-02 3.88408E-04 3.84473E-03
 -1      2234-4.57692E-02 8.88559E-04 3.65111E-03
 -1      2235-5.04274E-02 3.69242E-04 3.77456E-03
 -1      2237-5.04382E-02 8.75045E-04 3.58916E-03
 -1      2238-5.49537E-02 3.46819E-04 3.68592E-03
 -1      2240-5.49656E-02 8.56428E-04 3.50369E-03
 -1      2241-5.93288E-02 3.27849E-04 3.58160E-03
 -1      2243-5.93440E-02 8.34106E-04 3.40823E-03
 -1      2244-6.35410E-02 3.07813E-04 3.46344E-03
 -1      2246-6.35578E-02 8.07684E-04 3.29468E-03
 -1      2247-6.75788E-02 2.89050E-04 3.33084E-03
 -1      2249-6.75979E-02 7.78219E-04 3.17140E-03
 -1      2250-7.14306E-02 2.69799E-04 3.18724E-03
 -1      2252-7.14511E-02 7.45422E-04 3.03381E-03
 -1      2253-7.50864E-02 2.50850E-04 3.03136E-03
 -1      2255-7.51086E-02 7.10147E-04 2.88766E-03
 -1      2256-7.85354E-02 2.31471E-04 2.86665E-03
 -1      2258-7.85590E-02 6.72218E-04 2.73019E-03
 -1      2259-8.17689E-02 2.11892E-04 2.69198E-03
 -1      2261-8.17937E-02 6.32323E-04 2.56562E-03
 -1      2262-8.47773E-02 1.91781E-04 2.51040E-03
 -1      2264-8.48032E-02 5.90407E-04 2.39237E-03
 -1      2265-8.75529E-02 1.71138E-04 2.32123E-03
 -1      2267-8.75797E-02 5.47035E-04 2.21364E-03
 -1      2268-9.00877E-02 1.49815E-04 2.12707E-03
 -1      2270-9.01151E-02 5.02265E-04 2.02875E-03
 -1      2271-9.23749E-02 1.27656E-04 1.92778E-03
 -1      2273-9.24029E-02 4.56583E-04 1.84018E-03
 -1      2274-9.44081E-02 1.04661E-04 1.72557E-03
 -1      2276-9.44364E-02 4.10165E-04 1.64800E-03
 -1      2277-9.61820E-02 8.04351E-05 1.52078E-03
 -1      2279-9.62104E-02 3.63427E-04 1.45415E-03
 -1      2280-9.76914E-02 5.52541E-05 1.31557E-03
 -1      2282-9.77196E-02 3.16753E-04 1.25956E-03
 -1      2283-9.89327E-02 2.81862E-05 1.11049E-03
 -1      2285-9.89607E-02 2.70349E-04 1.06555E-03
 -1      2286-9.99023E-02 2.04457E-07 9.09084E-04
 -1      2288-9.99291E-02 2.25245E-04 8.75236E-04
 -1      2289-1.00598E-01-3.07514E-05 7.11803E-04
 -1      2291-1.00624E-01 1.80782E-04 6.89057E-04
 -1      2292-1.01019E-01-6.32665E-05 5.31412E-04
 -1      2294-1.01040E-01 1.39506E-04 5.20028E-04
 -3
    1PSTEP                        42           1           1          
    1PGM                1.000000E+00                                  
    1PGK                7.353946E+06                                  
    1PHID                         -1                                  
    1PSUBC                         0                                  
    1PMODE                        11                                  
  100CL  111 431.5989067         930                     2   11MODAL      1
 -4  STRESS      6    1
 -5  SXX         1    4    1    1
 -5  SYY         1    4    2    2
 -5  SZZ         1    4    3    3
 -5  SXY         1    4    1    2
 -5  SYZ         1    4    2    3
 -5  SZX         1    4    3    1
 -1       404-1.13484E+10-1.11867E+09-6.31327E+06 7.13820E+08-1.45901E+07-7.00875E+07
 -1       406-1.13484E+10-1.11867E+09-6.31327E+06 7.13820E+08-1.45901E+07-7.00875E+07
 -1       407-2.93913E+08 4.44287E+06 6.00439E+05 1.28091E+06-2.70751E+06-2.32766E+05
 -1       409-2.93913E+08 4.44287E+06 6.00439E+05 1.28091E+06-2.70751E+06-2.32766E+05
 -1       410-2.95689E+08 3.22950E+06 3.28299E+05 2.78764E-04-3.33993E-04-2.66511E+05
 -1       412-2.95689E+08 3.22950E+06 3.28299E+05 2.78764E-04-3.33993E-04-2.66511E+05
 -1       413-2.87274E+08 7.31800E+05 4.13736E+07-3.66897E-04 1.02786E-03-1.24585E+07
 -1       415-2.87274E+08 7.31800E+05 4.13736E+07-3.66897E-04 1.02786E-03-1.24585E+07
 -1       424-1.11930E+10-1.51562E+09 6.17925E+05-1.72600E-02 1.41732E-04-1.61744E+08
 -1       426-1.11930E+10-1.51562E+09 6.17925E+05-1.72600E-02 1.41732E-04-1.61744E+08
 -1       427-1.11040E+10-5.04173E+06-2.03791E+09-6.97735E-04 1.36885E-04-1.13525E+09
 -1       429-1.11040E+10-5.04173E+06-2.03791E+09-6.97735E-04 1.36885E-04-1.13525E+09
 -1       438-2.93913E+08 4.44287E+06 6.00439E+05-1.28091E+06 2.70751E+06-2.32766E+05
 -1       440-2.93913E+08 4.44287E+06 6.00439E+05-1.28091E+06 2.70751E+06-2.32766E+05
 -1       441-1.13484E+10-1.11867E+09-6.31327E+06-7.13820E+08 1.45901E+07-7.00875E+07
 -1       443-1.13484E+10-1.11867E+09-6.31327E+06-7.13820E+08 1.45901E+07-7.00875E+07
 -1       444-1.11040E+10-5.04173E+06-2.03791E+09-3.18613E-04-9.84573E-05 1.13525E+09
 -1       446-1.11040E+10-5.04173E+06-2.03791E+09-3.18613E-04-9.84573E-05 1.13525E+09
 -1       447-1.11930E+10-1.51562E+09 6.17925E+05-1.07181E-02 2.69450E-05 1.61744E+08
 -1       449-1.11930E+10-1.51562E+09 6.17925E+05-1.07181E-02 2.69450E-05 1.61744E+08
 -1       458-2.87274E+08 7.31800E+05 4.13736E+07 1.58616E-04-8.35131E-04 1.24585E+07
 -1       460-2.87274E+08 7.31800E+05 4.13736E+07 1.58616E-04-8.35131E-04 1.24585E+07
 -1       461-2.95689E+08 3.22950E+06 3.28299E+05 2.86631E-03-9.64638E-04 2.66511E+05
 -1       463-2.95689E+08 3.22950E+06 3.28299E+05 2.86631E-03-9.64638E-04 2.66511E+05
 -1       472-1.13484E+10-1.11867E+09-6.31327E+06-7.13820E+08-1.45901E+07 7.00875E+07
 -1       474-1.13484E+10-1.11867E+09-6.31327E+06-7.13820E+08-1.45901E+07 7.00875E+07
 -1       475-2.93913E+08 4.44287E+06 6.00439E+05-1.28091E+06-2.70751E+06 2.32766E+05
 -1       477-2.93913E+08 4.44287E+06 6.00439E+05-1.28091E+06-2.70751E+06 2.32766E+05
 -1       478-2.93913E+08 4.44287E+06 6.00439E+05 1.28091E+06 2.70751E+06 2.32766E+05
 -1       480-2.93913E+08 4.44287E+06 6.00439E+05 1.28091E+06 2.70751E+06 2.32766E+05
 -1       481-1.13484E+10-1.11867E+09-6.31327E+06 7.13820E+08 1.45901E+07 7.00875E+07
 -1       483-1.13484E+10-1.11867E+09-6.31327E+06 7.13820E+08 1.45901E+07 7.00875E+07
 -1       484-1.10680E+10-3.41404E+08 4.46857E+06 1.87956E+08-8.35698E+06-2.57309E+07
 -1       486-1.10680E+10-3.41404E+08 4.46857E+06 1.87956E+08-8.35698E+06-2.57309E+07
 -1       487-1.09060E+10 1.40506E+08-1.17084E+06-1.25082E+08 1.59440E+05 1.12991E+07
 -1       489-1.09060E+10 1.40506E+08-1.17084E+06-1.25082E+08 1.59440E+05 1.12991E+07
 -1       490-1.09513E+10-4.35630E+07-5.59960E+05 3.41453E+07-6.29995E+05-3.45517E+06
 -1       492-1.09513E+10-4.35630E+07-5.59960E+05 3.41453E+07-6.29995E+05-3.45517E+06
 -1       493-1.08335E+10 1.60339E+07 1.10482E+06-1.17310E+07-1.72826E+06-1.09589E+06
 -1       495-1.08335E+10 1.60339E+07 1.10482E+06-1.17310E+07-1.72826E+06-1.09589E+06
 -1       496-1.07250E+10-5.57489E+06-1.06151E+06-4.44792E+06-1.83468E+06 3.08002E+05
 -1       498-1.07250E+10-5.57489E+06-1.06151E+06-4.44792E+06-1.83468E+06 3.08002E+05
 -1       499-1.05780E+10 5.83671E+06 1.01290E+06-2.83435E+06-3.02113E+06-1.66310E+06
 -1       501-1.05780E+10 5.83671E+06 1.01290E+06-2.83435E+06-3.02113E+06-1.66310E+06
 -1       502-1.03931E+10-1.26500E+06-8.01683E+05-1.25518E+06-3.17610E+06 3.79953E+05
 -1       504-1.03931E+10-1.26500E+06-8.01683E+05-1.25518E+06-3.17610E+06 3.79953E+05
 -1       505-1.01754E+10 2.81324E+06 7.47186E+05-8.65221E+05-3.83248E+06-9.16276E+05
 -1       507-1.01754E+10 2.81324E+06 7.47186E+05-8.65221E+05-3.83248E+06-9.16276E+05
 -1       508-9.92765E+09 2.15392E+05-5.49364E+05-2.26307E+05-3.97095E+06 2.17367E+05
 -1       510-9.92765E+09 2.15392E+05-5.49364E+05-2.26307E+05-3.97095E+06 2.17367E+05
 -1       511-9.65100E+09 1.69114E+06 5.28524E+05-1.72310E+05-4.29163E+06-3.66807E+05
 -1       513-9.65100E+09 1.69114E+06 5.28524E+05-1.72310E+05-4.29163E+06-3.66807E+05
 -1       514-9.34744E+09 6.81123E+05-3.63773E+05 3.52797E+03-4.35346E+06 1.80747E+05
 -1       516-9.34744E+09 6.81123E+05-3.63773E+05 3.52797E+03-4.35346E+06 1.80747E+05
 -1       517-9.01771E+09 1.26367E+06 3.71662E+05 6.72437E+03-4.47745E+06-4.25654E+04
 -1       519-9.01771E+09 1.26367E+06 3.71662E+05 6.72437E+03-4.47745E+06-4.25654E+04
 -1       520-8.66318E+09 7.98468E+05-2.36908E+05 5.77206E+04-4.45588E+06 2.19502E+05
 -1       522-8.66318E+09 7.98468E+05-2.36908E+05 5.77206E+04-4.45588E+06 2.19502E+05
 -1       523-8.28466E+09 1.05096E+06 2.63142E+05 5.59138E+04-4.45579E+06 1.49750E+05
 -1       525-8.28466E+09 1.05096E+06 2.63142E+05 5.59138E+04-4.45579E+06 1.49750E+05
 -1       526-7.88341E+09 7.90907E+05-1.52043E+05 7.57815E+04-4.36536E+06 2.80080E+05
 -1       528-7.88341E+09 7.90907E+05-1.52043E+05 7.57815E+04-4.36536E+06 2.80080E+05
 -1       529-7.46040E+09 9.03201E+05 1.87805E+05 7.52995E+04-4.28332E+06 2.68153E+05
 -1       531-7.46040E+09 9.03201E+05 1.87805E+05 7.52995E+04-4.28332E+06 2.68153E+05
 -1       532-7.01692E+09 7.31865E+05-9.53305E+04 8.63214E+04-4.14327E+06 3.35883E+05
 -1       534-7.01692E+09 7.31865E+05-9.53305E+04 8.63214E+04-4.14327E+06 3.35883E+05
 -1       535-6.55410E+09 7.73368E+05 1.34291E+05 8.61942E+04-4.00885E+06 3.40614E+05
 -1       537-6.55410E+09 7.73368E+05 1.34291E+05 8.61942E+04-4.00885E+06 3.40614E+05
 -1       538-6.07329E+09 6.47993E+05-5.70541E+04 9.33941E+04-3.83859E+06 3.75404E+05
 -1       540-6.07329E+09 6.47993E+05-5.70541E+04 9.33941E+04-3.83859E+06 3.75404E+05
 -1       541-5.57576E+09 6.44989E+05 9.48891E+04 9.14453E+04-3.67632E+06 3.78927E+05
 -1       543-5.57576E+09 6.44989E+05 9.48891E+04 9.14453E+04-3.67632E+06 3.78927E+05
 -1       544-5.06293E+09 5.51598E+05-3.06648E+04 9.48095E+04-3.49566E+06 3.92933E+05
 -1       546-5.06293E+09 5.51598E+05-3.06648E+04 9.48095E+04-3.49566E+06 3.92933E+05
 -1       547-4.53618E+09 5.08302E+05 6.45314E+04 8.54431E+04-3.32876E+06 3.86443E+05
 -1       549-4.53618E+09 5.08302E+05 6.45314E+04 8.54431E+04-3.32876E+06 3.86443E+05
 -1       550-3.99702E+09 4.53644E+05-1.18185E+04 7.98809E+04-3.15985E+06 3.83542E+05
 -1       552-3.99702E+09 4.53644E+05-1.18185E+04 7.98809E+04-3.15985E+06 3.83542E+05
 -1       553-3.44694E+09 3.46954E+05 4.01638E+04 4.69882E+04-3.01252E+06 3.62497E+05
 -1       555-3.44694E+09 3.46954E+05 4.01638E+04 4.69882E+04-3.01252E+06 3.62497E+05
 -1       556-2.88754E+09 3.78613E+05 1.88295E+03 2.13542E+04-2.88265E+06 3.38650E+05
 -1       558-2.88754E+09 3.78613E+05 1.88295E+03 2.13542E+04-2.88265E+06 3.38650E+05
 -1       559-2.32045E+09 1.16471E+05 2.12671E+04-6.96590E+04-2.78144E+06 3.11825E+05
 -1       561-2.32045E+09 1.16471E+05 2.12671E+04-6.96590E+04-2.78144E+06 3.11825E+05
 -1       562-1.74707E+09 4.59882E+05 8.90309E+03 5.87964E+03-2.72226E+06 2.33500E+05
 -1       564-1.74707E+09 4.59882E+05 8.90309E+03 5.87964E+03-2.72226E+06 2.33500E+05
 -1       565-1.16910E+09-3.68144E+05 1.36569E+04-1.54154E+05-2.69478E+06 2.88129E+05
 -1       567-1.16910E+09-3.68144E+05 1.36569E+04-1.54154E+05-2.69478E+06 2.88129E+05
 -1       568-5.86594E+08 1.10224E+06-1.65771E+03 3.99413E+05-2.69645E+06 8.11645E+04
 -1       570-5.86594E+08 1.10224E+06-1.65771E+03 3.99413E+05-2.69645E+06 8.11645E+04
 -1       571-2.94801E+08 3.83618E+06 4.64369E+05 2.21046E+06-3.07079E+06-2.49638E+05
 -1       573-2.94801E+08 3.83618E+06 4.64369E+05 2.21046E+06-3.07079E+06-2.49638E+05
 -1       574-1.12035E+10-6.23160E+08-1.21304E+06-1.93991E-02 1.41729E-04-2.57225E+07
 -1       576-1.12035E+10-6.23160E+08-1.21304E+06-1.93991E-02 1.41729E-04-2.57225E+07
 -1       577-1.11540E+10 1.46320E+06-1.18025E+09-2.24523E-04 1.17888E-04-7.42708E+08
 -1       579-1.11540E+10 1.46320E+06-1.18025E+09-2.24523E-04 1.17888E-04-7.42708E+08
 -1       588-1.10267E+10 1.66641E+08 2.10818E+06-1.89573E-02 1.10058E-04 2.45598E+07
 -1       590-1.10267E+10 1.66641E+08 2.10818E+06-1.89573E-02 1.10058E-04 2.45598E+07
 -1       591-1.11526E+10-2.76997E+05-1.38796E+08-1.55952E-05 5.15427E-05-9.31365E+07
 -1       593-1.11526E+10-2.76997E+05-1.38796E+08-1.55952E-05 5.15427E-05-9.31365E+07
 -1       602-1.08783E+10-3.72048E+06-4.12117E+05-1.54647E-02 3.18761E-05-1.04197E+07
 -1       604-1.08783E+10-3.72048E+06-4.12117E+05-1.54647E-02 3.18761E-05-1.04197E+07
 -1       605-1.10211E+10 9.21749E+03 5.35436E+07-1.19217E-04-6.39427E-05 1.19959E+08
 -1       607-1.10211E+10 9.21749E+03 5.35436E+07-1.19217E-04-6.39427E-05 1.19959E+08
 -1       616-1.08528E+10-1.51980E+07-7.48079E+05-1.22557E-02-1.17624E-04 8.61753E+06
 -1       618-1.08528E+10-1.51980E+07-7.48079E+05-1.22557E-02-1.17624E-04 8.61753E+06
 -1       619-1.09008E+10 1.09265E+06 7.72276E+07-4.82818E-05-2.75545E-04 8.48821E+07
 -1       621-1.09008E+10 1.09265E+06 7.72276E+07-4.82818E-05-2.75545E-04 8.48821E+07
 -1       630-1.07303E+10 1.55787E+07 6.40183E+05-7.61308E-03-2.79034E-04-3.56898E+06
 -1       632-1.07303E+10 1.55787E+07 6.40183E+05-7.61308E-03-2.79034E-04-3.56898E+06
 -1       633-1.07692E+10-6.97737E+05 8.75630E+07-6.04595E-05-5.73486E-04 6.47086E+07
 -1       635-1.07692E+10-6.97737E+05 8.75630E+07-6.04595E-05-5.73486E-04 6.47086E+07
 -1       644-1.05834E+10 8.22489E+05-8.76702E+05-2.13570E-03-4.04819E-04 3.39813E+06
 -1       646-1.05834E+10 8.22489E+05-8.76702E+05-2.13570E-03-4.04819E-04 3.39813E+06
 -1       647-1.05906E+10 9.36776E+05 8.14990E+07-4.90393E-05-8.58548E-04 3.22313E+07
 -1       649-1.05906E+10 9.36776E+05 8.14990E+07-4.90393E-05-8.58548E-04 3.22313E+07
 -1       658-1.03959E+10 5.53168E+06 3.89338E+05 3.72254E-03-4.98169E-04-1.27104E+06
 -1       660-1.03959E+10 5.53168E+06 3.89338E+05 3.72254E-03-4.98169E-04-1.27104E+06
 -1       661-1.03952E+10-3.25552E+05 7.76802E+07-2.70734E-05-9.59609E-04 1.86248E+07
 -1       663-1.03952E+10-3.25552E+05 7.76802E+07-2.70734E-05-9.59609E-04 1.86248E+07
 -1       672-1.01782E+10 2.58151E+06-6.00922E+05 8.18975E-03-5.97088E-04 1.43041E+06
 -1       674-1.01782E+10 2.58151E+06-6.00922E+05 8.18975E-03-5.97088E-04 1.43041E+06
 -1       675-1.01695E+10 5.95615E+05 7.38631E+07 4.58211E-05-9.85996E-04 7.84326E+06
 -1       677-1.01695E+10 5.95615E+05 7.38631E+07 4.58211E-05-9.85996E-04 7.84326E+06
 -1       686-9.92911E+09 3.52398E+06 1.42182E+05 1.05129E-02-7.40353E-04-5.07359E+05
 -1       688-9.92911E+09 3.52398E+06 1.42182E+05 1.05129E-02-7.40353E-04-5.07359E+05
 -1       689-9.91867E+09-4.90329E+04 7.14738E+07 4.99205E-05-1.12874E-03 4.13107E+06
 -1       691-9.91867E+09-4.90329E+04 7.14738E+07 4.99205E-05-1.12874E-03 4.13107E+06
 -1       700-9.65267E+09 2.53857E+06-3.98679E+05 1.10286E-02-7.57166E-04 5.59045E+05
 -1       702-9.65267E+09 2.53857E+06-3.98679E+05 1.10286E-02-7.57166E-04 5.59045E+05
 -1       703-9.64027E+09 3.88670E+05 6.93942E+07-2.81593E-05-1.16697E-03 1.28327E+06
 -1       705-9.64027E+09 3.88670E+05 6.93942E+07-2.81593E-05-1.16697E-03 1.28327E+06
 -1       714-9.34858E+09 2.85381E+06-5.41625E+03 9.97357E-03-7.01823E-04-2.85994E+05
 -1       716-9.34858E+09 2.85381E+06-5.41625E+03 9.97357E-03-7.01823E-04-2.85994E+05
 -1       717-9.33626E+09 9.28457E+04 6.74733E+07-5.80809E-05-1.07752E-03 5.44060E+05
 -1       719-9.33626E+09 9.28457E+04 6.74733E+07-5.80809E-05-1.07752E-03 5.44060E+05
 -1       728-9.01899E+09 2.43590E+06-2.75491E+05 8.54255E-03-5.24721E-04 1.26065E+05
 -1       730-9.01899E+09 2.43590E+06-2.75491E+05 8.54255E-03-5.24721E-04 1.26065E+05
 -1       731-9.00637E+09 2.75463E+05 6.54781E+07-7.00496E-05-8.47829E-04-1.98851E+05
 -1       733-9.00637E+09 2.75463E+05 6.54781E+07-7.00496E-05-8.47829E-04-1.98851E+05
 -1       742-8.66421E+09 2.50578E+06-8.10087E+04 7.69084E-03-1.84668E-04-2.58227E+05
 -1       744-8.66421E+09 2.50578E+06-8.10087E+04 7.69084E-03-1.84668E-04-2.58227E+05
 -1       745-8.65204E+09 1.54175E+05 6.33024E+07-4.81143E-05-2.78630E-04-3.17619E+05
 -1       747-8.65204E+09 1.54175E+05 6.33024E+07-4.81143E-05-2.78630E-04-3.17619E+05
 -1       756-8.28576E+09 2.27631E+06-2.03062E+05 5.15956E-03-4.62309E-06-1.09531E+05
 -1       758-8.28576E+09 2.27631E+06-2.03062E+05 5.15956E-03-4.62309E-06-1.09531E+05
 -1       759-8.27380E+09 2.13040E+05 6.09226E+07-1.44030E-04 3.34849E-04-5.53341E+05
 -1       761-8.27380E+09 2.13040E+05 6.09226E+07-1.44030E-04 3.34849E-04-5.53341E+05
 -1       770-7.88436E+09 2.23576E+06-1.12787E+05 1.16022E-03-5.47133E-05-2.92300E+05
 -1       772-7.88436E+09 2.23576E+06-1.12787E+05 1.16022E-03-5.47133E-05-2.92300E+05
 -1       773-7.87293E+09 1.72527E+05 5.83349E+07-1.05078E-04 5.13342E-04-5.82562E+05
 -1       775-7.87293E+09 1.72527E+05 5.83349E+07-1.05078E-04 5.13342E-04-5.82562E+05
 -1       784-7.46137E+09 2.06815E+06-1.59034E+05-3.17221E-03-3.04324E-04-2.46394E+05
 -1       786-7.46137E+09 2.06815E+06-1.59034E+05-3.17221E-03-3.04324E-04-2.46394E+05
 -1       787-7.45037E+09 1.74769E+05 5.55361E+07 4.45612E-05 3.09888E-04-6.86290E+05
 -1       789-7.45037E+09 1.74769E+05 5.55361E+07 4.45612E-05 3.09888E-04-6.86290E+05
 -1       798-7.01778E+09 1.97365E+06-1.19674E+05-8.35911E-03-5.18905E-04-3.36897E+05
 -1       800-7.01778E+09 1.97365E+06-1.19674E+05-8.35911E-03-5.18905E-04-3.36897E+05
 -1       801-7.00736E+09 1.69501E+05 5.25659E+07-1.39335E-05 1.19531E-04-7.09634E+05
 -1       803-7.00736E+09 1.69501E+05 5.25659E+07-1.39335E-05 1.19531E-04-7.09634E+05
 -1       812-6.55494E+09 1.82466E+06-1.29674E+05-1.26479E-02-6.75867E-04-3.26691E+05
 -1       814-6.55494E+09 1.82466E+06-1.29674E+05-1.26479E-02-6.75867E-04-3.26691E+05
 -1       815-6.54507E+09 1.46206E+05 4.94129E+07 1.19884E-05-1.55388E-04-7.65542E+05
 -1       817-6.54507E+09 1.46206E+05 4.94129E+07 1.19884E-05-1.55388E-04-7.65542E+05
 -1       826-6.07404E+09 1.70016E+06-1.12923E+05-1.44712E-02-8.03789E-04-3.71396E+05
 -1       828-6.07404E+09 1.70016E+06-1.12923E+05-1.44712E-02-8.03789E-04-3.71396E+05
 -1       829-6.06479E+09 1.56735E+05 4.61319E+07-1.98182E-05-5.13530E-04-7.81597E+05
 -1       831-6.06479E+09 1.56735E+05 4.61319E+07-1.98182E-05-5.13530E-04-7.81597E+05
 -1       840-5.57646E+09 1.55466E+06-1.07359E+05-1.34235E-02-7.84418E-04-3.67916E+05
 -1       842-5.57646E+09 1.55466E+06-1.07359E+05-1.34235E-02-7.84418E-04-3.67916E+05
 -1       843-5.56783E+09 1.20088E+05 4.27025E+07 1.25480E-04-7.76953E-04-8.00998E+05
 -1       845-5.56783E+09 1.20088E+05 4.27025E+07 1.25480E-04-7.76953E-04-8.00998E+05
 -1       854-5.06355E+09 1.40808E+06-9.89848E+04-1.00877E-02-8.43335E-04-3.86538E+05
 -1       856-5.06355E+09 1.40808E+06-9.89848E+04-1.00877E-02-8.43335E-04-3.86538E+05
 -1       857-5.05554E+09 1.40542E+05 3.91862E+07 1.95169E-04-1.00751E-03-7.81298E+05
 -1       859-5.05554E+09 1.40542E+05 3.91862E+07 1.95169E-04-1.00751E-03-7.81298E+05
 -1       868-4.53673E+09 1.26199E+06-8.81365E+04-5.97620E-03-7.53734E-04-3.75484E+05
 -1       870-4.53673E+09 1.26199E+06-8.81365E+04-5.97620E-03-7.53734E-04-3.75484E+05
 -1       871-4.52935E+09 9.28749E+04 3.55498E+07 6.28929E-05-9.59758E-04-7.24153E+05
 -1       873-4.52935E+09 9.28749E+04 3.55498E+07 6.28929E-05-9.59758E-04-7.24153E+05
 -1       882-3.99748E+09 1.08679E+06-8.15281E+04-1.57797E-03-6.61995E-04-3.76746E+05
 -1       884-3.99748E+09 1.08679E+06-8.15281E+04-1.57797E-03-6.61995E-04-3.76746E+05
 -1       885-3.99065E+09 1.24697E+05 3.18587E+07 5.16576E-05-7.24357E-04-5.70837E+05
 -1       887-3.99065E+09 1.24697E+05 3.18587E+07 5.16576E-05-7.24357E-04-5.70837E+05
 -1       896-3.44730E+09 9.47247E+05-7.04484E+04 2.50564E-03-5.75406E-04-3.46922E+05
 -1       898-3.44730E+09 9.47247E+05-7.04484E+04 2.50564E-03-5.75406E-04-3.46922E+05
 -1       899-3.44097E+09 6.29203E+04 2.80679E+07 1.31361E-05-3.87397E-04-2.79340E+05
 -1       901-3.44097E+09 6.29203E+04 2.80679E+07 1.31361E-05-3.87397E-04-2.79340E+05
 -1       910-2.88780E+09 7.13070E+05-6.21399E+04 5.66871E-03-4.46398E-04-3.37428E+05
 -1       912-2.88780E+09 7.13070E+05-6.21399E+04 5.66871E-03-4.46398E-04-3.37428E+05
 -1       913-2.88169E+09 1.11509E+05 2.42590E+07-2.08076E-04-1.23155E-04 2.78617E+05
 -1       915-2.88169E+09 1.11509E+05 2.42590E+07-2.08076E-04-1.23155E-04 2.78617E+05
 -1       924-2.32053E+09 6.30902E+05-5.58296E+04 7.96417E-03-3.74520E-04-2.68384E+05
 -1       926-2.32053E+09 6.30902E+05-5.58296E+04 7.96417E-03-3.74520E-04-2.68384E+05
 -1       927-2.31445E+09 3.00353E+04 2.05147E+07-1.02896E-05 1.69015E-04 1.05177E+06
 -1       929-2.31445E+09 3.00353E+04 2.05147E+07-1.02896E-05 1.69015E-04 1.05177E+06
 -1       938-1.74734E+09 4.73533E+05-3.90727E+04 8.44912E-03-1.65648E-04-2.64425E+05
 -1       940-1.74734E+09 4.73533E+05-3.90727E+04 8.44912E-03-1.65648E-04-2.64425E+05
 -1       941-1.74072E+09 1.00511E+05 1.71389E+07-8.27091E-05 7.42423E-04 2.01349E+06
 -1       943-1.74072E+09 1.00511E+05 1.71389E+07-8.27091E-05 7.42423E-04 2.01349E+06
 -1       952-1.16934E+09 2.01657E+05-5.01056E+04 7.03406E-03 8.81131E-05-9.30397E+04
 -1       954-1.16934E+09 2.01657E+05-5.01056E+04 7.03406E-03 8.81131E-05-9.30397E+04
 -1       955-1.16197E+09-8.79530E+03 1.49985E+07-2.36734E-04 1.46180E-03 1.32785E+06
 -1       957-1.16197E+09-8.79530E+03 1.49985E+07-2.36734E-04 1.46180E-03 1.32785E+06
 -1       966-5.87388E+08 1.68837E+06-1.52354E+04 3.16006E-03-4.70427E-05-4.88974E+04
 -1       968-5.87388E+08 1.68837E+06-1.52354E+04 3.16006E-03-4.70427E-05-4.88974E+04
 -1       969-5.79437E+08 6.52113E+04 2.78424E+07-1.60279E-04 1.45239E-03-6.18758E+06
 -1       971-5.79437E+08 6.52113E+04 2.78424E+07-1.60279E-04 1.45239E-03-6.18758E+06
 -1       980-1.12707E+10-1.31715E+09-2.84767E+06 5.59826E+08 2.37848E+07-1.15916E+08
 -1       982-1.12707E+10-1.31715E+09-2.84767E+06 5.59826E+08 2.37848E+07-1.15916E+08
 -1       983-2.94801E+08 3.83618E+06 4.64369E+05-2.21046E+06 3.07079E+06-2.49638E+05
 -1       985-2.94801E+08 3.83618E+06 4.64369E+05-2.21046E+06 3.07079E+06-2.49638E+05
 -1       986-1.10680E+10-3.41404E+08 4.46857E+06-1.87956E+08 8.35698E+06-2.57309E+07
 -1       988-1.10680E+10-3.41404E+08 4.46857E+06-1.87956E+08 8.35698E+06-2.57309E+07
 -1       989-1.09060E+10 1.40506E+08-1.17084E+06 1.25082E+08-1.59440E+05 1.12991E+07
 -1       991-1.09060E+10 1.40506E+08-1.17084E+06 1.25082E+08-1.59440E+05 1.12991E+07
 -1       992-1.09513E+10-4.35630E+07-5.59960E+05-3.41453E+07 6.29995E+05-3.45517E+06
 -1       994-1.09513E+10-4.35630E+07-5.59960E+05-3.41453E+07 6.29995E+05-3.45517E+06
 -1       995-1.08335E+10 1.60339E+07 1.10482E+06 1.17310E+07 1.72826E+06-1.09589E+06
 -1       997-1.08335E+10 1.60339E+07 1.10482E+06 1.17310E+07 1.72826E+06-1.09589E+06
 -1       998-1.07250E+10-5.57489E+06-1.06151E+06 4.44792E+06 1.83468E+06 3.08002E+05
 -1      1000-1.07250E+10-5.57489E+06-1.06151E+06 4.44792E+06 1.83468E+06 3.08002E+05
 -1      1001-1.05780E+10 5.83671E+06 1.01290E+06 2.83435E+06 3.02113E+06-1.66310E+06
 -1      1003-1.05780E+10 5.83671E+06 1.01290E+06 2.83435E+06 3.02113E+06-1.66310E+06
 -1      1004-1.03931E+10-1.26500E+06-8.01683E+05 1.25518E+06 3.17610E+06 3.79953E+05
 -1      1006-1.03931E+10-1.26500E+06-8.01683E+05 1.25518E+06 3.17610E+06 3.79953E+05
 -1      1007-1.01754E+10 2.81324E+06 7.47186E+05 8.65221E+05 3.83248E+06-9.16276E+05
 -1      1009-1.01754E+10 2.81324E+06 7.47186E+05 8.65221E+05 3.83248E+06-9.16276E+05
 -1      1010-9.92765E+09 2.15392E+05-5.49364E+05 2.26307E+05 3.97095E+06 2.17367E+05
 -1      1012-9.92765E+09 2.15392E+05-5.49364E+05 2.26307E+05 3.97095E+06 2.17367E+05
 -1      1013-9.65100E+09 1.69114E+06 5.28524E+05 1.72310E+05 4.29163E+06-3.66807E+05
 -1      1015-9.65100E+09 1.69114E+06 5.28524E+05 1.72310E+05 4.29163E+06-3.66807E+05
 -1      1016-9.34744E+09 6.81123E+05-3.63773E+05-3.52796E+03 4.35346E+06 1.80747E+05
 -1      1018-9.34744E+09 6.81123E+05-3.63773E+05-3.52796E+03 4.35346E+06 1.80747E+05
 -1      1019-9.01771E+09 1.26367E+06 3.71662E+05-6.72436E+03 4.47745E+06-4.25654E+04
 -1      1021-9.01771E+09 1.26367E+06 3.71662E+05-6.72436E+03 4.47745E+06-4.25654E+04
 -1      1022-8.66318E+09 7.98468E+05-2.36908E+05-5.77206E+04 4.45588E+06 2.19502E+05
 -1      1024-8.66318E+09 7.98468E+05-2.36908E+05-5.77206E+04 4.45588E+06 2.19502E+05
 -1      1025-8.28466E+09 1.05096E+06 2.63142E+05-5.59138E+04 4.45579E+06 1.49750E+05
 -1      1027-8.28466E+09 1.05096E+06 2.63142E+05-5.59138E+04 4.45579E+06 1.49750E+05
 -1      1028-7.88341E+09 7.90907E+05-1.52043E+05-7.57815E+04 4.36536E+06 2.80080E+05
 -1      1030-7.88341E+09 7.90907E+05-1.52043E+05-7.57815E+04 4.36536E+06 2.80080E+05
 -1      1031-7.46040E+09 9.03201E+05 1.87805E+05-7.52995E+04 4.28332E+06 2.68153E+05
 -1      1033-7.46040E+09 9.03201E+05 1.87805E+05-7.52995E+04 4.28332E+06 2.68153E+05
 -1      1034-7.01692E+09 7.31865E+05-9.53305E+04-8.63214E+04 4.14327E+06 3.35883E+05
 -1      1036-7.01692E+09 7.31865E+05-9.53305E+04-8.63214E+04 4.14327E+06 3.35883E+05
 -1      1037-6.55410E+09 7.73368E+05 1.34291E+05-8.61942E+04 4.00885E+06 3.40614E+05
 -1      1039-6.55410E+09 7.73368E+05 1.34291E+05-8.61942E+04 4.00885E+06 3.40614E+05
 -1      1040-6.07329E+09 6.47993E+05-5.70541E+04-9.33941E+04 3.83859E+06 3.75404E+05
 -1      1042-6.07329E+09 6.47993E+05-5.70541E+04-9.33941E+04 3.83859E+06 3.75404E+05
 -1      1043-5.57576E+09 6.44989E+05 9.48891E+04-9.14453E+04 3.67632E+06 3.78927E+05
 -1      1045-5.57576E+09 6.44989E+05 9.48891E+04-9.14453E+04 3.67632E+06 3.78927E+05
 -1      1046-5.06293E+09 5.51598E+05-3.06648E+04-9.48095E+04 3.49566E+06 3.92933E+05
 -1      1048-5.06293E+09 5.51598E+05-3.06648E+04-9.48095E+04 3.49566E+06 3.92933E+05
 -1      1049-4.53618E+09 5.08302E+05 6.45314E+04-8.54431E+04 3.32876E+06 3.86443E+05
 -1      1051-4.53618E+09 5.08302E+05 6.45314E+04-8.54431E+04 3.32876E+06 3.86443E+05
 -1      1052-3.99702E+09 4.53644E+05-1.18185E+04-7.98809E+04 3.15985E+06 3.83542E+05
 -1      1054-3.99702E+09 4.53644E+05-1.18185E+04-7.98809E+04 3.15985E+06 3.83542E+05
 -1      1055-3.44694E+09 3.46954E+05 4.01638E+04-4.69882E+04 3.01252E+06 3.62497E+05
 -1      1057-3.44694E+09 3.46954E+05 4.01638E+04-4.69882E+04 3.01252E+06 3.62497E+05
 -1      1058-2.88754E+09 3.78613E+05 1.88295E+03-2.13542E+04 2.88265E+06 3.38650E+05
 -1      1060-2.88754E+09 3.78613E+05 1.88295E+03-2.13542E+04 2.88265E+06 3.38650E+05
 -1      1061-2.32045E+09 1.16471E+05 2.12671E+04 6.96590E+04 2.78144E+06 3.11825E+05
 -1      1063-2.32045E+09 1.16471E+05 2.12671E+04 6.96590E+04 2.78144E+06 3.11825E+05
 -1      1064-1.74707E+09 4.59882E+05 8.90309E+03-5.87963E+03 2.72226E+06 2.33500E+05
 -1      1066-1.74707E+09 4.59882E+05 8.90309E+03-5.87963E+03 2.72226E+06 2.33500E+05
 -1      1067-1.16910E+09-3.68144E+05 1.36569E+04 1.54154E+05 2.69478E+06 2.88129E+05
 -1      1069-1.16910E+09-3.68144E+05 1.36569E+04 1.54154E+05 2.69478E+06 2.88129E+05
 -1      1070-5.86594E+08 1.10224E+06-1.65771E+03-3.99413E+05 2.69645E+06 8.11645E+04
 -1      1072-5.86594E+08 1.10224E+06-1.65771E+03-3.99413E+05 2.69645E+06 8.11645E+04
 -1      1073-1.12707E+10-1.31715E+09-2.84767E+06-5.59826E+08-2.37848E+07-1.15916E+08
 -1      1075-1.12707E+10-1.31715E+09-2.84767E+06-5.59826E+08-2.37848E+07-1.15916E+08
 -1      1076-1.09346E+10-2.17045E+06-2.13212E+09-6.78412E-04 2.58989E-06-7.51976E+08
 -1      1078-1.09346E+10-2.17045E+06-2.13212E+09-6.78412E-04 2.58989E-06-7.51976E+08
 -1      1079-1.07652E+10 7.00824E+05-2.22632E+09-7.91442E-04-2.54609E-05-9.00254E-03
 -1      1081-1.07652E+10 7.00824E+05-2.22632E+09-7.91442E-04-2.54609E-05-9.00254E-03
 -1      1082-1.09346E+10-2.17045E+06-2.13212E+09-6.21204E-04-8.83682E-06 7.51976E+08
 -1      1084-1.09346E+10-2.17045E+06-2.13212E+09-6.21204E-04-8.83682E-06 7.51976E+08
 -1      1085-1.11540E+10 1.46320E+06-1.18025E+09-8.12323E-05-1.61572E-04 7.42708E+08
 -1      1087-1.11540E+10 1.46320E+06-1.18025E+09-8.12323E-05-1.61572E-04 7.42708E+08
 -1      1088-1.12035E+10-6.23160E+08-1.21304E+06-1.26992E-02-1.24770E-04 2.57225E+07
 -1      1090-1.12035E+10-6.23160E+08-1.21304E+06-1.26992E-02-1.24770E-04 2.57225E+07
 -1      1099-1.11526E+10-2.76997E+05-1.38796E+08 6.12532E-05-2.91579E-04 9.31365E+07
 -1      1101-1.11526E+10-2.76997E+05-1.38796E+08 6.12532E-05-2.91579E-04 9.31365E+07
 -1      1102-1.10267E+10 1.66641E+08 2.10818E+06-1.32755E-02-3.36327E-04-2.45598E+07
 -1      1104-1.10267E+10 1.66641E+08 2.10818E+06-1.32755E-02-3.36327E-04-2.45598E+07
 -1      1113-1.10211E+10 9.21749E+03 5.35436E+07-3.46909E-05-3.36760E-04-1.19959E+08
 -1      1115-1.10211E+10 9.21749E+03 5.35436E+07-3.46909E-05-3.36760E-04-1.19959E+08
 -1      1116-1.08783E+10-3.72048E+06-4.12117E+05-1.19495E-02-3.76517E-04 1.04197E+07
 -1      1118-1.08783E+10-3.72048E+06-4.12117E+05-1.19495E-02-3.76517E-04 1.04197E+07
 -1      1127-1.09008E+10 1.09265E+06 7.72276E+07 1.66766E-05-1.57493E-04-8.48821E+07
 -1      1129-1.09008E+10 1.09265E+06 7.72276E+07 1.66766E-05-1.57493E-04-8.48821E+07
 -1      1130-1.08528E+10-1.51980E+07-7.48079E+05-1.09556E-02-2.44181E-04-8.61753E+06
 -1      1132-1.08528E+10-1.51980E+07-7.48079E+05-1.09556E-02-2.44181E-04-8.61753E+06
 -1      1141-1.07692E+10-6.97737E+05 8.75630E+07-5.37024E-06 2.23040E-04-6.47086E+07
 -1      1143-1.07692E+10-6.97737E+05 8.75630E+07-5.37024E-06 2.23040E-04-6.47086E+07
 -1      1144-1.07303E+10 1.55787E+07 6.40183E+05-8.37591E-03 7.04080E-06 3.56898E+06
 -1      1146-1.07303E+10 1.55787E+07 6.40183E+05-8.37591E-03 7.04080E-06 3.56898E+06
 -1      1155-1.05906E+10 9.36776E+05 8.14990E+07-2.54972E-05 6.03508E-04-3.22313E+07
 -1      1157-1.05906E+10 9.36776E+05 8.14990E+07-2.54972E-05 6.03508E-04-3.22313E+07
 -1      1158-1.05834E+10 8.22489E+05-8.76702E+05-4.60454E-03 1.95317E-04-3.39813E+06
 -1      1160-1.05834E+10 8.22489E+05-8.76702E+05-4.60454E-03 1.95317E-04-3.39813E+06
 -1      1169-1.03952E+10-3.25552E+05 7.76802E+07-3.98017E-05 8.54053E-04-1.86248E+07
 -1      1171-1.03952E+10-3.25552E+05 7.76802E+07-3.98017E-05 8.54053E-04-1.86248E+07
 -1      1172-1.03959E+10 5.53168E+06 3.89338E+05 5.78657E-05 2.94026E-04 1.27104E+06
 -1      1174-1.03959E+10 5.53168E+06 3.89338E+05 5.78657E-05 2.94026E-04 1.27104E+06
 -1      1183-1.01695E+10 5.95615E+05 7.38631E+07 5.53849E-05 9.71315E-04-7.84326E+06
 -1      1185-1.01695E+10 5.95615E+05 7.38631E+07 5.53849E-05 9.71315E-04-7.84326E+06
 -1      1186-1.01782E+10 2.58151E+06-6.00922E+05 4.38843E-03 3.31926E-04-1.43041E+06
 -1      1188-1.01782E+10 2.58151E+06-6.00922E+05 4.38843E-03 3.31926E-04-1.43041E+06
 -1      1197-9.91867E+09-4.90329E+04 7.14738E+07-1.96135E-05 1.08464E-03-4.13107E+06
 -1      1199-9.91867E+09-4.90329E+04 7.14738E+07-1.96135E-05 1.08464E-03-4.13107E+06
 -1      1200-9.92911E+09 3.52398E+06 1.42182E+05 7.70864E-03 4.09898E-04 5.07359E+05
 -1      1202-9.92911E+09 3.52398E+06 1.42182E+05 7.70864E-03 4.09898E-04 5.07359E+05
 -1      1211-9.64027E+09 3.88670E+05 6.93942E+07-7.73901E-06 1.12882E-03-1.28327E+06
 -1      1213-9.64027E+09 3.88670E+05 6.93942E+07-7.73901E-06 1.12882E-03-1.28327E+06
 -1      1214-9.65267E+09 2.53857E+06-3.98679E+05 9.93580E-03 5.90924E-04-5.59045E+05
 -1      1216-9.65267E+09 2.53857E+06-3.98679E+05 9.93580E-03 5.90924E-04-5.59045E+05
 -1      1225-9.33626E+09 9.28457E+04 6.74733E+07 5.02368E-05 1.15164E-03-5.44060E+05
 -1      1227-9.33626E+09 9.28457E+04 6.74733E+07 5.02368E-05 1.15164E-03-5.44060E+05
 -1      1228-9.34858E+09 2.85381E+06-5.41625E+03 9.85944E-03 7.12471E-04 2.85994E+05
 -1      1230-9.34858E+09 2.85381E+06-5.41625E+03 9.85944E-03 7.12471E-04 2.85994E+05
 -1      1239-9.00637E+09 2.75463E+05 6.54781E+07-3.30238E-05 1.29242E-03 1.98851E+05
 -1      1241-9.00637E+09 2.75463E+05 6.54781E+07-3.30238E-05 1.29242E-03 1.98851E+05
 -1      1242-9.01899E+09 2.43590E+06-2.75491E+05 9.75404E-03 8.50412E-04-1.26065E+05
 -1      1244-9.01899E+09 2.43590E+06-2.75491E+05 9.75404E-03 8.50412E-04-1.26065E+05
 -1      1253-8.65204E+09 1.54175E+05 6.33024E+07 8.90939E-05 1.00989E-03 3.17619E+05
 -1      1255-8.65204E+09 1.54175E+05 6.33024E+07 8.90939E-05 1.00989E-03 3.17619E+05
 -1      1256-8.66421E+09 2.50578E+06-8.10087E+04 1.01746E-02 8.49711E-04 2.58227E+05
 -1      1258-8.66421E+09 2.50578E+06-8.10087E+04 1.01746E-02 8.49711E-04 2.58227E+05
 -1      1267-8.27380E+09 2.13040E+05 6.09226E+07 1.74972E-04 3.98720E-04 5.53341E+05
 -1      1269-8.27380E+09 2.13040E+05 6.09226E+07 1.74972E-04 3.98720E-04 5.53341E+05
 -1      1270-8.28576E+09 2.27631E+06-2.03062E+05 7.28979E-03 6.61890E-04 1.09531E+05
 -1      1272-8.28576E+09 2.27631E+06-2.03062E+05 7.28979E-03 6.61890E-04 1.09531E+05
 -1      1281-7.87293E+09 1.72527E+05 5.83349E+07 2.06208E-04-8.88471E-05 5.82562E+05
 -1      1283-7.87293E+09 1.72527E+05 5.83349E+07 2.06208E-04-8.88471E-05 5.82562E+05
 -1      1284-7.88436E+09 2.23576E+06-1.12787E+05 2.31271E-03 3.57425E-04 2.92300E+05
 -1      1286-7.88436E+09 2.23576E+06-1.12787E+05 2.31271E-03 3.57425E-04 2.92300E+05
 -1      1295-7.45037E+09 1.74769E+05 5.55361E+07 1.81558E-04-5.20367E-04 6.86290E+05
 -1      1297-7.45037E+09 1.74769E+05 5.55361E+07 1.81558E-04-5.20367E-04 6.86290E+05
 -1      1298-7.46137E+09 2.06815E+06-1.59034E+05-3.04848E-03-2.65511E-05 2.46394E+05
 -1      1300-7.46137E+09 2.06815E+06-1.59034E+05-3.04848E-03-2.65511E-05 2.46394E+05
 -1      1309-7.00736E+09 1.69501E+05 5.25659E+07 1.47948E-04-8.18529E-04 7.09634E+05
 -1      1311-7.00736E+09 1.69501E+05 5.25659E+07 1.47948E-04-8.18529E-04 7.09634E+05
 -1      1312-7.01778E+09 1.97365E+06-1.19674E+05-8.00170E-03-3.54484E-04 3.36897E+05
 -1      1314-7.01778E+09 1.97365E+06-1.19674E+05-8.00170E-03-3.54484E-04 3.36897E+05
 -1      1323-6.54507E+09 1.46206E+05 4.94129E+07 2.68076E-04-1.08048E-03 7.65542E+05
 -1      1325-6.54507E+09 1.46206E+05 4.94129E+07 2.68076E-04-1.08048E-03 7.65542E+05
 -1      1326-6.55494E+09 1.82466E+06-1.29674E+05-1.10056E-02-7.69356E-04 3.26691E+05
 -1      1328-6.55494E+09 1.82466E+06-1.29674E+05-1.10056E-02-7.69356E-04 3.26691E+05
 -1      1337-6.06479E+09 1.56735E+05 4.61319E+07 2.13137E-04-1.04205E-03 7.81597E+05
 -1      1339-6.06479E+09 1.56735E+05 4.61319E+07 2.13137E-04-1.04205E-03 7.81597E+05
 -1      1340-6.07404E+09 1.70016E+06-1.12923E+05-1.21937E-02-8.76016E-04 3.71396E+05
 -1      1342-6.07404E+09 1.70016E+06-1.12923E+05-1.21937E-02-8.76016E-04 3.71396E+05
 -1      1351-5.56783E+09 1.20088E+05 4.27025E+07 1.24848E-04-5.98177E-04 8.00998E+05
 -1      1353-5.56783E+09 1.20088E+05 4.27025E+07 1.24848E-04-5.98177E-04 8.00998E+05
 -1      1354-5.57646E+09 1.55466E+06-1.07359E+05-1.12708E-02-7.93806E-04 3.67916E+05
 -1      1356-5.57646E+09 1.55466E+06-1.07359E+05-1.12708E-02-7.93806E-04 3.67916E+05
 -1      1365-5.05554E+09 1.40542E+05 3.91862E+07 3.41945E-05-2.25743E-04 7.81298E+05
 -1      1367-5.05554E+09 1.40542E+05 3.91862E+07 3.41945E-05-2.25743E-04 7.81298E+05
 -1      1368-5.06355E+09 1.40808E+06-9.89848E+04-8.83462E-03-7.57377E-04 3.86538E+05
 -1      1370-5.06355E+09 1.40808E+06-9.89848E+04-8.83462E-03-7.57377E-04 3.86538E+05
 -1      1379-4.52935E+09 9.28749E+04 3.55498E+07 1.68874E-06-1.30370E-05 7.24153E+05
 -1      1381-4.52935E+09 9.28749E+04 3.55498E+07 1.68874E-06-1.30370E-05 7.24153E+05
 -1      1382-4.53673E+09 1.26199E+06-8.81365E+04-5.83066E-03-6.93240E-04 3.75484E+05
 -1      1384-4.53673E+09 1.26199E+06-8.81365E+04-5.83066E-03-6.93240E-04 3.75484E+05
 -1      1393-3.99065E+09 1.24697E+05 3.18587E+07-3.64207E-05-1.11445E-04 5.70837E+05
 -1      1395-3.99065E+09 1.24697E+05 3.18587E+07-3.64207E-05-1.11445E-04 5.70837E+05
 -1      1396-3.99748E+09 1.08679E+06-8.15281E+04-2.29576E-03-8.65543E-04 3.76746E+05
 -1      1398-3.99748E+09 1.08679E+06-8.15281E+04-2.29576E-03-8.65543E-04 3.76746E+05
 -1      1407-3.44097E+09 6.29203E+04 2.80679E+07 2.55095E-05-2.35568E-04 2.79340E+05
 -1      1409-3.44097E+09 6.29203E+04 2.80679E+07 2.55095E-05-2.35568E-04 2.79340E+05
 -1      1410-3.44730E+09 9.47247E+05-7.04484E+04 1.17149E-03-9.11290E-04 3.46922E+05
 -1      1412-3.44730E+09 9.47247E+05-7.04484E+04 1.17149E-03-9.11290E-04 3.46922E+05
 -1      1421-2.88169E+09 1.11509E+05 2.42590E+07 1.35392E-04-3.77474E-05-2.78617E+05
 -1      1423-2.88169E+09 1.11509E+05 2.42590E+07 1.35392E-04-3.77474E-05-2.78617E+05
 -1      1424-2.88780E+09 7.13070E+05-6.21399E+04 3.84609E-03-7.07952E-04 3.37428E+05
 -1      1426-2.88780E+09 7.13070E+05-6.21399E+04 3.84609E-03-7.07952E-04 3.37428E+05
 -1      1435-2.31445E+09 3.00353E+04 2.05147E+07 9.94888E-05 2.28695E-05-1.05177E+06
 -1      1437-2.31445E+09 3.00353E+04 2.05147E+07 9.94888E-05 2.28695E-05-1.05177E+06
 -1      1438-2.32053E+09 6.30902E+05-5.58296E+04 5.46191E-03-6.05110E-04 2.68384E+05
 -1      1440-2.32053E+09 6.30902E+05-5.58296E+04 5.46191E-03-6.05110E-04 2.68384E+05
 -1      1449-1.74072E+09 1.00511E+05 1.71389E+07-3.37929E-05-4.73181E-04-2.01349E+06
 -1      1451-1.74072E+09 1.00511E+05 1.71389E+07-3.37929E-05-4.73181E-04-2.01349E+06
 -1      1452-1.74734E+09 4.73533E+05-3.90727E+04 6.15217E-03-9.24496E-04 2.64425E+05
 -1      1454-1.74734E+09 4.73533E+05-3.90727E+04 6.15217E-03-9.24496E-04 2.64425E+05
 -1      1463-1.16197E+09-8.79530E+03 1.49985E+07-4.34256E-05-7.98082E-04-1.32785E+06
 -1      1465-1.16197E+09-8.79530E+03 1.49985E+07-4.34256E-05-7.98082E-04-1.32785E+06
 -1      1466-1.16934E+09 2.01657E+05-5.01056E+04 5.48331E-03-1.06692E-03 9.30397E+04
 -1      1468-1.16934E+09 2.01657E+05-5.01056E+04 5.48331E-03-1.06692E-03 9.30397E+04
 -1      1477-5.79437E+08 6.52113E+04 2.78424E+07 1.94485E-04-7.71293E-04 6.18758E+06
 -1      1479-5.79437E+08 6.52113E+04 2.78424E+07 1.94485E-04-7.71293E-04 6.18758E+06
 -1      1480-5.87388E+08 1.68837E+06-1.52354E+04 3.80650E-03-9.28577E-04 4.88974E+04
 -1      1482-5.87388E+08 1.68837E+06-1.52354E+04 3.80650E-03-9.28577E-04 4.88974E+04
 -1      1491-2.87895E+08 5.47993E+05 3.88419E+07-4.50338E-04-4.66644E-04-8.10229E+06
 -1      1493-2.87895E+08 5.47993E+05 3.88419E+07-4.50338E-04-4.66644E-04-8.10229E+06
 -1      1494-2.88517E+08 3.64186E+05 3.63102E+07-3.30781E-04-1.39918E-03-8.47813E-04
 -1      1496-2.88517E+08 3.64186E+05 3.63102E+07-3.30781E-04-1.39918E-03-8.47813E-04
 -1      1497-2.87895E+08 5.47993E+05 3.88419E+07 1.54168E-05-8.36170E-04 8.10229E+06
 -1      1499-2.87895E+08 5.47993E+05 3.88419E+07 1.54168E-05-8.36170E-04 8.10229E+06
 -1      1500-1.10680E+10-3.41404E+08 4.46857E+06-1.87956E+08-8.35698E+06 2.57309E+07
 -1      1502-1.10680E+10-3.41404E+08 4.46857E+06-1.87956E+08-8.35698E+06 2.57309E+07
 -1      1503-1.09060E+10 1.40506E+08-1.17084E+06 1.25082E+08 1.59440E+05-1.12991E+07
 -1      1505-1.09060E+10 1.40506E+08-1.17084E+06 1.25082E+08 1.59440E+05-1.12991E+07
 -1      1506-1.09513E+10-4.35630E+07-5.59960E+05-3.41453E+07-6.29995E+05 3.45517E+06
 -1      1508-1.09513E+10-4.35630E+07-5.59960E+05-3.41453E+07-6.29995E+05 3.45517E+06
 -1      1509-1.08335E+10 1.60339E+07 1.10482E+06 1.17310E+07-1.72826E+06 1.09589E+06
 -1      1511-1.08335E+10 1.60339E+07 1.10482E+06 1.17310E+07-1.72826E+06 1.09589E+06
 -1      1512-1.07250E+10-5.57489E+06-1.06151E+06 4.44792E+06-1.83468E+06-3.08002E+05
 -1      1514-1.07250E+10-5.57489E+06-1.06151E+06 4.44792E+06-1.83468E+06-3.08002E+05
 -1      1515-1.05780E+10 5.83671E+06 1.01290E+06 2.83435E+06-3.02113E+06 1.66310E+06
 -1      1517-1.05780E+10 5.83671E+06 1.01290E+06 2.83435E+06-3.02113E+06 1.66310E+06
 -1      1518-1.03931E+10-1.26500E+06-8.01683E+05 1.25518E+06-3.17610E+06-3.79953E+05
 -1      1520-1.03931E+10-1.26500E+06-8.01683E+05 1.25518E+06-3.17610E+06-3.79953E+05
 -1      1521-1.01754E+10 2.81324E+06 7.47186E+05 8.65221E+05-3.83248E+06 9.16276E+05
 -1      1523-1.01754E+10 2.81324E+06 7.47186E+05 8.65221E+05-3.83248E+06 9.16276E+05
 -1      1524-9.92765E+09 2.15392E+05-5.49364E+05 2.26307E+05-3.97095E+06-2.17367E+05
 -1      1526-9.92765E+09 2.15392E+05-5.49364E+05 2.26307E+05-3.97095E+06-2.17367E+05
 -1      1527-9.65100E+09 1.69114E+06 5.28524E+05 1.72310E+05-4.29163E+06 3.66807E+05
 -1      1529-9.65100E+09 1.69114E+06 5.28524E+05 1.72310E+05-4.29163E+06 3.66807E+05
 -1      1530-9.34744E+09 6.81123E+05-3.63773E+05-3.52796E+03-4.35346E+06-1.80747E+05
 -1      1532-9.34744E+09 6.81123E+05-3.63773E+05-3.52796E+03-4.35346E+06-1.80747E+05
 -1      1533-9.01771E+09 1.26367E+06 3.71662E+05-6.72436E+03-4.47745E+06 4.25654E+04
 -1      1535-9.01771E+09 1.26367E+06 3.71662E+05-6.72436E+03-4.47745E+06 4.25654E+04
 -1      1536-8.66318E+09 7.98468E+05-2.36908E+05-5.77206E+04-4.45588E+06-2.19502E+05
 -1      1538-8.66318E+09 7.98468E+05-2.36908E+05-5.77206E+04-4.45588E+06-2.19502E+05
 -1      1539-8.28466E+09 1.05096E+06 2.63142E+05-5.59138E+04-4.45579E+06-1.49750E+05
 -1      1541-8.28466E+09 1.05096E+06 2.63142E+05-5.59138E+04-4.45579E+06-1.49750E+05
 -1      1542-7.88341E+09 7.90907E+05-1.52043E+05-7.57815E+04-4.36536E+06-2.80080E+05
 -1      1544-7.88341E+09 7.90907E+05-1.52043E+05-7.57815E+04-4.36536E+06-2.80080E+05
 -1      1545-7.46040E+09 9.03201E+05 1.87805E+05-7.52995E+04-4.28332E+06-2.68153E+05
 -1      1547-7.46040E+09 9.03201E+05 1.87805E+05-7.52995E+04-4.28332E+06-2.68153E+05
 -1      1548-7.01692E+09 7.31865E+05-9.53305E+04-8.63214E+04-4.14327E+06-3.35883E+05
 -1      1550-7.01692E+09 7.31865E+05-9.53305E+04-8.63214E+04-4.14327E+06-3.35883E+05
 -1      1551-6.55410E+09 7.73368E+05 1.34291E+05-8.61942E+04-4.00885E+06-3.40614E+05
 -1      1553-6.55410E+09 7.73368E+05 1.34291E+05-8.61942E+04-4.00885E+06-3.40614E+05
 -1      1554-6.07329E+09 6.47993E+05-5.70541E+04-9.33941E+04-3.83859E+06-3.75404E+05
 -1      1556-6.07329E+09 6.47993E+05-5.70541E+04-9.33941E+04-3.83859E+06-3.75404E+05
 -1      1557-5.57576E+09 6.44989E+05 9.48891E+04-9.14453E+04-3.67632E+06-3.78927E+05
 -1      1559-5.57576E+09 6.44989E+05 9.48891E+04-9.14453E+04-3.67632E+06-3.78927E+05
 -1      1560-5.06293E+09 5.51598E+05-3.06648E+04-9.48095E+04-3.49566E+06-3.92933E+05
 -1      1562-5.06293E+09 5.51598E+05-3.06648E+04-9.48095E+04-3.49566E+06-3.92933E+05
 -1      1563-4.53618E+09 5.08302E+05 6.45314E+04-8.54431E+04-3.32876E+06-3.86443E+05
 -1      1565-4.53618E+09 5.08302E+05 6.45314E+04-8.54431E+04-3.32876E+06-3.86443E+05
 -1      1566-3.99702E+09 4.53644E+05-1.18185E+04-7.98809E+04-3.15985E+06-3.83542E+05
 -1      1568-3.99702E+09 4.53644E+05-1.18185E+04-7.98809E+04-3.15985E+06-3.83542E+05
 -1      1569-3.44694E+09 3.46954E+05 4.01638E+04-4.69882E+04-3.01252E+06-3.62497E+05
 -1      1571-3.44694E+09 3.46954E+05 4.01638E+04-4.69882E+04-3.01252E+06-3.62497E+05
 -1      1572-2.88754E+09 3.78613E+05 1.88295E+03-2.13542E+04-2.88265E+06-3.38650E+05
 -1      1574-2.88754E+09 3.78613E+05 1.88295E+03-2.13542E+04-2.88265E+06-3.38650E+05
 -1      1575-2.32045E+09 1.16471E+05 2.12671E+04 6.96590E+04-2.78144E+06-3.11825E+05
 -1      1577-2.32045E+09 1.16471E+05 2.12671E+04 6.96590E+04-2.78144E+06-3.11825E+05
 -1      1578-1.74707E+09 4.59882E+05 8.90309E+03-5.87963E+03-2.72226E+06-2.33500E+05
 -1      1580-1.74707E+09 4.59882E+05 8.90309E+03-5.87963E+03-2.72226E+06-2.33500E+05
 -1      1581-1.16910E+09-3.68144E+05 1.36569E+04 1.54154E+05-2.69478E+06-2.88129E+05
 -1      1583-1.16910E+09-3.68144E+05 1.36569E+04 1.54154E+05-2.69478E+06-2.88129E+05
 -1      1584-5.86594E+08 1.10224E+06-1.65771E+03-3.99413E+05-2.69645E+06-8.11645E+04
 -1      1586-5.86594E+08 1.10224E+06-1.65771E+03-3.99413E+05-2.69645E+06-8.11645E+04
 -1      1587-2.94801E+08 3.83618E+06 4.64369E+05-2.21046E+06-3.07079E+06 2.49638E+05
 -1      1589-2.94801E+08 3.83618E+06 4.64369E+05-2.21046E+06-3.07079E+06 2.49638E+05
 -1      1590-1.12707E+10-1.31715E+09-2.84767E+06-5.59826E+08 2.37848E+07 1.15916E+08
 -1      1592-1.12707E+10-1.31715E+09-2.84767E+06-5.59826E+08 2.37848E+07 1.15916E+08
 -1      1593-2.94801E+08 3.83618E+06 4.64369E+05 2.21046E+06 3.07079E+06 2.49638E+05
 -1      1595-2.94801E+08 3.83618E+06 4.64369E+05 2.21046E+06 3.07079E+06 2.49638E+05
 -1      1596-1.10680E+10-3.41404E+08 4.46857E+06 1.87956E+08 8.35698E+06 2.57309E+07
 -1      1598-1.10680E+10-3.41404E+08 4.46857E+06 1.87956E+08 8.35698E+06 2.57309E+07
 -1      1599-1.09060E+10 1.40506E+08-1.17084E+06-1.25082E+08-1.59440E+05-1.12991E+07
 -1      1601-1.09060E+10 1.40506E+08-1.17084E+06-1.25082E+08-1.59440E+05-1.12991E+07
 -1      1602-1.09513E+10-4.35630E+07-5.59960E+05 3.41453E+07 6.29995E+05 3.45517E+06
 -1      1604-1.09513E+10-4.35630E+07-5.59960E+05 3.41453E+07 6.29995E+05 3.45517E+06
 -1      1605-1.08335E+10 1.60339E+07 1.10482E+06-1.17310E+07 1.72826E+06 1.09589E+06
 -1      1607-1.08335E+10 1.60339E+07 1.10482E+06-1.17310E+07 1.72826E+06 1.09589E+06
 -1      1608-1.07250E+10-5.57489E+06-1.06151E+06-4.44792E+06 1.83468E+06-3.08002E+05
 -1      1610-1.07250E+10-5.57489E+06-1.06151E+06-4.44792E+06 1.83468E+06-3.08002E+05
 -1      1611-1.05780E+10 5.83671E+06 1.01290E+06-2.83435E+06 3.02113E+06 1.66310E+06
 -1      1613-1.05780E+10 5.83671E+06 1.01290E+06-2.83435E+06 3.02113E+06 1.66310E+06
 -1      1614-1.03931E+10-1.26500E+06-8.01683E+05-1.25518E+06 3.17610E+06-3.79953E+05
 -1      1616-1.03931E+10-1.26500E+06-8.01683E+05-1.25518E+06 3.17610E+06-3.79953E+05
 -1      1617-1.01754E+10 2.81324E+06 7.47186E+05-8.65221E+05 3.83248E+06 9.16276E+05
 -1      1619-1.01754E+10 2.81324E+06 7.47186E+05-8.65221E+05 3.83248E+06 9.16276E+05
 -1      1620-9.92765E+09 2.15392E+05-5.49364E+05-2.26307E+05 3.97095E+06-2.17367E+05
 -1      1622-9.92765E+09 2.15392E+05-5.49364E+05-2.26307E+05 3.97095E+06-2.17367E+05
 -1      1623-9.65100E+09 1.69114E+06 5.28524E+05-1.72310E+05 4.29163E+06 3.66807E+05
 -1      1625-9.65100E+09 1.69114E+06 5.28524E+05-1.72310E+05 4.29163E+06 3.66807E+05
 -1      1626-9.34744E+09 6.81123E+05-3.63773E+05 3.52797E+03 4.35346E+06-1.80747E+05
 -1      1628-9.34744E+09 6.81123E+05-3.63773E+05 3.52797E+03 4.35346E+06-1.80747E+05
 -1      1629-9.01771E+09 1.26367E+06 3.71662E+05 6.72437E+03 4.47745E+06 4.25654E+04
 -1      1631-9.01771E+09 1.26367E+06 3.71662E+05 6.72437E+03 4.47745E+06 4.25654E+04
 -1      1632-8.66318E+09 7.98468E+05-2.36908E+05 5.77206E+04 4.45588E+06-2.19502E+05
 -1      1634-8.66318E+09 7.98468E+05-2.36908E+05 5.77206E+04 4.45588E+06-2.19502E+05
 -1      1635-8.28466E+09 1.05096E+06 2.63142E+05 5.59138E+04 4.45579E+06-1.49750E+05
 -1      1637-8.28466E+09 1.05096E+06 2.63142E+05 5.59138E+04 4.45579E+06-1.49750E+05
 -1      1638-7.88341E+09 7.90907E+05-1.52043E+05 7.57815E+04 4.36536E+06-2.80080E+05
 -1      1640-7.88341E+09 7.90907E+05-1.52043E+05 7.57815E+04 4.36536E+06-2.80080E+05
 -1      1641-7.46040E+09 9.03201E+05 1.87805E+05 7.52995E+04 4.28332E+06-2.68153E+05
 -1      1643-7.46040E+09 9.03201E+05 1.87805E+05 7.52995E+04 4.28332E+06-2.68153E+05
 -1      1644-7.01692E+09 7.31865E+05-9.53305E+04 8.63214E+04 4.14327E+06-3.35883E+05
 -1      1646-7.01692E+09 7.31865E+05-9.53305E+04 8.63214E+04 4.14327E+06-3.35883E+05
 -1      1647-6.55410E+09 7.73368E+05 1.34291E+05 8.61942E+04 4.00885E+06-3.40614E+05
 -1      1649-6.55410E+09 7.73368E+05 1.34291E+05 8.61942E+04 4.00885E+06-3.40614E+05
 -1      1650-6.07329E+09 6.47993E+05-5.70541E+04 9.33941E+04 3.83859E+06-3.75404E+05
 -1      1652-6.07329E+09 6.47993E+05-5.70541E+04 9.33941E+04 3.83859E+06-3.75404E+05
 -1      1653-5.57576E+09 6.44989E+05 9.48891E+04 9.14453E+04 3.67632E+06-3.78927E+05
 -1      1655-5.57576E+09 6.44989E+05 9.48891E+04 9.14453E+04 3.67632E+06-3.78927E+05
 -1      1656-5.06293E+09 5.51598E+05-3.06648E+04 9.48095E+04 3.49566E+06-3.92933E+05
 -1      1658-5.06293E+09 5.51598E+05-3.06648E+04 9.48095E+04 3.49566E+06-3.92933E+05
 -1      1659-4.53618E+09 5.08302E+05 6.45314E+04 8.54431E+04 3.32876E+06-3.86443E+05
 -1      1661-4.53618E+09 5.08302E+05 6.45314E+04 8.54431E+04 3.32876E+06-3.86443E+05
 -1      1662-3.99702E+09 4.53644E+05-1.18185E+04 7.98809E+04 3.15985E+06-3.83542E+05
 -1      1664-3.99702E+09 4.53644E+05-1.18185E+04 7.98809E+04 3.15985E+06-3.83542E+05
 -1      1665-3.44694E+09 3.46954E+05 4.01638E+04 4.69882E+04 3.01252E+06-3.62497E+05
 -1      1667-3.44694E+09 3.46954E+05 4.01638E+04 4.69882E+04 3.01252E+06-3.62497E+05
 -1      1668-2.88754E+09 3.78613E+05 1.88295E+03 2.13542E+04 2.88265E+06-3.38650E+05
 -1      1670-2.88754E+09 3.78613E+05 1.88295E+03 2.13542E+04 2.88265E+06-3.38650E+05
 -1      1671-2.32045E+09 1.16471E+05 2.12671E+04-6.96590E+04 2.78144E+06-3.11825E+05
 -1      1673-2.32045E+09 1.16471E+05 2.12671E+04-6.96590E+04 2.78144E+06-3.11825E+05
 -1      1674-1.74707E+09 4.59882E+05 8.90309E+03 5.87963E+03 2.72226E+06-2.33500E+05
 -1      1676-1.74707E+09 4.59882E+05 8.90309E+03 5.87963E+03 2.72226E+06-2.33500E+05
 -1      1677-1.16910E+09-3.68144E+05 1.36569E+04-1.54154E+05 2.69478E+06-2.88129E+05
 -1      1679-1.16910E+09-3.68144E+05 1.36569E+04-1.54154E+05 2.69478E+06-2.88129E+05
 -1      1680-5.86594E+08 1.10224E+06-1.65771E+03 3.99413E+05 2.69645E+06-8.11645E+04
 -1      1682-5.86594E+08 1.10224E+06-1.65771E+03 3.99413E+05 2.69645E+06-8.11645E+04
 -1      1683-1.12707E+10-1.31715E+09-2.84767E+06 5.59826E+08-2.37848E+07 1.15916E+08
 -1      1685-1.12707E+10-1.31715E+09-2.84767E+06 5.59826E+08-2.37848E+07 1.15916E+08
 -1      1686-1.11358E+10-4.82282E+08 1.62776E+06 1.97010E+08 1.10344E+07-2.57267E+07
 -1      1688-1.11358E+10-4.82282E+08 1.62776E+06 1.97010E+08 1.10344E+07-2.57267E+07
 -1      1689-1.09664E+10 1.53573E+08 4.68673E+05-8.26583E+07-6.56055E+06 1.79295E+07
 -1      1691-1.09664E+10 1.53573E+08 4.68673E+05-8.26583E+07-6.56055E+06 1.79295E+07
 -1      1692-1.09148E+10-2.36418E+07-4.86039E+05 3.63137E+06-6.28350E+06-6.93746E+06
 -1      1694-1.09148E+10-2.36418E+07-4.86039E+05 3.63137E+06-6.28350E+06-6.93746E+06
 -1      1695-1.08431E+10 4.17998E+05 1.78372E+05-8.00993E+06-6.78460E+06 3.76082E+06
 -1      1697-1.08431E+10 4.17998E+05 1.78372E+05-8.00993E+06-6.78460E+06 3.76082E+06
 -1      1698-1.07277E+10 5.00192E+06-2.10664E+05-1.26497E+07-9.06555E+06-1.63049E+06
 -1      1700-1.07277E+10 5.00192E+06-2.10664E+05-1.26497E+07-9.06555E+06-1.63049E+06
 -1      1701-1.05807E+10 3.32960E+06 6.80987E+04-3.92398E+06-8.37942E+06 8.67512E+05
 -1      1703-1.05807E+10 3.32960E+06 6.80987E+04-3.92398E+06-8.37942E+06 8.67512E+05
 -1      1704-1.03945E+10 2.13334E+06-2.06172E+05-3.18722E+06-9.71230E+06-4.45546E+05
 -1      1706-1.03945E+10 2.13334E+06-2.06172E+05-3.18722E+06-9.71230E+06-4.45546E+05
 -1      1707-1.01768E+10 2.69737E+06 7.31322E+04-1.15895E+06-9.37606E+06 2.57069E+05
 -1      1709-1.01768E+10 2.69737E+06 7.31322E+04-1.15895E+06-9.37606E+06 2.57069E+05
 -1      1710-9.92838E+09 1.86968E+06-2.03591E+05-6.77758E+05-9.91419E+06-1.44996E+05
 -1      1712-9.92838E+09 1.86968E+06-2.03591E+05-6.77758E+05-9.91419E+06-1.44996E+05
 -1      1713-9.65183E+09 2.11486E+06 6.49224E+04-1.66489E+05-9.73407E+06 9.61190E+04
 -1      1715-9.65183E+09 2.11486E+06 6.49224E+04-1.66489E+05-9.73407E+06 9.61190E+04
 -1      1716-9.34801E+09 1.76747E+06-1.84595E+05-6.76388E+04-9.83176E+06-5.26233E+04
 -1      1718-9.34801E+09 1.76747E+06-1.84595E+05-6.76388E+04-9.83176E+06-5.26233E+04
 -1      1719-9.01835E+09 1.84979E+06 4.80857E+04 7.21651E+04-9.63792E+06 4.17499E+04
 -1      1721-9.01835E+09 1.84979E+06 4.80857E+04 7.21651E+04-9.63792E+06 4.17499E+04
 -1      1722-8.66370E+09 1.65212E+06-1.58958E+05 8.90831E+04-9.49328E+06-1.93628E+04
 -1      1724-8.66370E+09 1.65212E+06-1.58958E+05 8.90831E+04-9.49328E+06-1.93628E+04
 -1      1725-8.28521E+09 1.66364E+06 3.00396E+04 1.35478E+05-9.22662E+06 2.01094E+04
 -1      1727-8.28521E+09 1.66364E+06 3.00396E+04 1.35478E+05-9.22662E+06 2.01094E+04
 -1      1728-7.88389E+09 1.51333E+06-1.32415E+05 1.41861E+05-8.93733E+06-6.10990E+03
 -1      1730-7.88389E+09 1.51333E+06-1.32415E+05 1.41861E+05-8.93733E+06-6.10990E+03
 -1      1731-7.46089E+09 1.48567E+06 1.43857E+04 1.63400E+05-8.59221E+06 1.08794E+04
 -1      1733-7.46089E+09 1.48567E+06 1.43857E+04 1.63400E+05-8.59221E+06 1.08794E+04
 -1      1734-7.01735E+09 1.35276E+06-1.07502E+05 1.69175E+05-8.21021E+06-5.06706E+02
 -1      1736-7.01735E+09 1.35276E+06-1.07502E+05 1.69175E+05-8.21021E+06-5.06706E+02
 -1      1737-6.55452E+09 1.29902E+06 2.30826E+03 1.81729E+05-7.80092E+06 6.96128E+03
 -1      1739-6.55452E+09 1.29902E+06 2.30826E+03 1.81729E+05-7.80092E+06 6.96128E+03
 -1      1740-6.07367E+09 1.17408E+06-8.49884E+04 1.85762E+05-7.35943E+06 2.00363E+03
 -1      1742-6.07367E+09 1.17408E+06-8.49884E+04 1.85762E+05-7.35943E+06 2.00363E+03
 -1      1743-5.57611E+09 1.09983E+06-6.23499E+03 1.91915E+05-6.90736E+06 5.50564E+03
 -1      1745-5.57611E+09 1.09983E+06-6.23499E+03 1.91915E+05-6.90736E+06 5.50564E+03
 -1      1746-5.06324E+09 9.79837E+05-6.48248E+04 1.89003E+05-6.43280E+06 3.19752E+03
 -1      1748-5.06324E+09 9.79837E+05-6.48248E+04 1.89003E+05-6.43280E+06 3.19752E+03
 -1      1749-4.53646E+09 8.85148E+05-1.18026E+04 1.83397E+05-5.96322E+06 5.47949E+03
 -1      1751-4.53646E+09 8.85148E+05-1.18026E+04 1.83397E+05-5.96322E+06 5.47949E+03
 -1      1752-3.99725E+09 7.70217E+05-4.66733E+04 1.56786E+05-5.48064E+06 3.39790E+03
 -1      1754-3.99725E+09 7.70217E+05-4.66733E+04 1.56786E+05-5.48064E+06 3.39790E+03
 -1      1755-3.44712E+09 6.47100E+05-1.51423E+04 1.18929E+05-5.02336E+06 7.78739E+03
 -1      1757-3.44712E+09 6.47100E+05-1.51423E+04 1.18929E+05-5.02336E+06 7.78739E+03
 -1      1758-2.88767E+09 5.45841E+05-3.01285E+04 2.57281E+04-4.56027E+06 6.10742E+02
 -1      1760-2.88767E+09 5.45841E+05-3.01285E+04 2.57281E+04-4.56027E+06 6.10742E+02
 -1      1761-2.32049E+09 3.73686E+05-1.72813E+04-7.50199E+04-4.15065E+06 2.17205E+04
 -1      1763-2.32049E+09 3.73686E+05-1.72813E+04-7.50199E+04-4.15065E+06 2.17205E+04
 -1      1764-1.74720E+09 4.66707E+05-1.50848E+04-1.23935E+05-3.74910E+06-1.54627E+04
 -1      1766-1.74720E+09 4.66707E+05-1.50848E+04-1.23935E+05-3.74910E+06-1.54627E+04
 -1      1767-1.16922E+09-8.32436E+04-1.82244E+04-2.11033E+05-3.41982E+06 9.75448E+04
 -1      1769-1.16922E+09-8.32436E+04-1.82244E+04-2.11033E+05-3.41982E+06 9.75448E+04
 -1      1770-5.86991E+08 1.39531E+06-8.44655E+03 9.68887E+05-3.20378E+06 1.61336E+04
 -1      1772-5.86991E+08 1.39531E+06-8.44655E+03 9.68887E+05-3.20378E+06 1.61336E+04
 -1      1773-1.11358E+10-4.82282E+08 1.62776E+06-1.97010E+08-1.10344E+07-2.57267E+07
 -1      1775-1.11358E+10-4.82282E+08 1.62776E+06-1.97010E+08-1.10344E+07-2.57267E+07
 -1      1776-1.09664E+10 1.53573E+08 4.68673E+05 8.26583E+07 6.56055E+06 1.79295E+07
 -1      1778-1.09664E+10 1.53573E+08 4.68673E+05 8.26583E+07 6.56055E+06 1.79295E+07
 -1      1779-1.09148E+10-2.36418E+07-4.86039E+05-3.63137E+06 6.28350E+06-6.93746E+06
 -1      1781-1.09148E+10-2.36418E+07-4.86039E+05-3.63137E+06 6.28350E+06-6.93746E+06
 -1      1782-1.08431E+10 4.17998E+05 1.78372E+05 8.00993E+06 6.78460E+06 3.76082E+06
 -1      1784-1.08431E+10 4.17998E+05 1.78372E+05 8.00993E+06 6.78460E+06 3.76082E+06
 -1      1785-1.07277E+10 5.00192E+06-2.10664E+05 1.26497E+07 9.06555E+06-1.63049E+06
 -1      1787-1.07277E+10 5.00192E+06-2.10664E+05 1.26497E+07 9.06555E+06-1.63049E+06
 -1      1788-1.05807E+10 3.32960E+06 6.80987E+04 3.92398E+06 8.37942E+06 8.67512E+05
 -1      1790-1.05807E+10 3.32960E+06 6.80987E+04 3.92398E+06 8.37942E+06 8.67512E+05
 -1      1791-1.03945E+10 2.13334E+06-2.06172E+05 3.18722E+06 9.71230E+06-4.45546E+05
 -1      1793-1.03945E+10 2.13334E+06-2.06172E+05 3.18722E+06 9.71230E+06-4.45546E+05
 -1      1794-1.01768E+10 2.69737E+06 7.31322E+04 1.15895E+06 9.37606E+06 2.57069E+05
 -1      1796-1.01768E+10 2.69737E+06 7.31322E+04 1.15895E+06 9.37606E+06 2.57069E+05
 -1      1797-9.92838E+09 1.86968E+06-2.03591E+05 6.77758E+05 9.91419E+06-1.44996E+05
 -1      1799-9.92838E+09 1.86968E+06-2.03591E+05 6.77758E+05 9.91419E+06-1.44996E+05
 -1      1800-9.65183E+09 2.11486E+06 6.49224E+04 1.66489E+05 9.73407E+06 9.61190E+04
 -1      1802-9.65183E+09 2.11486E+06 6.49224E+04 1.66489E+05 9.73407E+06 9.61190E+04
 -1      1803-9.34801E+09 1.76747E+06-1.84595E+05 6.76388E+04 9.83176E+06-5.26233E+04
 -1      1805-9.34801E+09 1.76747E+06-1.84595E+05 6.76388E+04 9.83176E+06-5.26233E+04
 -1      1806-9.01835E+09 1.84979E+06 4.80857E+04-7.21651E+04 9.63792E+06 4.17499E+04
 -1      1808-9.01835E+09 1.84979E+06 4.80857E+04-7.21651E+04 9.63792E+06 4.17499E+04
 -1      1809-8.66370E+09 1.65212E+06-1.58958E+05-8.90831E+04 9.49328E+06-1.93628E+04
 -1      1811-8.66370E+09 1.65212E+06-1.58958E+05-8.90831E+04 9.49328E+06-1.93628E+04
 -1      1812-8.28521E+09 1.66364E+06 3.00396E+04-1.35478E+05 9.22662E+06 2.01094E+04
 -1      1814-8.28521E+09 1.66364E+06 3.00396E+04-1.35478E+05 9.22662E+06 2.01094E+04
 -1      1815-7.88389E+09 1.51333E+06-1.32415E+05-1.41861E+05 8.93733E+06-6.10990E+03
 -1      1817-7.88389E+09 1.51333E+06-1.32415E+05-1.41861E+05 8.93733E+06-6.10990E+03
 -1      1818-7.46089E+09 1.48567E+06 1.43857E+04-1.63400E+05 8.59221E+06 1.08794E+04
 -1      1820-7.46089E+09 1.48567E+06 1.43857E+04-1.63400E+05 8.59221E+06 1.08794E+04
 -1      1821-7.01735E+09 1.35276E+06-1.07502E+05-1.69175E+05 8.21021E+06-5.06706E+02
 -1      1823-7.01735E+09 1.35276E+06-1.07502E+05-1.69175E+05 8.21021E+06-5.06706E+02
 -1      1824-6.55452E+09 1.29902E+06 2.30826E+03-1.81729E+05 7.80092E+06 6.96128E+03
 -1      1826-6.55452E+09 1.29902E+06 2.30826E+03-1.81729E+05 7.80092E+06 6.96128E+03
 -1      1827-6.07367E+09 1.17408E+06-8.49884E+04-1.85762E+05 7.35943E+06 2.00363E+03
 -1      1829-6.07367E+09 1.17408E+06-8.49884E+04-1.85762E+05 7.35943E+06 2.00363E+03
 -1      1830-5.57611E+09 1.09983E+06-6.23499E+03-1.91915E+05 6.90736E+06 5.50564E+03
 -1      1832-5.57611E+09 1.09983E+06-6.23499E+03-1.91915E+05 6.90736E+06 5.50564E+03
 -1      1833-5.06324E+09 9.79837E+05-6.48248E+04-1.89003E+05 6.43280E+06 3.19752E+03
 -1      1835-5.06324E+09 9.79837E+05-6.48248E+04-1.89003E+05 6.43280E+06 3.19752E+03
 -1      1836-4.53646E+09 8.85148E+05-1.18026E+04-1.83397E+05 5.96322E+06 5.47949E+03
 -1      1838-4.53646E+09 8.85148E+05-1.18026E+04-1.83397E+05 5.96322E+06 5.47949E+03
 -1      1839-3.99725E+09 7.70217E+05-4.66733E+04-1.56786E+05 5.48064E+06 3.39790E+03
 -1      1841-3.99725E+09 7.70217E+05-4.66733E+04-1.56786E+05 5.48064E+06 3.39790E+03
 -1      1842-3.44712E+09 6.47100E+05-1.51423E+04-1.18929E+05 5.02336E+06 7.78739E+03
 -1      1844-3.44712E+09 6.47100E+05-1.51423E+04-1.18929E+05 5.02336E+06 7.78739E+03
 -1      1845-2.88767E+09 5.45841E+05-3.01285E+04-2.57281E+04 4.56027E+06 6.10742E+02
 -1      1847-2.88767E+09 5.45841E+05-3.01285E+04-2.57281E+04 4.56027E+06 6.10742E+02
 -1      1848-2.32049E+09 3.73686E+05-1.72813E+04 7.50200E+04 4.15065E+06 2.17205E+04
 -1      1850-2.32049E+09 3.73686E+05-1.72813E+04 7.50200E+04 4.15065E+06 2.17205E+04
 -1      1851-1.74720E+09 4.66707E+05-1.50848E+04 1.23935E+05 3.74910E+06-1.54627E+04
 -1      1853-1.74720E+09 4.66707E+05-1.50848E+04 1.23935E+05 3.74910E+06-1.54627E+04
 -1      1854-1.16922E+09-8.32436E+04-1.82244E+04 2.11033E+05 3.41982E+06 9.75448E+04
 -1      1856-1.16922E+09-8.32436E+04-1.82244E+04 2.11033E+05 3.41982E+06 9.75448E+04
 -1      1857-5.86991E+08 1.39531E+06-8.44655E+03-9.68887E+05 3.20378E+06 1.61336E+04
 -1      1859-5.86991E+08 1.39531E+06-8.44655E+03-9.68887E+05 3.20378E+06 1.61336E+04
 -1      1860-1.10896E+10 4.59696E+05-1.34666E+09-2.06987E-04-3.02095E-05-5.04391E+08
 -1      1862-1.10896E+10 4.59696E+05-1.34666E+09-2.06987E-04-3.02095E-05-5.04391E+08
 -1      1863-1.12213E+10-1.12140E+05-2.94142E+08 2.58294E-05-1.12272E-04-8.01184E+07
 -1      1865-1.12213E+10-1.12140E+05-2.94142E+08 2.58294E-05-1.12272E-04-8.01184E+07
 -1      1866-1.11136E+10-2.38700E+03 2.45707E+07-8.38380E-05-1.71476E-04 7.84343E+07
 -1      1868-1.11136E+10-2.38700E+03 2.45707E+07-8.38380E-05-1.71476E-04 7.84343E+07
 -1      1869-1.09613E+10 3.69143E+05 9.27005E+07-2.65228E-05-2.21522E-04 6.29730E+07
 -1      1871-1.09613E+10 3.69143E+05 9.27005E+07-2.65228E-05-2.21522E-04 6.29730E+07
 -1      1872-1.07987E+10-2.54425E+05 1.03471E+08-3.96874E-05-3.32070E-04 4.63900E+07
 -1      1874-1.07987E+10-2.54425E+05 1.03471E+08-3.96874E-05-3.32070E-04 4.63900E+07
 -1      1875-1.06091E+10 3.23684E+05 9.43263E+07-5.46438E-06-4.68225E-04 2.36159E+07
 -1      1877-1.06091E+10 3.23684E+05 9.43263E+07-5.46438E-06-4.68225E-04 2.36159E+07
 -1      1878-1.04049E+10-1.34356E+05 8.68615E+07 7.96905E-05-5.49773E-04 1.33439E+07
 -1      1880-1.04049E+10-1.34356E+05 8.68615E+07 7.96905E-05-5.49773E-04 1.33439E+07
 -1      1881-1.01759E+10 2.10688E+05 8.07194E+07 1.51323E-04-5.85788E-04 5.77032E+06
 -1      1883-1.01759E+10 2.10688E+05 8.07194E+07 1.51323E-04-5.85788E-04 5.77032E+06
 -1      1884-9.92303E+09-4.03241E+04 7.69513E+07 8.28441E-05-6.77846E-04 2.94302E+06
 -1      1886-9.92303E+09-4.03241E+04 7.69513E+07 8.28441E-05-6.77846E-04 2.94302E+06
 -1      1887-9.64395E+09 1.39008E+05 7.40717E+07 3.85325E-05-7.17501E-04 9.70374E+05
 -1      1889-9.64395E+09 1.39008E+05 7.40717E+07 3.85325E-05-7.17501E-04 9.70374E+05
 -1      1890-9.33938E+09 1.11181E+04 7.17224E+07 9.62856E-05-6.39918E-04 3.89049E+05
 -1      1892-9.33938E+09 1.11181E+04 7.17224E+07 9.62856E-05-6.39918E-04 3.89049E+05
 -1      1893-9.00932E+09 9.76145E+04 6.94230E+07-1.19063E-05-5.91339E-04-1.12566E+05
 -1      1895-9.00932E+09 9.76145E+04 6.94230E+07-1.19063E-05-5.91339E-04-1.12566E+05
 -1      1896-8.65475E+09 3.61112E+04 6.70372E+07 1.09369E-04-5.37966E-04-2.15031E+05
 -1      1898-8.65475E+09 3.61112E+04 6.70372E+07 1.09369E-04-5.37966E-04-2.15031E+05
 -1      1899-8.27640E+09 7.33231E+04 6.44652E+07 2.46620E-05-4.91314E-04-3.69179E+05
 -1      1901-8.27640E+09 7.33231E+04 6.44652E+07 2.46620E-05-4.91314E-04-3.69179E+05
 -1      1902-7.87537E+09 4.64952E+04 6.16925E+07 2.60984E-05-4.93525E-04-3.96086E+05
 -1      1904-7.87537E+09 4.64952E+04 6.16925E+07 2.60984E-05-4.93525E-04-3.96086E+05
 -1      1905-7.45268E+09 5.75865E+04 5.87124E+07 2.23482E-04-4.90202E-04-4.62956E+05
 -1      1907-7.45268E+09 5.75865E+04 5.87124E+07 2.23482E-04-4.90202E-04-4.62956E+05
 -1      1908-7.00952E+09 4.93498E+04 5.55453E+07-1.32718E-05-5.58899E-04-4.81442E+05
 -1      1910-7.00952E+09 4.93498E+04 5.55453E+07-1.32718E-05-5.58899E-04-4.81442E+05
 -1      1911-6.54708E+09 4.55547E+04 5.21991E+07-1.83153E-05-7.62003E-04-5.17546E+05
 -1      1913-6.54708E+09 4.55547E+04 5.21991E+07-1.83153E-05-7.62003E-04-5.17546E+05
 -1      1914-6.06664E+09 4.86665E+04 4.87042E+07-4.89304E-05-8.55465E-04-5.29253E+05
 -1      1916-6.06664E+09 4.86665E+04 4.87042E+07-4.89304E-05-8.55465E-04-5.29253E+05
 -1      1917-5.56951E+09 3.46295E+04 4.50637E+07-5.42470E-06-8.29619E-04-5.40953E+05
 -1      1919-5.56951E+09 3.46295E+04 4.50637E+07-5.42470E-06-8.29619E-04-5.40953E+05
 -1      1920-5.05705E+09 4.67435E+04 4.13111E+07 8.09723E-05-8.10960E-04-5.26468E+05
 -1      1922-5.05705E+09 4.67435E+04 4.13111E+07 8.09723E-05-8.10960E-04-5.26468E+05
 -1      1923-4.53066E+09 2.34128E+04 3.74345E+07 4.80366E-05-7.29354E-04-4.83893E+05
 -1      1925-4.53066E+09 2.34128E+04 3.74345E+07 4.80366E-05-7.29354E-04-4.83893E+05
 -1      1926-3.99174E+09 4.50463E+04 3.34643E+07 4.48577E-05-6.87081E-04-3.73105E+05
 -1      1928-3.99174E+09 4.50463E+04 3.34643E+07 4.48577E-05-6.87081E-04-3.73105E+05
 -1      1929-3.44173E+09 1.11341E+04 2.93738E+07 1.11377E-04-6.28533E-04-1.60664E+05
 -1      1931-3.44173E+09 1.11341E+04 2.93738E+07 1.11377E-04-6.28533E-04-1.60664E+05
 -1      1932-2.88204E+09 4.45372E+04 2.52228E+07 3.83251E-05-5.55745E-04 2.39603E+05
 -1      1934-2.88204E+09 4.45372E+04 2.52228E+07 3.83251E-05-5.55745E-04 2.39603E+05
 -1      1935-2.31413E+09-2.48479E+03 2.11656E+07 2.34456E-04-4.61396E-04 8.03059E+05
 -1      1937-2.31413E+09-2.48479E+03 2.11656E+07 2.34456E-04-4.61396E-04 8.03059E+05
 -1      1938-1.73947E+09 4.51976E+04 1.78301E+07 7.66463E-05-3.97506E-04 1.42827E+06
 -1      1940-1.73947E+09 4.51976E+04 1.78301E+07 7.66463E-05-3.97506E-04 1.42827E+06
 -1      1941-1.15986E+09-1.86841E+04 1.72729E+07-1.60203E-04-2.78463E-04 6.08650E+05
 -1      1943-1.15986E+09-1.86841E+04 1.72729E+07-1.60203E-04-2.78463E-04 6.08650E+05
 -1      1944-5.78506E+08 3.97704E+04 2.84226E+07-1.76887E-04-3.01120E-04-4.31952E+06
 -1      1946-5.78506E+08 3.97704E+04 2.84226E+07-1.76887E-04-3.01120E-04-4.31952E+06
 -1      1947-1.10252E+10-5.43810E+05-1.51306E+09-2.72318E-04-2.42207E-05-9.14990E-03
 -1      1949-1.10252E+10-5.43810E+05-1.51306E+09-2.72318E-04-2.42207E-05-9.14990E-03
 -1      1950-1.12899E+10 5.27169E+04-4.49488E+08 9.43131E-06-1.29483E-05-8.71231E-03
 -1      1952-1.12899E+10 5.27169E+04-4.49488E+08 9.43131E-06-1.29483E-05-8.71231E-03
 -1      1953-1.12060E+10-1.39915E+04-4.40213E+06-1.02482E-04 3.42961E-06-7.68716E-03
 -1      1955-1.12060E+10-1.39915E+04-4.40213E+06-1.02482E-04 3.42961E-06-7.68716E-03
 -1      1956-1.10218E+10-3.54362E+05 1.08173E+08-1.97558E-05 5.68599E-06-6.80210E-03
 -1      1958-1.10218E+10-3.54362E+05 1.08173E+08-1.97558E-05 5.68599E-06-6.80210E-03
 -1      1959-1.08282E+10 1.88887E+05 1.19379E+08-4.84000E-05-4.33669E-05-5.63139E-03
 -1      1961-1.08282E+10 1.88887E+05 1.19379E+08-4.84000E-05-4.33669E-05-5.63139E-03
 -1      1962-1.06277E+10-2.89409E+05 1.07154E+08-2.38191E-06-9.83022E-05-3.90975E-03
 -1      1964-1.06277E+10-2.89409E+05 1.07154E+08-2.38191E-06-9.83022E-05-3.90975E-03
 -1      1965-1.04146E+10 5.68406E+04 9.60428E+07 1.45340E-04-1.08174E-04-1.80352E-03
 -1      1967-1.04146E+10 5.68406E+04 9.60428E+07 1.45340E-04-1.08174E-04-1.80352E-03
 -1      1968-1.01824E+10-1.74239E+05 8.75757E+07 2.55933E-04-1.22563E-04 4.89476E-05
 -1      1970-1.01824E+10-1.74239E+05 8.75757E+07 2.55933E-04-1.22563E-04 4.89476E-05
 -1      1971-9.92740E+09-3.16154E+04 8.24288E+07 3.88286E-05-1.78708E-04 1.13507E-03
 -1      1973-9.92740E+09-3.16154E+04 8.24288E+07 3.88286E-05-1.78708E-04 1.13507E-03
 -1      1974-9.64763E+09-1.10655E+05 7.87493E+07 4.13857E-05-2.26393E-04 1.91404E-03
 -1      1976-9.64763E+09-1.10655E+05 7.87493E+07 4.13857E-05-2.26393E-04 1.91404E-03
 -1      1977-9.34250E+09-7.06094E+04 7.59715E+07 1.96363E-04-2.93776E-04 3.05845E-03
 -1      1979-9.34250E+09-7.06094E+04 7.59715E+07 1.96363E-04-2.93776E-04 3.05845E-03
 -1      1980-9.01226E+09-8.02340E+04 7.33678E+07-3.38721E-05-4.14863E-04 4.65255E-03
 -1      1982-9.01226E+09-8.02340E+04 7.33678E+07-3.38721E-05-4.14863E-04 4.65255E-03
 -1      1983-8.65747E+09-8.19522E+04 7.07720E+07 2.32683E-04-4.62964E-04 6.28507E-03
 -1      1985-8.65747E+09-8.19522E+04 7.07720E+07 2.32683E-04-4.62964E-04 6.28507E-03
 -1      1986-8.27900E+09-6.63936E+04 6.80079E+07 1.00565E-04-4.67935E-04 7.44398E-03
 -1      1988-8.27900E+09-6.63936E+04 6.80079E+07 1.00565E-04-4.67935E-04 7.44398E-03
 -1      1989-7.87781E+09-7.95362E+04 6.50501E+07-1.41743E-05-4.30862E-04 8.07530E-03
 -1      1991-7.87781E+09-7.95362E+04 6.50501E+07-1.41743E-05-4.30862E-04 8.07530E-03
 -1      1992-7.45499E+09-5.95964E+04 6.18887E+07 1.44665E-04-3.90501E-04 7.97460E-03
 -1      1994-7.45499E+09-5.95964E+04 6.18887E+07 1.44665E-04-3.90501E-04 7.97460E-03
 -1      1995-7.01168E+09-7.08020E+04 5.85247E+07-2.28532E-04-4.28718E-04 6.62642E-03
 -1      1997-7.01168E+09-7.08020E+04 5.85247E+07-2.28532E-04-4.28718E-04 6.62642E-03
 -1      1998-6.54909E+09-5.50970E+04 5.49853E+07-1.22458E-04-4.38525E-04 4.31289E-03
 -1      2000-6.54909E+09-5.50970E+04 5.49853E+07-1.22458E-04-4.38525E-04 4.31289E-03
 -1      2001-6.06849E+09-5.94018E+04 5.12765E+07-1.88512E-04-4.57840E-04 1.92907E-03
 -1      2003-6.06849E+09-5.94018E+04 5.12765E+07-1.88512E-04-4.57840E-04 1.92907E-03
 -1      2004-5.57120E+09-5.08286E+04 4.74248E+07-2.46457E-04-5.42973E-04 2.92541E-04
 -1      2006-5.57120E+09-5.08286E+04 4.74248E+07-2.46457E-04-5.42973E-04 2.92541E-04
 -1      2007-5.05856E+09-4.70550E+04 4.34360E+07-1.61462E-04-5.79233E-04-5.26262E-04
 -1      2009-5.05856E+09-4.70550E+04 4.34360E+07-1.61462E-04-5.79233E-04-5.26262E-04
 -1      2010-4.53197E+09-4.60493E+04 3.93191E+07-1.28846E-04-6.29130E-04-1.46646E-03
 -1      2012-4.53197E+09-4.60493E+04 3.93191E+07-1.28846E-04-6.29130E-04-1.46646E-03
 -1      2013-3.99282E+09-3.46049E+04 3.50700E+07-6.33834E-05-7.15867E-04-3.29583E-03
 -1      2015-3.99282E+09-3.46049E+04 3.50700E+07-6.33834E-05-7.15867E-04-3.29583E-03
 -1      2016-3.44250E+09-4.06521E+04 3.06797E+07 1.12190E-04-8.09824E-04-5.06193E-03
 -1      2018-3.44250E+09-4.06521E+04 3.06797E+07 1.12190E-04-8.09824E-04-5.06193E-03
 -1      2019-2.88239E+09-2.24342E+04 2.61866E+07 2.54155E-04-9.38095E-04-5.80591E-03
 -1      2021-2.88239E+09-2.24342E+04 2.61866E+07 2.54155E-04-9.38095E-04-5.80591E-03
 -1      2022-2.31382E+09-3.50049E+04 2.18165E+07 3.65956E-04-1.06882E-03-5.41743E-03
 -1      2024-2.31382E+09-3.50049E+04 2.18165E+07 3.65956E-04-1.06882E-03-5.41743E-03
 -1      2025-1.73821E+09-1.01156E+04 1.85212E+07 1.76095E-04-1.19008E-03-4.30670E-03
 -1      2027-1.73821E+09-1.01156E+04 1.85212E+07 1.76095E-04-1.19008E-03-4.30670E-03
 -1      2028-1.15774E+09-2.85729E+04 1.95473E+07-5.16435E-05-1.30765E-03-3.10937E-03
 -1      2030-1.15774E+09-2.85729E+04 1.95473E+07-5.16435E-05-1.30765E-03-3.10937E-03
 -1      2031-5.77575E+08 1.43296E+04 2.90027E+07-1.00601E-04-1.38858E-03-1.66770E-03
 -1      2033-5.77575E+08 1.43296E+04 2.90027E+07-1.00601E-04-1.38858E-03-1.66770E-03
 -1      2034-1.10896E+10 4.59696E+05-1.34666E+09-2.18208E-04-1.58534E-05 5.04391E+08
 -1      2036-1.10896E+10 4.59696E+05-1.34666E+09-2.18208E-04-1.58534E-05 5.04391E+08
 -1      2037-1.12213E+10-1.12140E+05-2.94142E+08 6.43093E-06-2.06950E-05 8.01184E+07
 -1      2039-1.12213E+10-1.12140E+05-2.94142E+08 6.43093E-06-2.06950E-05 8.01184E+07
 -1      2040-1.11136E+10-2.38700E+03 2.45707E+07-9.55982E-05-2.54461E-05-7.84343E+07
 -1      2042-1.11136E+10-2.38700E+03 2.45707E+07-9.55982E-05-2.54461E-05-7.84343E+07
 -1      2043-1.09613E+10 3.69143E+05 9.27005E+07-9.03560E-06 1.06890E-05-6.29730E+07
 -1      2045-1.09613E+10 3.69143E+05 9.27005E+07-9.03560E-06 1.06890E-05-6.29730E+07
 -1      2046-1.07987E+10-2.54425E+05 1.03471E+08-4.16276E-05 1.13480E-04-4.63900E+07
 -1      2048-1.07987E+10-2.54425E+05 1.03471E+08-4.16276E-05 1.13480E-04-4.63900E+07
 -1      2049-1.06091E+10 3.23684E+05 9.43263E+07-3.41858E-05 2.42403E-04-2.36159E+07
 -1      2051-1.06091E+10 3.23684E+05 9.43263E+07-3.41858E-05 2.42403E-04-2.36159E+07
 -1      2052-1.04049E+10-1.34356E+05 8.68615E+07 3.22121E-05 3.88821E-04-1.33439E+07
 -1      2054-1.04049E+10-1.34356E+05 8.68615E+07 3.22121E-05 3.88821E-04-1.33439E+07
 -1      2055-1.01759E+10 2.10688E+05 8.07194E+07 1.55212E-04 4.55884E-04-5.77032E+06
 -1      2057-1.01759E+10 2.10688E+05 8.07194E+07 1.55212E-04 4.55884E-04-5.77032E+06
 -1      2058-9.92303E+09-4.03241E+04 7.69513E+07-2.88620E-05 4.77086E-04-2.94302E+06
 -1      2060-9.92303E+09-4.03241E+04 7.69513E+07-2.88620E-05 4.77086E-04-2.94302E+06
 -1      2061-9.64395E+09 1.39008E+05 7.40717E+07-1.50960E-05 4.72035E-04-9.70374E+05
 -1      2063-9.64395E+09 1.39008E+05 7.40717E+07-1.50960E-05 4.72035E-04-9.70374E+05
 -1      2064-9.33938E+09 1.11181E+04 7.17224E+07 9.61553E-05 3.83198E-04-3.89049E+05
 -1      2066-9.33938E+09 1.11181E+04 7.17224E+07 9.61553E-05 3.83198E-04-3.89049E+05
 -1      2067-9.00932E+09 9.76145E+04 6.94230E+07-7.35026E-05 3.98774E-04 1.12566E+05
 -1      2069-9.00932E+09 9.76145E+04 6.94230E+07-7.35026E-05 3.98774E-04 1.12566E+05
 -1      2070-8.65475E+09 3.61112E+04 6.70372E+07 1.43803E-04 4.40631E-04 2.15031E+05
 -1      2072-8.65475E+09 3.61112E+04 6.70372E+07 1.43803E-04 4.40631E-04 2.15031E+05
 -1      2073-8.27640E+09 7.33231E+04 6.44652E+07 9.13740E-05 3.90164E-04 3.69179E+05
 -1      2075-8.27640E+09 7.33231E+04 6.44652E+07 9.13740E-05 3.90164E-04 3.69179E+05
 -1      2076-7.87537E+09 4.64952E+04 6.16925E+07 1.02920E-05 2.74910E-04 3.96086E+05
 -1      2078-7.87537E+09 4.64952E+04 6.16925E+07 1.02920E-05 2.74910E-04 3.96086E+05
 -1      2079-7.45268E+09 5.75865E+04 5.87124E+07 3.42432E-05-5.53846E-06 4.62956E+05
 -1      2081-7.45268E+09 5.75865E+04 5.87124E+07 3.42432E-05-5.53846E-06 4.62956E+05
 -1      2082-7.00952E+09 4.93498E+04 5.55453E+07-1.48253E-04-2.19318E-04 4.81442E+05
 -1      2084-7.00952E+09 4.93498E+04 5.55453E+07-1.48253E-04-2.19318E-04 4.81442E+05
 -1      2085-6.54708E+09 4.55547E+04 5.21991E+07 3.58895E-05-2.94453E-04 5.17546E+05
 -1      2087-6.54708E+09 4.55547E+04 5.21991E+07 3.58895E-05-2.94453E-04 5.17546E+05
 -1      2088-6.06664E+09 4.86665E+04 4.87042E+07-4.29228E-05-3.80166E-04 5.29253E+05
 -1      2090-6.06664E+09 4.86665E+04 4.87042E+07-4.29228E-05-3.80166E-04 5.29253E+05
 -1      2091-5.56951E+09 3.46295E+04 4.50637E+07-1.15869E-04-4.00918E-04 5.40953E+05
 -1      2093-5.56951E+09 3.46295E+04 4.50637E+07-1.15869E-04-4.00918E-04 5.40953E+05
 -1      2094-5.05705E+09 4.67435E+04 4.13111E+07-1.27753E-04-3.84900E-04 5.26468E+05
 -1      2096-5.05705E+09 4.67435E+04 4.13111E+07-1.27753E-04-3.84900E-04 5.26468E+05
 -1      2097-4.53066E+09 2.34128E+04 3.74345E+07-1.44592E-04-3.86173E-04 4.83893E+05
 -1      2099-4.53066E+09 2.34128E+04 3.74345E+07-1.44592E-04-3.86173E-04 4.83893E+05
 -1      2100-3.99174E+09 4.50463E+04 3.34643E+07-1.00623E-04-4.46687E-04 3.73105E+05
 -1      2102-3.99174E+09 4.50463E+04 3.34643E+07-1.00623E-04-4.46687E-04 3.73105E+05
 -1      2103-3.44173E+09 1.11341E+04 2.93738E+07 2.01366E-05-4.92774E-04 1.60664E+05
 -1      2105-3.44173E+09 1.11341E+04 2.93738E+07 2.01366E-05-4.92774E-04 1.60664E+05
 -1      2106-2.88204E+09 4.45372E+04 2.52228E+07 1.79488E-04-4.62801E-04-2.39603E+05
 -1      2108-2.88204E+09 4.45372E+04 2.52228E+07 1.79488E-04-4.62801E-04-2.39603E+05
 -1      2109-2.31413E+09-2.48479E+03 2.11656E+07 1.76099E-04-5.11480E-04-8.03059E+05
 -1      2111-2.31413E+09-2.48479E+03 2.11656E+07 1.76099E-04-5.11480E-04-8.03059E+05
 -1      2112-1.73947E+09 4.51976E+04 1.78301E+07 4.11977E-05-6.57953E-04-1.42827E+06
 -1      2114-1.73947E+09 4.51976E+04 1.78301E+07 4.11977E-05-6.57953E-04-1.42827E+06
 -1      2115-1.15986E+09-1.86841E+04 1.72729E+07-3.15206E-05-6.97324E-04-6.08650E+05
 -1      2117-1.15986E+09-1.86841E+04 1.72729E+07-3.15206E-05-6.97324E-04-6.08650E+05
 -1      2118-5.78506E+08 3.97704E+04 2.84226E+07 9.33896E-05-7.46913E-04 4.31952E+06
 -1      2120-5.78506E+08 3.97704E+04 2.84226E+07 9.33896E-05-7.46913E-04 4.31952E+06
 -1      2121-1.11358E+10-4.82282E+08 1.62776E+06-1.97010E+08 1.10344E+07 2.57267E+07
 -1      2123-1.11358E+10-4.82282E+08 1.62776E+06-1.97010E+08 1.10344E+07 2.57267E+07
 -1      2124-1.09664E+10 1.53573E+08 4.68673E+05 8.26583E+07-6.56055E+06-1.79295E+07
 -1      2126-1.09664E+10 1.53573E+08 4.68673E+05 8.26583E+07-6.56055E+06-1.79295E+07
 -1      2127-1.09148E+10-2.36418E+07-4.86039E+05-3.63137E+06-6.28350E+06 6.93746E+06
 -1      2129-1.09148E+10-2.36418E+07-4.86039E+05-3.63137E+06-6.28350E+06 6.93746E+06
 -1      2130-1.08431E+10 4.17998E+05 1.78372E+05 8.00993E+06-6.78460E+06-3.76082E+06
 -1      2132-1.08431E+10 4.17998E+05 1.78372E+05 8.00993E+06-6.78460E+06-3.76082E+06
 -1      2133-1.07277E+10 5.00192E+06-2.10664E+05 1.26497E+07-9.06555E+06 1.63049E+06
 -1      2135-1.07277E+10 5.00192E+06-2.10664E+05 1.26497E+07-9.06555E+06 1.63049E+06
 -1      2136-1.05807E+10 3.32960E+06 6.80987E+04 3.92398E+06-8.37942E+06-8.67512E+05
 -1      2138-1.05807E+10 3.32960E+06 6.80987E+04 3.92398E+06-8.37942E+06-8.67512E+05
 -1      2139-1.03945E+10 2.13334E+06-2.06172E+05 3.18722E+06-9.71230E+06 4.45546E+05
 -1      2141-1.03945E+10 2.13334E+06-2.06172E+05 3.18722E+06-9.71230E+06 4.45546E+05
 -1      2142-1.01768E+10 2.69737E+06 7.31322E+04 1.15895E+06-9.37606E+06-2.57069E+05
 -1      2144-1.01768E+10 2.69737E+06 7.31322E+04 1.15895E+06-9.37606E+06-2.57069E+05
 -1      2145-9.92838E+09 1.86968E+06-2.03591E+05 6.77758E+05-9.91419E+06 1.44996E+05
 -1      2147-9.92838E+09 1.86968E+06-2.03591E+05 6.77758E+05-9.91419E+06 1.44996E+05
 -1      2148-9.65183E+09 2.11486E+06 6.49224E+04 1.66489E+05-9.73407E+06-9.61190E+04
 -1      2150-9.65183E+09 2.11486E+06 6.49224E+04 1.66489E+05-9.73407E+06-9.61190E+04
 -1      2151-9.34801E+09 1.76747E+06-1.84595E+05 6.76388E+04-9.83176E+06 5.26233E+04
 -1      2153-9.34801E+09 1.76747E+06-1.84595E+05 6.76388E+04-9.83176E+06 5.26233E+04
 -1      2154-9.01835E+09 1.84979E+06 4.80857E+04-7.21651E+04-9.63792E+06-4.17499E+04
 -1      2156-9.01835E+09 1.84979E+06 4.80857E+04-7.21651E+04-9.63792E+06-4.17499E+04
 -1      2157-8.66370E+09 1.65212E+06-1.58958E+05-8.90831E+04-9.49328E+06 1.93628E+04
 -1      2159-8.66370E+09 1.65212E+06-1.58958E+05-8.90831E+04-9.49328E+06 1.93628E+04
 -1      2160-8.28521E+09 1.66364E+06 3.00396E+04-1.35478E+05-9.22662E+06-2.01094E+04
 -1      2162-8.28521E+09 1.66364E+06 3.00396E+04-1.35478E+05-9.22662E+06-2.01094E+04
 -1      2163-7.88389E+09 1.51333E+06-1.32415E+05-1.41861E+05-8.93733E+06 6.10990E+03
 -1      2165-7.88389E+09 1.51333E+06-1.32415E+05-1.41861E+05-8.93733E+06 6.10990E+03
 -1      2166-7.46089E+09 1.48567E+06 1.43857E+04-1.63400E+05-8.59221E+06-1.08794E+04
 -1      2168-7.46089E+09 1.48567E+06 1.43857E+04-1.63400E+05-8.59221E+06-1.08794E+04
 -1      2169-7.01735E+09 1.35276E+06-1.07502E+05-1.69175E+05-8.21021E+06 5.06706E+02
 -1      2171-7.01735E+09 1.35276E+06-1.07502E+05-1.69175E+05-8.21021E+06 5.06706E+02
 -1      2172-6.55452E+09 1.29902E+06 2.30826E+03-1.81729E+05-7.80092E+06-6.96128E+03
 -1      2174-6.55452E+09 1.29902E+06 2.30826E+03-1.81729E+05-7.80092E+06-6.96128E+03
 -1      2175-6.07367E+09 1.17408E+06-8.49884E+04-1.85762E+05-7.35943E+06-2.00363E+03
 -1      2177-6.07367E+09 1.17408E+06-8.49884E+04-1.85762E+05-7.35943E+06-2.00363E+03
 -1      2178-5.57611E+09 1.09983E+06-6.23499E+03-1.91915E+05-6.90736E+06-5.50564E+03
 -1      2180-5.57611E+09 1.09983E+06-6.23499E+03-1.91915E+05-6.90736E+06-5.50564E+03
 -1      2181-5.06324E+09 9.79837E+05-6.48248E+04-1.89003E+05-6.43280E+06-3.19752E+03
 -1      2183-5.06324E+09 9.79837E+05-6.48248E+04-1.89003E+05-6.43280E+06-3.19752E+03
 -1      2184-4.53646E+09 8.85148E+05-1.18026E+04-1.83397E+05-5.96322E+06-5.47949E+03
 -1      2186-4.53646E+09 8.85148E+05-1.18026E+04-1.83397E+05-5.96322E+06-5.47949E+03
 -1      2187-3.99725E+09 7.70217E+05-4.66733E+04-1.56786E+05-5.48064E+06-3.39790E+03
 -1      2189-3.99725E+09 7.70217E+05-4.66733E+04-1.56786E+05-5.48064E+06-3.39790E+03
 -1      2190-3.44712E+09 6.47100E+05-1.51423E+04-1.18929E+05-5.02336E+06-7.78739E+03
 -1      2192-3.44712E+09 6.47100E+05-1.51423E+04-1.18929E+05-5.02336E+06-7.78739E+03
 -1      2193-2.88767E+09 5.45841E+05-3.01285E+04-2.57281E+04-4.56027E+06-6.10742E+02
 -1      2195-2.88767E+09 5.45841E+05-3.01285E+04-2.57281E+04-4.56027E+06-6.10742E+02
 -1      2196-2.32049E+09 3.73686E+05-1.72813E+04 7.50200E+04-4.15065E+06-2.17205E+04
 -1      2198-2.32049E+09 3.73686E+05-1.72813E+04 7.50200E+04-4.15065E+06-2.17205E+04
 -1      2199-1.74720E+09 4.66707E+05-1.50848E+04 1.23935E+05-3.74910E+06 1.54627E+04
 -1      2201-1.74720E+09 4.66707E+05-1.50848E+04 1.23935E+05-3.74910E+06 1.54627E+04
 -1      2202-1.16922E+09-8.32436E+04-1.82244E+04 2.11033E+05-3.41982E+06-9.75448E+04
 -1      2204-1.16922E+09-8.32436E+04-1.82244E+04 2.11033E+05-3.41982E+06-9.75448E+04
 -1      2205-5.86991E+08 1.39531E+06-8.44655E+03-9.68887E+05-3.20378E+06-1.61336E+04
 -1      2207-5.86991E+08 1.39531E+06-8.44655E+03-9.68887E+05-3.20378E+06-1.61336E+04
 -1      2208-1.11358E+10-4.82282E+08 1.62776E+06 1.97010E+08-1.10344E+07 2.57267E+07
 -1      2210-1.11358E+10-4.82282E+08 1.62776E+06 1.97010E+08-1.10344E+07 2.57267E+07
 -1      2211-1.09664E+10 1.53573E+08 4.68673E+05-8.26583E+07 6.56055E+06-1.79295E+07
 -1      2213-1.09664E+10 1.53573E+08 4.68673E+05-8.26583E+07 6.56055E+06-1.79295E+07
 -1      2214-1.09148E+10-2.36418E+07-4.86039E+05 3.63137E+06 6.28350E+06 6.93746E+06
 -1      2216-1.09148E+10-2.36418E+07-4.86039E+05 3.63137E+06 6.28350E+06 6.93746E+06
 -1      2217-1.08431E+10 4.17998E+05 1.78372E+05-8.00993E+06 6.78460E+06-3.76082E+06
 -1      2219-1.08431E+10 4.17998E+05 1.78372E+05-8.00993E+06 6.78460E+06-3.76082E+06
 -1      2220-1.07277E+10 5.00192E+06-2.10664E+05-1.26497E+07 9.06555E+06 1.63049E+06
 -1      2222-1.07277E+10 5.00192E+06-2.10664E+05-1.26497E+07 9.06555E+06 1.63049E+06
 -1      2223-1.05807E+10 3.32960E+06 6.80987E+04-3.92398E+06 8.37942E+06-8.67512E+05
 -1      2225-1.05807E+10 3.32960E+06 6.80987E+04-3.92398E+06 8.37942E+06-8.67512E+05
 -1      2226-1.03945E+10 2.13334E+06-2.06172E+05-3.18722E+06 9.71230E+06 4.45546E+05
 -1      2228-1.03945E+10 2.13334E+06-2.06172E+05-3.18722E+06 9.71230E+06 4.45546E+05
 -1      2229-1.01768E+10 2.69737E+06 7.31322E+04-1.15895E+06 9.37606E+06-2.57069E+05
 -1      2231-1.01768E+10 2.69737E+06 7.31322E+04-1.15895E+06 9.37606E+06-2.57069E+05
 -1      2232-9.92838E+09 1.86968E+06-2.03591E+05-6.77758E+05 9.91419E+06 1.44996E+05
 -1      2234-9.92838E+09 1.86968E+06-2.03591E+05-6.77758E+05 9.91419E+06 1.44996E+05
 -1      2235-9.65183E+09 2.11486E+06 6.49224E+04-1.66489E+05 9.73407E+06-9.61190E+04
 -1      2237-9.65183E+09 2.11486E+06 6.49224E+04-1.66489E+05 9.73407E+06-9.61190E+04
 -1      2238-9.34801E+09 1.76747E+06-1.84595E+05-6.76388E+04 9.83176E+06 5.26233E+04
 -1      2240-9.34801E+09 1.76747E+06-1.84595E+05-6.76388E+04 9.83176E+06 5.26233E+04
 -1      2241-9.01835E+09 1.84979E+06 4.80857E+04 7.21651E+04 9.63792E+06-4.17499E+04
 -1      2243-9.01835E+09 1.84979E+06 4.80857E+04 7.21651E+04 9.63792E+06-4.17499E+04
 -1      2244-8.66370E+09 1.65212E+06-1.58958E+05 8.90831E+04 9.49328E+06 1.93628E+04
 -1      2246-8.66370E+09 1.65212E+06-1.58958E+05 8.90831E+04 9.49328E+06 1.93628E+04
 -1      2247-8.28521E+09 1.66364E+06 3.00396E+04 1.35478E+05 9.22662E+06-2.01094E+04
 -1      2249-8.28521E+09 1.66364E+06 3.00396E+04 1.35478E+05 9.22662E+06-2.01094E+04
 -1      2250-7.88389E+09 1.51333E+06-1.32415E+05 1.41861E+05 8.93733E+06 6.10990E+03
 -1      2252-7.88389E+09 1.51333E+06-1.32415E+05 1.41861E+05 8.93733E+06 6.10990E+03
 -1      2253-7.46089E+09 1.48567E+06 1.43857E+04 1.63400E+05 8.59221E+06-1.08794E+04
 -1      2255-7.46089E+09 1.48567E+06 1.43857E+04 1.63400E+05 8.59221E+06-1.08794E+04
 -1      2256-7.01735E+09 1.35276E+06-1.07502E+05 1.69175E+05 8.21021E+06 5.06706E+02
 -1      2258-7.01735E+09 1.35276E+06-1.07502E+05 1.69175E+05 8.21021E+06 5.06706E+02
 -1      2259-6.55452E+09 1.29902E+06 2.30826E+03 1.81729E+05 7.80092E+06-6.96128E+03
 -1      2261-6.55452E+09 1.29902E+06 2.30826E+03 1.81729E+05 7.80092E+06-6.96128E+03
 -1      2262-6.07367E+09 1.17408E+06-8.49884E+04 1.85762E+05 7.35943E+06-2.00363E+03
 -1      2264-6.07367E+09 1.17408E+06-8.49884E+04 1.85762E+05 7.35943E+06-2.00363E+03
 -1      2265-5.57611E+09 1.09983E+06-6.23499E+03 1.91915E+05 6.90736E+06-5.50564E+03
 -1      2267-5.57611E+09 1.09983E+06-6.23499E+03 1.91915E+05 6.90736E+06-5.50564E+03
 -1      2268-5.06324E+09 9.79837E+05-6.48248E+04 1.89003E+05 6.43280E+06-3.19752E+03
 -1      2270-5.06324E+09 9.79837E+05-6.48248E+04 1.89003E+05 6.43280E+06-3.19752E+03
 -1      2271-4.53646E+09 8.85148E+05-1.18026E+04 1.83397E+05 5.96322E+06-5.47949E+03
 -1      2273-4.53646E+09 8.85148E+05-1.18026E+04 1.83397E+05 5.96322E+06-5.47949E+03
 -1      2274-3.99725E+09 7.70217E+05-4.66733E+04 1.56786E+05 5.48064E+06-3.39790E+03
 -1      2276-3.99725E+09 7.70217E+05-4.66733E+04 1.56786E+05 5.48064E+06-3.39790E+03
 -1      2277-3.44712E+09 6.47100E+05-1.51423E+04 1.18929E+05 5.02336E+06-7.78739E+03
 -1      2279-3.44712E+09 6.47100E+05-1.51423E+04 1.18929E+05 5.02336E+06-7.78739E+03
 -1      2280-2.88767E+09 5.45841E+05-3.01285E+04 2.57281E+04 4.56027E+06-6.10742E+02
 -1      2282-2.88767E+09 5.45841E+05-3.01285E+04 2.57281E+04 4.56027E+06-6.10742E+02
 -1      2283-2.32049E+09 3.73686E+05-1.72813E+04-7.50200E+04 4.15065E+06-2.17205E+04
 -1      2285-2.32049E+09 3.73686E+05-1.72813E+04-7.50200E+04 4.15065E+06-2.17205E+04
 -1      2286-1.74720E+09 4.66707E+05-1.50848E+04-1.23935E+05 3.74910E+06 1.54627E+04
 -1      2288-1.74720E+09 4.66707E+05-1.50848E+04-1.23935E+05 3.74910E+06 1.54627E+04
 -1      2289-1.16922E+09-8.32436E+04-1.82244E+04-2.11033E+05 3.41982E+06-9.75448E+04
 -1      2291-1.16922E+09-8.32436E+04-1.82244E+04-2.11033E+05 3.41982E+06-9.75448E+04
 -1      2292-5.86991E+08 1.39531E+06-8.44655E+03 9.68887E+05 3.20378E+06-1.61336E+04
 -1      2294-5.86991E+08 1.39531E+06-8.44655E+03 9.68887E+05 3.20378E+06-1.61336E+04
 -3
    1PSTEP                        43           1           1          
    1PGM                1.000000E+00                                  
    1PGK                7.353946E+06                                  
    1PHID                         -1                                  
    1PSUBC                         0                                  
    1PMODE                        11                                  
  100CL  111 431.5989067         930                     2   11MODAL      1
 -4  FORC        4    1
 -5  F1          1    2    1    0
 -5  F2          1    2    2    0
 -5  F3          1    2    3    0
 -5  ALL         1    2    0    0    1ALL
 -1       404 2.08920E+06-5.19283E+05 1.14392E+04
 -1       406 1.87691E+06-5.55033E+05 1.14392E+04
 -1       407-4.43140E+04 1.29687E+01-3.69329E+02
 -1       409-4.43140E+04 1.29687E+01-3.69329E+02
 -1       410-9.22840E+04 9.71328E-08 1.91432E+03
 -1       412-9.22840E+04-2.13737E-06 9.37789E+02
 -1       413-5.91423E+04-7.66466E+02-1.73320E+03
 -1       415-5.91423E+04 7.66466E+02-1.73320E+03
 -1       424 3.55295E+06 2.77149E-06 2.40827E+04
 -1       426 2.71920E+06 3.21818E-06 3.62326E+04
 -1       427 2.68691E+06 9.53628E+03 8.87902E+05
 -1       429 2.68691E+06-9.53628E+03 8.87902E+05
 -1       438-4.43140E+04-1.29687E+01-3.69329E+02
 -1       440-4.43140E+04-1.29687E+01-3.69329E+02
 -1       441 2.08920E+06 5.19283E+05 1.14392E+04
 -1       443 1.87691E+06 5.55033E+05 1.14392E+04
 -1       444 2.68691E+06 9.53628E+03-8.87902E+05
 -1       446 2.68691E+06-9.53628E+03-8.87902E+05
 -1       447 3.55295E+06 1.64270E-06-2.40827E+04
 -1       449 2.71920E+06 1.97313E-06-3.62326E+04
 -1       458-5.91423E+04-7.66466E+02 1.73320E+03
 -1       460-5.91423E+04 7.66466E+02 1.73320E+03
 -1       461-9.22840E+04-3.53370E-06-1.91432E+03
 -1       463-9.22840E+04 8.03620E-06-9.37789E+02
 -1       472 2.08920E+06 5.19283E+05-1.14392E+04
 -1       474 1.87691E+06 5.55033E+05-1.14392E+04
 -1       475-4.43140E+04-1.29687E+01 3.69329E+02
 -1       477-4.43140E+04-1.29687E+01 3.69329E+02
 -1       478-4.43140E+04 1.29687E+01 3.69329E+02
 -1       480-4.43140E+04 1.29687E+01 3.69329E+02
 -1       481 2.08920E+06-5.19283E+05-1.14392E+04
 -1       483 1.87691E+06-5.55033E+05-1.14392E+04
 -1       484-4.58789E+03 7.94166E+02-1.72386E+03
 -1       486-4.58789E+03 7.94166E+02-1.72386E+03
 -1       487-9.16261E+03 9.73261E+02-2.99931E+03
 -1       489-9.16261E+03 9.73261E+02-2.99931E+03
 -1       490-1.37313E+04 9.16996E+02-3.56722E+03
 -1       492-1.37313E+04 9.16996E+02-3.56722E+03
 -1       493-1.82772E+04 9.15653E+02-3.80220E+03
 -1       495-1.82772E+04 9.15653E+02-3.80220E+03
 -1       496-2.27782E+04 9.09430E+02-3.95321E+03
 -1       498-2.27782E+04 9.09430E+02-3.95321E+03
 -1       499-2.72252E+04 8.95337E+02-4.03212E+03
 -1       501-2.72252E+04 8.95337E+02-4.03212E+03
 -1       502-3.16032E+04 8.79751E+02-4.07779E+03
 -1       504-3.16032E+04 8.79751E+02-4.07779E+03
 -1       505-3.58970E+04 8.61191E+02-4.08860E+03
 -1       507-3.58970E+04 8.61191E+02-4.08860E+03
 -1       508-4.00937E+04 8.40094E+02-4.07129E+03
 -1       510-4.00937E+04 8.40094E+02-4.07129E+03
 -1       511-4.41809E+04 8.16670E+02-4.02705E+03
 -1       513-4.41809E+04 8.16670E+02-4.02705E+03
 -1       514-4.81470E+04 7.90944E+02-3.95877E+03
 -1       516-4.81470E+04 7.90944E+02-3.95877E+03
 -1       517-5.19808E+04 7.63046E+02-3.86853E+03
 -1       519-5.19808E+04 7.63046E+02-3.86853E+03
 -1       520-5.56719E+04 7.33034E+02-3.75859E+03
 -1       522-5.56719E+04 7.33034E+02-3.75859E+03
 -1       523-5.92099E+04 7.01010E+02-3.63097E+03
 -1       525-5.92099E+04 7.01010E+02-3.63097E+03
 -1       526-6.25851E+04 6.67053E+02-3.48757E+03
 -1       528-6.25851E+04 6.67053E+02-3.48757E+03
 -1       529-6.57882E+04 6.31263E+02-3.33020E+03
 -1       531-6.57882E+04 6.31263E+02-3.33020E+03
 -1       532-6.88104E+04 5.93735E+02-3.16056E+03
 -1       534-6.88104E+04 5.93735E+02-3.16056E+03
 -1       535-7.16435E+04 5.54576E+02-2.98028E+03
 -1       537-7.16435E+04 5.54576E+02-2.98028E+03
 -1       538-7.42796E+04 5.13890E+02-2.79097E+03
 -1       540-7.42796E+04 5.13890E+02-2.79097E+03
 -1       541-7.67114E+04 4.71792E+02-2.59423E+03
 -1       543-7.67114E+04 4.71792E+02-2.59423E+03
 -1       544-7.89323E+04 4.28397E+02-2.39171E+03
 -1       546-7.89323E+04 4.28397E+02-2.39171E+03
 -1       547-8.09362E+04 3.83825E+02-2.18508E+03
 -1       549-8.09362E+04 3.83825E+02-2.18508E+03
 -1       550-8.27176E+04 3.38201E+02-1.97611E+03
 -1       552-8.27176E+04 3.38201E+02-1.97611E+03
 -1       553-8.42715E+04 2.91651E+02-1.76669E+03
 -1       555-8.42715E+04 2.91651E+02-1.76669E+03
 -1       556-8.55939E+04 2.44312E+02-1.55886E+03
 -1       558-8.55939E+04 2.44312E+02-1.55886E+03
 -1       559-8.66811E+04 1.96316E+02-1.35512E+03
 -1       561-8.66811E+04 1.96316E+02-1.35512E+03
 -1       562-8.75302E+04 1.47853E+02-1.15834E+03
 -1       564-8.75302E+04 1.47853E+02-1.15834E+03
 -1       565-8.81390E+04 9.88596E+01-9.73611E+02
 -1       567-8.81390E+04 9.88596E+01-9.73611E+02
 -1       568-8.85055E+04 5.00593E+01-8.11921E+02
 -1       570-8.85055E+04 5.00593E+01-8.11921E+02
 -1       571-8.86357E+04 1.72822E+01-4.95354E+02
 -1       573-8.86357E+04 1.72822E+01-4.95354E+02
 -1       574-3.00461E+05-4.95441E-07-2.05633E+05
 -1       576-3.00461E+05 9.28203E-08-2.12309E+05
 -1       577 2.85086E+05-5.24037E+03 2.03977E+05
 -1       579 2.85086E+05 5.24037E+03 2.03977E+05
 -1       588-2.87982E+04-1.11484E-06 1.24798E+05
 -1       590-2.87982E+04-1.54178E-06 1.36013E+05
 -1       591-2.27548E+03 8.80225E+03-1.38423E+05
 -1       593-2.27548E+03-8.80225E+03-1.38423E+05
 -1       602 4.07740E+04 2.29091E-07-3.19159E+04
 -1       604 4.07740E+04-1.75917E-06-3.28588E+04
 -1       605-8.75588E+04-7.40042E+02 2.34184E+04
 -1       607-8.75588E+04 7.40042E+02 2.34184E+04
 -1       616-2.28585E+04 8.80341E-07 5.15460E+04
 -1       618-2.28585E+04-3.56945E-06 4.44328E+04
 -1       619-3.94864E+04-5.58305E+03-5.71262E+04
 -1       621-3.94864E+04 5.58305E+03-5.71262E+04
 -1       630-1.13974E+04 2.07671E-06 6.05390E+03
 -1       632-1.13974E+04-5.10784E-06 1.07788E+04
 -1       633-6.63769E+04 3.70850E+03-1.75413E+04
 -1       635-6.63769E+04-3.70850E+03-1.75413E+04
 -1       644-4.55822E+04 2.33359E-06 3.32882E+04
 -1       646-4.55822E+04-7.40261E-06 2.61370E+04
 -1       647-4.74198E+04-5.61281E+03-3.87272E+04
 -1       649-4.74198E+04 5.61281E+03-3.87272E+04
 -1       658-5.40475E+04 3.39847E-06 1.69788E+04
 -1       660-5.40475E+04-8.14596E-06 1.91384E+04
 -1       661-5.39300E+04 1.69504E+03-2.69434E+04
 -1       663-5.39300E+04-1.69504E+03-2.69434E+04
 -1       672-6.98079E+04 5.32820E-06 2.73366E+04
 -1       674-6.98079E+04-7.84233E-06 2.24256E+04
 -1       675-5.28508E+04-3.85457E+03-3.36063E+04
 -1       677-5.28508E+04 3.85457E+03-3.36063E+04
 -1       686-7.79721E+04 6.78087E-06 2.04179E+04
 -1       688-7.79721E+04-8.21711E-06 2.06099E+04
 -1       689-5.90315E+04 1.50671E+02-2.90571E+04
 -1       691-5.90315E+04-1.50671E+02-2.90571E+04
 -1       700-8.83682E+04 7.04517E-06 2.45279E+04
 -1       702-8.83682E+04-8.39530E-06 2.11290E+04
 -1       703-6.26040E+04-2.66775E+03-3.11618E+04
 -1       705-6.26040E+04 2.66775E+03-3.11618E+04
 -1       714-9.59283E+04 7.93802E-06 2.11574E+04
 -1       716-9.59283E+04-6.95515E-06 2.02940E+04
 -1       717-6.85976E+04-6.77726E+02-2.88231E+04
 -1       719-6.85976E+04 6.77726E+02-2.88231E+04
 -1       728-1.04347E+05 5.97653E-06 2.25317E+04
 -1       730-1.04347E+05-6.59661E-06 2.00242E+04
 -1       731-7.32808E+04-1.96810E+03-2.91125E+04
 -1       733-7.32808E+04 1.96810E+03-2.91125E+04
 -1       742-1.11511E+05 3.73923E-06 2.06085E+04
 -1       744-1.11511E+05-4.68338E-06 1.92684E+04
 -1       745-7.87297E+04-1.05178E+03-2.74850E+04
 -1       747-7.87297E+04 1.05178E+03-2.74850E+04
 -1       756-1.18875E+05 5.10375E-06 2.06729E+04
 -1       758-1.18875E+05-1.60016E-07 1.86922E+04
 -1       759-8.34551E+04-1.55464E+03-2.69169E+04
 -1       761-8.34551E+04 1.55464E+03-2.69169E+04
 -1       770-1.25536E+05 5.36772E-06 1.93232E+04
 -1       772-1.25536E+05-5.05196E-07 1.78353E+04
 -1       773-8.83287E+04-1.16783E+03-2.54788E+04
 -1       775-8.83287E+04 1.16783E+03-2.54788E+04
 -1       784-1.32068E+05 7.01635E-06 1.87281E+04
 -1       786-1.32068E+05-1.38145E-06 1.70883E+04
 -1       787-9.27417E+04-1.28707E+03-2.44520E+04
 -1       789-9.27417E+04 1.28707E+03-2.44520E+04
 -1       798-1.38087E+05 9.14742E-06 1.75744E+04
 -1       800-1.38087E+05-1.85479E-06 1.61152E+04
 -1       801-9.70507E+04-1.14530E+03-2.30133E+04
 -1       803-9.70507E+04 1.14530E+03-2.30133E+04
 -1       812-1.43814E+05 8.28874E-06 1.66321E+04
 -1       814-1.43814E+05-5.03202E-06 1.52498E+04
 -1       815-1.01005E+05-1.08496E+03-2.17162E+04
 -1       817-1.01005E+05 1.08496E+03-2.17162E+04
 -1       826-1.49082E+05 7.45679E-06 1.55209E+04
 -1       828-1.49082E+05-8.00011E-06 1.41810E+04
 -1       829-1.04745E+05-1.05169E+03-2.02167E+04
 -1       831-1.04745E+05 1.05169E+03-2.02167E+04
 -1       840-1.53975E+05 6.77650E-06 1.43864E+04
 -1       842-1.53975E+05-1.00085E-05 1.32317E+04
 -1       843-1.08161E+05-9.06362E+02-1.87507E+04
 -1       845-1.08161E+05 9.06362E+02-1.87507E+04
 -1       854-1.58401E+05 6.52438E-06 1.32713E+04
 -1       856-1.58401E+05-1.12008E-05 1.20927E+04
 -1       857-1.11325E+05-9.25051E+02-1.71865E+04
 -1       859-1.11325E+05 9.25051E+02-1.71865E+04
 -1       868-1.62410E+05 6.42125E-06 1.20246E+04
 -1       870-1.62410E+05-1.02918E-05 1.10934E+04
 -1       871-1.14163E+05-7.30820E+02-1.56151E+04
 -1       873-1.14163E+05 7.30820E+02-1.56151E+04
 -1       882-1.65887E+05 5.57058E-06 1.09165E+04
 -1       884-1.65887E+05-9.65508E-06 9.91214E+03
 -1       885-1.16774E+05-7.88337E+02-1.40125E+04
 -1       887-1.16774E+05 7.88337E+02-1.40125E+04
 -1       896-1.68929E+05 5.08654E-06 9.59399E+03
 -1       898-1.68929E+05-8.21613E-06 8.89231E+03
 -1       899-1.19041E+05-5.50738E+02-1.23757E+04
 -1       901-1.19041E+05 5.50738E+02-1.23757E+04
 -1       910-1.71280E+05 4.18036E-06 8.55673E+03
 -1       912-1.71280E+05-7.14794E-06 7.72155E+03
 -1       913-1.21209E+05-6.55519E+02-1.08003E+04
 -1       915-1.21209E+05 6.55519E+02-1.08003E+04
 -1       924-1.73272E+05 3.77667E-06 7.12773E+03
 -1       926-1.73272E+05-5.44741E-06 6.65134E+03
 -1       927-1.22931E+05-3.73910E+02-9.07604E+03
 -1       929-1.22931E+05 3.73910E+02-9.07604E+03
 -1       938-1.74489E+05 3.35423E-06 6.37613E+03
 -1       940-1.74489E+05-1.78110E-06 5.70478E+03
 -1       941-1.24614E+05-5.26932E+02-7.75270E+03
 -1       943-1.24614E+05 5.26932E+02-7.75270E+03
 -1       952-1.75933E+05 2.88981E-06 4.51072E+03
 -1       954-1.75933E+05 1.05993E-06 4.22779E+03
 -1       955-1.25248E+05-2.22063E+02-5.61634E+03
 -1       957-1.25248E+05 2.22063E+02-5.61634E+03
 -1       966-1.78958E+05 4.62731E-06 4.79093E+03
 -1       968-1.78958E+05 2.56123E-06 4.27056E+03
 -1       969-1.23475E+05-4.08429E+02-5.34713E+03
 -1       971-1.23475E+05 4.08429E+02-5.34713E+03
 -1       980 3.61045E+06-3.48461E+05 4.39007E+04
 -1       982 2.98128E+06-2.39626E+05 4.39007E+04
 -1       983-8.86357E+04-1.72822E+01-4.95354E+02
 -1       985-8.86357E+04-1.72822E+01-4.95354E+02
 -1       986-4.58789E+03-7.94166E+02-1.72386E+03
 -1       988-4.58789E+03-7.94166E+02-1.72386E+03
 -1       989-9.16261E+03-9.73261E+02-2.99931E+03
 -1       991-9.16261E+03-9.73261E+02-2.99931E+03
 -1       992-1.37313E+04-9.16996E+02-3.56722E+03
 -1       994-1.37313E+04-9.16996E+02-3.56722E+03
 -1       995-1.82772E+04-9.15653E+02-3.80220E+03
 -1       997-1.82772E+04-9.15653E+02-3.80220E+03
 -1       998-2.27782E+04-9.09430E+02-3.95321E+03
 -1      1000-2.27782E+04-9.09430E+02-3.95321E+03
 -1      1001-2.72252E+04-8.95337E+02-4.03212E+03
 -1      1003-2.72252E+04-8.95337E+02-4.03212E+03
 -1      1004-3.16032E+04-8.79751E+02-4.07779E+03
 -1      1006-3.16032E+04-8.79751E+02-4.07779E+03
 -1      1007-3.58970E+04-8.61191E+02-4.08860E+03
 -1      1009-3.58970E+04-8.61191E+02-4.08860E+03
 -1      1010-4.00937E+04-8.40094E+02-4.07129E+03
 -1      1012-4.00937E+04-8.40094E+02-4.07129E+03
 -1      1013-4.41809E+04-8.16670E+02-4.02705E+03
 -1      1015-4.41809E+04-8.16670E+02-4.02705E+03
 -1      1016-4.81470E+04-7.90944E+02-3.95877E+03
 -1      1018-4.81470E+04-7.90944E+02-3.95877E+03
 -1      1019-5.19808E+04-7.63046E+02-3.86853E+03
 -1      1021-5.19808E+04-7.63046E+02-3.86853E+03
 -1      1022-5.56719E+04-7.33034E+02-3.75859E+03
 -1      1024-5.56719E+04-7.33034E+02-3.75859E+03
 -1      1025-5.92099E+04-7.01010E+02-3.63097E+03
 -1      1027-5.92099E+04-7.01010E+02-3.63097E+03
 -1      1028-6.25851E+04-6.67053E+02-3.48757E+03
 -1      1030-6.25851E+04-6.67053E+02-3.48757E+03
 -1      1031-6.57882E+04-6.31263E+02-3.33020E+03
 -1      1033-6.57882E+04-6.31263E+02-3.33020E+03
 -1      1034-6.88104E+04-5.93735E+02-3.16056E+03
 -1      1036-6.88104E+04-5.93735E+02-3.16056E+03
 -1      1037-7.16435E+04-5.54576E+02-2.98028E+03
 -1      1039-7.16435E+04-5.54576E+02-2.98028E+03
 -1      1040-7.42796E+04-5.13890E+02-2.79097E+03
 -1      1042-7.42796E+04-5.13890E+02-2.79097E+03
 -1      1043-7.67114E+04-4.71792E+02-2.59423E+03
 -1      1045-7.67114E+04-4.71792E+02-2.59423E+03
 -1      1046-7.89323E+04-4.28397E+02-2.39171E+03
 -1      1048-7.89323E+04-4.28397E+02-2.39171E+03
 -1      1049-8.09362E+04-3.83825E+02-2.18508E+03
 -1      1051-8.09362E+04-3.83825E+02-2.18508E+03
 -1      1052-8.27176E+04-3.38201E+02-1.97611E+03
 -1      1054-8.27176E+04-3.38201E+02-1.97611E+03
 -1      1055-8.42715E+04-2.91651E+02-1.76669E+03
 -1      1057-8.42715E+04-2.91651E+02-1.76669E+03
 -1      1058-8.55939E+04-2.44312E+02-1.55886E+03
 -1      1060-8.55939E+04-2.44312E+02-1.55886E+03
 -1      1061-8.66811E+04-1.96316E+02-1.35512E+03
 -1      1063-8.66811E+04-1.96316E+02-1.35512E+03
 -1      1064-8.75302E+04-1.47853E+02-1.15834E+03
 -1      1066-8.75302E+04-1.47853E+02-1.15834E+03
 -1      1067-8.81390E+04-9.88596E+01-9.73611E+02
 -1      1069-8.81390E+04-9.88596E+01-9.73611E+02
 -1      1070-8.85055E+04-5.00593E+01-8.11921E+02
 -1      1072-8.85055E+04-5.00593E+01-8.11921E+02
 -1      1073 3.61045E+06 3.48461E+05 4.39007E+04
 -1      1075 2.98128E+06 2.39626E+05 4.39007E+04
 -1      1076 4.48865E+06-2.33720E-07 3.17511E+05
 -1      1078 4.48865E+06 2.52172E-07 3.17511E+05
 -1      1079 4.45639E+06 1.07310E-06 3.91388E-06
 -1      1081 4.45639E+06 1.49967E-06 3.71557E-06
 -1      1082 4.48865E+06 1.44437E-06-3.17511E+05
 -1      1084 4.48865E+06 1.50910E-06-3.17511E+05
 -1      1085 2.85086E+05-5.24037E+03-2.03977E+05
 -1      1087 2.85086E+05 5.24037E+03-2.03977E+05
 -1      1088-3.00461E+05-1.38873E-07 2.05633E+05
 -1      1090-3.00461E+05 1.17706E-06 2.12309E+05
 -1      1099-2.27548E+03 8.80225E+03 1.38423E+05
 -1      1101-2.27548E+03-8.80225E+03 1.38423E+05
 -1      1102-2.87982E+04-2.16870E-06-1.24798E+05
 -1      1104-2.87982E+04 5.78358E-07-1.36013E+05
 -1      1113-8.75588E+04-7.40042E+02-2.34184E+04
 -1      1115-8.75588E+04 7.40042E+02-2.34184E+04
 -1      1116 4.07740E+04-1.84014E-06 3.19159E+04
 -1      1118 4.07740E+04 9.38222E-07 3.28588E+04
 -1      1127-3.94864E+04-5.58305E+03 5.71262E+04
 -1      1129-3.94864E+04 5.58305E+03 5.71262E+04
 -1      1130-2.28585E+04-1.59034E-06-5.15460E+04
 -1      1132-2.28585E+04-8.32020E-07-4.44328E+04
 -1      1141-6.63769E+04 3.70850E+03 1.75413E+04
 -1      1143-6.63769E+04-3.70850E+03 1.75413E+04
 -1      1144-1.13974E+04-6.43152E-07-6.05390E+03
 -1      1146-1.13974E+04-3.12380E-06-1.07788E+04
 -1      1155-4.74198E+04-5.61281E+03 3.87272E+04
 -1      1157-4.74198E+04 5.61281E+03 3.87272E+04
 -1      1158-4.55822E+04 4.72696E-08-3.32882E+04
 -1      1160-4.55822E+04-4.94396E-06-2.61370E+04
 -1      1169-5.39300E+04 1.69504E+03 2.69434E+04
 -1      1171-5.39300E+04-1.69504E+03 2.69434E+04
 -1      1172-5.40475E+04 1.07978E-06-1.69788E+04
 -1      1174-5.40475E+04-5.43471E-06-1.91384E+04
 -1      1183-5.28508E+04-3.85457E+03 3.36063E+04
 -1      1185-5.28508E+04 3.85457E+03 3.36063E+04
 -1      1186-6.98079E+04 2.28144E-06-2.73366E+04
 -1      1188-6.98079E+04-4.93437E-06-2.24256E+04
 -1      1197-5.90315E+04 1.50671E+02 2.90571E+04
 -1      1199-5.90315E+04-1.50671E+02 2.90571E+04
 -1      1200-7.79721E+04 3.16103E-06-2.04179E+04
 -1      1202-7.79721E+04-5.24051E-06-2.06099E+04
 -1      1211-6.26040E+04-2.66775E+03 3.11618E+04
 -1      1213-6.26040E+04 2.66775E+03 3.11618E+04
 -1      1214-8.83682E+04 4.35925E-06-2.45279E+04
 -1      1216-8.83682E+04-5.61112E-06-2.11290E+04
 -1      1225-6.85976E+04-6.77726E+02 2.88231E+04
 -1      1227-6.85976E+04 6.77726E+02 2.88231E+04
 -1      1228-9.59283E+04 7.23049E-06-2.11574E+04
 -1      1230-9.59283E+04-3.84000E-06-2.02940E+04
 -1      1239-7.32808E+04-1.96810E+03 2.91125E+04
 -1      1241-7.32808E+04 1.96810E+03 2.91125E+04
 -1      1242-1.04347E+05 4.93050E-06-2.25317E+04
 -1      1244-1.04347E+05-6.80523E-06-2.00242E+04
 -1      1253-7.87297E+04-1.05178E+03 2.74850E+04
 -1      1255-7.87297E+04 1.05178E+03 2.74850E+04
 -1      1256-1.11511E+05 4.93022E-06-2.06085E+04
 -1      1258-1.11511E+05-5.45542E-06-1.92684E+04
 -1      1267-8.34551E+04-1.55464E+03 2.69169E+04
 -1      1269-8.34551E+04 1.55464E+03 2.69169E+04
 -1      1270-1.18875E+05 6.14692E-06-2.06729E+04
 -1      1272-1.18875E+05 4.41357E-07-1.86922E+04
 -1      1281-8.83287E+04-1.16783E+03 2.54788E+04
 -1      1283-8.83287E+04 1.16783E+03 2.54788E+04
 -1      1284-1.25536E+05 3.61625E-06-1.93232E+04
 -1      1286-1.25536E+05 2.60199E-06-1.78353E+04
 -1      1295-9.27417E+04-1.28707E+03 2.44520E+04
 -1      1297-9.27417E+04 1.28707E+03 2.44520E+04
 -1      1298-1.32068E+05 1.20800E-06-1.87281E+04
 -1      1300-1.32068E+05 5.47808E-06-1.70883E+04
 -1      1309-9.70507E+04-1.14530E+03 2.30133E+04
 -1      1311-9.70507E+04 1.14530E+03 2.30133E+04
 -1      1312-1.38087E+05-1.91001E-06-1.75744E+04
 -1      1314-1.38087E+05 6.95270E-06-1.61152E+04
 -1      1323-1.01005E+05-1.08496E+03 2.17162E+04
 -1      1325-1.01005E+05 1.08496E+03 2.17162E+04
 -1      1326-1.43814E+05-5.64084E-06-1.66321E+04
 -1      1328-1.43814E+05 7.74431E-06-1.52498E+04
 -1      1337-1.04745E+05-1.05169E+03 2.02167E+04
 -1      1339-1.04745E+05 1.05169E+03 2.02167E+04
 -1      1340-1.49082E+05-6.96793E-06-1.55209E+04
 -1      1342-1.49082E+05 7.99905E-06-1.41810E+04
 -1      1351-1.08161E+05-9.06362E+02 1.87507E+04
 -1      1353-1.08161E+05 9.06362E+02 1.87507E+04
 -1      1354-1.53975E+05-8.96100E-06-1.43864E+04
 -1      1356-1.53975E+05 5.52649E-06-1.32317E+04
 -1      1365-1.11325E+05-9.25051E+02 1.71865E+04
 -1      1367-1.11325E+05 9.25051E+02 1.71865E+04
 -1      1368-1.58401E+05-9.17290E-06-1.32713E+04
 -1      1370-1.58401E+05 4.87825E-06-1.20927E+04
 -1      1379-1.14163E+05-7.30820E+02 1.56151E+04
 -1      1381-1.14163E+05 7.30820E+02 1.56151E+04
 -1      1382-1.62410E+05-9.67415E-06-1.20246E+04
 -1      1384-1.62410E+05 4.32666E-06-1.10934E+04
 -1      1393-1.16774E+05-7.88337E+02 1.40125E+04
 -1      1395-1.16774E+05 7.88337E+02 1.40125E+04
 -1      1396-1.65887E+05-1.07604E-05-1.09165E+04
 -1      1398-1.65887E+05 5.39081E-06-9.91214E+03
 -1      1407-1.19041E+05-5.50738E+02 1.23757E+04
 -1      1409-1.19041E+05 5.50738E+02 1.23757E+04
 -1      1410-1.68929E+05-1.06694E-05-9.59399E+03
 -1      1412-1.68929E+05 6.47322E-06-8.89231E+03
 -1      1421-1.21209E+05-6.55519E+02 1.08003E+04
 -1      1423-1.21209E+05 6.55519E+02 1.08003E+04
 -1      1424-1.71280E+05-9.54500E-06-8.55673E+03
 -1      1426-1.71280E+05 6.76469E-06-7.72155E+03
 -1      1435-1.22931E+05-3.73910E+02 9.07604E+03
 -1      1437-1.22931E+05 3.73910E+02 9.07604E+03
 -1      1438-1.73272E+05-9.05935E-06-7.12773E+03
 -1      1440-1.73272E+05 6.94079E-06-6.65134E+03
 -1      1449-1.24614E+05-5.26932E+02 7.75270E+03
 -1      1451-1.24614E+05 5.26932E+02 7.75270E+03
 -1      1452-1.74489E+05-1.00512E-05-6.37613E+03
 -1      1454-1.74489E+05 9.80746E-06-5.70478E+03
 -1      1463-1.25248E+05-2.22063E+02 5.61634E+03
 -1      1465-1.25248E+05 2.22063E+02 5.61634E+03
 -1      1466-1.75933E+05-1.03086E-05-4.51072E+03
 -1      1468-1.75933E+05 1.19094E-05-4.22779E+03
 -1      1477-1.23475E+05-4.08429E+02 5.34713E+03
 -1      1479-1.23475E+05 4.08429E+02 5.34713E+03
 -1      1480-1.78958E+05-1.00544E-05-4.79093E+03
 -1      1482-1.78958E+05 1.21327E-05-4.27056E+03
 -1      1491-1.25615E+05 3.71292E-06-7.32292E+01
 -1      1493-1.25615E+05-2.64949E-06-7.32292E+01
 -1      1494-1.25665E+05 3.82733E-06 2.69642E-07
 -1      1496-1.25665E+05-5.50038E-06-5.80947E-07
 -1      1497-1.25615E+05 4.49150E-06 7.32292E+01
 -1      1499-1.25615E+05-3.35652E-06 7.32292E+01
 -1      1500-4.58789E+03-7.94166E+02 1.72386E+03
 -1      1502-4.58789E+03-7.94166E+02 1.72386E+03
 -1      1503-9.16261E+03-9.73261E+02 2.99931E+03
 -1      1505-9.16261E+03-9.73261E+02 2.99931E+03
 -1      1506-1.37313E+04-9.16996E+02 3.56722E+03
 -1      1508-1.37313E+04-9.16996E+02 3.56722E+03
 -1      1509-1.82772E+04-9.15653E+02 3.80220E+03
 -1      1511-1.82772E+04-9.15653E+02 3.80220E+03
 -1      1512-2.27782E+04-9.09430E+02 3.95321E+03
 -1      1514-2.27782E+04-9.09430E+02 3.95321E+03
 -1      1515-2.72252E+04-8.95337E+02 4.03212E+03
 -1      1517-2.72252E+04-8.95337E+02 4.03212E+03
 -1      1518-3.16032E+04-8.79751E+02 4.07779E+03
 -1      1520-3.16032E+04-8.79751E+02 4.07779E+03
 -1      1521-3.58970E+04-8.61191E+02 4.08860E+03
 -1      1523-3.58970E+04-8.61191E+02 4.08860E+03
 -1      1524-4.00937E+04-8.40094E+02 4.07129E+03
 -1      1526-4.00937E+04-8.40094E+02 4.07129E+03
 -1      1527-4.41809E+04-8.16670E+02 4.02705E+03
 -1      1529-4.41809E+04-8.16670E+02 4.02705E+03
 -1      1530-4.81470E+04-7.90944E+02 3.95877E+03
 -1      1532-4.81470E+04-7.90944E+02 3.95877E+03
 -1      1533-5.19808E+04-7.63046E+02 3.86853E+03
 -1      1535-5.19808E+04-7.63046E+02 3.86853E+03
 -1      1536-5.56719E+04-7.33034E+02 3.75859E+03
 -1      1538-5.56719E+04-7.33034E+02 3.75859E+03
 -1      1539-5.92099E+04-7.01010E+02 3.63097E+03
 -1      1541-5.92099E+04-7.01010E+02 3.63097E+03
 -1      1542-6.25851E+04-6.67053E+02 3.48757E+03
 -1      1544-6.25851E+04-6.67053E+02 3.48757E+03
 -1      1545-6.57882E+04-6.31263E+02 3.33020E+03
 -1      1547-6.57882E+04-6.31263E+02 3.33020E+03
 -1      1548-6.88104E+04-5.93735E+02 3.16056E+03
 -1      1550-6.88104E+04-5.93735E+02 3.16056E+03
 -1      1551-7.16435E+04-5.54576E+02 2.98028E+03
 -1      1553-7.16435E+04-5.54576E+02 2.98028E+03
 -1      1554-7.42796E+04-5.13890E+02 2.79097E+03
 -1      1556-7.42796E+04-5.13890E+02 2.79097E+03
 -1      1557-7.67114E+04-4.71792E+02 2.59423E+03
 -1      1559-7.67114E+04-4.71792E+02 2.59423E+03
 -1      1560-7.89323E+04-4.28397E+02 2.39171E+03
 -1      1562-7.89323E+04-4.28397E+02 2.39171E+03
 -1      1563-8.09362E+04-3.83825E+02 2.18508E+03
 -1      1565-8.09362E+04-3.83825E+02 2.18508E+03
 -1      1566-8.27176E+04-3.38201E+02 1.97611E+03
 -1      1568-8.27176E+04-3.38201E+02 1.97611E+03
 -1      1569-8.42715E+04-2.91651E+02 1.76669E+03
 -1      1571-8.42715E+04-2.91651E+02 1.76669E+03
 -1      1572-8.55939E+04-2.44312E+02 1.55886E+03
 -1      1574-8.55939E+04-2.44312E+02 1.55886E+03
 -1      1575-8.66811E+04-1.96316E+02 1.35512E+03
 -1      1577-8.66811E+04-1.96316E+02 1.35512E+03
 -1      1578-8.75302E+04-1.47853E+02 1.15834E+03
 -1      1580-8.75302E+04-1.47853E+02 1.15834E+03
 -1      1581-8.81390E+04-9.88596E+01 9.73611E+02
 -1      1583-8.81390E+04-9.88596E+01 9.73611E+02
 -1      1584-8.85055E+04-5.00593E+01 8.11921E+02
 -1      1586-8.85055E+04-5.00593E+01 8.11921E+02
 -1      1587-8.86357E+04-1.72822E+01 4.95354E+02
 -1      1589-8.86357E+04-1.72822E+01 4.95354E+02
 -1      1590 3.61045E+06 3.48461E+05-4.39007E+04
 -1      1592 2.98128E+06 2.39626E+05-4.39007E+04
 -1      1593-8.86357E+04 1.72822E+01 4.95354E+02
 -1      1595-8.86357E+04 1.72822E+01 4.95354E+02
 -1      1596-4.58789E+03 7.94166E+02 1.72386E+03
 -1      1598-4.58789E+03 7.94166E+02 1.72386E+03
 -1      1599-9.16261E+03 9.73261E+02 2.99931E+03
 -1      1601-9.16261E+03 9.73261E+02 2.99931E+03
 -1      1602-1.37313E+04 9.16996E+02 3.56722E+03
 -1      1604-1.37313E+04 9.16996E+02 3.56722E+03
 -1      1605-1.82772E+04 9.15653E+02 3.80220E+03
 -1      1607-1.82772E+04 9.15653E+02 3.80220E+03
 -1      1608-2.27782E+04 9.09430E+02 3.95321E+03
 -1      1610-2.27782E+04 9.09430E+02 3.95321E+03
 -1      1611-2.72252E+04 8.95337E+02 4.03212E+03
 -1      1613-2.72252E+04 8.95337E+02 4.03212E+03
 -1      1614-3.16032E+04 8.79751E+02 4.07779E+03
 -1      1616-3.16032E+04 8.79751E+02 4.07779E+03
 -1      1617-3.58970E+04 8.61191E+02 4.08860E+03
 -1      1619-3.58970E+04 8.61191E+02 4.08860E+03
 -1      1620-4.00937E+04 8.40094E+02 4.07129E+03
 -1      1622-4.00937E+04 8.40094E+02 4.07129E+03
 -1      1623-4.41809E+04 8.16670E+02 4.02705E+03
 -1      1625-4.41809E+04 8.16670E+02 4.02705E+03
 -1      1626-4.81470E+04 7.90944E+02 3.95877E+03
 -1      1628-4.81470E+04 7.90944E+02 3.95877E+03
 -1      1629-5.19808E+04 7.63046E+02 3.86853E+03
 -1      1631-5.19808E+04 7.63046E+02 3.86853E+03
 -1      1632-5.56719E+04 7.33034E+02 3.75859E+03
 -1      1634-5.56719E+04 7.33034E+02 3.75859E+03
 -1      1635-5.92099E+04 7.01010E+02 3.63097E+03
 -1      1637-5.92099E+04 7.01010E+02 3.63097E+03
 -1      1638-6.25851E+04 6.67053E+02 3.48757E+03
 -1      1640-6.25851E+04 6.67053E+02 3.48757E+03
 -1      1641-6.57882E+04 6.31263E+02 3.33020E+03
 -1      1643-6.57882E+04 6.31263E+02 3.33020E+03
 -1      1644-6.88104E+04 5.93735E+02 3.16056E+03
 -1      1646-6.88104E+04 5.93735E+02 3.16056E+03
 -1      1647-7.16435E+04 5.54576E+02 2.98028E+03
 -1      1649-7.16435E+04 5.54576E+02 2.98028E+03
 -1      1650-7.42796E+04 5.13890E+02 2.79097E+03
 -1      1652-7.42796E+04 5.13890E+02 2.79097E+03
 -1      1653-7.67114E+04 4.71792E+02 2.59423E+03
 -1      1655-7.67114E+04 4.71792E+02 2.59423E+03
 -1      1656-7.89323E+04 4.28397E+02 2.39171E+03
 -1      1658-7.89323E+04 4.28397E+02 2.39171E+03
 -1      1659-8.09362E+04 3.83825E+02 2.18508E+03
 -1      1661-8.09362E+04 3.83825E+02 2.18508E+03
 -1      1662-8.27176E+04 3.38201E+02 1.97611E+03
 -1      1664-8.27176E+04 3.38201E+02 1.97611E+03
 -1      1665-8.42715E+04 2.91651E+02 1.76669E+03
 -1      1667-8.42715E+04 2.91651E+02 1.76669E+03
 -1      1668-8.55939E+04 2.44312E+02 1.55886E+03
 -1      1670-8.55939E+04 2.44312E+02 1.55886E+03
 -1      1671-8.66811E+04 1.96316E+02 1.35512E+03
 -1      1673-8.66811E+04 1.96316E+02 1.35512E+03
 -1      1674-8.75302E+04 1.47853E+02 1.15834E+03
 -1      1676-8.75302E+04 1.47853E+02 1.15834E+03
 -1      1677-8.81390E+04 9.88596E+01 9.73611E+02
 -1      1679-8.81390E+04 9.88596E+01 9.73611E+02
 -1      1680-8.85055E+04 5.00593E+01 8.11921E+02
 -1      1682-8.85055E+04 5.00593E+01 8.11921E+02
 -1      1683 3.61045E+06-3.48461E+05-4.39007E+04
 -1      1685 2.98128E+06-2.39626E+05-4.39007E+04
 -1      1686-9.12919E+03 1.05139E+03-3.37022E+03
 -1      1688-9.12919E+03 1.05139E+03-3.37022E+03
 -1      1689-1.83159E+04 1.29960E+03-5.66623E+03
 -1      1691-1.83159E+04 1.29960E+03-5.66623E+03
 -1      1692-2.74676E+04 1.22322E+03-6.56309E+03
 -1      1694-2.74676E+04 1.22322E+03-6.56309E+03
 -1      1695-3.65486E+04 1.22009E+03-6.86690E+03
 -1      1697-3.65486E+04 1.22009E+03-6.86690E+03
 -1      1698-4.55551E+04 1.21327E+03-7.03012E+03
 -1      1700-4.55551E+04 1.21327E+03-7.03012E+03
 -1      1701-5.44524E+04 1.19369E+03-7.08410E+03
 -1      1703-5.44524E+04 1.19369E+03-7.08410E+03
 -1      1704-6.32102E+04 1.17323E+03-7.09622E+03
 -1      1706-6.32102E+04 1.17323E+03-7.09622E+03
 -1      1707-7.17994E+04 1.14829E+03-7.06091E+03
 -1      1709-7.17994E+04 1.14829E+03-7.06091E+03
 -1      1710-8.01939E+04 1.12024E+03-6.98818E+03
 -1      1712-8.01939E+04 1.12024E+03-6.98818E+03
 -1      1713-8.83691E+04 1.08894E+03-6.87760E+03
 -1      1715-8.83691E+04 1.08894E+03-6.87760E+03
 -1      1716-9.63020E+04 1.05467E+03-6.73294E+03
 -1      1718-9.63020E+04 1.05467E+03-6.73294E+03
 -1      1719-1.03970E+05 1.01745E+03-6.55626E+03
 -1      1721-1.03970E+05 1.01745E+03-6.55626E+03
 -1      1722-1.11353E+05 9.77440E+02-6.35056E+03
 -1      1724-1.11353E+05 9.77440E+02-6.35056E+03
 -1      1725-1.18430E+05 9.34733E+02-6.11832E+03
 -1      1727-1.18430E+05 9.34733E+02-6.11832E+03
 -1      1728-1.25181E+05 8.89457E+02-5.86215E+03
 -1      1730-1.25181E+05 8.89457E+02-5.86215E+03
 -1      1731-1.31587E+05 8.41733E+02-5.58443E+03
 -1      1733-1.31587E+05 8.41733E+02-5.58443E+03
 -1      1734-1.37632E+05 7.91694E+02-5.28751E+03
 -1      1736-1.37632E+05 7.91694E+02-5.28751E+03
 -1      1737-1.43299E+05 7.39477E+02-4.97363E+03
 -1      1739-1.43299E+05 7.39477E+02-4.97363E+03
 -1      1740-1.48572E+05 6.85227E+02-4.64505E+03
 -1      1742-1.48572E+05 6.85227E+02-4.64505E+03
 -1      1743-1.53436E+05 6.29093E+02-4.30400E+03
 -1      1745-1.53436E+05 6.29093E+02-4.30400E+03
 -1      1746-1.57878E+05 5.71229E+02-3.95277E+03
 -1      1748-1.57878E+05 5.71229E+02-3.95277E+03
 -1      1749-1.61886E+05 5.11797E+02-3.59370E+03
 -1      1751-1.61886E+05 5.11797E+02-3.59370E+03
 -1      1752-1.65449E+05 4.50960E+02-3.22925E+03
 -1      1754-1.65449E+05 4.50960E+02-3.22925E+03
 -1      1755-1.68557E+05 3.88892E+02-2.86203E+03
 -1      1757-1.68557E+05 3.88892E+02-2.86203E+03
 -1      1758-1.71202E+05 3.25763E+02-2.49484E+03
 -1      1760-1.71202E+05 3.25763E+02-2.49484E+03
 -1      1761-1.73377E+05 2.61773E+02-2.13117E+03
 -1      1763-1.73377E+05 2.61773E+02-2.13117E+03
 -1      1764-1.75075E+05 1.97141E+02-1.77520E+03
 -1      1766-1.75075E+05 1.97141E+02-1.77520E+03
 -1      1767-1.76293E+05 1.31834E+02-1.43501E+03
 -1      1769-1.76293E+05 1.31834E+02-1.43501E+03
 -1      1770-1.77026E+05 6.67717E+01-1.13054E+03
 -1      1772-1.77026E+05 6.67717E+01-1.13054E+03
 -1      1773-9.12919E+03-1.05139E+03-3.37022E+03
 -1      1775-9.12919E+03-1.05139E+03-3.37022E+03
 -1      1776-1.83159E+04-1.29960E+03-5.66623E+03
 -1      1778-1.83159E+04-1.29960E+03-5.66623E+03
 -1      1779-2.74676E+04-1.22322E+03-6.56309E+03
 -1      1781-2.74676E+04-1.22322E+03-6.56309E+03
 -1      1782-3.65486E+04-1.22009E+03-6.86690E+03
 -1      1784-3.65486E+04-1.22009E+03-6.86690E+03
 -1      1785-4.55551E+04-1.21327E+03-7.03012E+03
 -1      1787-4.55551E+04-1.21327E+03-7.03012E+03
 -1      1788-5.44524E+04-1.19369E+03-7.08410E+03
 -1      1790-5.44524E+04-1.19369E+03-7.08410E+03
 -1      1791-6.32102E+04-1.17323E+03-7.09622E+03
 -1      1793-6.32102E+04-1.17323E+03-7.09622E+03
 -1      1794-7.17994E+04-1.14829E+03-7.06091E+03
 -1      1796-7.17994E+04-1.14829E+03-7.06091E+03
 -1      1797-8.01939E+04-1.12024E+03-6.98818E+03
 -1      1799-8.01939E+04-1.12024E+03-6.98818E+03
 -1      1800-8.83691E+04-1.08894E+03-6.87760E+03
 -1      1802-8.83691E+04-1.08894E+03-6.87760E+03
 -1      1803-9.63020E+04-1.05467E+03-6.73294E+03
 -1      1805-9.63020E+04-1.05467E+03-6.73294E+03
 -1      1806-1.03970E+05-1.01745E+03-6.55626E+03
 -1      1808-1.03970E+05-1.01745E+03-6.55626E+03
 -1      1809-1.11353E+05-9.77440E+02-6.35056E+03
 -1      1811-1.11353E+05-9.77440E+02-6.35056E+03
 -1      1812-1.18430E+05-9.34733E+02-6.11832E+03
 -1      1814-1.18430E+05-9.34733E+02-6.11832E+03
 -1      1815-1.25181E+05-8.89457E+02-5.86215E+03
 -1      1817-1.25181E+05-8.89457E+02-5.86215E+03
 -1      1818-1.31587E+05-8.41733E+02-5.58443E+03
 -1      1820-1.31587E+05-8.41733E+02-5.58443E+03
 -1      1821-1.37632E+05-7.91694E+02-5.28751E+03
 -1      1823-1.37632E+05-7.91694E+02-5.28751E+03
 -1      1824-1.43299E+05-7.39477E+02-4.97363E+03
 -1      1826-1.43299E+05-7.39477E+02-4.97363E+03
 -1      1827-1.48572E+05-6.85227E+02-4.64505E+03
 -1      1829-1.48572E+05-6.85227E+02-4.64505E+03
 -1      1830-1.53436E+05-6.29093E+02-4.30400E+03
 -1      1832-1.53436E+05-6.29093E+02-4.30400E+03
 -1      1833-1.57878E+05-5.71229E+02-3.95277E+03
 -1      1835-1.57878E+05-5.71229E+02-3.95277E+03
 -1      1836-1.61886E+05-5.11797E+02-3.59370E+03
 -1      1838-1.61886E+05-5.11797E+02-3.59370E+03
 -1      1839-1.65449E+05-4.50960E+02-3.22925E+03
 -1      1841-1.65449E+05-4.50960E+02-3.22925E+03
 -1      1842-1.68557E+05-3.88892E+02-2.86203E+03
 -1      1844-1.68557E+05-3.88892E+02-2.86203E+03
 -1      1845-1.71202E+05-3.25763E+02-2.49484E+03
 -1      1847-1.71202E+05-3.25763E+02-2.49484E+03
 -1      1848-1.73377E+05-2.61773E+02-2.13117E+03
 -1      1850-1.73377E+05-2.61773E+02-2.13117E+03
 -1      1851-1.75075E+05-1.97141E+02-1.77520E+03
 -1      1853-1.75075E+05-1.97141E+02-1.77520E+03
 -1      1854-1.76293E+05-1.31834E+02-1.43501E+03
 -1      1856-1.76293E+05-1.31834E+02-1.43501E+03
 -1      1857-1.77026E+05-6.67717E+01-1.13054E+03
 -1      1859-1.77026E+05-6.67717E+01-1.13054E+03
 -1      1860-1.23998E+04-1.48448E-06-2.23099E+03
 -1      1862-1.23998E+04 1.08248E-06-2.23099E+03
 -1      1863-2.52953E+04-1.97489E-06-3.55194E+03
 -1      1865-2.52953E+04 1.05580E-06-3.55194E+03
 -1      1866-3.84481E+04-1.12884E-06-3.96938E+03
 -1      1868-3.84481E+04 4.24728E-07-3.96938E+03
 -1      1869-5.15158E+04-2.64845E-06-4.01653E+03
 -1      1871-5.15158E+04 1.62919E-06-4.01653E+03
 -1      1872-6.44115E+04-2.73046E-06-3.96636E+03
 -1      1874-6.44115E+04 1.89586E-06-3.96636E+03
 -1      1875-7.70992E+04-3.13207E-11-3.88455E+03
 -1      1877-7.70992E+04-2.31238E-06-3.88455E+03
 -1      1878-8.95513E+04 3.53246E-06-3.79959E+03
 -1      1880-8.95513E+04-5.08697E-06-3.79959E+03
 -1      1881-1.01745E+05 5.82913E-06-3.70918E+03
 -1      1883-1.01745E+05-5.55563E-06-3.70918E+03
 -1      1884-1.13652E+05 3.41493E-06-3.61387E+03
 -1      1886-1.13652E+05-2.87789E-06-3.61387E+03
 -1      1887-1.25243E+05-1.66408E-06-3.51088E+03
 -1      1889-1.25243E+05 2.62027E-06-3.51088E+03
 -1      1890-1.36489E+05-7.18322E-07-3.39977E+03
 -1      1892-1.36489E+05-7.12448E-07-3.39977E+03
 -1      1893-1.47359E+05 4.96601E-06-3.27978E+03
 -1      1895-1.47359E+05-5.61482E-06-3.27978E+03
 -1      1896-1.57823E+05 3.25185E-06-3.15107E+03
 -1      1898-1.57823E+05-4.94618E-06-3.15107E+03
 -1      1899-1.67853E+05 2.88169E-06-3.01371E+03
 -1      1901-1.67853E+05 6.06231E-07-3.01371E+03
 -1      1902-1.77422E+05-1.58779E-06-2.86809E+03
 -1      1904-1.77422E+05 3.20665E-06-2.86809E+03
 -1      1905-1.86502E+05 1.06295E-06-2.71454E+03
 -1      1907-1.86502E+05 8.77668E-07-2.71454E+03
 -1      1908-1.95070E+05 5.10132E-06-2.55351E+03
 -1      1910-1.95070E+05-9.87158E-07-2.55351E+03
 -1      1911-2.03102E+05 6.28106E-06-2.38542E+03
 -1      1913-2.03102E+05-1.94526E-06-2.38542E+03
 -1      1914-2.10575E+05 3.50861E-06-2.21076E+03
 -1      1916-2.10575E+05-1.94877E-06-2.21076E+03
 -1      1917-2.17469E+05-3.39225E-07-2.03001E+03
 -1      1919-2.17469E+05-1.61551E-06-2.03001E+03
 -1      1920-2.23765E+05-2.23708E-06-1.84368E+03
 -1      1922-2.23765E+05-7.17359E-08-1.84368E+03
 -1      1923-2.29445E+05 2.49453E-07-1.65225E+03
 -1      1925-2.29445E+05-1.21985E-06-1.65225E+03
 -1      1926-2.34495E+05 1.43732E-06-1.45624E+03
 -1      1928-2.34495E+05-3.00925E-06-1.45624E+03
 -1      1929-2.38899E+05 1.50343E-06-1.25613E+03
 -1      1931-2.38899E+05-2.85736E-06-1.25613E+03
 -1      1932-2.42646E+05 2.61395E-07-1.05247E+03
 -1      1934-2.42646E+05-8.13158E-07-1.05247E+03
 -1      1935-2.45726E+05-3.53972E-07-8.45987E+02
 -1      1937-2.45726E+05-1.65199E-06-8.45987E+02
 -1      1938-2.48129E+05 3.52194E-06-6.38101E+02
 -1      1940-2.48129E+05 6.80592E-07-6.38101E+02
 -1      1941-2.49848E+05 7.71844E-07-4.32700E+02
 -1      1943-2.49848E+05 1.94409E-06-4.32700E+02
 -1      1944-2.50884E+05 5.70694E-06-2.38914E+02
 -1      1946-2.50884E+05 3.79178E-06-2.38914E+02
 -1      1947-1.22158E+04-3.16334E-06-2.85678E-08
 -1      1949-1.22158E+04 2.53364E-06-2.11291E-07
 -1      1950-2.50566E+04-4.11385E-06-8.69081E-08
 -1      1952-2.50566E+04 4.28195E-06-5.58382E-07
 -1      1953-3.82719E+04-3.14910E-06-9.15085E-08
 -1      1955-3.82719E+04 2.67223E-06-4.23932E-07
 -1      1956-5.14275E+04-4.27503E-06-3.84315E-07
 -1      1958-5.14275E+04 4.52053E-06-1.54906E-07
 -1      1959-6.43819E+04-4.92407E-06-4.09620E-07
 -1      1961-6.43819E+04 3.87253E-06-5.09957E-07
 -1      1962-7.71031E+04-1.05567E-07-2.25169E-07
 -1      1964-7.71031E+04-7.00369E-07-5.78411E-07
 -1      1965-8.95756E+04 2.38860E-06-5.08427E-07
 -1      1967-8.95756E+04-4.63371E-06-2.65595E-07
 -1      1968-1.01782E+05 4.43464E-06-6.74537E-07
 -1      1970-1.01782E+05-4.65589E-06 2.67580E-07
 -1      1971-1.13697E+05 2.25023E-06-1.12562E-07
 -1      1973-1.13697E+05-2.56330E-06 3.39057E-07
 -1      1974-1.25295E+05-2.85720E-06 1.27237E-07
 -1      1976-1.25295E+05-1.42993E-06-1.11154E-09
 -1      1977-1.36546E+05 2.19818E-06 1.42801E-07
 -1      1979-1.36546E+05-1.17451E-06-6.63107E-07
 -1      1980-1.47421E+05 5.24165E-06 2.22777E-07
 -1      1982-1.47421E+05-3.76628E-06-1.13828E-06
 -1      1983-1.57890E+05 5.05016E-06 3.68257E-07
 -1      1985-1.57890E+05-7.10274E-06-8.55873E-07
 -1      1986-1.67924E+05 2.71367E-07 3.58427E-07
 -1      1988-1.67924E+05 1.91604E-06-5.60200E-07
 -1      1989-1.77497E+05-3.69990E-07-1.37788E-07
 -1      1991-1.77497E+05-1.56183E-06-3.11379E-07
 -1      1992-1.86582E+05 5.09253E-06-1.50270E-07
 -1      1994-1.86582E+05-2.21842E-06-8.46341E-08
 -1      1995-1.95153E+05 9.21486E-06 3.48017E-08
 -1      1997-1.95153E+05-5.77116E-06 1.53606E-07
 -1      1998-2.03188E+05 6.43545E-06 2.47043E-07
 -1      2000-2.03188E+05-9.49731E-06 2.36689E-07
 -1      2001-2.10664E+05 4.50577E-06 5.92259E-07
 -1      2003-2.10664E+05-6.58313E-06 1.65070E-07
 -1      2004-2.17561E+05-3.57738E-07 6.68055E-07
 -1      2006-2.17561E+05-1.89549E-06-6.08470E-08
 -1      2007-2.23860E+05-4.15029E-06-5.94650E-07
 -1      2009-2.23860E+05 2.52172E-06-6.11518E-09
 -1      2010-2.29543E+05-8.26901E-07-6.06668E-07
 -1      2012-2.29543E+05-1.64081E-07 8.80255E-07
 -1      2013-2.34594E+05-1.60429E-07 2.43037E-07
 -1      2015-2.34594E+05-2.40671E-06 6.97370E-07
 -1      2016-2.39000E+05 4.55067E-07-1.84211E-07
 -1      2018-2.39000E+05-2.58000E-06 1.08685E-08
 -1      2019-2.42749E+05-1.02739E-07 1.45240E-07
 -1      2021-2.42749E+05-1.71347E-06 1.76638E-07
 -1      2022-2.45828E+05 2.41459E-06-9.36076E-08
 -1      2024-2.45828E+05-2.97217E-06-1.07744E-07
 -1      2025-2.48230E+05-1.98735E-07 4.15076E-07
 -1      2027-2.48230E+05 3.05712E-07-8.63228E-07
 -1      2028-2.49949E+05-5.37140E-06 1.32378E-07
 -1      2030-2.49949E+05 4.98905E-06-6.49266E-07
 -1      2031-2.50983E+05 4.17904E-06 7.24989E-07
 -1      2033-2.50983E+05-4.60944E-07-7.99695E-07
 -1      2034-1.23998E+04-2.19908E-06 2.23099E+03
 -1      2036-1.23998E+04 1.86940E-06 2.23099E+03
 -1      2037-2.52953E+04-3.91663E-06 3.55194E+03
 -1      2039-2.52953E+04 3.26318E-06 3.55194E+03
 -1      2040-3.84481E+04-2.35083E-06 3.96938E+03
 -1      2042-3.84481E+04 2.87388E-06 3.96938E+03
 -1      2043-5.15158E+04-3.07671E-06 4.01653E+03
 -1      2045-5.15158E+04 2.16748E-06 4.01653E+03
 -1      2046-6.44115E+04-1.91076E-06 3.96636E+03
 -1      2048-6.44115E+04 1.48394E-06 3.96636E+03
 -1      2049-7.70992E+04 2.21885E-06 3.88455E+03
 -1      2051-7.70992E+04-3.83314E-06 3.88455E+03
 -1      2052-8.95513E+04 4.04557E-06 3.79959E+03
 -1      2054-8.95513E+04-4.56477E-06 3.79959E+03
 -1      2055-1.01745E+05 3.64414E-06 3.70918E+03
 -1      2057-1.01745E+05-4.88287E-06 3.70918E+03
 -1      2058-1.13652E+05 2.37601E-06 3.61387E+03
 -1      2060-1.13652E+05-3.42401E-06 3.61387E+03
 -1      2061-1.25243E+05 8.85631E-07 3.51088E+03
 -1      2063-1.25243E+05-2.44394E-06 3.51088E+03
 -1      2064-1.36489E+05 3.48684E-06 3.39977E+03
 -1      2066-1.36489E+05-2.27400E-06 3.39977E+03
 -1      2067-1.47359E+05 1.18155E-06 3.27978E+03
 -1      2069-1.47359E+05-4.04332E-06 3.27978E+03
 -1      2070-1.57823E+05 6.95349E-06 3.15107E+03
 -1      2072-1.57823E+05-7.35188E-06 3.15107E+03
 -1      2073-1.67853E+05 1.06458E-05 3.01371E+03
 -1      2075-1.67853E+05-3.76347E-06 3.01371E+03
 -1      2076-1.77422E+05 3.00139E-06 2.86809E+03
 -1      2078-1.77422E+05 1.72277E-06 2.86809E+03
 -1      2079-1.86502E+05 7.52831E-06 2.71454E+03
 -1      2081-1.86502E+05-2.49132E-06 2.71454E+03
 -1      2082-1.95070E+05 4.35038E-06 2.55351E+03
 -1      2084-1.95070E+05-2.91518E-06 2.55351E+03
 -1      2085-2.03102E+05 5.31637E-06 2.38542E+03
 -1      2087-2.03102E+05-6.10689E-06 2.38542E+03
 -1      2088-2.10575E+05 6.55501E-06 2.21076E+03
 -1      2090-2.10575E+05-4.73504E-06 2.21076E+03
 -1      2091-2.17469E+05-1.54838E-06 2.03001E+03
 -1      2093-2.17469E+05-1.74911E-07 2.03001E+03
 -1      2094-2.23765E+05-4.86732E-06 1.84368E+03
 -1      2096-2.23765E+05 2.84224E-06 1.84368E+03
 -1      2097-2.29445E+05-5.08356E-06 1.65225E+03
 -1      2099-2.29445E+05 6.24249E-07 1.65225E+03
 -1      2100-2.34495E+05-2.06082E-06 1.45624E+03
 -1      2102-2.34495E+05 2.71768E-07 1.45624E+03
 -1      2103-2.38899E+05-2.04721E-06 1.25613E+03
 -1      2105-2.38899E+05-5.74530E-07 1.25613E+03
 -1      2106-2.42646E+05 1.59158E-07 1.05247E+03
 -1      2108-2.42646E+05-4.83567E-07 1.05247E+03
 -1      2109-2.45726E+05 2.52427E-06 8.45987E+02
 -1      2111-2.45726E+05-4.64492E-06 8.45987E+02
 -1      2112-2.48129E+05 1.10952E-06 6.38101E+02
 -1      2114-2.48129E+05-7.94747E-07 6.38101E+02
 -1      2115-2.49848E+05-2.40537E-06 4.32700E+02
 -1      2117-2.49848E+05 1.85937E-06 4.32700E+02
 -1      2118-2.50884E+05-9.09252E-07 2.38914E+02
 -1      2120-2.50884E+05-2.39245E-06 2.38914E+02
 -1      2121-9.12919E+03-1.05139E+03 3.37022E+03
 -1      2123-9.12919E+03-1.05139E+03 3.37022E+03
 -1      2124-1.83159E+04-1.29960E+03 5.66623E+03
 -1      2126-1.83159E+04-1.29960E+03 5.66623E+03
 -1      2127-2.74676E+04-1.22322E+03 6.56309E+03
 -1      2129-2.74676E+04-1.22322E+03 6.56309E+03
 -1      2130-3.65486E+04-1.22009E+03 6.86690E+03
 -1      2132-3.65486E+04-1.22009E+03 6.86690E+03
 -1      2133-4.55551E+04-1.21327E+03 7.03012E+03
 -1      2135-4.55551E+04-1.21327E+03 7.03012E+03
 -1      2136-5.44524E+04-1.19369E+03 7.08410E+03
 -1      2138-5.44524E+04-1.19369E+03 7.08410E+03
 -1      2139-6.32102E+04-1.17323E+03 7.09622E+03
 -1      2141-6.32102E+04-1.17323E+03 7.09622E+03
 -1      2142-7.17994E+04-1.14829E+03 7.06091E+03
 -1      2144-7.17994E+04-1.14829E+03 7.06091E+03
 -1      2145-8.01939E+04-1.12024E+03 6.98818E+03
 -1      2147-8.01939E+04-1.12024E+03 6.98818E+03
 -1      2148-8.83691E+04-1.08894E+03 6.87760E+03
 -1      2150-8.83691E+04-1.08894E+03 6.87760E+03
 -1      2151-9.63020E+04-1.05467E+03 6.73294E+03
 -1      2153-9.63020E+04-1.05467E+03 6.73294E+03
 -1      2154-1.03970E+05-1.01745E+03 6.55626E+03
 -1      2156-1.03970E+05-1.01745E+03 6.55626E+03
 -1      2157-1.11353E+05-9.77440E+02 6.35056E+03
 -1      2159-1.11353E+05-9.77440E+02 6.35056E+03
 -1      2160-1.18430E+05-9.34733E+02 6.11832E+03
 -1      2162-1.18430E+05-9.34733E+02 6.11832E+03
 -1      2163-1.25181E+05-8.89457E+02 5.86215E+03
 -1      2165-1.25181E+05-8.89457E+02 5.86215E+03
 -1      2166-1.31587E+05-8.41733E+02 5.58443E+03
 -1      2168-1.31587E+05-8.41733E+02 5.58443E+03
 -1      2169-1.37632E+05-7.91694E+02 5.28751E+03
 -1      2171-1.37632E+05-7.91694E+02 5.28751E+03
 -1      2172-1.43299E+05-7.39477E+02 4.97363E+03
 -1      2174-1.43299E+05-7.39477E+02 4.97363E+03
 -1      2175-1.48572E+05-6.85227E+02 4.64505E+03
 -1      2177-1.48572E+05-6.85227E+02 4.64505E+03
 -1      2178-1.53436E+05-6.29093E+02 4.30400E+03
 -1      2180-1.53436E+05-6.29093E+02 4.30400E+03
 -1      2181-1.57878E+05-5.71229E+02 3.95277E+03
 -1      2183-1.57878E+05-5.71229E+02 3.95277E+03
 -1      2184-1.61886E+05-5.11797E+02 3.59370E+03
 -1      2186-1.61886E+05-5.11797E+02 3.59370E+03
 -1      2187-1.65449E+05-4.50960E+02 3.22925E+03
 -1      2189-1.65449E+05-4.50960E+02 3.22925E+03
 -1      2190-1.68557E+05-3.88892E+02 2.86203E+03
 -1      2192-1.68557E+05-3.88892E+02 2.86203E+03
 -1      2193-1.71202E+05-3.25763E+02 2.49484E+03
 -1      2195-1.71202E+05-3.25763E+02 2.49484E+03
 -1      2196-1.73377E+05-2.61773E+02 2.13117E+03
 -1      2198-1.73377E+05-2.61773E+02 2.13117E+03
 -1      2199-1.75075E+05-1.97141E+02 1.77520E+03
 -1      2201-1.75075E+05-1.97141E+02 1.77520E+03
 -1      2202-1.76293E+05-1.31834E+02 1.43501E+03
 -1      2204-1.76293E+05-1.31834E+02 1.43501E+03
 -1      2205-1.77026E+05-6.67717E+01 1.13054E+03
 -1      2207-1.77026E+05-6.67717E+01 1.13054E+03
 -1      2208-9.12919E+03 1.05139E+03 3.37022E+03
 -1      2210-9.12919E+03 1.05139E+03 3.37022E+03
 -1      2211-1.83159E+04 1.29960E+03 5.66623E+03
 -1      2213-1.83159E+04 1.29960E+03 5.66623E+03
 -1      2214-2.74676E+04 1.22322E+03 6.56309E+03
 -1      2216-2.74676E+04 1.22322E+03 6.56309E+03
 -1      2217-3.65486E+04 1.22009E+03 6.86690E+03
 -1      2219-3.65486E+04 1.22009E+03 6.86690E+03
 -1      2220-4.55551E+04 1.21327E+03 7.03012E+03
 -1      2222-4.55551E+04 1.21327E+03 7.03012E+03
 -1      2223-5.44524E+04 1.19369E+03 7.08410E+03
 -1      2225-5.44524E+04 1.19369E+03 7.08410E+03
 -1      2226-6.32102E+04 1.17323E+03 7.09622E+03
 -1      2228-6.32102E+04 1.17323E+03 7.09622E+03
 -1      2229-7.17994E+04 1.14829E+03 7.06091E+03
 -1      2231-7.17994E+04 1.14829E+03 7.06091E+03
 -1      2232-8.01939E+04 1.12024E+03 6.98818E+03
 -1      2234-8.01939E+04 1.12024E+03 6.98818E+03
 -1      2235-8.83691E+04 1.08894E+03 6.87760E+03
 -1      2237-8.83691E+04 1.08894E+03 6.87760E+03
 -1      2238-9.63020E+04 1.05467E+03 6.73294E+03
 -1      2240-9.63020E+04 1.05467E+03 6.73294E+03
 -1      2241-1.03970E+05 1.01745E+03 6.55626E+03
 -1      2243-1.03970E+05 1.01745E+03 6.55626E+03
 -1      2244-1.11353E+05 9.77440E+02 6.35056E+03
 -1      2246-1.11353E+05 9.77440E+02 6.35056E+03
 -1      2247-1.18430E+05 9.34733E+02 6.11832E+03
 -1      2249-1.18430E+05 9.34733E+02 6.11832E+03
 -1      2250-1.25181E+05 8.89457E+02 5.86215E+03
 -1      2252-1.25181E+05 8.89457E+02 5.86215E+03
 -1      2253-1.31587E+05 8.41733E+02 5.58443E+03
 -1      2255-1.31587E+05 8.41733E+02 5.58443E+03
 -1      2256-1.37632E+05 7.91694E+02 5.28751E+03
 -1      2258-1.37632E+05 7.91694E+02 5.28751E+03
 -1      2259-1.43299E+05 7.39477E+02 4.97363E+03
 -1      2261-1.43299E+05 7.39477E+02 4.97363E+03
 -1      2262-1.48572E+05 6.85227E+02 4.64505E+03
 -1      2264-1.48572E+05 6.85227E+02 4.64505E+03
 -1      2265-1.53436E+05 6.29093E+02 4.30400E+03
 -1      2267-1.53436E+05 6.29093E+02 4.30400E+03
 -1      2268-1.57878E+05 5.71229E+02 3.95277E+03
 -1      2270-1.57878E+05 5.71229E+02 3.95277E+03
 -1      2271-1.61886E+05 5.11797E+02 3.59370E+03
 -1      2273-1.61886E+05 5.11797E+02 3.59370E+03
 -1      2274-1.65449E+05 4.50960E+02 3.22925E+03
 -1      2276-1.65449E+05 4.50960E+02 3.22925E+03
 -1      2277-1.68557E+05 3.88892E+02 2.86203E+03
 -1      2279-1.68557E+05 3.88892E+02 2.86203E+03
 -1      2280-1.71202E+05 3.25763E+02 2.49484E+03
 -1      2282-1.71202E+05 3.25763E+02 2.49484E+03
 -1      2283-1.73377E+05 2.61773E+02 2.13117E+03
 -1      2285-1.73377E+05 2.61773E+02 2.13117E+03
 -1      2286-1.75075E+05 1.97141E+02 1.77520E+03
 -1      2288-1.75075E+05 1.97141E+02 1.77520E+03
 -1      2289-1.76293E+05 1.31834E+02 1.43501E+03
 -1      2291-1.76293E+05 1.31834E+02 1.43501E+03
 -1      2292-1.77026E+05 6.67717E+01 1.13054E+03
 -1      2294-1.77026E+05 6.67717E+01 1.13054E+03
 -3
    1PSTEP                        44           1           1          
    1PGM                1.000000E+00                                  
    1PGK                7.353946E+06                                  
    1PHID                         -1                                  
    1PSUBC                         0                                  
    1PMODE                        11                                  
  100CL  111 431.5989067         930                     2   11MODAL      1
 -4  ERROR       1    1
 -5  STR(%)      1    1    0    0
 -1       404 0.00000E+00
 -1       406 0.00000E+00
 -1       407 0.00000E+00
 -1       409 0.00000E+00
 -1       410 0.00000E+00
 -1       412 0.00000E+00
 -1       413 0.00000E+00
 -1       415 0.00000E+00
 -1       424 0.00000E+00
 -1       426 0.00000E+00
 -1       427 0.00000E+00
 -1       429 0.00000E+00
 -1       438 0.00000E+00
 -1       440 0.00000E+00
 -1       441 0.00000E+00
 -1       443 0.00000E+00
 -1       444 0.00000E+00
 -1       446 0.00000E+00
 -1       447 0.00000E+00
 -1       449 0.00000E+00
 -1       458 0.00000E+00
 -1       460 0.00000E+00
 -1       461 0.00000E+00
 -1       463 0.00000E+00
 -1       472 0.00000E+00
 -1       474 0.00000E+00
 -1       475 0.00000E+00
 -1       477 0.00000E+00
 -1       478 0.00000E+00
 -1       480 0.00000E+00
 -1       481 0.00000E+00
 -1       483 0.00000E+00
 -1       484 0.00000E+00
 -1       486 0.00000E+00
 -1       487 0.00000E+00
 -1       489 0.00000E+00
 -1       490 0.00000E+00
 -1       492 0.00000E+00
 -1       493 0.00000E+00
 -1       495 0.00000E+00
 -1       496 0.00000E+00
 -1       498 0.00000E+00
 -1       499 0.00000E+00
 -1       501 0.00000E+00
 -1       502 0.00000E+00
 -1       504 0.00000E+00
 -1       505 0.00000E+00
 -1       507 0.00000E+00
 -1       508 0.00000E+00
 -1       510 0.00000E+00
 -1       511 0.00000E+00
 -1       513 0.00000E+00
 -1       514 0.00000E+00
 -1       516 0.00000E+00
 -1       517 0.00000E+00
 -1       519 0.00000E+00
 -1       520 0.00000E+00
 -1       522 0.00000E+00
 -1       523 0.00000E+00
 -1       525 0.00000E+00
 -1       526 0.00000E+00
 -1       528 0.00000E+00
 -1       529 0.00000E+00
 -1       531 0.00000E+00
 -1       532 0.00000E+00
 -1       534 0.00000E+00
 -1       535 0.00000E+00
 -1       537 0.00000E+00
 -1       538 0.00000E+00
 -1       540 0.00000E+00
 -1       541 0.00000E+00
 -1       543 0.00000E+00
 -1       544 0.00000E+00
 -1       546 0.00000E+00
 -1       547 0.00000E+00
 -1       549 0.00000E+00
 -1       550 0.00000E+00
 -1       552 0.00000E+00
 -1       553 0.00000E+00
 -1       555 0.00000E+00
 -1       556 0.00000E+00
 -1       558 0.00000E+00
 -1       559 0.00000E+00
 -1       561 0.00000E+00
 -1       562 0.00000E+00
 -1       564 0.00000E+00
 -1       565 0.00000E+00
 -1       567 0.00000E+00
 -1       568 0.00000E+00
 -1       570 0.00000E+00
 -1       571 0.00000E+00
 -1       573 0.00000E+00
 -1       574 0.00000E+00
 -1       576 0.00000E+00
 -1       577 0.00000E+00
 -1       579 0.00000E+00
 -1       588 0.00000E+00
 -1       590 0.00000E+00
 -1       591 0.00000E+00
 -1       593 0.00000E+00
 -1       602 0.00000E+00
 -1       604 0.00000E+00
 -1       605 0.00000E+00
 -1       607 0.00000E+00
 -1       616 0.00000E+00
 -1       618 0.00000E+00
 -1       619 0.00000E+00
 -1       621 0.00000E+00
 -1       630 0.00000E+00
 -1       632 0.00000E+00
 -1       633 0.00000E+00
 -1       635 0.00000E+00
 -1       644 0.00000E+00
 -1       646 0.00000E+00
 -1       647 0.00000E+00
 -1       649 0.00000E+00
 -1       658 0.00000E+00
 -1       660 0.00000E+00
 -1       661 0.00000E+00
 -1       663 0.00000E+00
 -1       672 0.00000E+00
 -1       674 0.00000E+00
 -1       675 0.00000E+00
 -1       677 0.00000E+00
 -1       686 0.00000E+00
 -1       688 0.00000E+00
 -1       689 0.00000E+00
 -1       691 0.00000E+00
 -1       700 0.00000E+00
 -1       702 0.00000E+00
 -1       703 0.00000E+00
 -1       705 0.00000E+00
 -1       714 0.00000E+00
 -1       716 0.00000E+00
 -1       717 0.00000E+00
 -1       719 0.00000E+00
 -1       728 0.00000E+00
 -1       730 0.00000E+00
 -1       731 0.00000E+00
 -1       733 0.00000E+00
 -1       742 0.00000E+00
 -1       744 0.00000E+00
 -1       745 0.00000E+00
 -1       747 0.00000E+00
 -1       756 0.00000E+00
 -1       758 0.00000E+00
 -1       759 0.00000E+00
 -1       761 0.00000E+00
 -1       770 0.00000E+00
 -1       772 0.00000E+00
 -1       773 0.00000E+00
 -1       775 0.00000E+00
 -1       784 0.00000E+00
 -1       786 0.00000E+00
 -1       787 0.00000E+00
 -1       789 0.00000E+00
 -1       798 0.00000E+00
 -1       800 0.00000E+00
 -1       801 0.00000E+00
 -1       803 0.00000E+00
 -1       812 0.00000E+00
 -1       814 0.00000E+00
 -1       815 0.00000E+00
 -1       817 0.00000E+00
 -1       826 0.00000E+00
 -1       828 0.00000E+00
 -1       829 0.00000E+00
 -1       831 0.00000E+00
 -1       840 0.00000E+00
 -1       842 0.00000E+00
 -1       843 0.00000E+00
 -1       845 0.00000E+00
 -1       854 0.00000E+00
 -1       856 0.00000E+00
 -1       857 0.00000E+00
 -1       859 0.00000E+00
 -1       868 0.00000E+00
 -1       870 0.00000E+00
 -1       871 0.00000E+00
 -1       873 0.00000E+00
 -1       882 0.00000E+00
 -1       884 0.00000E+00
 -1       885 0.00000E+00
 -1       887 0.00000E+00
 -1       896 0.00000E+00
 -1       898 0.00000E+00
 -1       899 0.00000E+00
 -1       901 0.00000E+00
 -1       910 0.00000E+00
 -1       912 0.00000E+00
 -1       913 0.00000E+00
 -1       915 0.00000E+00
 -1       924 0.00000E+00
 -1       926 0.00000E+00
 -1       927 0.00000E+00
 -1       929 0.00000E+00
 -1       938 0.00000E+00
 -1       940 0.00000E+00
 -1       941 0.00000E+00
 -1       943 0.00000E+00
 -1       952 0.00000E+00
 -1       954 0.00000E+00
 -1       955 0.00000E+00
 -1       957 0.00000E+00
 -1       966 0.00000E+00
 -1       968 0.00000E+00
 -1       969 0.00000E+00
 -1       971 0.00000E+00
 -1       980 0.00000E+00
 -1       982 0.00000E+00
 -1       983 0.00000E+00
 -1       985 0.00000E+00
 -1       986 0.00000E+00
 -1       988 0.00000E+00
 -1       989 0.00000E+00
 -1       991 0.00000E+00
 -1       992 0.00000E+00
 -1       994 0.00000E+00
 -1       995 0.00000E+00
 -1       997 0.00000E+00
 -1       998 0.00000E+00
 -1      1000 0.00000E+00
 -1      1001 0.00000E+00
 -1      1003 0.00000E+00
 -1      1004 0.00000E+00
 -1      1006 0.00000E+00
 -1      1007 0.00000E+00
 -1      1009 0.00000E+00
 -1      1010 0.00000E+00
 -1      1012 0.00000E+00
 -1      1013 0.00000E+00
 -1      1015 0.00000E+00
 -1      1016 0.00000E+00
 -1      1018 0.00000E+00
 -1      1019 0.00000E+00
 -1      1021 0.00000E+00
 -1      1022 0.00000E+00
 -1      1024 0.00000E+00
 -1      1025 0.00000E+00
 -1      1027 0.00000E+00
 -1      1028 0.00000E+00
 -1      1030 0.00000E+00
 -1      1031 0.00000E+00
 -1      1033 0.00000E+00
 -1      1034 0.00000E+00
 -1      1036 0.00000E+00
 -1      1037 0.00000E+00
 -1      1039 0.00000E+00
 -1      1040 0.00000E+00
 -1      1042 0.00000E+00
 -1      1043 0.00000E+00
 -1      1045 0.00000E+00
 -1      1046 0.00000E+00
 -1      1048 0.00000E+00
 -1      1049 0.00000E+00
 -1      1051 0.00000E+00
 -1      1052 0.00000E+00
 -1      1054 0.00000E+00
 -1      1055 0.00000E+00
 -1      1057 0.00000E+00
 -1      1058 0.00000E+00
 -1      1060 0.00000E+00
 -1      1061 0.00000E+00
 -1      1063 0.00000E+00
 -1      1064 0.00000E+00
 -1      1066 0.00000E+00
 -1      1067 0.00000E+00
 -1      1069 0.00000E+00
 -1      1070 0.00000E+00
 -1      1072 0.00000E+00
 -1      1073 0.00000E+00
 -1      1075 0.00000E+00
 -1      1076 0.00000E+00
 -1      1078 0.00000E+00
 -1      1079 0.00000E+00
 -1      1081 0.00000E+00
 -1      1082 0.00000E+00
 -1      1084 0.00000E+00
 -1      1085 0.00000E+00
 -1      1087 0.00000E+00
 -1      1088 0.00000E+00
 -1      1090 0.00000E+00
 -1      1099 0.00000E+00
 -1      1101 0.00000E+00
 -1      1102 0.00000E+00
 -1      1104 0.00000E+00
 -1      1113 0.00000E+00
 -1      1115 0.00000E+00
 -1      1116 0.00000E+00
 -1      1118 0.00000E+00
 -1      1127 0.00000E+00
 -1      1129 0.00000E+00
 -1      1130 0.00000E+00
 -1      1132 0.00000E+00
 -1      1141 0.00000E+00
 -1      1143 0.00000E+00
 -1      1144 0.00000E+00
 -1      1146 0.00000E+00
 -1      1155 0.00000E+00
 -1      1157 0.00000E+00
 -1      1158 0.00000E+00
 -1      1160 0.00000E+00
 -1      1169 0.00000E+00
 -1      1171 0.00000E+00
 -1      1172 0.00000E+00
 -1      1174 0.00000E+00
 -1      1183 0.00000E+00
 -1      1185 0.00000E+00
 -1      1186 0.00000E+00
 -1      1188 0.00000E+00
 -1      1197 0.00000E+00
 -1      1199 0.00000E+00
 -1      1200 0.00000E+00
 -1      1202 0.00000E+00
 -1      1211 0.00000E+00
 -1      1213 0.00000E+00
 -1      1214 0.00000E+00
 -1      1216 0.00000E+00
 -1      1225 0.00000E+00
 -1      1227 0.00000E+00
 -1      1228 0.00000E+00
 -1      1230 0.00000E+00
 -1      1239 0.00000E+00
 -1      1241 0.00000E+00
 -1      1242 0.00000E+00
 -1      1244 0.00000E+00
 -1      1253 0.00000E+00
 -1      1255 0.00000E+00
 -1      1256 0.00000E+00
 -1      1258 0.00000E+00
 -1      1267 0.00000E+00
 -1      1269 0.00000E+00
 -1      1270 0.00000E+00
 -1      1272 0.00000E+00
 -1      1281 0.00000E+00
 -1      1283 0.00000E+00
 -1      1284 0.00000E+00
 -1      1286 0.00000E+00
 -1      1295 0.00000E+00
 -1      1297 0.00000E+00
 -1      1298 0.00000E+00
 -1      1300 0.00000E+00
 -1      1309 0.00000E+00
 -1      1311 0.00000E+00
 -1      1312 0.00000E+00
 -1      1314 0.00000E+00
 -1      1323 0.00000E+00
 -1      1325 0.00000E+00
 -1      1326 0.00000E+00
 -1      1328 0.00000E+00
 -1      1337 0.00000E+00
 -1      1339 0.00000E+00
 -1      1340 0.00000E+00
 -1      1342 0.00000E+00
 -1      1351 0.00000E+00
 -1      1353 0.00000E+00
 -1      1354 0.00000E+00
 -1      1356 0.00000E+00
 -1      1365 0.00000E+00
 -1      1367 0.00000E+00
 -1      1368 0.00000E+00
 -1      1370 0.00000E+00
 -1      1379 0.00000E+00
 -1      1381 0.00000E+00
 -1      1382 0.00000E+00
 -1      1384 0.00000E+00
 -1      1393 0.00000E+00
 -1      1395 0.00000E+00
 -1      1396 0.00000E+00
 -1      1398 0.00000E+00
 -1      1407 0.00000E+00
 -1      1409 0.00000E+00
 -1      1410 0.00000E+00
 -1      1412 0.00000E+00
 -1      1421 0.00000E+00
 -1      1423 0.00000E+00
 -1      1424 0.00000E+00
 -1      1426 0.00000E+00
 -1      1435 0.00000E+00
 -1      1437 0.00000E+00
 -1      1438 0.00000E+00
 -1      1440 0.00000E+00
 -1      1449 0.00000E+00
 -1      1451 0.00000E+00
 -1      1452 0.00000E+00
 -1      1454 0.00000E+00
 -1      1463 0.00000E+00
 -1      1465 0.00000E+00
 -1      1466 0.00000E+00
 -1      1468 0.00000E+00
 -1      1477 0.00000E+00
 -1      1479 0.00000E+00
 -1      1480 0.00000E+00
 -1      1482 0.00000E+00
 -1      1491 0.00000E+00
 -1      1493 0.00000E+00
 -1      1494 0.00000E+00
 -1      1496 0.00000E+00
 -1      1497 0.00000E+00
 -1      1499 0.00000E+00
 -1      1500 0.00000E+00
 -1      1502 0.00000E+00
 -1      1503 0.00000E+00
 -1      1505 0.00000E+00
 -1      1506 0.00000E+00
 -1      1508 0.00000E+00
 -1      1509 0.00000E+00
 -1      1511 0.00000E+00
 -1      1512 0.00000E+00
 -1      1514 0.00000E+00
 -1      1515 0.00000E+00
 -1      1517 0.00000E+00
 -1      1518 0.00000E+00
 -1      1520 0.00000E+00
 -1      1521 0.00000E+00
 -1      1523 0.00000E+00
 -1      1524 0.00000E+00
 -1      1526 0.00000E+00
 -1      1527 0.00000E+00
 -1      1529 0.00000E+00
 -1      1530 0.00000E+00
 -1      1532 0.00000E+00
 -1      1533 0.00000E+00
 -1      1535 0.00000E+00
 -1      1536 0.00000E+00
 -1      1538 0.00000E+00
 -1      1539 0.00000E+00
 -1      1541 0.00000E+00
 -1      1542 0.00000E+00
 -1      1544 0.00000E+00
 -1      1545 0.00000E+00
 -1      1547 0.00000E+00
 -1      1548 0.00000E+00
 -1      1550 0.00000E+00
 -1      1551 0.00000E+00
 -1      1553 0.00000E+00
 -1      1554 0.00000E+00
 -1      1556 0.00000E+00
 -1      1557 0.00000E+00
 -1      1559 0.00000E+00
 -1      1560 0.00000E+00
 -1      1562 0.00000E+00
 -1      1563 0.00000E+00
 -1      1565 0.00000E+00
 -1      1566 0.00000E+00
 -1      1568 0.00000E+00
 -1      1569 0.00000E+00
 -1      1571 0.00000E+00
 -1      1572 0.00000E+00
 -1      1574 0.00000E+00
 -1      1575 0.00000E+00
 -1      1577 0.00000E+00
 -1      1578 0.00000E+00
 -1      1580 0.00000E+00
 -1      1581 0.00000E+00
 -1      1583 0.00000E+00
 -1      1584 0.00000E+00
 -1      1586 0.00000E+00
 -1      1587 0.00000E+00
 -1      1589 0.00000E+00
 -1      1590 0.00000E+00
 -1      1592 0.00000E+00
 -1      1593 0.00000E+00
 -1      1595 0.00000E+00
 -1      1596 0.00000E+00
 -1      1598 0.00000E+00
 -1      1599 0.00000E+00
 -1      1601 0.00000E+00
 -1      1602 0.00000E+00
 -1      1604 0.00000E+00
 -1      1605 0.00000E+00
 -1      1607 0.00000E+00
 -1      1608 0.00000E+00
 -1      1610 0.00000E+00
 -1      1611 0.00000E+00
 -1      1613 0.00000E+00
 -1      1614 0.00000E+00
 -1      1616 0.00000E+00
 -1      1617 0.00000E+00
 -1      1619 0.00000E+00
 -1      1620 0.00000E+00
 -1      1622 0.00000E+00
 -1      1623 0.00000E+00
 -1      1625 0.00000E+00
 -1      1626 0.00000E+00
 -1      1628 0.00000E+00
 -1      1629 0.00000E+00
 -1      1631 0.00000E+00
 -1      1632 0.00000E+00
 -1      1634 0.00000E+00
 -1      1635 0.00000E+00
 -1      1637 0.00000E+00
 -1      1638 0.00000E+00
 -1      1640 0.00000E+00
 -1      1641 0.00000E+00
 -1      1643 0.00000E+00
 -1      1644 0.00000E+00
 -1      1646 0.00000E+00
 -1      1647 0.00000E+00
 -1      1649 0.00000E+00
 -1      1650 0.00000E+00
 -1      1652 0.00000E+00
 -1      1653 0.00000E+00
 -1      1655 0.00000E+00
 -1      1656 0.00000E+00
 -1      1658 0.00000E+00
 -1      1659 0.00000E+00
 -1      1661 0.00000E+00
 -1      1662 0.00000E+00
 -1      1664 0.00000E+00
 -1      1665 0.00000E+00
 -1      1667 0.00000E+00
 -1      1668 0.00000E+00
 -1      1670 0.00000E+00
 -1      1671 0.00000E+00
 -1      1673 0.00000E+00
 -1      1674 0.00000E+00
 -1      1676 0.00000E+00
 -1      1677 0.00000E+00
 -1      1679 0.00000E+00
 -1      1680 0.00000E+00
 -1      1682 0.00000E+00
 -1      1683 0.00000E+00
 -1      1685 0.00000E+00
 -1      1686 0.00000E+00
 -1      1688 0.00000E+00
 -1      1689 0.00000E+00
 -1      1691 0.00000E+00
 -1      1692 0.00000E+00
 -1      1694 0.00000E+00
 -1      1695 0.00000E+00
 -1      1697 0.00000E+00
 -1      1698 0.00000E+00
 -1      1700 0.00000E+00
 -1      1701 0.00000E+00
 -1      1703 0.00000E+00
 -1      1704 0.00000E+00
 -1      1706 0.00000E+00
 -1      1707 0.00000E+00
 -1      1709 0.00000E+00
 -1      1710 0.00000E+00
 -1      1712 0.00000E+00
 -1      1713 0.00000E+00
 -1      1715 0.00000E+00
 -1      1716 0.00000E+00
 -1      1718 0.00000E+00
 -1      1719 0.00000E+00
 -1      1721 0.00000E+00
 -1      1722 0.00000E+00
 -1      1724 0.00000E+00
 -1      1725 0.00000E+00
 -1      1727 0.00000E+00
 -1      1728 0.00000E+00
 -1      1730 0.00000E+00
 -1      1731 0.00000E+00
 -1      1733 0.00000E+00
 -1      1734 0.00000E+00
 -1      1736 0.00000E+00
 -1      1737 0.00000E+00
 -1      1739 0.00000E+00
 -1      1740 0.00000E+00
 -1      1742 0.00000E+00
 -1      1743 0.00000E+00
 -1      1745 0.00000E+00
 -1      1746 0.00000E+00
 -1      1748 0.00000E+00
 -1      1749 0.00000E+00
 -1      1751 0.00000E+00
 -1      1752 0.00000E+00
 -1      1754 0.00000E+00
 -1      1755 0.00000E+00
 -1      1757 0.00000E+00
 -1      1758 0.00000E+00
 -1      1760 0.00000E+00
 -1      1761 0.00000E+00
 -1      1763 0.00000E+00
 -1      1764 0.00000E+00
 -1      1766 0.00000E+00
 -1      1767 0.00000E+00
 -1      1769 0.00000E+00
 -1      1770 0.00000E+00
 -1      1772 0.00000E+00
 -1      1773 0.00000E+00
 -1      1775 0.00000E+00
 -1      1776 0.00000E+00
 -1      1778 0.00000E+00
 -1      1779 0.00000E+00
 -1      1781 0.00000E+00
 -1      1782 0.00000E+00
 -1      1784 0.00000E+00
 -1      1785 0.00000E+00
 -1      1787 0.00000E+00
 -1      1788 0.00000E+00
 -1      1790 0.00000E+00
 -1      1791 0.00000E+00
 -1      1793 0.00000E+00
 -1      1794 0.00000E+00
 -1      1796 0.00000E+00
 -1      1797 0.00000E+00
 -1      1799 0.00000E+00
 -1      1800 0.00000E+00
 -1      1802 0.00000E+00
 -1      1803 0.00000E+00
 -1      1805 0.00000E+00
 -1      1806 0.00000E+00
 -1      1808 0.00000E+00
 -1      1809 0.00000E+00
 -1      1811 0.00000E+00
 -1      1812 0.00000E+00
 -1      1814 0.00000E+00
 -1      1815 0.00000E+00
 -1      1817 0.00000E+00
 -1      1818 0.00000E+00
 -1      1820 0.00000E+00
 -1      1821 0.00000E+00
 -1      1823 0.00000E+00
 -1      1824 0.00000E+00
 -1      1826 0.00000E+00
 -1      1827 0.00000E+00
 -1      1829 0.00000E+00
 -1      1830 0.00000E+00
 -1      1832 0.00000E+00
 -1      1833 0.00000E+00
 -1      1835 0.00000E+00
 -1      1836 0.00000E+00
 -1      1838 0.00000E+00
 -1      1839 0.00000E+00
 -1      1841 0.00000E+00
 -1      1842 0.00000E+00
 -1      1844 0.00000E+00
 -1      1845 0.00000E+00
 -1      1847 0.00000E+00
 -1      1848 0.00000E+00
 -1      1850 0.00000E+00
 -1      1851 0.00000E+00
 -1      1853 0.00000E+00
 -1      1854 0.00000E+00
 -1      1856 0.00000E+00
 -1      1857 0.00000E+00
 -1      1859 0.00000E+00
 -1      1860 0.00000E+00
 -1      1862 0.00000E+00
 -1      1863 0.00000E+00
 -1      1865 0.00000E+00
 -1      1866 0.00000E+00
 -1      1868 0.00000E+00
 -1      1869 0.00000E+00
 -1      1871 0.00000E+00
 -1      1872 0.00000E+00
 -1      1874 0.00000E+00
 -1      1875 0.00000E+00
 -1      1877 0.00000E+00
 -1      1878 0.00000E+00
 -1      1880 0.00000E+00
 -1      1881 0.00000E+00
 -1      1883 0.00000E+00
 -1      1884 0.00000E+00
 -1      1886 0.00000E+00
 -1      1887 0.00000E+00
 -1      1889 0.00000E+00
 -1      1890 0.00000E+00
 -1      1892 0.00000E+00
 -1      1893 0.00000E+00
 -1      1895 0.00000E+00
 -1      1896 0.00000E+00
 -1      1898 0.00000E+00
 -1      1899 0.00000E+00
 -1      1901 0.00000E+00
 -1      1902 0.00000E+00
 -1      1904 0.00000E+00
 -1      1905 0.00000E+00
 -1      1907 0.00000E+00
 -1      1908 0.00000E+00
 -1      1910 0.00000E+00
 -1      1911 0.00000E+00
 -1      1913 0.00000E+00
 -1      1914 0.00000E+00
 -1      1916 0.00000E+00
 -1      1917 0.00000E+00
 -1      1919 0.00000E+00
 -1      1920 0.00000E+00
 -1      1922 0.00000E+00
 -1      1923 0.00000E+00
 -1      1925 0.00000E+00
 -1      1926 0.00000E+00
 -1      1928 0.00000E+00
 -1      1929 0.00000E+00
 -1      1931 0.00000E+00
 -1      1932 0.00000E+00
 -1      1934 0.00000E+00
 -1      1935 0.00000E+00
 -1      1937 0.00000E+00
 -1      1938 0.00000E+00
 -1      1940 0.00000E+00
 -1      1941 0.00000E+00
 -1      1943 0.00000E+00
 -1      1944 0.00000E+00
 -1      1946 0.00000E+00
 -1      1947 0.00000E+00
 -1      1949 0.00000E+00
 -1      1950 0.00000E+00
 -1      1952 0.00000E+00
 -1      1953 0.00000E+00
 -1      1955 0.00000E+00
 -1      1956 0.00000E+00
 -1      1958 0.00000E+00
 -1      1959 0.00000E+00
 -1      1961 0.00000E+00
 -1      1962 0.00000E+00
 -1      1964 0.00000E+00
 -1      1965 0.00000E+00
 -1      1967 0.00000E+00
 -1      1968 0.00000E+00
 -1      1970 0.00000E+00
 -1      1971 0.00000E+00
 -1      1973 0.00000E+00
 -1      1974 0.00000E+00
 -1      1976 0.00000E+00
 -1      1977 0.00000E+00
 -1      1979 0.00000E+00
 -1      1980 0.00000E+00
 -1      1982 0.00000E+00
 -1      1983 0.00000E+00
 -1      1985 0.00000E+00
 -1      1986 0.00000E+00
 -1      1988 0.00000E+00
 -1      1989 0.00000E+00
 -1      1991 0.00000E+00
 -1      1992 0.00000E+00
 -1      1994 0.00000E+00
 -1      1995 0.00000E+00
 -1      1997 0.00000E+00
 -1      1998 0.00000E+00
 -1      2000 0.00000E+00
 -1      2001 0.00000E+00
 -1      2003 0.00000E+00
 -1      2004 0.00000E+00
 -1      2006 0.00000E+00
 -1      2007 0.00000E+00
 -1      2009 0.00000E+00
 -1      2010 0.00000E+00
 -1      2012 0.00000E+00
 -1      2013 0.00000E+00
 -1      2015 0.00000E+00
 -1      2016 0.00000E+00
 -1      2018 0.00000E+00
 -1      2019 0.00000E+00
 -1      2021 0.00000E+00
 -1      2022 0.00000E+00
 -1      2024 0.00000E+00
 -1      2025 0.00000E+00
 -1      2027 0.00000E+00
 -1      2028 0.00000E+00
 -1      2030 0.00000E+00
 -1      2031 0.00000E+00
 -1      2033 0.00000E+00
 -1      2034 0.00000E+00
 -1      2036 0.00000E+00
 -1      2037 0.00000E+00
 -1      2039 0.00000E+00
 -1      2040 0.00000E+00
 -1      2042 0.00000E+00
 -1      2043 0.00000E+00
 -1      2045 0.00000E+00
 -1      2046 0.00000E+00
 -1      2048 0.00000E+00
 -1      2049 0.00000E+00
 -1      2051 0.00000E+00
 -1      2052 0.00000E+00
 -1      2054 0.00000E+00
 -1      2055 0.00000E+00
 -1      2057 0.00000E+00
 -1      2058 0.00000E+00
 -1      2060 0.00000E+00
 -1      2061 0.00000E+00
 -1      2063 0.00000E+00
 -1      2064 0.00000E+00
 -1      2066 0.00000E+00
 -1      2067 0.00000E+00
 -1      2069 0.00000E+00
 -1      2070 0.00000E+00
 -1      2072 0.00000E+00
 -1      2073 0.00000E+00
 -1      2075 0.00000E+00
 -1      2076 0.00000E+00
 -1      2078 0.00000E+00
 -1      2079 0.00000E+00
 -1      2081 0.00000E+00
 -1      2082 0.00000E+00
 -1      2084 0.00000E+00
 -1      2085 0.00000E+00
 -1      2087 0.00000E+00
 -1      2088 0.00000E+00
 -1      2090 0.00000E+00
 -1      2091 0.00000E+00
 -1      2093 0.00000E+00
 -1      2094 0.00000E+00
 -1      2096 0.00000E+00
 -1      2097 0.00000E+00
 -1      2099 0.00000E+00
 -1      2100 0.00000E+00
 -1      2102 0.00000E+00
 -1      2103 0.00000E+00
 -1      2105 0.00000E+00
 -1      2106 0.00000E+00
 -1      2108 0.00000E+00
 -1      2109 0.00000E+00
 -1      2111 0.00000E+00
 -1      2112 0.00000E+00
 -1      2114 0.00000E+00
 -1      2115 0.00000E+00
 -1      2117 0.00000E+00
 -1      2118 0.00000E+00
 -1      2120 0.00000E+00
 -1      2121 0.00000E+00
 -1      2123 0.00000E+00
 -1      2124 0.00000E+00
 -1      2126 0.00000E+00
 -1      2127 0.00000E+00
 -1      2129 0.00000E+00
 -1      2130 0.00000E+00
 -1      2132 0.00000E+00
 -1      2133 0.00000E+00
 -1      2135 0.00000E+00
 -1      2136 0.00000E+00
 -1      2138 0.00000E+00
 -1      2139 0.00000E+00
 -1      2141 0.00000E+00
 -1      2142 0.00000E+00
 -1      2144 0.00000E+00
 -1      2145 0.00000E+00
 -1      2147 0.00000E+00
 -1      2148 0.00000E+00
 -1      2150 0.00000E+00
 -1      2151 0.00000E+00
 -1      2153 0.00000E+00
 -1      2154 0.00000E+00
 -1      2156 0.00000E+00
 -1      2157 0.00000E+00
 -1      2159 0.00000E+00
 -1      2160 0.00000E+00
 -1      2162 0.00000E+00
 -1      2163 0.00000E+00
 -1      2165 0.00000E+00
 -1      2166 0.00000E+00
 -1      2168 0.00000E+00
 -1      2169 0.00000E+00
 -1      2171 0.00000E+00
 -1      2172 0.00000E+00
 -1      2174 0.00000E+00
 -1      2175 0.00000E+00
 -1      2177 0.00000E+00
 -1      2178 0.00000E+00
 -1      2180 0.00000E+00
 -1      2181 0.00000E+00
 -1      2183 0.00000E+00
 -1      2184 0.00000E+00
 -1      2186 0.00000E+00
 -1      2187 0.00000E+00
 -1      2189 0.00000E+00
 -1      2190 0.00000E+00
 -1      2192 0.00000E+00
 -1      2193 0.00000E+00
 -1      2195 0.00000E+00
 -1      2196 0.00000E+00
 -1      2198 0.00000E+00
 -1      2199 0.00000E+00
 -1      2201 0.00000E+00
 -1      2202 0.00000E+00
 -1      2204 0.00000E+00
 -1      2205 0.00000E+00
 -1      2207 0.00000E+00
 -1      2208 0.00000E+00
 -1      2210 0.00000E+00
 -1      2211 0.00000E+00
 -1      2213 0.00000E+00
 -1      2214 0.00000E+00
 -1      2216 0.00000E+00
 -1      2217 0.00000E+00
 -1      2219 0.00000E+00
 -1      2220 0.00000E+00
 -1      2222 0.00000E+00
 -1      2223 0.00000E+00
 -1      2225 0.00000E+00
 -1      2226 0.00000E+00
 -1      2228 0.00000E+00
 -1      2229 0.00000E+00
 -1      2231 0.00000E+00
 -1      2232 0.00000E+00
 -1      2234 0.00000E+00
 -1      2235 0.00000E+00
 -1      2237 0.00000E+00
 -1      2238 0.00000E+00
 -1      2240 0.00000E+00
 -1      2241 0.00000E+00
 -1      2243 0.00000E+00
 -1      2244 0.00000E+00
 -1      2246 0.00000E+00
 -1      2247 0.00000E+00
 -1      2249 0.00000E+00
 -1      2250 0.00000E+00
 -1      2252 0.00000E+00
 -1      2253 0.00000E+00
 -1      2255 0.00000E+00
 -1      2256 0.00000E+00
 -1      2258 0.00000E+00
 -1      2259 0.00000E+00
 -1      2261 0.00000E+00
 -1      2262 0.00000E+00
 -1      2264 0.00000E+00
 -1      2265 0.00000E+00
 -1      2267 0.00000E+00
 -1      2268 0.00000E+00
 -1      2270 0.00000E+00
 -1      2271 0.00000E+00
 -1      2273 0.00000E+00
 -1      2274 0.00000E+00
 -1      2276 0.00000E+00
 -1      2277 0.00000E+00
 -1      2279 0.00000E+00
 -1      2280 0.00000E+00
 -1      2282 0.00000E+00
 -1      2283 0.00000E+00
 -1      2285 0.00000E+00
 -1      2286 0.00000E+00
 -1      2288 0.00000E+00
 -1      2289 0.00000E+00
 -1      2291 0.00000E+00
 -1      2292 0.00000E+00
 -1      2294 0.00000E+00
 -3
    1PSTEP                        45           1           1          
    1PGM                1.000000E+00                                  
    1PGK                8.423980E+06                                  
    1PHID                         -1                                  
    1PSUBC                         0                                  
    1PMODE                        12                                  
  100CL  112 461.9328067         930                     2   12MODAL      1
 -4  DISP        4    1
 -5  D1          1    2    1    0
 -5  D2          1    2    2    0
 -5  D3          1    2    3    0
 -5  ALL         1    2    0    0    1ALL
 -1       404 0.00000E+00 0.00000E+00 3.71275E-04
 -1       406 0.00000E+00-0.00000E+00-3.71275E-04
 -1       407 2.35739E-02-1.55572E-01-1.98190E-02
 -1       409 2.36599E-02-1.54082E-01-1.99640E-02
 -1       410-5.87205E-15-1.56549E-01 1.77800E-14
 -1       412-6.27448E-15-1.50261E-01 1.70507E-14
 -1       413-8.86959E-04-1.53405E-01 2.00277E-03
 -1       415 8.86959E-04-1.53405E-01-2.00277E-03
 -1       424 0.00000E+00 0.00000E+00-3.92030E-17
 -1       426 0.00000E+00 0.00000E+00 3.92030E-17
 -1       427 0.00000E+00-2.49738E-17 0.00000E+00
 -1       429 0.00000E+00 2.49738E-17 0.00000E+00
 -1       438-2.35739E-02-1.55572E-01 1.98190E-02
 -1       440-2.36599E-02-1.54082E-01 1.99640E-02
 -1       441 0.00000E+00 0.00000E+00-3.71275E-04
 -1       443 0.00000E+00-0.00000E+00 3.71275E-04
 -1       444 0.00000E+00 2.58092E-17 0.00000E+00
 -1       446 0.00000E+00-2.58092E-17 0.00000E+00
 -1       447 0.00000E+00 0.00000E+00-4.05145E-17
 -1       449 0.00000E+00 0.00000E+00 4.05145E-17
 -1       458 8.86959E-04 1.53405E-01 2.00277E-03
 -1       460-8.86959E-04 1.53405E-01-2.00277E-03
 -1       461-3.59155E-14 1.56549E-01 1.68463E-14
 -1       463-3.44847E-14 1.50261E-01 1.73624E-14
 -1       472 0.00000E+00 0.00000E+00-3.71275E-04
 -1       474 0.00000E+00 0.00000E+00 3.71275E-04
 -1       475 2.35739E-02 1.55572E-01 1.98190E-02
 -1       477 2.36599E-02 1.54082E-01 1.99640E-02
 -1       478-2.35739E-02 1.55572E-01-1.98190E-02
 -1       480-2.36599E-02 1.54082E-01-1.99640E-02
 -1       481 0.00000E+00 0.00000E+00 3.71275E-04
 -1       483 0.00000E+00 0.00000E+00-3.71275E-04
 -1       484 1.06278E-02-1.18854E-02-4.72942E-03
 -1       486 1.18159E-02-1.11341E-02-4.96342E-03
 -1       487 1.66348E-02-3.02478E-02-1.13700E-02
 -1       489 1.72526E-02-2.86707E-02-1.15239E-02
 -1       490 1.87512E-02-5.33403E-02-1.69704E-02
 -1       492 1.95897E-02-5.10217E-02-1.70111E-02
 -1       493 1.78956E-02-7.61788E-02-2.24141E-02
 -1       495 1.85001E-02-7.32267E-02-2.22876E-02
 -1       496 1.45443E-02-9.62656E-02-2.65966E-02
 -1       498 1.50513E-02-9.28474E-02-2.64564E-02
 -1       499 9.47535E-03-1.10953E-01-2.95775E-02
 -1       501 9.75285E-03-1.07240E-01-2.93154E-02
 -1       502 3.20280E-03-1.18753E-01-3.08269E-02
 -1       504 3.26261E-03-1.14941E-01-3.05861E-02
 -1       505-3.57950E-03-1.18606E-01-3.03646E-02
 -1       507-3.76774E-03-1.14896E-01-3.00700E-02
 -1       508-1.03161E-02-1.10340E-01-2.80497E-02
 -1       510-1.07385E-02-1.06928E-01-2.78055E-02
 -1       511-1.64166E-02-9.43449E-02-2.40809E-02
 -1       513-1.70526E-02-9.14148E-02-2.38434E-02
 -1       514-2.14102E-02-7.17077E-02-1.86329E-02
 -1       516-2.22190E-02-6.94119E-02-1.84714E-02
 -1       517-2.48900E-02-4.39842E-02-1.21021E-02
 -1       519-2.58193E-02-4.24415E-02-1.19889E-02
 -1       520-2.65921E-02-1.31606E-02-4.88075E-03
 -1       522-2.75801E-02-1.24385E-02-4.85727E-03
 -1       523-2.63720E-02 1.85591E-02 2.51843E-03
 -1       525-2.73523E-02 1.84406E-02 2.47654E-03
 -1       526-2.42413E-02 4.88762E-02 9.62196E-03
 -1       528-2.51477E-02 4.79542E-02 9.49547E-03
 -1       529-2.03432E-02 7.55987E-02 1.59307E-02
 -1       531-2.11148E-02 7.39585E-02 1.57474E-02
 -1       532-1.49570E-02 9.67771E-02 2.10396E-02
 -1       534-1.55422E-02 9.45517E-02 2.07956E-02
 -1       535-8.46460E-03 1.10868E-01 2.45941E-02
 -1       537-8.82509E-03 1.08225E-01 2.43229E-02
 -1       538-1.32842E-03 1.16823E-01 2.63833E-02
 -1       540-1.44194E-03 1.13954E-01 2.60876E-02
 -1       541 5.94681E-03 1.14186E-01 2.62878E-02
 -1       543 6.08495E-03 1.11295E-01 2.60068E-02
 -1       544 1.28569E-02 1.03088E-01 2.43611E-02
 -1       546 1.32333E-02 1.00372E-01 2.40925E-02
 -1       547 1.89269E-02 8.42807E-02 2.07406E-02
 -1       549 1.95119E-02 8.19188E-02 2.05291E-02
 -1       550 2.37797E-02 5.89790E-02 1.57437E-02
 -1       552 2.45270E-02 5.71156E-02 1.55683E-02
 -1       553 2.71147E-02 2.88999E-02 9.70753E-03
 -1       555 2.79708E-02 2.76344E-02 9.62102E-03
 -1       556 2.88651E-02-4.14039E-03 3.15298E-03
 -1       558 2.97591E-02-4.76411E-03 3.10011E-03
 -1       559 2.89739E-02-3.80285E-02-3.50456E-03
 -1       561 2.98494E-02-3.80346E-02-3.45857E-03
 -1       562 2.79363E-02-7.11180E-02-9.62050E-03
 -1       564 2.87000E-02-7.05737E-02-9.57471E-03
 -1       565 2.58690E-02-1.01921E-01-1.48275E-02
 -1       567 2.64950E-02-1.00990E-01-1.47225E-02
 -1       568 2.40922E-02-1.29455E-01-1.83959E-02
 -1       570 2.44275E-02-1.28179E-01-1.83024E-02
 -1       571 1.17688E-02-1.55671E-01-1.39794E-02
 -1       573 1.18410E-02-1.53561E-01-1.37904E-02
 -1       574-6.62434E-16-1.01075E-02 6.56976E-15
 -1       576-2.59147E-15-9.57361E-03 6.69654E-15
 -1       577-8.08229E-04-9.84055E-03 1.70055E-04
 -1       579 8.08229E-04-9.84055E-03-1.70055E-04
 -1       588-4.50746E-15-2.99814E-02 1.26595E-14
 -1       590-4.62802E-15-2.84202E-02 1.28722E-14
 -1       591-8.58718E-04-2.92008E-02 4.97286E-04
 -1       593 8.58718E-04-2.92008E-02-4.97286E-04
 -1       602-7.08965E-15-5.33367E-02 1.27450E-14
 -1       604-7.09475E-15-5.06875E-02 1.28768E-14
 -1       605-1.06514E-03-5.20121E-02 8.43834E-04
 -1       607 1.06514E-03-5.20121E-02-8.43834E-04
 -1       616-8.89431E-15-7.69032E-02 1.10371E-14
 -1       618-8.53966E-15-7.31518E-02 1.11605E-14
 -1       619-9.03685E-04-7.50275E-02 1.19488E-03
 -1       621 9.03685E-04-7.50275E-02-1.19488E-03
 -1       630-1.00989E-14-9.74136E-02 1.32700E-14
 -1       632-1.10352E-14-9.27033E-02 1.30839E-14
 -1       633-7.90586E-04-9.50585E-02 1.50031E-03
 -1       635 7.90586E-04-9.50585E-02-1.50031E-03
 -1       644-1.28119E-14-1.12543E-01 2.14816E-14
 -1       646-1.43227E-14-1.07137E-01 2.17824E-14
 -1       647-4.72660E-04-1.09840E-01 1.72203E-03
 -1       649 4.72660E-04-1.09840E-01-1.72203E-03
 -1       658-1.70009E-14-1.20546E-01 2.88200E-14
 -1       660-1.74684E-14-1.14766E-01 2.90920E-14
 -1       661-1.86910E-04-1.17656E-01 1.84112E-03
 -1       663 1.86910E-04-1.17656E-01-1.84112E-03
 -1       672-2.04481E-14-1.20503E-01 2.83458E-14
 -1       674-1.95616E-14-1.14735E-01 2.85254E-14
 -1       675 1.87263E-04-1.17619E-01 1.83701E-03
 -1       677-1.87263E-04-1.17619E-01-1.83701E-03
 -1       686-2.15875E-14-1.12123E-01 2.36255E-14
 -1       688-2.08349E-14-1.06750E-01 2.35104E-14
 -1       689 5.11683E-04-1.09436E-01 1.71165E-03
 -1       691-5.11683E-04-1.09436E-01-1.71165E-03
 -1       700-2.08340E-14-9.58904E-02 2.50715E-14
 -1       702-2.17599E-14-9.12847E-02 2.50334E-14
 -1       703 8.35412E-04-9.35875E-02 1.46700E-03
 -1       705-8.35412E-04-9.35875E-02-1.46700E-03
 -1       714-2.15324E-14-7.28536E-02 3.36541E-14
 -1       716-2.28678E-14-6.93282E-02 3.39134E-14
 -1       717 1.08000E-03-7.10909E-02 1.12290E-03
 -1       719-1.08000E-03-7.10909E-02-1.12290E-03
 -1       728-2.39267E-14-4.46421E-02 4.07130E-14
 -1       730-2.43490E-14-4.24452E-02 4.08399E-14
 -1       731 1.26307E-03-4.35437E-02 6.99764E-04
 -1       733-1.26307E-03-4.35437E-02-6.99764E-04
 -1       742-2.66744E-14-1.32525E-02 4.11205E-14
 -1       744-2.61965E-14-1.25298E-02 4.14107E-14
 -1       745 1.34551E-03-1.28911E-02 2.30173E-04
 -1       747-1.34551E-03-1.28911E-02-2.30173E-04
 -1       756-2.92474E-14 1.90472E-02 3.68986E-14
 -1       758-2.84443E-14 1.82453E-02 3.71533E-14
 -1       759 1.33724E-03 1.86463E-02-2.55403E-04
 -1       761-1.33724E-03 1.86463E-02 2.55403E-04
 -1       770-3.14922E-14 4.99273E-02 3.10052E-14
 -1       772-3.06976E-14 4.76673E-02 3.10008E-14
 -1       773 1.22824E-03 4.87973E-02-7.19828E-04
 -1       775-1.22824E-03 4.87973E-02 7.19828E-04
 -1       784-3.33921E-14 7.71420E-02 2.35954E-14
 -1       786-3.23365E-14 7.35846E-02 2.36446E-14
 -1       787 1.03144E-03 7.53633E-02-1.13309E-03
 -1       789-1.03144E-03 7.53633E-02 1.13309E-03
 -1       798-3.56342E-14 9.87122E-02 1.39613E-14
 -1       800-3.41919E-14 9.41200E-02 1.41274E-14
 -1       801 7.59690E-04 9.64161E-02-1.46270E-03
 -1       803-7.59690E-04 9.64161E-02 1.46270E-03
 -1       812-3.75739E-14 1.13057E-01 3.58362E-15
 -1       814-3.61918E-14 1.07753E-01 3.49405E-15
 -1       815 4.29592E-04 1.10405E-01-1.68930E-03
 -1       817-4.29592E-04 1.10405E-01 1.68930E-03
 -1       826-3.75321E-14 1.19115E-01-3.75842E-15
 -1       828-3.70436E-14 1.13487E-01-3.79803E-15
 -1       829 7.18992E-05 1.16301E-01-1.79245E-03
 -1       831-7.18992E-05 1.16301E-01 1.79245E-03
 -1       840-3.59355E-14 1.16412E-01-7.05514E-15
 -1       842-3.56687E-14 1.10852E-01-7.30143E-15
 -1       843-3.00472E-04 1.13632E-01-1.77088E-03
 -1       845 3.00472E-04 1.13632E-01 1.77088E-03
 -1       854-3.33736E-14 1.05097E-01-1.15795E-14
 -1       856-3.25390E-14 1.00014E-01-1.14820E-14
 -1       857-6.41921E-04 1.02555E-01-1.61920E-03
 -1       859 6.41921E-04 1.02555E-01 1.61920E-03
 -1       868-2.91889E-14 8.59106E-02-1.46526E-14
 -1       870-2.90510E-14 8.16495E-02-1.49591E-14
 -1       871-9.57927E-04 8.37800E-02-1.35725E-03
 -1       873 9.57927E-04 8.37800E-02 1.35725E-03
 -1       882-2.44767E-14 6.01336E-02-1.32373E-14
 -1       884-2.50713E-14 5.70204E-02-1.32250E-14
 -1       885-1.18557E-03 5.85770E-02-9.91606E-04
 -1       887 1.18557E-03 5.85770E-02 9.91606E-04
 -1       896-2.01669E-14 2.94496E-02-8.75924E-15
 -1       898-2.06808E-14 2.76869E-02-9.15005E-15
 -1       899-1.37161E-03 2.85683E-02-5.61466E-04
 -1       901 1.37161E-03 2.85683E-02 5.61466E-04
 -1       910-1.68009E-14-4.19772E-03-5.10963E-15
 -1       912-1.70904E-14-4.43517E-03-5.01075E-15
 -1       913-1.42348E-03-4.31645E-03-7.56330E-05
 -1       915 1.42348E-03-4.31645E-03 7.56330E-05
 -1       924-1.39323E-14-3.87489E-02-1.12134E-15
 -1       926-1.43871E-14-3.74556E-02-1.23441E-15
 -1       927-1.45772E-03-3.81023E-02 4.11924E-04
 -1       929 1.45772E-03-3.81023E-02-4.11924E-04
 -1       938-1.12054E-14-7.25240E-02 3.19416E-15
 -1       940-1.17346E-14-6.96787E-02 3.34575E-15
 -1       941-1.34335E-03-7.11013E-02 9.06269E-04
 -1       943 1.34335E-03-7.11013E-02-9.06269E-04
 -1       952-8.66884E-15-1.03576E-01 8.27545E-15
 -1       954-9.24045E-15-9.93750E-02 8.37616E-15
 -1       955-1.25039E-03-1.01475E-01 1.33800E-03
 -1       957 1.25039E-03-1.01475E-01-1.33800E-03
 -1       966-6.72523E-15-1.32384E-01 1.33259E-14
 -1       968-7.27052E-15-1.26904E-01 1.30113E-14
 -1       969-1.13670E-03-1.29644E-01 1.74540E-03
 -1       971 1.13670E-03-1.29644E-01-1.74540E-03
 -1       980 0.00000E+00 0.00000E+00 1.40567E-04
 -1       982 0.00000E+00-0.00000E+00-1.40567E-04
 -1       983-1.17688E-02-1.55671E-01 1.39794E-02
 -1       985-1.18410E-02-1.53561E-01 1.37904E-02
 -1       986-1.06278E-02-1.18854E-02 4.72942E-03
 -1       988-1.18159E-02-1.11341E-02 4.96342E-03
 -1       989-1.66348E-02-3.02478E-02 1.13700E-02
 -1       991-1.72526E-02-2.86707E-02 1.15239E-02
 -1       992-1.87512E-02-5.33403E-02 1.69704E-02
 -1       994-1.95897E-02-5.10217E-02 1.70111E-02
 -1       995-1.78956E-02-7.61788E-02 2.24141E-02
 -1       997-1.85001E-02-7.32267E-02 2.22876E-02
 -1       998-1.45443E-02-9.62656E-02 2.65966E-02
 -1      1000-1.50513E-02-9.28474E-02 2.64564E-02
 -1      1001-9.47535E-03-1.10953E-01 2.95775E-02
 -1      1003-9.75285E-03-1.07240E-01 2.93154E-02
 -1      1004-3.20280E-03-1.18753E-01 3.08269E-02
 -1      1006-3.26261E-03-1.14941E-01 3.05861E-02
 -1      1007 3.57950E-03-1.18606E-01 3.03646E-02
 -1      1009 3.76774E-03-1.14896E-01 3.00700E-02
 -1      1010 1.03161E-02-1.10340E-01 2.80497E-02
 -1      1012 1.07385E-02-1.06928E-01 2.78055E-02
 -1      1013 1.64166E-02-9.43449E-02 2.40809E-02
 -1      1015 1.70526E-02-9.14148E-02 2.38434E-02
 -1      1016 2.14102E-02-7.17077E-02 1.86329E-02
 -1      1018 2.22190E-02-6.94119E-02 1.84714E-02
 -1      1019 2.48900E-02-4.39842E-02 1.21021E-02
 -1      1021 2.58193E-02-4.24415E-02 1.19889E-02
 -1      1022 2.65921E-02-1.31606E-02 4.88075E-03
 -1      1024 2.75801E-02-1.24385E-02 4.85727E-03
 -1      1025 2.63720E-02 1.85591E-02-2.51843E-03
 -1      1027 2.73523E-02 1.84406E-02-2.47654E-03
 -1      1028 2.42413E-02 4.88762E-02-9.62196E-03
 -1      1030 2.51477E-02 4.79542E-02-9.49547E-03
 -1      1031 2.03432E-02 7.55987E-02-1.59307E-02
 -1      1033 2.11148E-02 7.39585E-02-1.57474E-02
 -1      1034 1.49570E-02 9.67771E-02-2.10396E-02
 -1      1036 1.55422E-02 9.45517E-02-2.07956E-02
 -1      1037 8.46460E-03 1.10868E-01-2.45941E-02
 -1      1039 8.82509E-03 1.08225E-01-2.43229E-02
 -1      1040 1.32842E-03 1.16823E-01-2.63833E-02
 -1      1042 1.44194E-03 1.13954E-01-2.60876E-02
 -1      1043-5.94681E-03 1.14186E-01-2.62878E-02
 -1      1045-6.08495E-03 1.11295E-01-2.60068E-02
 -1      1046-1.28569E-02 1.03088E-01-2.43611E-02
 -1      1048-1.32333E-02 1.00372E-01-2.40925E-02
 -1      1049-1.89269E-02 8.42807E-02-2.07406E-02
 -1      1051-1.95119E-02 8.19188E-02-2.05291E-02
 -1      1052-2.37797E-02 5.89790E-02-1.57437E-02
 -1      1054-2.45270E-02 5.71156E-02-1.55683E-02
 -1      1055-2.71147E-02 2.88999E-02-9.70753E-03
 -1      1057-2.79708E-02 2.76344E-02-9.62102E-03
 -1      1058-2.88651E-02-4.14039E-03-3.15298E-03
 -1      1060-2.97591E-02-4.76411E-03-3.10011E-03
 -1      1061-2.89739E-02-3.80285E-02 3.50456E-03
 -1      1063-2.98494E-02-3.80346E-02 3.45857E-03
 -1      1064-2.79363E-02-7.11180E-02 9.62050E-03
 -1      1066-2.87000E-02-7.05737E-02 9.57471E-03
 -1      1067-2.58690E-02-1.01921E-01 1.48275E-02
 -1      1069-2.64950E-02-1.00990E-01 1.47225E-02
 -1      1070-2.40922E-02-1.29455E-01 1.83959E-02
 -1      1072-2.44275E-02-1.28179E-01 1.83024E-02
 -1      1073 0.00000E+00 0.00000E+00-1.40567E-04
 -1      1075 0.00000E+00-0.00000E+00 1.40567E-04
 -1      1076 0.00000E+00 4.09117E-18 0.00000E+00
 -1      1078 0.00000E+00-4.09117E-18 0.00000E+00
 -1      1079 0.00000E+00-1.43115E-17 0.00000E+00
 -1      1081 0.00000E+00 1.43115E-17 0.00000E+00
 -1      1082 0.00000E+00 4.57601E-17 0.00000E+00
 -1      1084 0.00000E+00-4.57601E-17 0.00000E+00
 -1      1085 8.08229E-04 9.84055E-03 1.70055E-04
 -1      1087-8.08229E-04 9.84055E-03-1.70055E-04
 -1      1088-1.36835E-15 1.01075E-02 2.10486E-15
 -1      1090-9.76131E-16 9.57361E-03 1.85443E-15
 -1      1099 8.58718E-04 2.92008E-02 4.97286E-04
 -1      1101-8.58718E-04 2.92008E-02-4.97286E-04
 -1      1102-3.19227E-15 2.99814E-02 7.81106E-15
 -1      1104-2.05505E-15 2.84202E-02 7.95411E-15
 -1      1113 1.06514E-03 5.20121E-02 8.43834E-04
 -1      1115-1.06514E-03 5.20121E-02-8.43834E-04
 -1      1116-4.36427E-15 5.33367E-02 1.61837E-14
 -1      1118-3.29974E-15 5.06875E-02 1.59642E-14
 -1      1127 9.03685E-04 7.50275E-02 1.19488E-03
 -1      1129-9.03685E-04 7.50275E-02-1.19488E-03
 -1      1130-4.66668E-15 7.69032E-02 2.27825E-14
 -1      1132-3.97398E-15 7.31518E-02 2.29587E-14
 -1      1141 7.90586E-04 9.50585E-02 1.50031E-03
 -1      1143-7.90586E-04 9.50585E-02-1.50031E-03
 -1      1144-5.01512E-15 9.74136E-02 2.85218E-14
 -1      1146-4.22228E-15 9.27033E-02 2.80995E-14
 -1      1155 4.72660E-04 1.09840E-01 1.72203E-03
 -1      1157-4.72660E-04 1.09840E-01-1.72203E-03
 -1      1158-4.94684E-15 1.12543E-01 3.21133E-14
 -1      1160-4.71904E-15 1.07137E-01 3.19708E-14
 -1      1169 1.86910E-04 1.17656E-01 1.84112E-03
 -1      1171-1.86910E-04 1.17656E-01-1.84112E-03
 -1      1172-5.29106E-15 1.20546E-01 2.94705E-14
 -1      1174-6.34547E-15 1.14766E-01 2.92257E-14
 -1      1183-1.87263E-04 1.17619E-01 1.83701E-03
 -1      1185 1.87263E-04 1.17619E-01-1.83701E-03
 -1      1186-7.99046E-15 1.20503E-01 2.41842E-14
 -1      1188-8.36104E-15 1.14735E-01 2.40958E-14
 -1      1197-5.11683E-04 1.09436E-01 1.71165E-03
 -1      1199 5.11683E-04 1.09436E-01-1.71165E-03
 -1      1200-1.11251E-14 1.12123E-01 2.63932E-14
 -1      1202-9.91364E-15 1.06750E-01 2.58532E-14
 -1      1211-8.35412E-04 9.35875E-02 1.46700E-03
 -1      1213 8.35412E-04 9.35875E-02-1.46700E-03
 -1      1214-1.24530E-14 9.58904E-02 3.25852E-14
 -1      1216-1.13821E-14 9.12847E-02 3.27496E-14
 -1      1225-1.08000E-03 7.10909E-02 1.12290E-03
 -1      1227 1.08000E-03 7.10909E-02-1.12290E-03
 -1      1228-1.30841E-14 7.28536E-02 3.51598E-14
 -1      1230-1.29923E-14 6.93282E-02 3.50063E-14
 -1      1239-1.26307E-03 4.35437E-02 6.99764E-04
 -1      1241 1.26307E-03 4.35437E-02-6.99764E-04
 -1      1242-1.39718E-14 4.46421E-02 3.27097E-14
 -1      1244-1.43806E-14 4.24452E-02 3.26894E-14
 -1      1253-1.34551E-03 1.28911E-02 2.30173E-04
 -1      1255 1.34551E-03 1.28911E-02-2.30173E-04
 -1      1256-1.43076E-14 1.32525E-02 2.88820E-14
 -1      1258-1.46623E-14 1.25298E-02 2.87039E-14
 -1      1267-1.33724E-03-1.86463E-02-2.55403E-04
 -1      1269 1.33724E-03-1.86463E-02 2.55403E-04
 -1      1270-1.36351E-14-1.90472E-02 2.60936E-14
 -1      1272-1.37423E-14-1.82453E-02 2.60591E-14
 -1      1281-1.22824E-03-4.87973E-02-7.19828E-04
 -1      1283 1.22824E-03-4.87973E-02 7.19828E-04
 -1      1284-1.20732E-14-4.99273E-02 2.14125E-14
 -1      1286-1.31115E-14-4.76673E-02 2.14698E-14
 -1      1295-1.03144E-03-7.53633E-02-1.13309E-03
 -1      1297 1.03144E-03-7.53633E-02 1.13309E-03
 -1      1298-1.16224E-14-7.71420E-02 1.22038E-14
 -1      1300-1.32293E-14-7.35846E-02 1.21656E-14
 -1      1309-7.59690E-04-9.64161E-02-1.46270E-03
 -1      1311 7.59690E-04-9.64161E-02 1.46270E-03
 -1      1312-1.32975E-14-9.87122E-02 3.97522E-15
 -1      1314-1.41129E-14-9.41200E-02 3.72695E-15
 -1      1323-4.29592E-04-1.10405E-01-1.68930E-03
 -1      1325 4.29592E-04-1.10405E-01 1.68930E-03
 -1      1326-1.61002E-14-1.13057E-01 7.97144E-16
 -1      1328-1.63465E-14-1.07753E-01 6.87779E-16
 -1      1337-7.18992E-05-1.16301E-01-1.79245E-03
 -1      1339 7.18992E-05-1.16301E-01 1.79245E-03
 -1      1340-1.93955E-14-1.19115E-01-2.62623E-16
 -1      1342-1.97511E-14-1.13487E-01-4.03511E-16
 -1      1351 3.00472E-04-1.13632E-01-1.77088E-03
 -1      1353-3.00472E-04-1.13632E-01 1.77088E-03
 -1      1354-2.29454E-14-1.16412E-01-1.84869E-15
 -1      1356-2.31861E-14-1.10852E-01-1.78035E-15
 -1      1365 6.41921E-04-1.02555E-01-1.61920E-03
 -1      1367-6.41921E-04-1.02555E-01 1.61920E-03
 -1      1368-2.54782E-14-1.05097E-01-4.03694E-15
 -1      1370-2.59321E-14-1.00014E-01-4.16483E-15
 -1      1379 9.57927E-04-8.37800E-02-1.35725E-03
 -1      1381-9.57927E-04-8.37800E-02 1.35725E-03
 -1      1382-2.71176E-14-8.59106E-02-1.08222E-14
 -1      1384-2.86537E-14-8.16495E-02-1.10284E-14
 -1      1393 1.18557E-03-5.85770E-02-9.91606E-04
 -1      1395-1.18557E-03-5.85770E-02 9.91606E-04
 -1      1396-2.89727E-14-6.01336E-02-2.02700E-14
 -1      1398-3.01814E-14-5.70204E-02-2.03789E-14
 -1      1407 1.37161E-03-2.85683E-02-5.61466E-04
 -1      1409-1.37161E-03-2.85683E-02 5.61466E-04
 -1      1410-3.09957E-14-2.94496E-02-2.20976E-14
 -1      1412-3.03059E-14-2.76869E-02-2.21691E-14
 -1      1421 1.42348E-03 4.31645E-03-7.56330E-05
 -1      1423-1.42348E-03 4.31645E-03 7.56330E-05
 -1      1424-3.18393E-14 4.19772E-03-1.48488E-14
 -1      1426-3.04720E-14 4.43517E-03-1.49503E-14
 -1      1435 1.45772E-03 3.81023E-02 4.11924E-04
 -1      1437-1.45772E-03 3.81023E-02-4.11924E-04
 -1      1438-3.16870E-14 3.87489E-02-8.72002E-15
 -1      1440-3.14691E-14 3.74556E-02-8.48843E-15
 -1      1449 1.34335E-03 7.11013E-02 9.06269E-04
 -1      1451-1.34335E-03 7.11013E-02-9.06269E-04
 -1      1452-3.23164E-14 7.25240E-02-6.64991E-15
 -1      1454-3.23645E-14 6.96787E-02-7.20359E-15
 -1      1463 1.25039E-03 1.01475E-01 1.33800E-03
 -1      1465-1.25039E-03 1.01475E-01-1.33800E-03
 -1      1466-3.41193E-14 1.03576E-01-2.65104E-15
 -1      1468-3.30717E-14 9.93750E-02-2.49849E-15
 -1      1477 1.13670E-03 1.29644E-01 1.74540E-03
 -1      1479-1.13670E-03 1.29644E-01-1.74540E-03
 -1      1480-3.55244E-14 1.32384E-01 6.64609E-15
 -1      1482-3.40450E-14 1.26904E-01 6.84312E-15
 -1      1491-4.59688E-04-8.59774E-02 3.69858E-03
 -1      1493 4.59688E-04-8.59774E-02-3.69858E-03
 -1      1494-2.20258E-14-1.85853E-13 3.64676E-03
 -1      1496-1.46411E-14-1.86209E-13-3.64676E-03
 -1      1497 4.59688E-04 8.59774E-02 3.69858E-03
 -1      1499-4.59688E-04 8.59774E-02-3.69858E-03
 -1      1500 1.06278E-02 1.18854E-02 4.72942E-03
 -1      1502 1.18159E-02 1.11341E-02 4.96342E-03
 -1      1503 1.66348E-02 3.02478E-02 1.13700E-02
 -1      1505 1.72526E-02 2.86707E-02 1.15239E-02
 -1      1506 1.87512E-02 5.33403E-02 1.69704E-02
 -1      1508 1.95897E-02 5.10217E-02 1.70111E-02
 -1      1509 1.78956E-02 7.61788E-02 2.24141E-02
 -1      1511 1.85001E-02 7.32267E-02 2.22876E-02
 -1      1512 1.45443E-02 9.62656E-02 2.65966E-02
 -1      1514 1.50513E-02 9.28474E-02 2.64564E-02
 -1      1515 9.47535E-03 1.10953E-01 2.95775E-02
 -1      1517 9.75285E-03 1.07240E-01 2.93154E-02
 -1      1518 3.20280E-03 1.18753E-01 3.08269E-02
 -1      1520 3.26261E-03 1.14941E-01 3.05861E-02
 -1      1521-3.57950E-03 1.18606E-01 3.03646E-02
 -1      1523-3.76774E-03 1.14896E-01 3.00700E-02
 -1      1524-1.03161E-02 1.10340E-01 2.80497E-02
 -1      1526-1.07385E-02 1.06928E-01 2.78055E-02
 -1      1527-1.64166E-02 9.43449E-02 2.40809E-02
 -1      1529-1.70526E-02 9.14148E-02 2.38434E-02
 -1      1530-2.14102E-02 7.17077E-02 1.86329E-02
 -1      1532-2.22190E-02 6.94119E-02 1.84714E-02
 -1      1533-2.48900E-02 4.39842E-02 1.21021E-02
 -1      1535-2.58193E-02 4.24415E-02 1.19889E-02
 -1      1536-2.65921E-02 1.31606E-02 4.88075E-03
 -1      1538-2.75801E-02 1.24385E-02 4.85727E-03
 -1      1539-2.63720E-02-1.85591E-02-2.51843E-03
 -1      1541-2.73523E-02-1.84406E-02-2.47654E-03
 -1      1542-2.42413E-02-4.88762E-02-9.62196E-03
 -1      1544-2.51477E-02-4.79542E-02-9.49547E-03
 -1      1545-2.03432E-02-7.55987E-02-1.59307E-02
 -1      1547-2.11148E-02-7.39585E-02-1.57474E-02
 -1      1548-1.49570E-02-9.67771E-02-2.10396E-02
 -1      1550-1.55422E-02-9.45517E-02-2.07956E-02
 -1      1551-8.46460E-03-1.10868E-01-2.45941E-02
 -1      1553-8.82509E-03-1.08225E-01-2.43229E-02
 -1      1554-1.32842E-03-1.16823E-01-2.63833E-02
 -1      1556-1.44194E-03-1.13954E-01-2.60876E-02
 -1      1557 5.94681E-03-1.14186E-01-2.62878E-02
 -1      1559 6.08495E-03-1.11295E-01-2.60068E-02
 -1      1560 1.28569E-02-1.03088E-01-2.43611E-02
 -1      1562 1.32333E-02-1.00372E-01-2.40925E-02
 -1      1563 1.89269E-02-8.42807E-02-2.07406E-02
 -1      1565 1.95119E-02-8.19188E-02-2.05291E-02
 -1      1566 2.37797E-02-5.89790E-02-1.57437E-02
 -1      1568 2.45270E-02-5.71156E-02-1.55683E-02
 -1      1569 2.71147E-02-2.88999E-02-9.70753E-03
 -1      1571 2.79708E-02-2.76344E-02-9.62102E-03
 -1      1572 2.88651E-02 4.14039E-03-3.15298E-03
 -1      1574 2.97591E-02 4.76411E-03-3.10011E-03
 -1      1575 2.89739E-02 3.80285E-02 3.50456E-03
 -1      1577 2.98494E-02 3.80346E-02 3.45857E-03
 -1      1578 2.79363E-02 7.11180E-02 9.62050E-03
 -1      1580 2.87000E-02 7.05737E-02 9.57471E-03
 -1      1581 2.58690E-02 1.01921E-01 1.48275E-02
 -1      1583 2.64950E-02 1.00990E-01 1.47225E-02
 -1      1584 2.40922E-02 1.29455E-01 1.83959E-02
 -1      1586 2.44275E-02 1.28179E-01 1.83024E-02
 -1      1587 1.17688E-02 1.55671E-01 1.39794E-02
 -1      1589 1.18410E-02 1.53561E-01 1.37904E-02
 -1      1590 0.00000E+00 0.00000E+00-1.40567E-04
 -1      1592 0.00000E+00 0.00000E+00 1.40567E-04
 -1      1593-1.17688E-02 1.55671E-01-1.39794E-02
 -1      1595-1.18410E-02 1.53561E-01-1.37904E-02
 -1      1596-1.06278E-02 1.18854E-02-4.72942E-03
 -1      1598-1.18159E-02 1.11341E-02-4.96342E-03
 -1      1599-1.66348E-02 3.02478E-02-1.13700E-02
 -1      1601-1.72526E-02 2.86707E-02-1.15239E-02
 -1      1602-1.87512E-02 5.33403E-02-1.69704E-02
 -1      1604-1.95897E-02 5.10217E-02-1.70111E-02
 -1      1605-1.78956E-02 7.61788E-02-2.24141E-02
 -1      1607-1.85001E-02 7.32267E-02-2.22876E-02
 -1      1608-1.45443E-02 9.62656E-02-2.65966E-02
 -1      1610-1.50513E-02 9.28474E-02-2.64564E-02
 -1      1611-9.47535E-03 1.10953E-01-2.95775E-02
 -1      1613-9.75285E-03 1.07240E-01-2.93154E-02
 -1      1614-3.20280E-03 1.18753E-01-3.08269E-02
 -1      1616-3.26261E-03 1.14941E-01-3.05861E-02
 -1      1617 3.57950E-03 1.18606E-01-3.03646E-02
 -1      1619 3.76774E-03 1.14896E-01-3.00700E-02
 -1      1620 1.03161E-02 1.10340E-01-2.80497E-02
 -1      1622 1.07385E-02 1.06928E-01-2.78055E-02
 -1      1623 1.64166E-02 9.43449E-02-2.40809E-02
 -1      1625 1.70526E-02 9.14148E-02-2.38434E-02
 -1      1626 2.14102E-02 7.17077E-02-1.86329E-02
 -1      1628 2.22190E-02 6.94119E-02-1.84714E-02
 -1      1629 2.48900E-02 4.39842E-02-1.21021E-02
 -1      1631 2.58193E-02 4.24415E-02-1.19889E-02
 -1      1632 2.65921E-02 1.31606E-02-4.88075E-03
 -1      1634 2.75801E-02 1.24385E-02-4.85727E-03
 -1      1635 2.63720E-02-1.85591E-02 2.51843E-03
 -1      1637 2.73523E-02-1.84406E-02 2.47654E-03
 -1      1638 2.42413E-02-4.88762E-02 9.62196E-03
 -1      1640 2.51477E-02-4.79542E-02 9.49547E-03
 -1      1641 2.03432E-02-7.55987E-02 1.59307E-02
 -1      1643 2.11148E-02-7.39585E-02 1.57474E-02
 -1      1644 1.49570E-02-9.67771E-02 2.10396E-02
 -1      1646 1.55422E-02-9.45517E-02 2.07956E-02
 -1      1647 8.46460E-03-1.10868E-01 2.45941E-02
 -1      1649 8.82509E-03-1.08225E-01 2.43229E-02
 -1      1650 1.32842E-03-1.16823E-01 2.63833E-02
 -1      1652 1.44194E-03-1.13954E-01 2.60876E-02
 -1      1653-5.94681E-03-1.14186E-01 2.62878E-02
 -1      1655-6.08495E-03-1.11295E-01 2.60068E-02
 -1      1656-1.28569E-02-1.03088E-01 2.43611E-02
 -1      1658-1.32333E-02-1.00372E-01 2.40925E-02
 -1      1659-1.89269E-02-8.42807E-02 2.07406E-02
 -1      1661-1.95119E-02-8.19188E-02 2.05291E-02
 -1      1662-2.37797E-02-5.89790E-02 1.57437E-02
 -1      1664-2.45270E-02-5.71156E-02 1.55683E-02
 -1      1665-2.71147E-02-2.88999E-02 9.70753E-03
 -1      1667-2.79708E-02-2.76344E-02 9.62102E-03
 -1      1668-2.88651E-02 4.14039E-03 3.15298E-03
 -1      1670-2.97591E-02 4.76411E-03 3.10011E-03
 -1      1671-2.89739E-02 3.80285E-02-3.50456E-03
 -1      1673-2.98494E-02 3.80346E-02-3.45857E-03
 -1      1674-2.79363E-02 7.11180E-02-9.62050E-03
 -1      1676-2.87000E-02 7.05737E-02-9.57471E-03
 -1      1677-2.58690E-02 1.01921E-01-1.48275E-02
 -1      1679-2.64950E-02 1.00990E-01-1.47225E-02
 -1      1680-2.40922E-02 1.29455E-01-1.83959E-02
 -1      1682-2.44275E-02 1.28179E-01-1.83024E-02
 -1      1683 0.00000E+00 0.00000E+00 1.40567E-04
 -1      1685 0.00000E+00 0.00000E+00-1.40567E-04
 -1      1686 4.39079E-03-1.04825E-02-2.13178E-03
 -1      1688 5.00280E-03-9.66251E-03-2.33986E-03
 -1      1689 8.00160E-03-3.02901E-02-5.70094E-03
 -1      1691 8.34801E-03-2.84459E-02-5.78432E-03
 -1      1692 8.93672E-03-5.32849E-02-8.76197E-03
 -1      1694 9.41354E-03-5.06598E-02-8.77118E-03
 -1      1695 8.64818E-03-7.66785E-02-1.18839E-02
 -1      1697 9.01207E-03-7.33383E-02-1.18414E-02
 -1      1698 7.03534E-03-9.68870E-02-1.43928E-02
 -1      1700 7.34395E-03-9.29825E-02-1.42886E-02
 -1      1701 4.57969E-03-1.11836E-01-1.62093E-02
 -1      1703 4.75957E-03-1.07567E-01-1.60839E-02
 -1      1704 1.52996E-03-1.19701E-01-1.70738E-02
 -1      1706 1.57974E-03-1.15276E-01-1.69203E-02
 -1      1707-1.78254E-03-1.19608E-01-1.69078E-02
 -1      1709-1.87930E-03-1.15282E-01-1.67541E-02
 -1      1710-5.07190E-03-1.11271E-01-1.56766E-02
 -1      1712-5.30994E-03-1.07278E-01-1.55286E-02
 -1      1713-8.05526E-03-9.51548E-02-1.34465E-02
 -1      1715-8.42139E-03-9.17330E-02-1.33186E-02
 -1      1716-1.04968E-02-7.23146E-02-1.03518E-02
 -1      1718-1.09677E-02-6.96547E-02-1.02553E-02
 -1      1719-1.21987E-02-4.43476E-02-6.60083E-03
 -1      1721-1.27423E-02-4.26044E-02-6.54022E-03
 -1      1722-1.30304E-02-1.32430E-02-2.44339E-03
 -1      1724-1.36102E-02-1.25035E-02-2.42751E-03
 -1      1725-1.29210E-02 1.87638E-02 1.83093E-03
 -1      1727-1.34967E-02 1.84710E-02 1.80486E-03
 -1      1728-1.18763E-02 4.93594E-02 5.93142E-03
 -1      1730-1.24085E-02 4.80802E-02 5.86146E-03
 -1      1731-9.96540E-03 7.63258E-02 9.57192E-03
 -1      1733-1.04173E-02 7.41660E-02 9.46549E-03
 -1      1734-7.32622E-03 9.76999E-02 1.25039E-02
 -1      1736-7.66693E-03 9.48283E-02 1.23677E-02
 -1      1737-4.14403E-03 1.11919E-01 1.45275E-02
 -1      1739-4.35060E-03 1.08546E-01 1.43698E-02
 -1      1740-6.47123E-04 1.17931E-01 1.55053E-02
 -1      1742-7.06025E-04 1.14303E-01 1.53417E-02
 -1      1743 2.92013E-03 1.15266E-01 1.53822E-02
 -1      1745 3.01182E-03 1.11638E-01 1.52160E-02
 -1      1746 6.30774E-03 1.04075E-01 1.41661E-02
 -1      1748 6.54220E-03 1.00703E-01 1.40219E-02
 -1      1749 9.28900E-03 8.50850E-02 1.19649E-02
 -1      1751 9.64931E-03 8.21976E-02 1.18325E-02
 -1      1752 1.16706E-02 5.95770E-02 8.91954E-03
 -1      1754 1.21290E-02 5.73694E-02 8.83562E-03
 -1      1755 1.33275E-02 2.91942E-02 5.27549E-03
 -1      1757 1.38552E-02 2.78028E-02 5.20386E-03
 -1      1758 1.41805E-02-4.07484E-03 1.25049E-03
 -1      1760 1.47338E-02-4.57540E-03 1.24753E-03
 -1      1761 1.43202E-02-3.83346E-02-2.83211E-03
 -1      1763 1.48743E-02-3.79368E-02-2.84202E-03
 -1      1764 1.37439E-02-7.15455E-02-6.74158E-03
 -1      1766 1.42364E-02-7.03483E-02-6.68257E-03
 -1      1767 1.30033E-02-1.02644E-01-1.01427E-02
 -1      1769 1.34344E-02-1.00774E-01-1.01040E-02
 -1      1770 1.20431E-02-1.30069E-01-1.26796E-02
 -1      1772 1.22964E-02-1.27926E-01-1.26896E-02
 -1      1773-4.39079E-03-1.04825E-02 2.13178E-03
 -1      1775-5.00280E-03-9.66251E-03 2.33986E-03
 -1      1776-8.00160E-03-3.02901E-02 5.70094E-03
 -1      1778-8.34801E-03-2.84459E-02 5.78432E-03
 -1      1779-8.93672E-03-5.32849E-02 8.76197E-03
 -1      1781-9.41354E-03-5.06598E-02 8.77118E-03
 -1      1782-8.64818E-03-7.66785E-02 1.18839E-02
 -1      1784-9.01207E-03-7.33383E-02 1.18414E-02
 -1      1785-7.03534E-03-9.68870E-02 1.43928E-02
 -1      1787-7.34395E-03-9.29825E-02 1.42886E-02
 -1      1788-4.57969E-03-1.11836E-01 1.62093E-02
 -1      1790-4.75957E-03-1.07567E-01 1.60839E-02
 -1      1791-1.52996E-03-1.19701E-01 1.70738E-02
 -1      1793-1.57974E-03-1.15276E-01 1.69203E-02
 -1      1794 1.78254E-03-1.19608E-01 1.69078E-02
 -1      1796 1.87930E-03-1.15282E-01 1.67541E-02
 -1      1797 5.07190E-03-1.11271E-01 1.56766E-02
 -1      1799 5.30994E-03-1.07278E-01 1.55286E-02
 -1      1800 8.05526E-03-9.51548E-02 1.34465E-02
 -1      1802 8.42139E-03-9.17330E-02 1.33186E-02
 -1      1803 1.04968E-02-7.23146E-02 1.03518E-02
 -1      1805 1.09677E-02-6.96547E-02 1.02553E-02
 -1      1806 1.21987E-02-4.43476E-02 6.60083E-03
 -1      1808 1.27423E-02-4.26044E-02 6.54022E-03
 -1      1809 1.30304E-02-1.32430E-02 2.44339E-03
 -1      1811 1.36102E-02-1.25035E-02 2.42751E-03
 -1      1812 1.29210E-02 1.87638E-02-1.83093E-03
 -1      1814 1.34967E-02 1.84710E-02-1.80486E-03
 -1      1815 1.18763E-02 4.93594E-02-5.93142E-03
 -1      1817 1.24085E-02 4.80802E-02-5.86146E-03
 -1      1818 9.96540E-03 7.63258E-02-9.57192E-03
 -1      1820 1.04173E-02 7.41660E-02-9.46549E-03
 -1      1821 7.32622E-03 9.76999E-02-1.25039E-02
 -1      1823 7.66693E-03 9.48283E-02-1.23677E-02
 -1      1824 4.14403E-03 1.11919E-01-1.45275E-02
 -1      1826 4.35060E-03 1.08546E-01-1.43698E-02
 -1      1827 6.47123E-04 1.17931E-01-1.55053E-02
 -1      1829 7.06025E-04 1.14303E-01-1.53417E-02
 -1      1830-2.92013E-03 1.15266E-01-1.53822E-02
 -1      1832-3.01182E-03 1.11638E-01-1.52160E-02
 -1      1833-6.30774E-03 1.04075E-01-1.41661E-02
 -1      1835-6.54220E-03 1.00703E-01-1.40219E-02
 -1      1836-9.28900E-03 8.50850E-02-1.19649E-02
 -1      1838-9.64931E-03 8.21976E-02-1.18325E-02
 -1      1839-1.16706E-02 5.95770E-02-8.91954E-03
 -1      1841-1.21290E-02 5.73694E-02-8.83562E-03
 -1      1842-1.33275E-02 2.91942E-02-5.27549E-03
 -1      1844-1.38552E-02 2.78028E-02-5.20386E-03
 -1      1845-1.41805E-02-4.07484E-03-1.25049E-03
 -1      1847-1.47338E-02-4.57540E-03-1.24753E-03
 -1      1848-1.43202E-02-3.83346E-02 2.83211E-03
 -1      1850-1.48743E-02-3.79368E-02 2.84202E-03
 -1      1851-1.37439E-02-7.15455E-02 6.74158E-03
 -1      1853-1.42364E-02-7.03483E-02 6.68257E-03
 -1      1854-1.30033E-02-1.02644E-01 1.01427E-02
 -1      1856-1.34344E-02-1.00774E-01 1.01040E-02
 -1      1857-1.20431E-02-1.30069E-01 1.26796E-02
 -1      1859-1.22964E-02-1.27926E-01 1.26896E-02
 -1      1860-4.94748E-04-5.95707E-03 1.70224E-04
 -1      1862 4.94748E-04-5.95707E-03-1.70224E-04
 -1      1863-4.76169E-04-1.70401E-02 5.61127E-04
 -1      1865 4.76169E-04-1.70401E-02-5.61127E-04
 -1      1866-6.08918E-04-2.96482E-02 1.08449E-03
 -1      1868 6.08918E-04-2.96482E-02-1.08449E-03
 -1      1869-5.03671E-04-4.24332E-02 1.61520E-03
 -1      1871 5.03671E-04-4.24332E-02-1.61520E-03
 -1      1872-4.45831E-04-5.34223E-02 2.08247E-03
 -1      1874 4.45831E-04-5.34223E-02-2.08247E-03
 -1      1875-2.62058E-04-6.15650E-02 2.43086E-03
 -1      1877 2.62058E-04-6.15650E-02-2.43086E-03
 -1      1878-1.02725E-04-6.57861E-02 2.61920E-03
 -1      1880 1.02725E-04-6.57861E-02-2.61920E-03
 -1      1881 1.10253E-04-6.56846E-02 2.62753E-03
 -1      1883-1.10253E-04-6.56846E-02-2.62753E-03
 -1      1884 2.92963E-04-6.10339E-02 2.44954E-03
 -1      1886-2.92963E-04-6.10339E-02-2.44954E-03
 -1      1887 4.76626E-04-5.21430E-02 2.09495E-03
 -1      1889-4.76626E-04-5.21430E-02-2.09495E-03
 -1      1890 6.14566E-04-3.95486E-02 1.58919E-03
 -1      1892-6.14566E-04-3.95486E-02-1.58919E-03
 -1      1893 7.18084E-04-2.41621E-02 9.66142E-04
 -1      1895-7.18084E-04-2.41621E-02-9.66142E-04
 -1      1896 7.64052E-04-7.05477E-03 2.73460E-04
 -1      1898-7.64052E-04-7.05477E-03-2.73460E-04
 -1      1899 7.58630E-04 1.05226E-02-4.41915E-04
 -1      1901-7.58630E-04 1.05226E-02 4.41915E-04
 -1      1902 6.95758E-04 2.73084E-02-1.12368E-03
 -1      1904-6.95758E-04 2.73084E-02 1.12368E-03
 -1      1905 5.82976E-04 4.20674E-02-1.72703E-03
 -1      1907-5.82976E-04 4.20674E-02 1.72703E-03
 -1      1908 4.27520E-04 5.37270E-02-2.20146E-03
 -1      1910-4.27520E-04 5.37270E-02 2.20146E-03
 -1      1911 2.38830E-04 6.14146E-02-2.51970E-03
 -1      1913-2.38830E-04 6.14146E-02 2.51970E-03
 -1      1914 3.45560E-05 6.45624E-02-2.64823E-03
 -1      1916-3.45560E-05 6.45624E-02 2.64823E-03
 -1      1917-1.78151E-04 6.28986E-02-2.58905E-03
 -1      1919 1.78151E-04 6.28986E-02 2.58905E-03
 -1      1920-3.72919E-04 5.65259E-02-2.32959E-03
 -1      1922 3.72919E-04 5.65259E-02 2.32959E-03
 -1      1923-5.53292E-04 4.58276E-02-1.90679E-03
 -1      1925 5.53292E-04 4.58276E-02 1.90679E-03
 -1      1926-6.82694E-04 3.15448E-02-1.32274E-03
 -1      1928 6.82694E-04 3.15448E-02 1.32274E-03
 -1      1929-7.88292E-04 1.45608E-02-6.49176E-04
 -1      1931 7.88292E-04 1.45608E-02 6.49176E-04
 -1      1932-8.16326E-04-3.98086E-03 1.16886E-04
 -1      1934 8.16326E-04-3.98086E-03-1.16886E-04
 -1      1935-8.33262E-04-2.30177E-02 8.69518E-04
 -1      1937 8.33262E-04-2.30177E-02-8.69518E-04
 -1      1938-7.63037E-04-4.14635E-02 1.66105E-03
 -1      1940 7.63037E-04-4.14635E-02-1.66105E-03
 -1      1941-7.02327E-04-5.83541E-02 2.33407E-03
 -1      1943 7.02327E-04-5.83541E-02-2.33407E-03
 -1      1944-6.18168E-04-7.36008E-02 3.10852E-03
 -1      1946 6.18168E-04-7.36008E-02-3.10852E-03
 -1      1947 8.23858E-16 2.39322E-14 3.44688E-04
 -1      1949-3.20783E-15 2.40563E-14-3.44688E-04
 -1      1950-2.81974E-16 6.09582E-14 8.95258E-04
 -1      1952-2.68210E-15 6.09029E-14-8.95258E-04
 -1      1953-5.16297E-16 9.71358E-14 1.46393E-03
 -1      1955-4.11737E-15 9.72347E-14-1.46393E-03
 -1      1956-2.01792E-15 1.45814E-13 2.02420E-03
 -1      1958-6.62534E-15 1.45786E-13-2.02420E-03
 -1      1959-5.04284E-15 1.97509E-13 2.50766E-03
 -1      1961-9.17148E-15 1.97654E-13-2.50766E-03
 -1      1962-8.94597E-15 2.31690E-13 2.85417E-03
 -1      1964-1.05393E-14 2.31801E-13-2.85417E-03
 -1      1965-1.13277E-14 2.41432E-13 3.03299E-03
 -1      1967-1.11734E-14 2.41640E-13-3.03299E-03
 -1      1968-1.41449E-14 2.15772E-13 3.01282E-03
 -1      1970-9.48026E-15 2.15661E-13-3.01282E-03
 -1      1971-1.63879E-14 1.52031E-13 2.79449E-03
 -1      1973-9.66935E-15 1.52212E-13-2.79449E-03
 -1      1974-1.88790E-14 7.50788E-14 2.38279E-03
 -1      1976-1.20477E-14 7.50788E-14-2.38279E-03
 -1      1977-2.14048E-14-9.02056E-16 1.80916E-03
 -1      1979-1.49759E-14-7.63278E-16-1.80916E-03
 -1      1980-2.25635E-14-6.40321E-14 1.10801E-03
 -1      1982-1.80706E-14-6.39211E-14-1.10801E-03
 -1      1983-2.35610E-14-1.13423E-13 3.33553E-04
 -1      1985-1.96596E-14-1.13423E-13-3.33553E-04
 -1      1986-2.52871E-14-1.64299E-13-4.63912E-04
 -1      1988-2.04402E-14-1.64035E-13 4.63912E-04
 -1      1989-2.54102E-14-2.07195E-13-1.22108E-03
 -1      1991-2.28008E-14-2.07306E-13 1.22108E-03
 -1      1992-2.43729E-14-2.17215E-13-1.88950E-03
 -1      1994-2.52018E-14-2.17056E-13 1.88950E-03
 -1      1995-2.28203E-14-1.92023E-13-2.41221E-03
 -1      1997-2.65814E-14-1.92016E-13 2.41221E-03
 -1      1998-2.14880E-14-1.31936E-13-2.76023E-03
 -1      2000-2.85492E-14-1.31842E-13 2.76023E-03
 -1      2001-2.26308E-14-4.88620E-14-2.89504E-03
 -1      2003-3.04818E-14-4.89140E-14 2.89504E-03
 -1      2004-2.49909E-14 3.45080E-14-2.82048E-03
 -1      2006-3.20104E-14 3.44393E-14 2.82048E-03
 -1      2007-2.70600E-14 1.03773E-13-2.52103E-03
 -1      2009-3.24630E-14 1.03794E-13 2.52103E-03
 -1      2010-2.75754E-14 1.61704E-13-2.03955E-03
 -1      2012-3.26514E-14 1.61881E-13 2.03955E-03
 -1      2013-2.81520E-14 1.98629E-13-1.37800E-03
 -1      2015-2.99487E-14 1.98520E-13 1.37800E-03
 -1      2016-2.78150E-14 1.94898E-13-6.16289E-04
 -1      2018-2.56960E-14 1.94813E-13 6.16289E-04
 -1      2019-2.60868E-14 1.60510E-13 2.40626E-04
 -1      2021-2.24126E-14 1.60576E-13-2.40626E-04
 -1      2022-2.48100E-14 1.14041E-13 1.08553E-03
 -1      2024-2.06181E-14 1.13999E-13-1.08553E-03
 -1      2025-2.43486E-14 5.54175E-14 1.92681E-03
 -1      2027-1.86570E-14 5.57714E-14-1.92681E-03
 -1      2028-2.37536E-14-1.88044E-14 2.64633E-03
 -1      2030-1.66828E-14-1.88651E-14-2.64633E-03
 -1      2031-2.25184E-14-1.01123E-13 3.25742E-03
 -1      2033-1.53662E-14-1.01263E-13-3.25742E-03
 -1      2034 4.94748E-04 5.95707E-03 1.70224E-04
 -1      2036-4.94748E-04 5.95707E-03-1.70224E-04
 -1      2037 4.76169E-04 1.70401E-02 5.61127E-04
 -1      2039-4.76169E-04 1.70401E-02-5.61127E-04
 -1      2040 6.08918E-04 2.96482E-02 1.08449E-03
 -1      2042-6.08918E-04 2.96482E-02-1.08449E-03
 -1      2043 5.03671E-04 4.24332E-02 1.61520E-03
 -1      2045-5.03671E-04 4.24332E-02-1.61520E-03
 -1      2046 4.45831E-04 5.34223E-02 2.08247E-03
 -1      2048-4.45831E-04 5.34223E-02-2.08247E-03
 -1      2049 2.62058E-04 6.15650E-02 2.43086E-03
 -1      2051-2.62058E-04 6.15650E-02-2.43086E-03
 -1      2052 1.02725E-04 6.57861E-02 2.61920E-03
 -1      2054-1.02725E-04 6.57861E-02-2.61920E-03
 -1      2055-1.10253E-04 6.56846E-02 2.62753E-03
 -1      2057 1.10253E-04 6.56846E-02-2.62753E-03
 -1      2058-2.92963E-04 6.10339E-02 2.44954E-03
 -1      2060 2.92963E-04 6.10339E-02-2.44954E-03
 -1      2061-4.76626E-04 5.21430E-02 2.09495E-03
 -1      2063 4.76626E-04 5.21430E-02-2.09495E-03
 -1      2064-6.14566E-04 3.95486E-02 1.58919E-03
 -1      2066 6.14566E-04 3.95486E-02-1.58919E-03
 -1      2067-7.18084E-04 2.41621E-02 9.66142E-04
 -1      2069 7.18084E-04 2.41621E-02-9.66142E-04
 -1      2070-7.64052E-04 7.05477E-03 2.73460E-04
 -1      2072 7.64052E-04 7.05477E-03-2.73460E-04
 -1      2073-7.58630E-04-1.05226E-02-4.41915E-04
 -1      2075 7.58630E-04-1.05226E-02 4.41915E-04
 -1      2076-6.95758E-04-2.73084E-02-1.12368E-03
 -1      2078 6.95758E-04-2.73084E-02 1.12368E-03
 -1      2079-5.82976E-04-4.20674E-02-1.72703E-03
 -1      2081 5.82976E-04-4.20674E-02 1.72703E-03
 -1      2082-4.27520E-04-5.37270E-02-2.20146E-03
 -1      2084 4.27520E-04-5.37270E-02 2.20146E-03
 -1      2085-2.38830E-04-6.14146E-02-2.51970E-03
 -1      2087 2.38830E-04-6.14146E-02 2.51970E-03
 -1      2088-3.45560E-05-6.45624E-02-2.64823E-03
 -1      2090 3.45560E-05-6.45624E-02 2.64823E-03
 -1      2091 1.78151E-04-6.28986E-02-2.58905E-03
 -1      2093-1.78151E-04-6.28986E-02 2.58905E-03
 -1      2094 3.72919E-04-5.65259E-02-2.32959E-03
 -1      2096-3.72919E-04-5.65259E-02 2.32959E-03
 -1      2097 5.53292E-04-4.58276E-02-1.90679E-03
 -1      2099-5.53292E-04-4.58276E-02 1.90679E-03
 -1      2100 6.82694E-04-3.15448E-02-1.32274E-03
 -1      2102-6.82694E-04-3.15448E-02 1.32274E-03
 -1      2103 7.88292E-04-1.45608E-02-6.49176E-04
 -1      2105-7.88292E-04-1.45608E-02 6.49176E-04
 -1      2106 8.16326E-04 3.98086E-03 1.16886E-04
 -1      2108-8.16326E-04 3.98086E-03-1.16886E-04
 -1      2109 8.33262E-04 2.30177E-02 8.69518E-04
 -1      2111-8.33262E-04 2.30177E-02-8.69518E-04
 -1      2112 7.63037E-04 4.14635E-02 1.66105E-03
 -1      2114-7.63037E-04 4.14635E-02-1.66105E-03
 -1      2115 7.02327E-04 5.83541E-02 2.33407E-03
 -1      2117-7.02327E-04 5.83541E-02-2.33407E-03
 -1      2118 6.18168E-04 7.36008E-02 3.10852E-03
 -1      2120-6.18168E-04 7.36008E-02-3.10852E-03
 -1      2121 4.39079E-03 1.04825E-02 2.13178E-03
 -1      2123 5.00280E-03 9.66251E-03 2.33986E-03
 -1      2124 8.00160E-03 3.02901E-02 5.70094E-03
 -1      2126 8.34801E-03 2.84459E-02 5.78432E-03
 -1      2127 8.93672E-03 5.32849E-02 8.76197E-03
 -1      2129 9.41354E-03 5.06598E-02 8.77118E-03
 -1      2130 8.64818E-03 7.66785E-02 1.18839E-02
 -1      2132 9.01207E-03 7.33383E-02 1.18414E-02
 -1      2133 7.03534E-03 9.68870E-02 1.43928E-02
 -1      2135 7.34395E-03 9.29825E-02 1.42886E-02
 -1      2136 4.57969E-03 1.11836E-01 1.62093E-02
 -1      2138 4.75957E-03 1.07567E-01 1.60839E-02
 -1      2139 1.52996E-03 1.19701E-01 1.70738E-02
 -1      2141 1.57974E-03 1.15276E-01 1.69203E-02
 -1      2142-1.78254E-03 1.19608E-01 1.69078E-02
 -1      2144-1.87930E-03 1.15282E-01 1.67541E-02
 -1      2145-5.07190E-03 1.11271E-01 1.56766E-02
 -1      2147-5.30994E-03 1.07278E-01 1.55286E-02
 -1      2148-8.05526E-03 9.51548E-02 1.34465E-02
 -1      2150-8.42139E-03 9.17330E-02 1.33186E-02
 -1      2151-1.04968E-02 7.23146E-02 1.03518E-02
 -1      2153-1.09677E-02 6.96547E-02 1.02553E-02
 -1      2154-1.21987E-02 4.43476E-02 6.60083E-03
 -1      2156-1.27423E-02 4.26044E-02 6.54022E-03
 -1      2157-1.30304E-02 1.32430E-02 2.44339E-03
 -1      2159-1.36102E-02 1.25035E-02 2.42751E-03
 -1      2160-1.29210E-02-1.87638E-02-1.83093E-03
 -1      2162-1.34967E-02-1.84710E-02-1.80486E-03
 -1      2163-1.18763E-02-4.93594E-02-5.93142E-03
 -1      2165-1.24085E-02-4.80802E-02-5.86146E-03
 -1      2166-9.96540E-03-7.63258E-02-9.57192E-03
 -1      2168-1.04173E-02-7.41660E-02-9.46549E-03
 -1      2169-7.32622E-03-9.76999E-02-1.25039E-02
 -1      2171-7.66693E-03-9.48283E-02-1.23677E-02
 -1      2172-4.14403E-03-1.11919E-01-1.45275E-02
 -1      2174-4.35060E-03-1.08546E-01-1.43698E-02
 -1      2175-6.47123E-04-1.17931E-01-1.55053E-02
 -1      2177-7.06025E-04-1.14303E-01-1.53417E-02
 -1      2178 2.92013E-03-1.15266E-01-1.53822E-02
 -1      2180 3.01182E-03-1.11638E-01-1.52160E-02
 -1      2181 6.30774E-03-1.04075E-01-1.41661E-02
 -1      2183 6.54220E-03-1.00703E-01-1.40219E-02
 -1      2184 9.28900E-03-8.50850E-02-1.19649E-02
 -1      2186 9.64931E-03-8.21976E-02-1.18325E-02
 -1      2187 1.16706E-02-5.95770E-02-8.91954E-03
 -1      2189 1.21290E-02-5.73694E-02-8.83562E-03
 -1      2190 1.33275E-02-2.91942E-02-5.27549E-03
 -1      2192 1.38552E-02-2.78028E-02-5.20386E-03
 -1      2193 1.41805E-02 4.07484E-03-1.25049E-03
 -1      2195 1.47338E-02 4.57540E-03-1.24753E-03
 -1      2196 1.43202E-02 3.83346E-02 2.83211E-03
 -1      2198 1.48743E-02 3.79368E-02 2.84202E-03
 -1      2199 1.37439E-02 7.15455E-02 6.74158E-03
 -1      2201 1.42364E-02 7.03483E-02 6.68257E-03
 -1      2202 1.30033E-02 1.02644E-01 1.01427E-02
 -1      2204 1.34344E-02 1.00774E-01 1.01040E-02
 -1      2205 1.20431E-02 1.30069E-01 1.26796E-02
 -1      2207 1.22964E-02 1.27926E-01 1.26896E-02
 -1      2208-4.39079E-03 1.04825E-02-2.13178E-03
 -1      2210-5.00280E-03 9.66251E-03-2.33986E-03
 -1      2211-8.00160E-03 3.02901E-02-5.70094E-03
 -1      2213-8.34801E-03 2.84459E-02-5.78432E-03
 -1      2214-8.93672E-03 5.32849E-02-8.76197E-03
 -1      2216-9.41354E-03 5.06598E-02-8.77118E-03
 -1      2217-8.64818E-03 7.66785E-02-1.18839E-02
 -1      2219-9.01207E-03 7.33383E-02-1.18414E-02
 -1      2220-7.03534E-03 9.68870E-02-1.43928E-02
 -1      2222-7.34395E-03 9.29825E-02-1.42886E-02
 -1      2223-4.57969E-03 1.11836E-01-1.62093E-02
 -1      2225-4.75957E-03 1.07567E-01-1.60839E-02
 -1      2226-1.52996E-03 1.19701E-01-1.70738E-02
 -1      2228-1.57974E-03 1.15276E-01-1.69203E-02
 -1      2229 1.78254E-03 1.19608E-01-1.69078E-02
 -1      2231 1.87930E-03 1.15282E-01-1.67541E-02
 -1      2232 5.07190E-03 1.11271E-01-1.56766E-02
 -1      2234 5.30994E-03 1.07278E-01-1.55286E-02
 -1      2235 8.05526E-03 9.51548E-02-1.34465E-02
 -1      2237 8.42139E-03 9.17330E-02-1.33186E-02
 -1      2238 1.04968E-02 7.23146E-02-1.03518E-02
 -1      2240 1.09677E-02 6.96547E-02-1.02553E-02
 -1      2241 1.21987E-02 4.43476E-02-6.60083E-03
 -1      2243 1.27423E-02 4.26044E-02-6.54022E-03
 -1      2244 1.30304E-02 1.32430E-02-2.44339E-03
 -1      2246 1.36102E-02 1.25035E-02-2.42751E-03
 -1      2247 1.29210E-02-1.87638E-02 1.83093E-03
 -1      2249 1.34967E-02-1.84710E-02 1.80486E-03
 -1      2250 1.18763E-02-4.93594E-02 5.93142E-03
 -1      2252 1.24085E-02-4.80802E-02 5.86146E-03
 -1      2253 9.96540E-03-7.63258E-02 9.57192E-03
 -1      2255 1.04173E-02-7.41660E-02 9.46549E-03
 -1      2256 7.32622E-03-9.76999E-02 1.25039E-02
 -1      2258 7.66693E-03-9.48283E-02 1.23677E-02
 -1      2259 4.14403E-03-1.11919E-01 1.45275E-02
 -1      2261 4.35060E-03-1.08546E-01 1.43698E-02
 -1      2262 6.47123E-04-1.17931E-01 1.55053E-02
 -1      2264 7.06025E-04-1.14303E-01 1.53417E-02
 -1      2265-2.92013E-03-1.15266E-01 1.53822E-02
 -1      2267-3.01182E-03-1.11638E-01 1.52160E-02
 -1      2268-6.30774E-03-1.04075E-01 1.41661E-02
 -1      2270-6.54220E-03-1.00703E-01 1.40219E-02
 -1      2271-9.28900E-03-8.50850E-02 1.19649E-02
 -1      2273-9.64931E-03-8.21976E-02 1.18325E-02
 -1      2274-1.16706E-02-5.95770E-02 8.91954E-03
 -1      2276-1.21290E-02-5.73694E-02 8.83562E-03
 -1      2277-1.33275E-02-2.91942E-02 5.27549E-03
 -1      2279-1.38552E-02-2.78028E-02 5.20386E-03
 -1      2280-1.41805E-02 4.07484E-03 1.25049E-03
 -1      2282-1.47338E-02 4.57540E-03 1.24753E-03
 -1      2283-1.43202E-02 3.83346E-02-2.83211E-03
 -1      2285-1.48743E-02 3.79368E-02-2.84202E-03
 -1      2286-1.37439E-02 7.15455E-02-6.74158E-03
 -1      2288-1.42364E-02 7.03483E-02-6.68257E-03
 -1      2289-1.30033E-02 1.02644E-01-1.01427E-02
 -1      2291-1.34344E-02 1.00774E-01-1.01040E-02
 -1      2292-1.20431E-02 1.30069E-01-1.26796E-02
 -1      2294-1.22964E-02 1.27926E-01-1.26896E-02
 -3
    1PSTEP                        46           1           1          
    1PGM                1.000000E+00                                  
    1PGK                8.423980E+06                                  
    1PHID                         -1                                  
    1PSUBC                         0                                  
    1PMODE                        12                                  
  100CL  112 461.9328067         930                     2   12MODAL      1
 -4  STRESS      6    1
 -5  SXX         1    4    1    1
 -5  SYY         1    4    2    2
 -5  SZZ         1    4    3    3
 -5  SXY         1    4    1    2
 -5  SYZ         1    4    2    3
 -5  SZX         1    4    3    1
 -1       404 1.72770E+10 1.83997E+09 3.49127E+07-2.86009E+09 7.36641E+06-1.67594E+08
 -1       406 1.72770E+10 1.83997E+09 3.49127E+07-2.86009E+09 7.36641E+06-1.67594E+08
 -1       407-1.17941E+09-4.20635E+08 1.64195E+07 6.00478E+08 2.45974E+07 9.35145E+06
 -1       409-1.17941E+09-4.20635E+08 1.64195E+07 6.00478E+08 2.45974E+07 9.35145E+06
 -1       410 1.95044E-03 1.69277E-05-6.77705E-05 1.57388E+09 1.18226E+08-1.15593E-05
 -1       412 1.95044E-03 1.69277E-05-6.77705E-05 1.57388E+09 1.18226E+08-1.15593E-05
 -1       413 1.32198E-03 2.19223E-04-1.83468E-03-2.97764E+07 2.96638E+08-2.97879E-04
 -1       415 1.32198E-03 2.19223E-04-1.83468E-03-2.97764E+07 2.96638E+08-2.97879E-04
 -1       424-4.32491E-03-3.34680E-04 3.95775E-05-3.82673E+09 1.84699E+07 3.20436E-04
 -1       426-4.32491E-03-3.34680E-04 3.95775E-05-3.82673E+09 1.84699E+07 3.20436E-04
 -1       427-4.33733E-03-1.46571E-05-2.16192E-03-2.61179E+08-2.95788E+07 4.93026E-03
 -1       429-4.33733E-03-1.46571E-05-2.16192E-03-2.61179E+08-2.95788E+07 4.93026E-03
 -1       438 1.17941E+09 4.20635E+08-1.64195E+07 6.00478E+08 2.45974E+07-9.35145E+06
 -1       440 1.17941E+09 4.20635E+08-1.64195E+07 6.00478E+08 2.45974E+07-9.35145E+06
 -1       441-1.72770E+10-1.83997E+09-3.49127E+07-2.86009E+09 7.36641E+06 1.67594E+08
 -1       443-1.72770E+10-1.83997E+09-3.49127E+07-2.86009E+09 7.36641E+06 1.67594E+08
 -1       444-1.95021E-03 3.91767E-05-1.59127E-03 2.61179E+08-2.95788E+07 1.61972E-03
 -1       446-1.95021E-03 3.91767E-05-1.59127E-03 2.61179E+08-2.95788E+07 1.61972E-03
 -1       447-2.60162E-03-2.44379E-04-1.74046E-05 3.82673E+09 1.84699E+07-5.11417E-05
 -1       449-2.60162E-03-2.44379E-04-1.74046E-05 3.82673E+09 1.84699E+07-5.11417E-05
 -1       458-1.17904E-04 2.04634E-04 1.78293E-04 2.97764E+07 2.96638E+08 1.24698E-03
 -1       460-1.17904E-04 2.04634E-04 1.78293E-04 2.97764E+07 2.96638E+08 1.24698E-03
 -1       461-1.12373E-03-1.27292E-03-1.65880E-04-1.57388E+09 1.18226E+08-3.01593E-05
 -1       463-1.12373E-03-1.27292E-03-1.65880E-04-1.57388E+09 1.18226E+08-3.01593E-05
 -1       472 1.72770E+10 1.83997E+09 3.49127E+07 2.86009E+09 7.36641E+06 1.67594E+08
 -1       474 1.72770E+10 1.83997E+09 3.49127E+07 2.86009E+09 7.36641E+06 1.67594E+08
 -1       475-1.17941E+09-4.20635E+08 1.64195E+07-6.00478E+08 2.45974E+07-9.35145E+06
 -1       477-1.17941E+09-4.20635E+08 1.64195E+07-6.00478E+08 2.45974E+07-9.35145E+06
 -1       478 1.17941E+09 4.20635E+08-1.64195E+07-6.00478E+08 2.45974E+07 9.35145E+06
 -1       480 1.17941E+09 4.20635E+08-1.64195E+07-6.00478E+08 2.45974E+07 9.35145E+06
 -1       481-1.72770E+10-1.83997E+09-3.49127E+07 2.86009E+09 7.36641E+06-1.67594E+08
 -1       483-1.72770E+10-1.83997E+09-3.49127E+07 2.86009E+09 7.36641E+06-1.67594E+08
 -1       484 1.33494E+10 5.43758E+08-3.16940E+06-2.08803E+09 6.41877E+06-5.73276E+07
 -1       486 1.33494E+10 5.43758E+08-3.16940E+06-2.08803E+09 6.41877E+06-5.73276E+07
 -1       487 6.46747E+09-1.92021E+08 3.07191E+06-1.39053E+09 8.59260E+06 1.17681E+06
 -1       489 6.46747E+09-1.92021E+08 3.07191E+06-1.39053E+09 8.59260E+06 1.17681E+06
 -1       490 1.02441E+09 7.12158E+07 1.83194E+06-1.24315E+09 1.22151E+07-2.48823E+07
 -1       492 1.02441E+09 7.12158E+07 1.83194E+06-1.24315E+09 1.22151E+07-2.48823E+07
 -1       493-3.37016E+09-1.01516E+08-5.56474E+06-9.25736E+08 1.43197E+07-8.92022E+06
 -1       495-3.37016E+09-1.01516E+08-5.56474E+06-9.25736E+08 1.43197E+07-8.92022E+06
 -1       496-6.71156E+09-6.85228E+07-8.85643E+05-7.00118E+08 1.82728E+07-1.15879E+07
 -1       498-6.71156E+09-6.85228E+07-8.85643E+05-7.00118E+08 1.82728E+07-1.15879E+07
 -1       499-9.06875E+09-1.21423E+08-7.92427E+06-4.51038E+08 2.11144E+07-4.41034E+06
 -1       501-9.06875E+09-1.21423E+08-7.92427E+06-4.51038E+08 2.11144E+07-4.41034E+06
 -1       502-1.04247E+10-1.15989E+08-3.50549E+06-2.11712E+08 2.31803E+07-1.00840E+06
 -1       504-1.04247E+10-1.15989E+08-3.50549E+06-2.11712E+08 2.31803E+07-1.00840E+06
 -1       505-1.08064E+10-1.28540E+08-7.81643E+06 2.16882E+07 2.36193E+07 4.46770E+06
 -1       507-1.08064E+10-1.28540E+08-7.81643E+06 2.16882E+07 2.36193E+07 4.46770E+06
 -1       508-1.02565E+10-1.14597E+08-4.12779E+06 2.38072E+08 2.20645E+07 8.94847E+06
 -1       510-1.02565E+10-1.14597E+08-4.12779E+06 2.38072E+08 2.20645E+07 8.94847E+06
 -1       511-8.86752E+09-1.02297E+08-6.02834E+06 4.27414E+08 1.88512E+07 1.32678E+07
 -1       513-8.86752E+09-1.02297E+08-6.02834E+06 4.27414E+08 1.88512E+07 1.32678E+07
 -1       514-6.77092E+09-7.55991E+07-2.74640E+06 5.79065E+08 1.37236E+07 1.66669E+07
 -1       516-6.77092E+09-7.55991E+07-2.74640E+06 5.79065E+08 1.37236E+07 1.66669E+07
 -1       517-4.14143E+09-4.75579E+07-3.02173E+06 6.84628E+08 7.50847E+06 1.90392E+07
 -1       519-4.14143E+09-4.75579E+07-3.02173E+06 6.84628E+08 7.50847E+06 1.90392E+07
 -1       520-1.18297E+09-1.30097E+07-3.86210E+04 7.37598E+08 2.42425E+05 2.01862E+07
 -1       522-1.18297E+09-1.30097E+07-3.86210E+04 7.37598E+08 2.42425E+05 2.01862E+07
 -1       523 1.88031E+09 2.05665E+07 4.88769E+05 7.35465E+08-7.12604E+06 1.99965E+07
 -1       525 1.88031E+09 2.05665E+07 4.88769E+05 7.35465E+08-7.12604E+06 1.99965E+07
 -1       526 4.82126E+09 5.42330E+07 3.03134E+06 6.78918E+08-1.43590E+07 1.85050E+07
 -1       528 4.82126E+09 5.42330E+07 3.03134E+06 6.78918E+08-1.43590E+07 1.85050E+07
 -1       529 7.42352E+09 8.27560E+07 3.60457E+06 5.72832E+08-2.06106E+07 1.57903E+07
 -1       531 7.42352E+09 8.27560E+07 3.60457E+06 5.72832E+08-2.06106E+07 1.57903E+07
 -1       532 9.49843E+09 1.06571E+08 5.49116E+06 4.25418E+08-2.56131E+07 1.20546E+07
 -1       534 9.49843E+09 1.06571E+08 5.49116E+06 4.25418E+08-2.56131E+07 1.20546E+07
 -1       535 1.08973E+10 1.21228E+08 5.48483E+06 2.48030E+08-2.87846E+07 7.55932E+06
 -1       537 1.08973E+10 1.21228E+08 5.48483E+06 2.48030E+08-2.87846E+07 7.55932E+06
 -1       538 1.15246E+10 1.29178E+08 6.62414E+06 5.45036E+07-2.99672E+07 2.62329E+06
 -1       540 1.15246E+10 1.29178E+08 6.62414E+06 5.45036E+07-2.99672E+07 2.62329E+06
 -1       541 1.13433E+10 1.24807E+08 5.59084E+06-1.40177E+08-2.89464E+07-2.40232E+06
 -1       543 1.13433E+10 1.24807E+08 5.59084E+06-1.40177E+08-2.89464E+07-2.40232E+06
 -1       544 1.03828E+10 1.16323E+08 6.17436E+06-3.19847E+08-2.57180E+07-7.12809E+06
 -1       546 1.03828E+10 1.16323E+08 6.17436E+06-3.19847E+08-2.57180E+07-7.12809E+06
 -1       547 8.73491E+09 9.20998E+07 3.84946E+06-4.68976E+08-2.04488E+07-1.12909E+07
 -1       549 8.73491E+09 9.20998E+07 3.84946E+06-4.68976E+08-2.04488E+07-1.12909E+07
 -1       550 6.55714E+09 7.29708E+07 4.43655E+06-5.74423E+08-1.32397E+07-1.43666E+07
 -1       552 6.55714E+09 7.29708E+07 4.43655E+06-5.74423E+08-1.32397E+07-1.43666E+07
 -1       553 4.06120E+09 3.35214E+07 7.04209E+05-6.15949E+08-4.47029E+06-1.65718E+07
 -1       555 4.06120E+09 3.35214E+07 7.04209E+05-6.15949E+08-4.47029E+06-1.65718E+07
 -1       556 1.51272E+09 9.39235E+06 2.19565E+06-6.03083E+08 5.52365E+06-1.67503E+07
 -1       558 1.51272E+09 9.39235E+06 2.19565E+06-6.03083E+08 5.52365E+06-1.67503E+07
 -1       559-7.74025E+08-2.05599E+07-2.86361E+06-4.68978E+08 1.68152E+07-1.67246E+07
 -1       561-7.74025E+08-2.05599E+07-2.86361E+06-4.68978E+08 1.68152E+07-1.67246E+07
 -1       562-2.44307E+09-7.99292E+07 2.68411E+05-3.20899E+08 2.69449E+07-1.28833E+07
 -1       564-2.44307E+09-7.99292E+07 2.68411E+05-3.20899E+08 2.69449E+07-1.28833E+07
 -1       565-3.09014E+09-8.50300E+06-4.22976E+06 6.03563E+07 3.84367E+07-1.21697E+07
 -1       567-3.09014E+09-8.50300E+06-4.22976E+06 6.03563E+07 3.84367E+07-1.21697E+07
 -1       568-2.14253E+09-1.73768E+08-4.56843E+06 5.06901E+08 3.51636E+07-3.36326E+06
 -1       570-2.14253E+09-1.73768E+08-4.56843E+06 5.06901E+08 3.51636E+07-3.36326E+06
 -1       571-1.02703E+09-1.00738E+09-1.39857E+07 1.08718E+09 7.14116E+07 5.74437E+06
 -1       573-1.02703E+09-1.00738E+09-1.39857E+07 1.08718E+09 7.14116E+07 5.74437E+06
 -1       574-5.14233E-03-4.23491E-05 3.08156E-05-3.94314E+09-1.15495E+07 9.52762E-05
 -1       576-5.14233E-03-4.23491E-05 3.08156E-05-3.94314E+09-1.15495E+07 9.52762E-05
 -1       577-4.93900E-03-3.15723E-05-3.48181E-03-8.42272E+07-5.91392E+07 4.97536E-03
 -1       579-4.93900E-03-3.15723E-05-3.48181E-03-8.42272E+07-5.91392E+07 4.97536E-03
 -1       588-5.50586E-03 2.36392E-04-3.51444E-05-3.41501E+09-4.00425E+07 3.85102E-07
 -1       590-5.50586E-03 2.36392E-04-3.51444E-05-3.41501E+09-4.00425E+07 3.85102E-07
 -1       591-5.03234E-03 6.45261E-05-4.03959E-03-4.07938E+07-8.57104E+07 4.05649E-03
 -1       593-5.03234E-03 6.45261E-05-4.03959E-03-4.07938E+07-8.57104E+07 4.05649E-03
 -1       602-4.32917E-03 4.76036E-05-6.82082E-05-2.60480E+09-2.79359E+07 8.08795E-05
 -1       604-4.32917E-03 4.76036E-05-6.82082E-05-2.60480E+09-2.79359E+07 8.08795E-05
 -1       605-3.58360E-03 1.91096E-04 2.39417E-05-8.10847E+07-6.95427E+07 2.83183E-03
 -1       607-3.58360E-03 1.91096E-04 2.39417E-05-8.10847E+07-6.95427E+07 2.83183E-03
 -1       616-3.89016E-03-1.33716E-04-1.30517E-04-2.09951E+09-2.03566E+07 3.00889E-05
 -1       618-3.89016E-03-1.33716E-04-1.30517E-04-2.09951E+09-2.03566E+07 3.00889E-05
 -1       619-2.72680E-03 2.40678E-04 5.70509E-03-5.01792E+07-4.94233E+07 3.35080E-03
 -1       621-2.72680E-03 2.40678E-04 5.70509E-03-5.01792E+07-4.94233E+07 3.35080E-03
 -1       630-5.10263E-03 2.74099E-04-1.03861E-04-1.52488E+09-1.31145E+07 1.19094E-05
 -1       632-5.10263E-03 2.74099E-04-1.03861E-04-1.52488E+09-1.31145E+07 1.19094E-05
 -1       633-3.82991E-03 2.78863E-04 6.93549E-03-5.70339E+07-2.90338E+07 5.53214E-03
 -1       635-3.82991E-03 2.78863E-04 6.93549E-03-5.70339E+07-2.90338E+07 5.53214E-03
 -1       644-6.63543E-03 3.16828E-04 1.14411E-04-1.00259E+09-5.00149E+06-2.14722E-05
 -1       646-6.63543E-03 3.16828E-04 1.14411E-04-1.00259E+09-5.00149E+06-2.14722E-05
 -1       647-5.72532E-03 1.91352E-04 2.16651E-03-2.62121E+07-9.62190E+06 6.56344E-03
 -1       649-5.72532E-03 1.91352E-04 2.16651E-03-2.62121E+07-9.62190E+06 6.56344E-03
 -1       658-6.46043E-03-3.94374E-04 9.47118E-05-4.65214E+08-1.51915E+06-4.30212E-05
 -1       660-6.46043E-03-3.94374E-04 9.47118E-05-4.65214E+08-1.51915E+06-4.30212E-05
 -1       661-5.99386E-03-8.86758E-06-3.05071E-03-1.59717E+07 3.50997E+06 4.40994E-03
 -1       663-5.99386E-03-8.86758E-06-3.05071E-03-1.59717E+07 3.50997E+06 4.40994E-03
 -1       672-4.16756E-03-4.68433E-04 6.09457E-05 4.35602E+07 2.52856E+06-6.25320E-05
 -1       674-4.16756E-03-4.68433E-04 6.09457E-05 4.35602E+07 2.52856E+06-6.25320E-05
 -1       675-4.03842E-03 1.04858E-04-2.60646E-03 1.29446E+07 1.29182E+07 1.74669E-03
 -1       677-4.03842E-03 1.04858E-04-2.60646E-03 1.29446E+07 1.29182E+07 1.74669E-03
 -1       686-1.84917E-03-5.11229E-04 2.84612E-05 5.22048E+08 3.03517E+06-5.72363E-05
 -1       688-1.84917E-03-5.11229E-04 2.84612E-05 5.22048E+08 3.03517E+06-5.72363E-05
 -1       689-2.15379E-03 5.26428E-05 1.24125E-03 2.91751E+07 1.62735E+07 2.49421E-03
 -1       691-2.15379E-03 5.26428E-05 1.24125E-03 2.91751E+07 1.62735E+07 2.49421E-03
 -1       700-1.40750E-03-3.79592E-04-2.27690E-05 9.36137E+08 3.46401E+06-1.35913E-05
 -1       702-1.40750E-03-3.79592E-04-2.27690E-05 9.36137E+08 3.46401E+06-1.35913E-05
 -1       703-2.47601E-03-5.28749E-05 1.67804E-03 5.20381E+07 1.53354E+07 5.67998E-03
 -1       705-2.47601E-03-5.28749E-05 1.67804E-03 5.20381E+07 1.53354E+07 5.67998E-03
 -1       714-2.66403E-03 4.11466E-04-4.43310E-05 1.27076E+09 1.68591E+06-2.24533E-05
 -1       716-2.66403E-03 4.11466E-04-4.43310E-05 1.27076E+09 1.68591E+06-2.24533E-05
 -1       717-4.28925E-03 4.86277E-05-2.54306E-03 6.53021E+07 1.00664E+07 6.41289E-03
 -1       719-4.28925E-03 4.86277E-05-2.54306E-03 6.53021E+07 1.00664E+07 6.41289E-03
 -1       728-4.10071E-03 4.89399E-04-5.04851E-05 1.50161E+09-2.42198E+05-4.95301E-05
 -1       730-4.10071E-03 4.89399E-04-5.04851E-05 1.50161E+09-2.42198E+05-4.95301E-05
 -1       731-5.63868E-03-2.49444E-05-6.56810E-03 7.79944E+07 1.55652E+06 3.74366E-03
 -1       733-5.63868E-03-2.49444E-05-6.56810E-03 7.79944E+07 1.55652E+06 3.74366E-03
 -1       742-4.75755E-03 5.05084E-05 1.22143E-04 1.61876E+09-3.30692E+06-3.60785E-05
 -1       744-4.75755E-03 5.05084E-05 1.22143E-04 1.61876E+09-3.30692E+06-3.60785E-05
 -1       745-6.36870E-03-1.63091E-04-7.23116E-03 8.23236E+07-8.97058E+06 4.69538E-04
 -1       747-6.36870E-03-1.63091E-04-7.23116E-03 8.23236E+07-8.97058E+06 4.69538E-04
 -1       756-4.47863E-03 1.73688E-04 1.97945E-04 1.61372E+09-6.14570E+06-1.67438E-05
 -1       758-4.47863E-03 1.73688E-04 1.97945E-04 1.61372E+09-6.14570E+06-1.67438E-05
 -1       759-6.49195E-03-1.54947E-04-6.14818E-03 8.24809E+07-2.08428E+07-1.81397E-03
 -1       761-6.49195E-03-1.54947E-04-6.14818E-03 8.24809E+07-2.08428E+07-1.81397E-03
 -1       770-3.64083E-03 8.47504E-04 5.43296E-05 1.48999E+09-9.27675E+06 9.31695E-06
 -1       772-3.64083E-03 8.47504E-04 5.43296E-05 1.48999E+09-9.27675E+06 9.31695E-06
 -1       773-5.79257E-03-3.45460E-04-5.92829E-03 7.56430E+07-3.22176E+07-3.18446E-03
 -1       775-5.79257E-03-3.45460E-04-5.92829E-03 7.56430E+07-3.22176E+07-3.18446E-03
 -1       784-3.53372E-03 1.38201E-03-1.97291E-05 1.25718E+09-1.16261E+07 3.21905E-05
 -1       786-3.53372E-03 1.38201E-03-1.97291E-05 1.25718E+09-1.16261E+07 3.21905E-05
 -1       787-4.93593E-03-3.39580E-04-5.98817E-03 6.37629E+07-4.29802E+07-3.93950E-03
 -1       789-4.93593E-03-3.39580E-04-5.98817E-03 6.37629E+07-4.29802E+07-3.93950E-03
 -1       798-3.98874E-03 1.05402E-03-1.13934E-04 9.33662E+08-1.36866E+07 3.37667E-05
 -1       800-3.98874E-03 1.05402E-03-1.13934E-04 9.33662E+08-1.36866E+07 3.37667E-05
 -1       801-4.26036E-03 1.29302E-04-4.32364E-03 4.73761E+07-5.09788E+07-3.90933E-03
 -1       803-4.26036E-03 1.29302E-04-4.32364E-03 4.73761E+07-5.09788E+07-3.90933E-03
 -1       812-2.62606E-03 7.69198E-05-3.16203E-05 5.44830E+08-1.44664E+07 1.79169E-05
 -1       814-2.62606E-03 7.69198E-05-3.16203E-05 5.44830E+08-1.44664E+07 1.79169E-05
 -1       815-2.92550E-03-4.87317E-05-1.74444E-03 2.68938E+07-5.70578E+07-2.57977E-03
 -1       817-2.92550E-03-4.87317E-05-1.74444E-03 2.68938E+07-5.70578E+07-2.57977E-03
 -1       826 7.19070E-04-7.56174E-04 8.27610E-05 1.19688E+08-1.47430E+07 4.01290E-05
 -1       828 7.19070E-04-7.56174E-04 8.27610E-05 1.19688E+08-1.47430E+07 4.01290E-05
 -1       829-3.02722E-04-2.14106E-04-4.10964E-04 5.75363E+06-5.87487E+07-6.79636E-04
 -1       831-3.02722E-04-2.14106E-04-4.10964E-04 5.75363E+06-5.87487E+07-6.79636E-04
 -1       840 4.20630E-03-8.74460E-04 2.86996E-05-3.06337E+08-1.34720E+07 5.38075E-05
 -1       842 4.20630E-03-8.74460E-04 2.86996E-05-3.06337E+08-1.34720E+07 5.38075E-05
 -1       843 2.60831E-03-3.94703E-04-1.93642E-04-1.79512E+07-5.84295E+07-5.64066E-04
 -1       845 2.60831E-03-3.94703E-04-1.93642E-04-1.79512E+07-5.84295E+07-5.64066E-04
 -1       854 6.90341E-03-5.23895E-04-2.34246E-05-7.01460E+08-1.19190E+07 1.44317E-05
 -1       856 6.90341E-03-5.23895E-04-2.34246E-05-7.01460E+08-1.19190E+07 1.44317E-05
 -1       857 5.14149E-03-4.87648E-04 1.00458E-03-3.72218E+07-5.28290E+07-1.63032E-03
 -1       859 5.14149E-03-4.87648E-04 1.00458E-03-3.72218E+07-5.28290E+07-1.63032E-03
 -1       868 8.47447E-03-1.74209E-04-1.11163E-05-1.02727E+09-8.92206E+06 1.09989E-05
 -1       870 8.47447E-03-1.74209E-04-1.11163E-05-1.02727E+09-8.92206E+06 1.09989E-05
 -1       871 6.91549E-03-1.31671E-04 1.73834E-03-5.86380E+07-4.67345E+07-1.32471E-03
 -1       873 6.91549E-03-1.31671E-04 1.73834E-03-5.86380E+07-4.67345E+07-1.32471E-03
 -1       882 8.96710E-03 2.57790E-04-5.45532E-05-1.25616E+09-6.14754E+06-6.48014E-06
 -1       884 8.96710E-03 2.57790E-04-5.45532E-05-1.25616E+09-6.14754E+06-6.48014E-06
 -1       885 7.36658E-03 8.98470E-05-5.38977E-04-6.92807E+07-3.45736E+07-2.37753E-04
 -1       887 7.36658E-03 8.98470E-05-5.38977E-04-6.92807E+07-3.45736E+07-2.37753E-04
 -1       896 8.24523E-03 6.82436E-04-3.78266E-05-1.35587E+09-2.64966E+06-4.44157E-05
 -1       898 8.24523E-03 6.82436E-04-3.78266E-05-1.35587E+09-2.64966E+06-4.44157E-05
 -1       899 6.37675E-03 4.74920E-05-3.72183E-03-8.48955E+07-2.54226E+07 1.47003E-04
 -1       901 6.37675E-03 4.74920E-05-3.72183E-03-8.48955E+07-2.54226E+07 1.47003E-04
 -1       910 6.73290E-03 5.21835E-04 6.48014E-06-1.29423E+09 9.29727E+05-5.56246E-05
 -1       912 6.73290E-03 5.21835E-04 6.48014E-06-1.29423E+09 9.29727E+05-5.56246E-05
 -1       913 4.74810E-03 4.82802E-05-5.12146E-03-8.19703E+07-6.94304E+06-1.73137E-05
 -1       915 4.74810E-03 4.82802E-05-5.12146E-03-8.19703E+07-6.94304E+06-1.73137E-05
 -1       924 5.75721E-03-4.27775E-05 4.54169E-05-1.07299E+09 3.17051E+06-4.39953E-05
 -1       926 5.75721E-03-4.27775E-05 4.54169E-05-1.07299E+09 3.17051E+06-4.39953E-05
 -1       927 3.73531E-03 4.62633E-05-5.44628E-03-9.11867E+07 1.88717E+06-1.17782E-04
 -1       929 3.73531E-03 4.62633E-05-5.44628E-03-9.11867E+07 1.88717E+06-1.17782E-04
 -1       938 5.47692E-03-1.42753E-05 3.20747E-05-5.96532E+08 1.21332E+07-3.49579E-05
 -1       940 5.47692E-03-1.42753E-05 3.20747E-05-5.96532E+08 1.21332E+07-3.49579E-05
 -1       941 3.20823E-03-1.56041E-04-5.74897E-03-7.63998E+07 3.58325E+07 4.66924E-05
 -1       943 3.20823E-03-1.56041E-04-5.74897E-03-7.63998E+07 3.58325E+07 4.66924E-05
 -1       952 5.06175E-03 7.34925E-04-8.56072E-06 5.86886E+07 1.54671E+07-6.76047E-06
 -1       954 5.06175E-03 7.34925E-04-8.56072E-06 5.86886E+07 1.54671E+07-6.76047E-06
 -1       955 2.62477E-03-3.31112E-04-5.28278E-03-7.46012E+07 4.70036E+07 1.38764E-04
 -1       957 2.62477E-03-3.31112E-04-5.28278E-03-7.46012E+07 4.70036E+07 1.38764E-04
 -1       966 3.34746E-03 6.38008E-04 4.20883E-05 9.81226E+08 6.54683E+07 1.09286E-05
 -1       968 3.34746E-03 6.38008E-04 4.20883E-05 9.81226E+08 6.54683E+07 1.09286E-05
 -1       969 1.81139E-03-1.12983E-04-3.27602E-03-7.62044E+07 1.53302E+08-1.10566E-04
 -1       971 1.81139E-03-1.12983E-04-3.27602E-03-7.62044E+07 1.53302E+08-1.10566E-04
 -1       980 1.12530E+10 1.42952E+09 3.41253E+06-3.34341E+09 1.29182E+07-7.75619E+07
 -1       982 1.12530E+10 1.42952E+09 3.41253E+06-3.34341E+09 1.29182E+07-7.75619E+07
 -1       983 1.02703E+09 1.00738E+09 1.39857E+07 1.08718E+09 7.14116E+07-5.74437E+06
 -1       985 1.02703E+09 1.00738E+09 1.39857E+07 1.08718E+09 7.14116E+07-5.74437E+06
 -1       986-1.33494E+10-5.43758E+08 3.16940E+06-2.08803E+09 6.41877E+06 5.73276E+07
 -1       988-1.33494E+10-5.43758E+08 3.16940E+06-2.08803E+09 6.41877E+06 5.73276E+07
 -1       989-6.46747E+09 1.92021E+08-3.07191E+06-1.39053E+09 8.59260E+06-1.17681E+06
 -1       991-6.46747E+09 1.92021E+08-3.07191E+06-1.39053E+09 8.59260E+06-1.17681E+06
 -1       992-1.02441E+09-7.12158E+07-1.83194E+06-1.24315E+09 1.22151E+07 2.48823E+07
 -1       994-1.02441E+09-7.12158E+07-1.83194E+06-1.24315E+09 1.22151E+07 2.48823E+07
 -1       995 3.37016E+09 1.01516E+08 5.56474E+06-9.25736E+08 1.43197E+07 8.92022E+06
 -1       997 3.37016E+09 1.01516E+08 5.56474E+06-9.25736E+08 1.43197E+07 8.92022E+06
 -1       998 6.71156E+09 6.85228E+07 8.85643E+05-7.00118E+08 1.82728E+07 1.15879E+07
 -1      1000 6.71156E+09 6.85228E+07 8.85643E+05-7.00118E+08 1.82728E+07 1.15879E+07
 -1      1001 9.06875E+09 1.21423E+08 7.92427E+06-4.51038E+08 2.11144E+07 4.41034E+06
 -1      1003 9.06875E+09 1.21423E+08 7.92427E+06-4.51038E+08 2.11144E+07 4.41034E+06
 -1      1004 1.04247E+10 1.15989E+08 3.50549E+06-2.11712E+08 2.31803E+07 1.00840E+06
 -1      1006 1.04247E+10 1.15989E+08 3.50549E+06-2.11712E+08 2.31803E+07 1.00840E+06
 -1      1007 1.08064E+10 1.28540E+08 7.81643E+06 2.16882E+07 2.36193E+07-4.46770E+06
 -1      1009 1.08064E+10 1.28540E+08 7.81643E+06 2.16882E+07 2.36193E+07-4.46770E+06
 -1      1010 1.02565E+10 1.14597E+08 4.12779E+06 2.38072E+08 2.20645E+07-8.94847E+06
 -1      1012 1.02565E+10 1.14597E+08 4.12779E+06 2.38072E+08 2.20645E+07-8.94847E+06
 -1      1013 8.86752E+09 1.02297E+08 6.02834E+06 4.27414E+08 1.88512E+07-1.32678E+07
 -1      1015 8.86752E+09 1.02297E+08 6.02834E+06 4.27414E+08 1.88512E+07-1.32678E+07
 -1      1016 6.77092E+09 7.55991E+07 2.74640E+06 5.79065E+08 1.37236E+07-1.66669E+07
 -1      1018 6.77092E+09 7.55991E+07 2.74640E+06 5.79065E+08 1.37236E+07-1.66669E+07
 -1      1019 4.14143E+09 4.75579E+07 3.02173E+06 6.84628E+08 7.50847E+06-1.90392E+07
 -1      1021 4.14143E+09 4.75579E+07 3.02173E+06 6.84628E+08 7.50847E+06-1.90392E+07
 -1      1022 1.18297E+09 1.30097E+07 3.86210E+04 7.37598E+08 2.42425E+05-2.01862E+07
 -1      1024 1.18297E+09 1.30097E+07 3.86210E+04 7.37598E+08 2.42425E+05-2.01862E+07
 -1      1025-1.88031E+09-2.05665E+07-4.88769E+05 7.35465E+08-7.12604E+06-1.99965E+07
 -1      1027-1.88031E+09-2.05665E+07-4.88769E+05 7.35465E+08-7.12604E+06-1.99965E+07
 -1      1028-4.82126E+09-5.42330E+07-3.03134E+06 6.78918E+08-1.43590E+07-1.85050E+07
 -1      1030-4.82126E+09-5.42330E+07-3.03134E+06 6.78918E+08-1.43590E+07-1.85050E+07
 -1      1031-7.42352E+09-8.27560E+07-3.60457E+06 5.72832E+08-2.06106E+07-1.57903E+07
 -1      1033-7.42352E+09-8.27560E+07-3.60457E+06 5.72832E+08-2.06106E+07-1.57903E+07
 -1      1034-9.49843E+09-1.06571E+08-5.49116E+06 4.25418E+08-2.56131E+07-1.20546E+07
 -1      1036-9.49843E+09-1.06571E+08-5.49116E+06 4.25418E+08-2.56131E+07-1.20546E+07
 -1      1037-1.08973E+10-1.21228E+08-5.48483E+06 2.48030E+08-2.87846E+07-7.55932E+06
 -1      1039-1.08973E+10-1.21228E+08-5.48483E+06 2.48030E+08-2.87846E+07-7.55932E+06
 -1      1040-1.15246E+10-1.29178E+08-6.62414E+06 5.45036E+07-2.99672E+07-2.62329E+06
 -1      1042-1.15246E+10-1.29178E+08-6.62414E+06 5.45036E+07-2.99672E+07-2.62329E+06
 -1      1043-1.13433E+10-1.24807E+08-5.59084E+06-1.40177E+08-2.89464E+07 2.40232E+06
 -1      1045-1.13433E+10-1.24807E+08-5.59084E+06-1.40177E+08-2.89464E+07 2.40232E+06
 -1      1046-1.03828E+10-1.16323E+08-6.17436E+06-3.19847E+08-2.57180E+07 7.12809E+06
 -1      1048-1.03828E+10-1.16323E+08-6.17436E+06-3.19847E+08-2.57180E+07 7.12809E+06
 -1      1049-8.73491E+09-9.20998E+07-3.84946E+06-4.68976E+08-2.04488E+07 1.12909E+07
 -1      1051-8.73491E+09-9.20998E+07-3.84946E+06-4.68976E+08-2.04488E+07 1.12909E+07
 -1      1052-6.55714E+09-7.29708E+07-4.43655E+06-5.74423E+08-1.32397E+07 1.43666E+07
 -1      1054-6.55714E+09-7.29708E+07-4.43655E+06-5.74423E+08-1.32397E+07 1.43666E+07
 -1      1055-4.06120E+09-3.35214E+07-7.04209E+05-6.15949E+08-4.47029E+06 1.65718E+07
 -1      1057-4.06120E+09-3.35214E+07-7.04209E+05-6.15949E+08-4.47029E+06 1.65718E+07
 -1      1058-1.51272E+09-9.39235E+06-2.19565E+06-6.03083E+08 5.52365E+06 1.67503E+07
 -1      1060-1.51272E+09-9.39235E+06-2.19565E+06-6.03083E+08 5.52365E+06 1.67503E+07
 -1      1061 7.74025E+08 2.05599E+07 2.86361E+06-4.68978E+08 1.68152E+07 1.67246E+07
 -1      1063 7.74025E+08 2.05599E+07 2.86361E+06-4.68978E+08 1.68152E+07 1.67246E+07
 -1      1064 2.44307E+09 7.99292E+07-2.68411E+05-3.20899E+08 2.69449E+07 1.28833E+07
 -1      1066 2.44307E+09 7.99292E+07-2.68411E+05-3.20899E+08 2.69449E+07 1.28833E+07
 -1      1067 3.09014E+09 8.50300E+06 4.22976E+06 6.03563E+07 3.84367E+07 1.21697E+07
 -1      1069 3.09014E+09 8.50300E+06 4.22976E+06 6.03563E+07 3.84367E+07 1.21697E+07
 -1      1070 2.14253E+09 1.73768E+08 4.56843E+06 5.06901E+08 3.51636E+07 3.36326E+06
 -1      1072 2.14253E+09 1.73768E+08 4.56843E+06 5.06901E+08 3.51636E+07 3.36326E+06
 -1      1073-1.12530E+10-1.42952E+09-3.41253E+06-3.34341E+09 1.29182E+07 7.75619E+07
 -1      1075-1.12530E+10-1.42952E+09-3.41253E+06-3.34341E+09 1.29182E+07 7.75619E+07
 -1      1076-4.18633E-03 1.20956E-06-2.44461E-03-1.71819E+08-2.09018E+07 4.66060E-03
 -1      1078-4.18633E-03 1.20956E-06-2.44461E-03-1.71819E+08-2.09018E+07 4.66060E-03
 -1      1079-3.07374E-03 5.43121E-05-2.41178E-03 7.63051E-04-1.22248E+07 3.86432E-03
 -1      1081-3.07374E-03 5.43121E-05-2.41178E-03 7.63051E-04-1.22248E+07 3.86432E-03
 -1      1082-2.03119E-03 6.53624E-05-1.84376E-03 1.71819E+08-2.09018E+07 2.47870E-03
 -1      1084-2.03119E-03 6.53624E-05-1.84376E-03 1.71819E+08-2.09018E+07 2.47870E-03
 -1      1085-2.23815E-03 1.09821E-04-1.69929E-03 8.42272E+07-5.91392E+07 2.44974E-03
 -1      1087-2.23815E-03 1.09821E-04-1.69929E-03 8.42272E+07-5.91392E+07 2.44974E-03
 -1      1088-2.79951E-03-2.42293E-04-8.31485E-06 3.94314E+09-1.15495E+07-1.69547E-05
 -1      1090-2.79951E-03-2.42293E-04-8.31485E-06 3.94314E+09-1.15495E+07-1.69547E-05
 -1      1099-2.57060E-03 1.74615E-04-7.13697E-04 4.07938E+07-8.57104E+07 3.98928E-03
 -1      1101-2.57060E-03 1.74615E-04-7.13697E-04 4.07938E+07-8.57104E+07 3.98928E-03
 -1      1102-2.54667E-03-1.68204E-04-5.40167E-06 3.41501E+09-4.00425E+07 2.20677E-06
 -1      1104-2.54667E-03-1.68204E-04-5.40167E-06 3.41501E+09-4.00425E+07 2.20677E-06
 -1      1113-2.13387E-03-5.03835E-05 1.42192E-03 8.10847E+07-6.95427E+07 4.55032E-03
 -1      1115-2.13387E-03-5.03835E-05 1.42192E-03 8.10847E+07-6.95427E+07 4.55032E-03
 -1      1116-1.55284E-03-7.37235E-06-9.40077E-05 2.60480E+09-2.79359E+07-1.03330E-05
 -1      1118-1.55284E-03-7.37235E-06-9.40077E-05 2.60480E+09-2.79359E+07-1.03330E-05
 -1      1127-1.14477E-03-5.08214E-05 3.53998E-03 5.01792E+07-4.94233E+07 4.30058E-03
 -1      1129-1.14477E-03-5.08214E-05 3.53998E-03 5.01792E+07-4.94233E+07 4.30058E-03
 -1      1130-7.68542E-04 2.40833E-04-8.98428E-05 2.09951E+09-2.03566E+07-3.47479E-05
 -1      1132-7.68542E-04 2.40833E-04-8.98428E-05 2.09951E+09-2.03566E+07-3.47479E-05
 -1      1141-3.10285E-04 3.26569E-04 5.82864E-03 5.70339E+07-2.90338E+07 4.12761E-03
 -1      1143-3.10285E-04 3.26569E-04 5.82864E-03 5.70339E+07-2.90338E+07 4.12761E-03
 -1      1144-6.62565E-04-5.89341E-05 3.86685E-05 1.52488E+09-1.31145E+07 5.81454E-06
 -1      1146-6.62565E-04-5.89341E-05 3.86685E-05 1.52488E+09-1.31145E+07 5.81454E-06
 -1      1155-6.12245E-04-2.51762E-04 6.30115E-03 2.62121E+07-9.62190E+06 2.44842E-03
 -1      1157-6.12245E-04-2.51762E-04 6.30115E-03 2.62121E+07-9.62190E+06 2.44842E-03
 -1      1158-1.63269E-03-3.65570E-04 1.81109E-04 1.00259E+09-5.00149E+06 2.45021E-05
 -1      1160-1.63269E-03-3.65570E-04 1.81109E-04 1.00259E+09-5.00149E+06 2.45021E-05
 -1      1169-2.27725E-03-6.14746E-04 3.02586E-03 1.59717E+07 3.50997E+06-1.40752E-04
 -1      1171-2.27725E-03-6.14746E-04 3.02586E-03 1.59717E+07 3.50997E+06-1.40752E-04
 -1      1172-3.68798E-03-2.01255E-04 8.33869E-05 4.65214E+08-1.51915E+06-2.14722E-05
 -1      1174-3.68798E-03-2.01255E-04 8.33869E-05 4.65214E+08-1.51915E+06-2.14722E-05
 -1      1183-3.90220E-03-6.12811E-04-1.01598E-03-1.29446E+07 1.29182E+07 5.32449E-04
 -1      1185-3.90220E-03-6.12811E-04-1.01598E-03-1.29446E+07 1.29182E+07 5.32449E-04
 -1      1186-4.75013E-03-1.45823E-04 6.72340E-05-4.35602E+07 2.52856E+06 6.51507E-06
 -1      1188-4.75013E-03-1.45823E-04 6.72340E-05-4.35602E+07 2.52856E+06 6.51507E-06
 -1      1197-3.82568E-03-5.27225E-04-8.84932E-04-2.91751E+07 1.62735E+07 3.51280E-03
 -1      1199-3.82568E-03-5.27225E-04-8.84932E-04-2.91751E+07 1.62735E+07 3.51280E-03
 -1      1200-3.75056E-03-1.20163E-04 1.63674E-04-5.22048E+08 3.03517E+06 7.92861E-05
 -1      1202-3.75056E-03-1.20163E-04 1.63674E-04-5.22048E+08 3.03517E+06 7.92861E-05
 -1      1211-3.13235E-03 2.06946E-04 1.56842E-03-5.20381E+07 1.53354E+07 4.10122E-03
 -1      1213-3.13235E-03 2.06946E-04 1.56842E-03-5.20381E+07 1.53354E+07 4.10122E-03
 -1      1214-2.79152E-03-3.95447E-04-4.21405E-05-9.36137E+08 3.46401E+06 8.83052E-05
 -1      1216-2.79152E-03-3.95447E-04-4.21405E-05-9.36137E+08 3.46401E+06 8.83052E-05
 -1      1225-3.58796E-03 1.20518E-04 4.92482E-04-6.53021E+07 1.00664E+07 2.33013E-03
 -1      1227-3.58796E-03 1.20518E-04 4.92482E-04-6.53021E+07 1.00664E+07 2.33013E-03
 -1      1228-2.51794E-03-5.00441E-04 5.31524E-05-1.27076E+09 1.68591E+06 9.28934E-05
 -1      1230-2.51794E-03-5.00441E-04 5.31524E-05-1.27076E+09 1.68591E+06 9.28934E-05
 -1      1239-3.50615E-03-6.32038E-06-3.67447E-03-7.79944E+07 1.55652E+06 9.90975E-04
 -1      1241-3.50615E-03-6.32038E-06-3.67447E-03-7.79944E+07 1.55652E+06 9.90975E-04
 -1      1242-1.44589E-03-2.80648E-04 3.67239E-05-1.50161E+09-2.42198E+05 8.42768E-05
 -1      1244-1.44589E-03-2.80648E-04 3.67239E-05-1.50161E+09-2.42198E+05 8.42768E-05
 -1      1253-2.26223E-03-1.03698E-04-7.08872E-03-8.23236E+07-8.97058E+06 9.42084E-04
 -1      1255-2.26223E-03-1.03698E-04-7.08872E-03-8.23236E+07-8.97058E+06 9.42084E-04
 -1      1256 4.39130E-04-3.89115E-04 2.21357E-05-1.61876E+09-3.30692E+06 5.21219E-05
 -1      1258 4.39130E-04-3.89115E-04 2.21357E-05-1.61876E+09-3.30692E+06 5.21219E-05
 -1      1267-1.17521E-03-2.20274E-04-7.46660E-03-8.24809E+07-2.08428E+07 5.16104E-04
 -1      1269-1.17521E-03-2.20274E-04-7.46660E-03-8.24809E+07-2.08428E+07 5.16104E-04
 -1      1270 1.36453E-03-7.39679E-04 1.01790E-04-1.61372E+09-6.14570E+06 2.91429E-05
 -1      1272 1.36453E-03-7.39679E-04 1.01790E-04-1.61372E+09-6.14570E+06 2.91429E-05
 -1      1281-1.26893E-03-4.48929E-05-6.41913E-03-7.56430E+07-3.22176E+07-1.49448E-03
 -1      1283-1.26893E-03-4.48929E-05-6.41913E-03-7.56430E+07-3.22176E+07-1.49448E-03
 -1      1284 5.73397E-04-6.30960E-04-2.45869E-05-1.48999E+09-9.27675E+06-3.80403E-05
 -1      1286 5.73397E-04-6.30960E-04-2.45869E-05-1.48999E+09-9.27675E+06-3.80403E-05
 -1      1295-2.73533E-03-3.85944E-04-6.55586E-03-6.37629E+07-4.29802E+07-2.74175E-03
 -1      1297-2.73533E-03-3.85944E-04-6.55586E-03-6.37629E+07-4.29802E+07-2.74175E-03
 -1      1298-1.28388E-03 3.13073E-05 4.75794E-05-1.25718E+09-1.16261E+07-5.32074E-05
 -1      1300-1.28388E-03 3.13073E-05 4.75794E-05-1.25718E+09-1.16261E+07-5.32074E-05
 -1      1309-4.38132E-03-1.60661E-04-5.71324E-03-4.73761E+07-5.09788E+07-1.50248E-03
 -1      1311-4.38132E-03-1.60661E-04-5.71324E-03-4.73761E+07-5.09788E+07-1.50248E-03
 -1      1312-3.71826E-03 1.83195E-04 1.56462E-05-9.33662E+08-1.36866E+07-1.98961E-05
 -1      1314-3.71826E-03 1.83195E-04 1.56462E-05-9.33662E+08-1.36866E+07-1.98961E-05
 -1      1323-5.85107E-03 1.22807E-04-2.59915E-03-2.68938E+07-5.70578E+07 1.76616E-04
 -1      1325-5.85107E-03 1.22807E-04-2.59915E-03-2.68938E+07-5.70578E+07 1.76616E-04
 -1      1326-5.90932E-03 1.46270E-04-1.31309E-04-5.44830E+08-1.44664E+07-3.37493E-05
 -1      1328-5.90932E-03 1.46270E-04-1.31309E-04-5.44830E+08-1.44664E+07-3.37493E-05
 -1      1337-6.39751E-03 2.21133E-04 8.39659E-04-5.75363E+06-5.87487E+07 5.37808E-04
 -1      1339-6.39751E-03 2.21133E-04 8.39659E-04-5.75363E+06-5.87487E+07 5.37808E-04
 -1      1340-6.61922E-03 1.18876E-03-7.15256E-06-1.19688E+08-1.47430E+07-7.17987E-05
 -1      1342-6.61922E-03 1.18876E-03-7.15256E-06-1.19688E+08-1.47430E+07-7.17987E-05
 -1      1351-5.47300E-03-4.34458E-05 3.46300E-03 1.79512E+07-5.84295E+07 5.26735E-05
 -1      1353-5.47300E-03-4.34458E-05 3.46300E-03 1.79512E+07-5.84295E+07 5.26735E-05
 -1      1354-5.97131E-03 1.40119E-03 1.42455E-05 3.06337E+08-1.34720E+07-4.03786E-05
 -1      1356-5.97131E-03 1.40119E-03 1.42455E-05 3.06337E+08-1.34720E+07-4.03786E-05
 -1      1365-3.92013E-03 2.90952E-05 4.71655E-03 3.72218E+07-5.28290E+07-1.48752E-03
 -1      1367-3.92013E-03 2.90952E-05 4.71655E-03 3.72218E+07-5.28290E+07-1.48752E-03
 -1      1368-5.02861E-03 5.57452E-04-8.82149E-05 7.01460E+08-1.19190E+07 1.52198E-05
 -1      1370-5.02861E-03 5.57452E-04-8.82149E-05 7.01460E+08-1.19190E+07 1.52198E-05
 -1      1379-2.66947E-03 2.77041E-04 1.84434E-03 5.86380E+07-4.67345E+07-3.44863E-03
 -1      1381-2.66947E-03 2.77041E-04 1.84434E-03 5.86380E+07-4.67345E+07-3.44863E-03
 -1      1382-3.88885E-03 7.00206E-04-4.30048E-05 1.02727E+09-8.92206E+06 2.32237E-05
 -1      1384-3.88885E-03 7.00206E-04-4.30048E-05 1.02727E+09-8.92206E+06 2.32237E-05
 -1      1393-1.72440E-03 5.20692E-05-3.93071E-03 6.92807E+07-3.45736E+07-2.67740E-03
 -1      1395-1.72440E-03 5.20692E-05-3.93071E-03 6.92807E+07-3.45736E+07-2.67740E-03
 -1      1396-2.62046E-03 6.92159E-04-9.47267E-05 1.25616E+09-6.14754E+06 2.90386E-05
 -1      1398-2.62046E-03 6.92159E-04-9.47267E-05 1.25616E+09-6.14754E+06 2.90386E-05
 -1      1407-8.33006E-04 3.30282E-05-5.78416E-03 8.48955E+07-2.54226E+07 7.33293E-04
 -1      1409-8.33006E-04 3.30282E-05-5.78416E-03 8.48955E+07-2.54226E+07 7.33293E-04
 -1      1410-1.58647E-03 5.86361E-05-7.66516E-05 1.35587E+09-2.64966E+06 3.11749E-05
 -1      1412-1.58647E-03 5.86361E-05-7.66516E-05 1.35587E+09-2.64966E+06 3.11749E-05
 -1      1421-4.40888E-04 1.15497E-04-2.71504E-03 8.19703E+07-6.94304E+06 2.00914E-03
 -1      1423-4.40888E-04 1.15497E-04-2.71504E-03 8.19703E+07-6.94304E+06 2.00914E-03
 -1      1424-1.16188E-03-3.64579E-04-4.67226E-05 1.29423E+09 9.29727E+05 1.05083E-05
 -1      1426-1.16188E-03-3.64579E-04-4.67226E-05 1.29423E+09 9.29727E+05 1.05083E-05
 -1      1435-7.78854E-04 3.42938E-04-6.81493E-04 9.11867E+07 1.88717E+06-1.14358E-04
 -1      1437-7.78854E-04 3.42938E-04-6.81493E-04 9.11867E+07 1.88717E+06-1.14358E-04
 -1      1438-1.52031E-03-4.88915E-04-1.28865E-04 1.07299E+09 3.17051E+06-4.20337E-05
 -1      1440-1.52031E-03-4.88915E-04-1.28865E-04 1.07299E+09 3.17051E+06-4.20337E-05
 -1      1449-1.63226E-03 2.75680E-04-2.18946E-03 7.63998E+07 3.58325E+07-1.10069E-03
 -1      1451-1.63226E-03 2.75680E-04-2.18946E-03 7.63998E+07 3.58325E+07-1.10069E-03
 -1      1452-2.17971E-03-5.90801E-04-2.27913E-05 5.96532E+08 1.21332E+07-2.80224E-05
 -1      1454-2.17971E-03-5.90801E-04-2.27913E-05 5.96532E+08 1.21332E+07-2.80224E-05
 -1      1463-1.86599E-03 1.92155E-04-3.24445E-03 7.46012E+07 4.70036E+07 4.24505E-04
 -1      1465-1.86599E-03 1.92155E-04-3.24445E-03 7.46012E+07 4.70036E+07 4.24505E-04
 -1      1466-2.38189E-03-1.79023E-04-8.00714E-05-5.86886E+07 1.54671E+07 1.61473E-05
 -1      1468-2.38189E-03-1.79023E-04-8.00714E-05-5.86886E+07 1.54671E+07 1.61473E-05
 -1      1477-8.83430E-04 1.51282E-04-1.41006E-03 7.62044E+07 1.53302E+08 1.33841E-03
 -1      1479-8.83430E-04 1.51282E-04-1.41006E-03 7.62044E+07 1.53302E+08 1.33841E-03
 -1      1480-1.68860E-03-4.59194E-04-2.30394E-04-9.81226E+08 6.54683E+07-1.76372E-05
 -1      1482-1.68860E-03-4.59194E-04-2.30394E-04-9.81226E+08 6.54683E+07-1.76372E-05
 -1      1491 9.50741E-04 1.19533E-05-2.30978E-03 1.67408E+07 1.77532E+08-8.32617E-05
 -1      1493 9.50741E-04 1.19533E-05-2.30978E-03 1.67408E+07 1.77532E+08-8.32617E-05
 -1      1494 3.80180E-04-1.91685E-04-2.40406E-03 3.08454E-06 5.84253E+07 6.94256E-05
 -1      1496 3.80180E-04-1.91685E-04-2.40406E-03 3.08454E-06 5.84253E+07 6.94256E-05
 -1      1497 3.14752E-05 8.28984E-06-9.22479E-04-1.67408E+07 1.77532E+08 6.27239E-04
 -1      1499 3.14752E-05 8.28984E-06-9.22479E-04-1.67408E+07 1.77532E+08 6.27239E-04
 -1      1500 1.33494E+10 5.43758E+08-3.16940E+06 2.08803E+09 6.41877E+06 5.73276E+07
 -1      1502 1.33494E+10 5.43758E+08-3.16940E+06 2.08803E+09 6.41877E+06 5.73276E+07
 -1      1503 6.46747E+09-1.92021E+08 3.07191E+06 1.39053E+09 8.59260E+06-1.17681E+06
 -1      1505 6.46747E+09-1.92021E+08 3.07191E+06 1.39053E+09 8.59260E+06-1.17681E+06
 -1      1506 1.02441E+09 7.12158E+07 1.83194E+06 1.24315E+09 1.22151E+07 2.48823E+07
 -1      1508 1.02441E+09 7.12158E+07 1.83194E+06 1.24315E+09 1.22151E+07 2.48823E+07
 -1      1509-3.37016E+09-1.01516E+08-5.56474E+06 9.25736E+08 1.43197E+07 8.92022E+06
 -1      1511-3.37016E+09-1.01516E+08-5.56474E+06 9.25736E+08 1.43197E+07 8.92022E+06
 -1      1512-6.71156E+09-6.85228E+07-8.85643E+05 7.00118E+08 1.82728E+07 1.15879E+07
 -1      1514-6.71156E+09-6.85228E+07-8.85643E+05 7.00118E+08 1.82728E+07 1.15879E+07
 -1      1515-9.06875E+09-1.21423E+08-7.92427E+06 4.51038E+08 2.11144E+07 4.41034E+06
 -1      1517-9.06875E+09-1.21423E+08-7.92427E+06 4.51038E+08 2.11144E+07 4.41034E+06
 -1      1518-1.04247E+10-1.15989E+08-3.50549E+06 2.11712E+08 2.31803E+07 1.00840E+06
 -1      1520-1.04247E+10-1.15989E+08-3.50549E+06 2.11712E+08 2.31803E+07 1.00840E+06
 -1      1521-1.08064E+10-1.28540E+08-7.81643E+06-2.16882E+07 2.36193E+07-4.46770E+06
 -1      1523-1.08064E+10-1.28540E+08-7.81643E+06-2.16882E+07 2.36193E+07-4.46770E+06
 -1      1524-1.02565E+10-1.14597E+08-4.12779E+06-2.38072E+08 2.20645E+07-8.94847E+06
 -1      1526-1.02565E+10-1.14597E+08-4.12779E+06-2.38072E+08 2.20645E+07-8.94847E+06
 -1      1527-8.86752E+09-1.02297E+08-6.02834E+06-4.27414E+08 1.88512E+07-1.32678E+07
 -1      1529-8.86752E+09-1.02297E+08-6.02834E+06-4.27414E+08 1.88512E+07-1.32678E+07
 -1      1530-6.77092E+09-7.55991E+07-2.74640E+06-5.79065E+08 1.37236E+07-1.66669E+07
 -1      1532-6.77092E+09-7.55991E+07-2.74640E+06-5.79065E+08 1.37236E+07-1.66669E+07
 -1      1533-4.14143E+09-4.75579E+07-3.02173E+06-6.84628E+08 7.50847E+06-1.90392E+07
 -1      1535-4.14143E+09-4.75579E+07-3.02173E+06-6.84628E+08 7.50847E+06-1.90392E+07
 -1      1536-1.18297E+09-1.30097E+07-3.86210E+04-7.37598E+08 2.42425E+05-2.01862E+07
 -1      1538-1.18297E+09-1.30097E+07-3.86210E+04-7.37598E+08 2.42425E+05-2.01862E+07
 -1      1539 1.88031E+09 2.05665E+07 4.88769E+05-7.35465E+08-7.12604E+06-1.99965E+07
 -1      1541 1.88031E+09 2.05665E+07 4.88769E+05-7.35465E+08-7.12604E+06-1.99965E+07
 -1      1542 4.82126E+09 5.42330E+07 3.03134E+06-6.78918E+08-1.43590E+07-1.85050E+07
 -1      1544 4.82126E+09 5.42330E+07 3.03134E+06-6.78918E+08-1.43590E+07-1.85050E+07
 -1      1545 7.42352E+09 8.27560E+07 3.60457E+06-5.72832E+08-2.06106E+07-1.57903E+07
 -1      1547 7.42352E+09 8.27560E+07 3.60457E+06-5.72832E+08-2.06106E+07-1.57903E+07
 -1      1548 9.49843E+09 1.06571E+08 5.49116E+06-4.25418E+08-2.56131E+07-1.20546E+07
 -1      1550 9.49843E+09 1.06571E+08 5.49116E+06-4.25418E+08-2.56131E+07-1.20546E+07
 -1      1551 1.08973E+10 1.21228E+08 5.48483E+06-2.48030E+08-2.87846E+07-7.55932E+06
 -1      1553 1.08973E+10 1.21228E+08 5.48483E+06-2.48030E+08-2.87846E+07-7.55932E+06
 -1      1554 1.15246E+10 1.29178E+08 6.62414E+06-5.45036E+07-2.99672E+07-2.62329E+06
 -1      1556 1.15246E+10 1.29178E+08 6.62414E+06-5.45036E+07-2.99672E+07-2.62329E+06
 -1      1557 1.13433E+10 1.24807E+08 5.59084E+06 1.40177E+08-2.89464E+07 2.40232E+06
 -1      1559 1.13433E+10 1.24807E+08 5.59084E+06 1.40177E+08-2.89464E+07 2.40232E+06
 -1      1560 1.03828E+10 1.16323E+08 6.17436E+06 3.19847E+08-2.57180E+07 7.12809E+06
 -1      1562 1.03828E+10 1.16323E+08 6.17436E+06 3.19847E+08-2.57180E+07 7.12809E+06
 -1      1563 8.73491E+09 9.20998E+07 3.84946E+06 4.68976E+08-2.04488E+07 1.12909E+07
 -1      1565 8.73491E+09 9.20998E+07 3.84946E+06 4.68976E+08-2.04488E+07 1.12909E+07
 -1      1566 6.55714E+09 7.29708E+07 4.43655E+06 5.74423E+08-1.32397E+07 1.43666E+07
 -1      1568 6.55714E+09 7.29708E+07 4.43655E+06 5.74423E+08-1.32397E+07 1.43666E+07
 -1      1569 4.06120E+09 3.35214E+07 7.04209E+05 6.15949E+08-4.47029E+06 1.65718E+07
 -1      1571 4.06120E+09 3.35214E+07 7.04209E+05 6.15949E+08-4.47029E+06 1.65718E+07
 -1      1572 1.51272E+09 9.39235E+06 2.19565E+06 6.03083E+08 5.52365E+06 1.67503E+07
 -1      1574 1.51272E+09 9.39235E+06 2.19565E+06 6.03083E+08 5.52365E+06 1.67503E+07
 -1      1575-7.74025E+08-2.05599E+07-2.86361E+06 4.68978E+08 1.68152E+07 1.67246E+07
 -1      1577-7.74025E+08-2.05599E+07-2.86361E+06 4.68978E+08 1.68152E+07 1.67246E+07
 -1      1578-2.44307E+09-7.99292E+07 2.68411E+05 3.20899E+08 2.69449E+07 1.28833E+07
 -1      1580-2.44307E+09-7.99292E+07 2.68411E+05 3.20899E+08 2.69449E+07 1.28833E+07
 -1      1581-3.09014E+09-8.50300E+06-4.22976E+06-6.03563E+07 3.84367E+07 1.21697E+07
 -1      1583-3.09014E+09-8.50300E+06-4.22976E+06-6.03563E+07 3.84367E+07 1.21697E+07
 -1      1584-2.14253E+09-1.73768E+08-4.56843E+06-5.06901E+08 3.51636E+07 3.36326E+06
 -1      1586-2.14253E+09-1.73768E+08-4.56843E+06-5.06901E+08 3.51636E+07 3.36326E+06
 -1      1587-1.02703E+09-1.00738E+09-1.39857E+07-1.08718E+09 7.14116E+07-5.74437E+06
 -1      1589-1.02703E+09-1.00738E+09-1.39857E+07-1.08718E+09 7.14116E+07-5.74437E+06
 -1      1590 1.12530E+10 1.42952E+09 3.41253E+06 3.34341E+09 1.29182E+07 7.75619E+07
 -1      1592 1.12530E+10 1.42952E+09 3.41253E+06 3.34341E+09 1.29182E+07 7.75619E+07
 -1      1593 1.02703E+09 1.00738E+09 1.39857E+07-1.08718E+09 7.14116E+07 5.74437E+06
 -1      1595 1.02703E+09 1.00738E+09 1.39857E+07-1.08718E+09 7.14116E+07 5.74437E+06
 -1      1596-1.33494E+10-5.43758E+08 3.16940E+06 2.08803E+09 6.41877E+06-5.73276E+07
 -1      1598-1.33494E+10-5.43758E+08 3.16940E+06 2.08803E+09 6.41877E+06-5.73276E+07
 -1      1599-6.46747E+09 1.92021E+08-3.07191E+06 1.39053E+09 8.59260E+06 1.17681E+06
 -1      1601-6.46747E+09 1.92021E+08-3.07191E+06 1.39053E+09 8.59260E+06 1.17681E+06
 -1      1602-1.02441E+09-7.12158E+07-1.83194E+06 1.24315E+09 1.22151E+07-2.48823E+07
 -1      1604-1.02441E+09-7.12158E+07-1.83194E+06 1.24315E+09 1.22151E+07-2.48823E+07
 -1      1605 3.37016E+09 1.01516E+08 5.56474E+06 9.25736E+08 1.43197E+07-8.92022E+06
 -1      1607 3.37016E+09 1.01516E+08 5.56474E+06 9.25736E+08 1.43197E+07-8.92022E+06
 -1      1608 6.71156E+09 6.85228E+07 8.85643E+05 7.00118E+08 1.82728E+07-1.15879E+07
 -1      1610 6.71156E+09 6.85228E+07 8.85643E+05 7.00118E+08 1.82728E+07-1.15879E+07
 -1      1611 9.06875E+09 1.21423E+08 7.92427E+06 4.51038E+08 2.11144E+07-4.41034E+06
 -1      1613 9.06875E+09 1.21423E+08 7.92427E+06 4.51038E+08 2.11144E+07-4.41034E+06
 -1      1614 1.04247E+10 1.15989E+08 3.50549E+06 2.11712E+08 2.31803E+07-1.00840E+06
 -1      1616 1.04247E+10 1.15989E+08 3.50549E+06 2.11712E+08 2.31803E+07-1.00840E+06
 -1      1617 1.08064E+10 1.28540E+08 7.81643E+06-2.16882E+07 2.36193E+07 4.46770E+06
 -1      1619 1.08064E+10 1.28540E+08 7.81643E+06-2.16882E+07 2.36193E+07 4.46770E+06
 -1      1620 1.02565E+10 1.14597E+08 4.12779E+06-2.38072E+08 2.20645E+07 8.94847E+06
 -1      1622 1.02565E+10 1.14597E+08 4.12779E+06-2.38072E+08 2.20645E+07 8.94847E+06
 -1      1623 8.86752E+09 1.02297E+08 6.02834E+06-4.27414E+08 1.88512E+07 1.32678E+07
 -1      1625 8.86752E+09 1.02297E+08 6.02834E+06-4.27414E+08 1.88512E+07 1.32678E+07
 -1      1626 6.77092E+09 7.55991E+07 2.74640E+06-5.79065E+08 1.37236E+07 1.66669E+07
 -1      1628 6.77092E+09 7.55991E+07 2.74640E+06-5.79065E+08 1.37236E+07 1.66669E+07
 -1      1629 4.14143E+09 4.75579E+07 3.02173E+06-6.84628E+08 7.50847E+06 1.90392E+07
 -1      1631 4.14143E+09 4.75579E+07 3.02173E+06-6.84628E+08 7.50847E+06 1.90392E+07
 -1      1632 1.18297E+09 1.30097E+07 3.86210E+04-7.37598E+08 2.42425E+05 2.01862E+07
 -1      1634 1.18297E+09 1.30097E+07 3.86210E+04-7.37598E+08 2.42425E+05 2.01862E+07
 -1      1635-1.88031E+09-2.05665E+07-4.88769E+05-7.35465E+08-7.12604E+06 1.99965E+07
 -1      1637-1.88031E+09-2.05665E+07-4.88769E+05-7.35465E+08-7.12604E+06 1.99965E+07
 -1      1638-4.82126E+09-5.42330E+07-3.03134E+06-6.78918E+08-1.43590E+07 1.85050E+07
 -1      1640-4.82126E+09-5.42330E+07-3.03134E+06-6.78918E+08-1.43590E+07 1.85050E+07
 -1      1641-7.42352E+09-8.27560E+07-3.60457E+06-5.72832E+08-2.06106E+07 1.57903E+07
 -1      1643-7.42352E+09-8.27560E+07-3.60457E+06-5.72832E+08-2.06106E+07 1.57903E+07
 -1      1644-9.49843E+09-1.06571E+08-5.49116E+06-4.25418E+08-2.56131E+07 1.20546E+07
 -1      1646-9.49843E+09-1.06571E+08-5.49116E+06-4.25418E+08-2.56131E+07 1.20546E+07
 -1      1647-1.08973E+10-1.21228E+08-5.48483E+06-2.48030E+08-2.87846E+07 7.55932E+06
 -1      1649-1.08973E+10-1.21228E+08-5.48483E+06-2.48030E+08-2.87846E+07 7.55932E+06
 -1      1650-1.15246E+10-1.29178E+08-6.62414E+06-5.45036E+07-2.99672E+07 2.62329E+06
 -1      1652-1.15246E+10-1.29178E+08-6.62414E+06-5.45036E+07-2.99672E+07 2.62329E+06
 -1      1653-1.13433E+10-1.24807E+08-5.59084E+06 1.40177E+08-2.89464E+07-2.40232E+06
 -1      1655-1.13433E+10-1.24807E+08-5.59084E+06 1.40177E+08-2.89464E+07-2.40232E+06
 -1      1656-1.03828E+10-1.16323E+08-6.17436E+06 3.19847E+08-2.57180E+07-7.12809E+06
 -1      1658-1.03828E+10-1.16323E+08-6.17436E+06 3.19847E+08-2.57180E+07-7.12809E+06
 -1      1659-8.73491E+09-9.20998E+07-3.84946E+06 4.68976E+08-2.04488E+07-1.12909E+07
 -1      1661-8.73491E+09-9.20998E+07-3.84946E+06 4.68976E+08-2.04488E+07-1.12909E+07
 -1      1662-6.55714E+09-7.29708E+07-4.43655E+06 5.74423E+08-1.32397E+07-1.43666E+07
 -1      1664-6.55714E+09-7.29708E+07-4.43655E+06 5.74423E+08-1.32397E+07-1.43666E+07
 -1      1665-4.06120E+09-3.35214E+07-7.04209E+05 6.15949E+08-4.47029E+06-1.65718E+07
 -1      1667-4.06120E+09-3.35214E+07-7.04209E+05 6.15949E+08-4.47029E+06-1.65718E+07
 -1      1668-1.51272E+09-9.39235E+06-2.19565E+06 6.03083E+08 5.52365E+06-1.67503E+07
 -1      1670-1.51272E+09-9.39235E+06-2.19565E+06 6.03083E+08 5.52365E+06-1.67503E+07
 -1      1671 7.74025E+08 2.05599E+07 2.86361E+06 4.68978E+08 1.68152E+07-1.67246E+07
 -1      1673 7.74025E+08 2.05599E+07 2.86361E+06 4.68978E+08 1.68152E+07-1.67246E+07
 -1      1674 2.44307E+09 7.99292E+07-2.68411E+05 3.20899E+08 2.69449E+07-1.28833E+07
 -1      1676 2.44307E+09 7.99292E+07-2.68411E+05 3.20899E+08 2.69449E+07-1.28833E+07
 -1      1677 3.09014E+09 8.50300E+06 4.22976E+06-6.03563E+07 3.84367E+07-1.21697E+07
 -1      1679 3.09014E+09 8.50300E+06 4.22976E+06-6.03563E+07 3.84367E+07-1.21697E+07
 -1      1680 2.14253E+09 1.73768E+08 4.56843E+06-5.06901E+08 3.51636E+07-3.36326E+06
 -1      1682 2.14253E+09 1.73768E+08 4.56843E+06-5.06901E+08 3.51636E+07-3.36326E+06
 -1      1683-1.12530E+10-1.42952E+09-3.41253E+06 3.34341E+09 1.29182E+07-7.75619E+07
 -1      1685-1.12530E+10-1.42952E+09-3.41253E+06 3.34341E+09 1.29182E+07-7.75619E+07
 -1      1686 8.91313E+09 5.76472E+08 2.34054E+06-3.01558E+09-2.56536E+06-2.12176E+07
 -1      1688 8.91313E+09 5.76472E+08 2.34054E+06-3.01558E+09-2.56536E+06-2.12176E+07
 -1      1689 4.42359E+09-4.67304E+07-9.62311E+04-2.40277E+09-1.57249E+07 7.44347E+06
 -1      1691 4.42359E+09-4.67304E+07-9.62311E+04-2.40277E+09-1.57249E+07 7.44347E+06
 -1      1692 6.87439E+08 4.77008E+07-4.64575E+05-1.92397E+09-7.86037E+06-8.13355E+06
 -1      1694 6.87439E+08 4.77008E+07-4.64575E+05-1.92397E+09-7.86037E+06-8.13355E+06
 -1      1695-2.21778E+09-9.20938E+07 1.85428E+05-1.51262E+09-3.01843E+06-1.39981E+06
 -1      1697-2.21778E+09-9.20938E+07 1.85428E+05-1.51262E+09-3.01843E+06-1.39981E+06
 -1      1698-4.47843E+09-1.34997E+08-1.42780E+06-1.11250E+09 2.57918E+06-4.17581E+06
 -1      1700-4.47843E+09-1.34997E+08-1.42780E+06-1.11250E+09 2.57918E+06-4.17581E+06
 -1      1701-6.04904E+09-1.82629E+08-4.87272E+05-7.26814E+08 8.05643E+06-1.85657E+06
 -1      1703-6.04904E+09-1.82629E+08-4.87272E+05-7.26814E+08 8.05643E+06-1.85657E+06
 -1      1704-6.96298E+09-2.05789E+08-1.42492E+06-3.38463E+08 1.08306E+07-1.28967E+06
 -1      1706-6.96298E+09-2.05789E+08-1.42492E+06-3.38463E+08 1.08306E+07-1.28967E+06
 -1      1707-7.21776E+09-2.13122E+08-9.71196E+05 3.26242E+07 1.30739E+07 2.64523E+05
 -1      1709-7.21776E+09-2.13122E+08-9.71196E+05 3.26242E+07 1.30739E+07 2.64523E+05
 -1      1710-6.85296E+09-2.00718E+08-1.11113E+06 3.80060E+08 1.25498E+07 1.51801E+06
 -1      1712-6.85296E+09-2.00718E+08-1.11113E+06 3.80060E+08 1.25498E+07 1.51801E+06
 -1      1713-5.92460E+09-1.74009E+08-9.55333E+05 6.81775E+08 1.11576E+07 2.74198E+06
 -1      1715-5.92460E+09-1.74009E+08-9.55333E+05 6.81775E+08 1.11576E+07 2.74198E+06
 -1      1716-4.52445E+09-1.32040E+08-6.18975E+05 9.24914E+08 7.70475E+06 3.75696E+06
 -1      1718-4.52445E+09-1.32040E+08-6.18975E+05 9.24914E+08 7.70475E+06 3.75696E+06
 -1      1719-2.76697E+09-8.10503E+07-5.30407E+05 1.09312E+09 3.63314E+06 4.45173E+06
 -1      1721-2.76697E+09-8.10503E+07-5.30407E+05 1.09312E+09 3.63314E+06 4.45173E+06
 -1      1722-7.90155E+08-2.26756E+07-1.91960E+04 1.17818E+09-1.53225E+06 4.83130E+06
 -1      1724-7.90155E+08-2.26756E+07-1.91960E+04 1.17818E+09-1.53225E+06 4.83130E+06
 -1      1725 1.25732E+09 3.69170E+07 1.04204E+05 1.17459E+09-6.63587E+06 4.81692E+06
 -1      1727 1.25732E+09 3.69170E+07 1.04204E+05 1.17459E+09-6.63587E+06 4.81692E+06
 -1      1728 3.22271E+09 9.47047E+07 5.58439E+05 1.08445E+09-1.18179E+07 4.44575E+06
 -1      1730 3.22271E+09 9.47047E+07 5.58439E+05 1.08445E+09-1.18179E+07 4.44575E+06
 -1      1731 4.96214E+09 1.45323E+08 7.40556E+05 9.15007E+08-1.61184E+07 3.72906E+06
 -1      1733 4.96214E+09 1.45323E+08 7.40556E+05 9.15007E+08-1.61184E+07 3.72906E+06
 -1      1734 6.34882E+09 1.86045E+08 9.47631E+05 6.79540E+08-1.96499E+07 2.72213E+06
 -1      1736 6.34882E+09 1.86045E+08 9.47631E+05 6.79540E+08-1.96499E+07 2.72213E+06
 -1      1737 7.28419E+09 2.13028E+08 1.21696E+06 3.96430E+08-2.16255E+07 1.50835E+06
 -1      1739 7.28419E+09 2.13028E+08 1.21696E+06 3.96430E+08-2.16255E+07 1.50835E+06
 -1      1740 7.70333E+09 2.25403E+08 9.95151E+05 8.70957E+07-2.23551E+07 1.60633E+05
 -1      1742 7.70333E+09 2.25403E+08 9.95151E+05 8.70957E+07-2.23551E+07 1.60633E+05
 -1      1743 7.58302E+09 2.21082E+08 1.46511E+06-2.23257E+08-2.12092E+07-1.21816E+06
 -1      1745 7.58302E+09 2.21082E+08 1.46511E+06-2.23257E+08-2.12092E+07-1.21816E+06
 -1      1746 6.94102E+09 2.02489E+08 5.97020E+05-5.10654E+08-1.88185E+07-2.51464E+06
 -1      1748 6.94102E+09 2.02489E+08 5.97020E+05-5.10654E+08-1.88185E+07-2.51464E+06
 -1      1749 5.84128E+09 1.68686E+08 1.54633E+06-7.48123E+08-1.46854E+07-3.73629E+06
 -1      1751 5.84128E+09 1.68686E+08 1.54633E+06-7.48123E+08-1.46854E+07-3.73629E+06
 -1      1752 4.38658E+09 1.25443E+08-2.89403E+05-9.15290E+08-9.69362E+06-4.58097E+06
 -1      1754 4.38658E+09 1.25443E+08-2.89403E+05-9.15290E+08-9.69362E+06-4.58097E+06
 -1      1755 2.72039E+09 7.70970E+07 1.65061E+06-9.85911E+08-3.55997E+06-5.54156E+06
 -1      1757 2.72039E+09 7.70970E+07 1.65061E+06-9.85911E+08-3.55997E+06-5.54156E+06
 -1      1758 1.02219E+09 1.33310E+07-1.58867E+06-9.48659E+08 3.22669E+06-5.54701E+06
 -1      1760 1.02219E+09 1.33310E+07-1.58867E+06-9.48659E+08 3.22669E+06-5.54701E+06
 -1      1761-5.05132E+08 1.32501E+06 1.83287E+06-7.70984E+08 9.99284E+06-6.66560E+06
 -1      1763-5.05132E+08 1.32501E+06 1.83287E+06-7.70984E+08 9.99284E+06-6.66560E+06
 -1      1764-1.61214E+09-1.33407E+08-2.36648E+06-4.58715E+08 1.95391E+07-5.28823E+06
 -1      1766-1.61214E+09-1.33407E+08-2.36648E+06-4.58715E+08 1.95391E+07-5.28823E+06
 -1      1767-2.00517E+09 5.28964E+07-9.69985E+04 5.95224E+07 2.69519E+07-7.72017E+06
 -1      1769-2.00517E+09 5.28964E+07-9.69985E+04 5.95224E+07 2.69519E+07-7.72017E+06
 -1      1770-1.50567E+09-3.04169E+08 4.19041E+06 7.44064E+08 5.03159E+07-3.77822E+06
 -1      1772-1.50567E+09-3.04169E+08 4.19041E+06 7.44064E+08 5.03159E+07-3.77822E+06
 -1      1773-8.91313E+09-5.76472E+08-2.34054E+06-3.01558E+09-2.56536E+06 2.12176E+07
 -1      1775-8.91313E+09-5.76472E+08-2.34054E+06-3.01558E+09-2.56536E+06 2.12176E+07
 -1      1776-4.42359E+09 4.67304E+07 9.62311E+04-2.40277E+09-1.57249E+07-7.44347E+06
 -1      1778-4.42359E+09 4.67304E+07 9.62311E+04-2.40277E+09-1.57249E+07-7.44347E+06
 -1      1779-6.87439E+08-4.77008E+07 4.64575E+05-1.92397E+09-7.86037E+06 8.13355E+06
 -1      1781-6.87439E+08-4.77008E+07 4.64575E+05-1.92397E+09-7.86037E+06 8.13355E+06
 -1      1782 2.21778E+09 9.20938E+07-1.85428E+05-1.51262E+09-3.01843E+06 1.39981E+06
 -1      1784 2.21778E+09 9.20938E+07-1.85428E+05-1.51262E+09-3.01843E+06 1.39981E+06
 -1      1785 4.47843E+09 1.34997E+08 1.42780E+06-1.11250E+09 2.57918E+06 4.17581E+06
 -1      1787 4.47843E+09 1.34997E+08 1.42780E+06-1.11250E+09 2.57918E+06 4.17581E+06
 -1      1788 6.04904E+09 1.82629E+08 4.87272E+05-7.26814E+08 8.05643E+06 1.85657E+06
 -1      1790 6.04904E+09 1.82629E+08 4.87272E+05-7.26814E+08 8.05643E+06 1.85657E+06
 -1      1791 6.96298E+09 2.05789E+08 1.42492E+06-3.38463E+08 1.08306E+07 1.28967E+06
 -1      1793 6.96298E+09 2.05789E+08 1.42492E+06-3.38463E+08 1.08306E+07 1.28967E+06
 -1      1794 7.21776E+09 2.13122E+08 9.71196E+05 3.26242E+07 1.30739E+07-2.64523E+05
 -1      1796 7.21776E+09 2.13122E+08 9.71196E+05 3.26242E+07 1.30739E+07-2.64523E+05
 -1      1797 6.85296E+09 2.00718E+08 1.11113E+06 3.80060E+08 1.25498E+07-1.51801E+06
 -1      1799 6.85296E+09 2.00718E+08 1.11113E+06 3.80060E+08 1.25498E+07-1.51801E+06
 -1      1800 5.92460E+09 1.74009E+08 9.55333E+05 6.81775E+08 1.11576E+07-2.74198E+06
 -1      1802 5.92460E+09 1.74009E+08 9.55333E+05 6.81775E+08 1.11576E+07-2.74198E+06
 -1      1803 4.52445E+09 1.32040E+08 6.18975E+05 9.24914E+08 7.70475E+06-3.75696E+06
 -1      1805 4.52445E+09 1.32040E+08 6.18975E+05 9.24914E+08 7.70475E+06-3.75696E+06
 -1      1806 2.76697E+09 8.10503E+07 5.30407E+05 1.09312E+09 3.63314E+06-4.45173E+06
 -1      1808 2.76697E+09 8.10503E+07 5.30407E+05 1.09312E+09 3.63314E+06-4.45173E+06
 -1      1809 7.90155E+08 2.26756E+07 1.91960E+04 1.17818E+09-1.53225E+06-4.83130E+06
 -1      1811 7.90155E+08 2.26756E+07 1.91960E+04 1.17818E+09-1.53225E+06-4.83130E+06
 -1      1812-1.25732E+09-3.69170E+07-1.04204E+05 1.17459E+09-6.63587E+06-4.81692E+06
 -1      1814-1.25732E+09-3.69170E+07-1.04204E+05 1.17459E+09-6.63587E+06-4.81692E+06
 -1      1815-3.22271E+09-9.47047E+07-5.58439E+05 1.08445E+09-1.18179E+07-4.44575E+06
 -1      1817-3.22271E+09-9.47047E+07-5.58439E+05 1.08445E+09-1.18179E+07-4.44575E+06
 -1      1818-4.96214E+09-1.45323E+08-7.40556E+05 9.15007E+08-1.61184E+07-3.72906E+06
 -1      1820-4.96214E+09-1.45323E+08-7.40556E+05 9.15007E+08-1.61184E+07-3.72906E+06
 -1      1821-6.34882E+09-1.86045E+08-9.47631E+05 6.79540E+08-1.96499E+07-2.72213E+06
 -1      1823-6.34882E+09-1.86045E+08-9.47631E+05 6.79540E+08-1.96499E+07-2.72213E+06
 -1      1824-7.28419E+09-2.13028E+08-1.21696E+06 3.96430E+08-2.16255E+07-1.50835E+06
 -1      1826-7.28419E+09-2.13028E+08-1.21696E+06 3.96430E+08-2.16255E+07-1.50835E+06
 -1      1827-7.70333E+09-2.25403E+08-9.95151E+05 8.70957E+07-2.23551E+07-1.60633E+05
 -1      1829-7.70333E+09-2.25403E+08-9.95151E+05 8.70957E+07-2.23551E+07-1.60633E+05
 -1      1830-7.58302E+09-2.21082E+08-1.46511E+06-2.23257E+08-2.12092E+07 1.21816E+06
 -1      1832-7.58302E+09-2.21082E+08-1.46511E+06-2.23257E+08-2.12092E+07 1.21816E+06
 -1      1833-6.94102E+09-2.02489E+08-5.97020E+05-5.10654E+08-1.88185E+07 2.51464E+06
 -1      1835-6.94102E+09-2.02489E+08-5.97020E+05-5.10654E+08-1.88185E+07 2.51464E+06
 -1      1836-5.84128E+09-1.68686E+08-1.54633E+06-7.48123E+08-1.46854E+07 3.73629E+06
 -1      1838-5.84128E+09-1.68686E+08-1.54633E+06-7.48123E+08-1.46854E+07 3.73629E+06
 -1      1839-4.38658E+09-1.25443E+08 2.89403E+05-9.15290E+08-9.69362E+06 4.58097E+06
 -1      1841-4.38658E+09-1.25443E+08 2.89403E+05-9.15290E+08-9.69362E+06 4.58097E+06
 -1      1842-2.72039E+09-7.70970E+07-1.65061E+06-9.85911E+08-3.55997E+06 5.54156E+06
 -1      1844-2.72039E+09-7.70970E+07-1.65061E+06-9.85911E+08-3.55997E+06 5.54156E+06
 -1      1845-1.02219E+09-1.33310E+07 1.58867E+06-9.48659E+08 3.22669E+06 5.54701E+06
 -1      1847-1.02219E+09-1.33310E+07 1.58867E+06-9.48659E+08 3.22669E+06 5.54701E+06
 -1      1848 5.05132E+08-1.32501E+06-1.83287E+06-7.70984E+08 9.99284E+06 6.66560E+06
 -1      1850 5.05132E+08-1.32501E+06-1.83287E+06-7.70984E+08 9.99284E+06 6.66560E+06
 -1      1851 1.61214E+09 1.33407E+08 2.36648E+06-4.58715E+08 1.95391E+07 5.28823E+06
 -1      1853 1.61214E+09 1.33407E+08 2.36648E+06-4.58715E+08 1.95391E+07 5.28823E+06
 -1      1854 2.00517E+09-5.28964E+07 9.69985E+04 5.95224E+07 2.69519E+07 7.72017E+06
 -1      1856 2.00517E+09-5.28964E+07 9.69985E+04 5.95224E+07 2.69519E+07 7.72017E+06
 -1      1857 1.50567E+09 3.04169E+08-4.19041E+06 7.44064E+08 5.03159E+07 3.77822E+06
 -1      1859 1.50567E+09 3.04169E+08-4.19041E+06 7.44064E+08 5.03159E+07 3.77822E+06
 -1      1860-4.10765E-03 2.42684E-05-3.47130E-03-4.18546E+07-2.50448E+07 4.71577E-03
 -1      1862-4.10765E-03 2.42684E-05-3.47130E-03-4.18546E+07-2.50448E+07 4.71577E-03
 -1      1863-3.72934E-03 1.16341E-04-3.54756E-03 1.40282E+06-2.30748E+07 4.19363E-03
 -1      1865-3.72934E-03 1.16341E-04-3.54756E-03 1.40282E+06-2.30748E+07 4.19363E-03
 -1      1866-3.16742E-03 9.61083E-05 3.59730E-04-2.42617E+07-9.43957E+06 3.33178E-03
 -1      1868-3.16742E-03 9.61083E-05 3.59730E-04-2.42617E+07-9.43957E+06 3.33178E-03
 -1      1869-3.22371E-03 1.17316E-04 5.32450E-03-4.52744E+06 4.91376E+06 3.58444E-03
 -1      1871-3.22371E-03 1.17316E-04 5.32450E-03-4.52744E+06 4.91376E+06 3.58444E-03
 -1      1872-4.18070E-03 2.50081E-04 6.29661E-03-1.43604E+07 1.81169E+07 5.13357E-03
 -1      1874-4.18070E-03 2.50081E-04 6.29661E-03-1.43604E+07 1.81169E+07 5.13357E-03
 -1      1875-4.97041E-03 3.83515E-04 2.28529E-03-2.08099E+06 2.88963E+07 5.67966E-03
 -1      1877-4.97041E-03 3.83515E-04 2.28529E-03-2.08099E+06 2.88963E+07 5.67966E-03
 -1      1878-4.52253E-03 2.76529E-04-2.24956E-03-4.50105E+06 3.56823E+07 3.85435E-03
 -1      1880-4.52253E-03 2.76529E-04-2.24956E-03-4.50105E+06 3.56823E+07 3.85435E-03
 -1      1881-3.44220E-03-7.37089E-05-2.36017E-03 4.05728E+06 3.85764E+07 2.02868E-03
 -1      1883-3.44220E-03-7.37089E-05-2.36017E-03 4.05728E+06 3.85764E+07 2.02868E-03
 -1      1884-2.99713E-03-2.32864E-04 7.83177E-04 4.93277E+06 3.73202E+07 3.01691E-03
 -1      1886-2.99713E-03-2.32864E-04 7.83177E-04 4.93277E+06 3.73202E+07 3.01691E-03
 -1      1887-3.71383E-03-2.41076E-04 1.39479E-03 1.07069E+07 3.20933E+07 5.74705E-03
 -1      1889-3.71383E-03-2.41076E-04 1.39479E-03 1.07069E+07 3.20933E+07 5.74705E-03
 -1      1890-4.74757E-03-7.44040E-05-2.18399E-03 1.21236E+07 2.37914E+07 6.21468E-03
 -1      1892-4.74757E-03-7.44040E-05-2.18399E-03 1.21236E+07 2.37914E+07 6.21468E-03
 -1      1893-5.30834E-03-1.04395E-04-6.09954E-03 1.51463E+07 1.26269E+07 3.77265E-03
 -1      1895-5.30834E-03-1.04395E-04-6.09954E-03 1.51463E+07 1.26269E+07 3.77265E-03
 -1      1896-5.84657E-03-2.71244E-04-7.27350E-03 1.54087E+07 2.86086E+05 8.25288E-04
 -1      1898-5.84657E-03-2.71244E-04-7.27350E-03 1.54087E+07 2.86086E+05 8.25288E-04
 -1      1899-6.08252E-03-2.20786E-04-6.61192E-03 1.56063E+07-1.31216E+07-1.42568E-03
 -1      1901-6.08252E-03-2.20786E-04-6.61192E-03 1.56063E+07-1.31216E+07-1.42568E-03
 -1      1902-5.39235E-03-3.32795E-04-6.44172E-03 1.40219E+07-2.53946E+07-2.88799E-03
 -1      1904-5.39235E-03-3.32795E-04-6.44172E-03 1.40219E+07-2.53946E+07-2.88799E-03
 -1      1905-4.24376E-03-2.98807E-04-6.54443E-03 1.16473E+07-3.69102E+07-3.48491E-03
 -1      1907-4.24376E-03-2.98807E-04-6.54443E-03 1.16473E+07-3.69102E+07-3.48491E-03
 -1      1908-3.55586E-03 7.72774E-05-5.24042E-03 8.44290E+06-4.50684E+07-3.15148E-03
 -1      1910-3.55586E-03 7.72774E-05-5.24042E-03 8.44290E+06-4.50684E+07-3.15148E-03
 -1      1911-3.08331E-03-7.02001E-05-2.70736E-03 4.18686E+06-5.12958E+07-1.78007E-03
 -1      1913-3.08331E-03-7.02001E-05-2.70736E-03 4.18686E+06-5.12958E+07-1.78007E-03
 -1      1914-1.56688E-03-3.60614E-04-4.90043E-04 3.40176E+05-5.24624E+07-1.95156E-04
 -1      1916-1.56688E-03-3.60614E-04-4.90043E-04 3.40176E+05-5.24624E+07-1.95156E-04
 -1      1917 9.56334E-04-3.46424E-04 8.42114E-04-4.83879E+06-5.17460E+07-2.92782E-04
 -1      1919 9.56334E-04-3.46424E-04 8.42114E-04-4.83879E+06-5.17460E+07-2.92782E-04
 -1      1920 3.29803E-03-1.90740E-04 1.81712E-03-7.83745E+06-4.49465E+07-1.48577E-03
 -1      1922 3.29803E-03-1.90740E-04 1.81712E-03-7.83745E+06-4.49465E+07-1.48577E-03
 -1      1923 4.91302E-03-3.88987E-05 1.50486E-03-1.30916E+07-3.79170E+07-1.58971E-03
 -1      1925 4.91302E-03-3.88987E-05 1.50486E-03-1.30916E+07-3.79170E+07-1.58971E-03
 -1      1926 5.79139E-03 5.15920E-05-1.08277E-03-1.34844E+07-2.41367E+07-6.98385E-04
 -1      1928 5.79139E-03 5.15920E-05-1.08277E-03-1.34844E+07-2.41367E+07-6.98385E-04
 -1      1929 5.40817E-03-8.02901E-05-4.17492E-03-1.84997E+07-1.36480E+07 8.66458E-05
 -1      1931 5.40817E-03-8.02901E-05-4.17492E-03-1.84997E+07-1.36480E+07 8.66458E-05
 -1      1932 4.00954E-03 3.81888E-06-5.59484E-03-1.46190E+07 5.20805E+06 1.95636E-04
 -1      1934 4.00954E-03 3.81888E-06-5.59484E-03-1.46190E+07 5.20805E+06 1.95636E-04
 -1      1935 2.89256E-03 1.26727E-04-5.94791E-03-1.93163E+07 1.47666E+07-1.62828E-04
 -1      1937 2.89256E-03 1.26727E-04-5.94791E-03-1.93163E+07 1.47666E+07-1.62828E-04
 -1      1938 2.38511E-03-1.93180E-05-6.25757E-03-1.15158E+07 3.96541E+07-2.03272E-04
 -1      1940 2.38511E-03-1.93180E-05-6.25757E-03-1.15158E+07 3.96541E+07-2.03272E-04
 -1      1941 2.04845E-03-1.35554E-04-5.72549E-03-1.14196E+07 4.44504E+07 5.42629E-05
 -1      1943 2.04845E-03-1.35554E-04-5.72549E-03-1.14196E+07 4.44504E+07 5.42629E-05
 -1      1944 1.40392E-03-1.57355E-04-3.71589E-03-1.13957E+07 9.33588E+07 3.37758E-05
 -1      1946 1.40392E-03-1.57355E-04-3.71589E-03-1.13957E+07 9.33588E+07 3.37758E-05
 -1      1947-2.56869E-03 9.20677E-05-2.94278E-03 2.19695E-04 9.04972E+06 4.18136E-03
 -1      1949-2.56869E-03 9.20677E-05-2.94278E-03 2.19695E-04 9.04972E+06 4.18136E-03
 -1      1950-2.23728E-03 1.10897E-04-2.29511E-03-8.58887E-05 3.95608E+07 4.58338E-03
 -1      1952-2.23728E-03 1.10897E-04-2.29511E-03-8.58887E-05 3.95608E+07 4.58338E-03
 -1      1953-2.69765E-03 3.13877E-05 1.15268E-03-2.80142E-06 5.06635E+07 4.34199E-03
 -1      1955-2.69765E-03 3.13877E-05 1.15268E-03-2.80142E-06 5.06635E+07 4.34199E-03
 -1      1956-3.30048E-03-9.64967E-06 4.83217E-03 5.77262E-05 5.92509E+07 4.06942E-03
 -1      1958-3.30048E-03-9.64967E-06 4.83217E-03 5.77262E-05 5.92509E+07 4.06942E-03
 -1      1959-3.77203E-03 6.27085E-05 5.74304E-03 8.57487E-05 6.52677E+07 4.40900E-03
 -1      1961-3.77203E-03 6.27085E-05 5.74304E-03 8.57487E-05 6.52677E+07 4.40900E-03
 -1      1962-3.44746E-03 2.52833E-04 3.38894E-03-1.47827E-05 6.74144E+07 3.86140E-03
 -1      1964-3.44746E-03 2.52833E-04 3.38894E-03-1.47827E-05 6.74144E+07 3.86140E-03
 -1      1965-2.63509E-03 3.34580E-05-2.91519E-04 9.70005E-05 6.78547E+07 2.22864E-03
 -1      1967-2.63509E-03 3.34580E-05-2.91519E-04 9.70005E-05 6.78547E+07 2.22864E-03
 -1      1968-2.68796E-03-4.06290E-04-1.86578E-03-1.00138E-04 6.42345E+07 1.88947E-03
 -1      1970-2.68796E-03-4.06290E-04-1.86578E-03-1.00138E-04 6.42345E+07 1.88947E-03
 -1      1971-3.71906E-03-3.51468E-04-1.54695E-04-1.12300E-04 5.83669E+07 3.63631E-03
 -1      1973-3.71906E-03-3.51468E-04-1.54695E-04-1.12300E-04 5.83669E+07 3.63631E-03
 -1      1974-4.84834E-03-2.02706E-04 1.05285E-03-7.07563E-05 4.88512E+07 5.47245E-03
 -1      1976-4.84834E-03-2.02706E-04 1.05285E-03-7.07563E-05 4.88512E+07 5.47245E-03
 -1      1977-5.21890E-03-3.10685E-05-1.14517E-03-8.35042E-05 3.75163E+07 5.14749E-03
 -1      1979-5.21890E-03-3.10685E-05-1.14517E-03-8.35042E-05 3.75163E+07 5.14749E-03
 -1      1980-4.85996E-03-1.50362E-04-4.93177E-03 2.71816E-05 2.36972E+07 3.19559E-03
 -1      1982-4.85996E-03-1.50362E-04-4.93177E-03 2.71816E-05 2.36972E+07 3.19559E-03
 -1      1983-4.59260E-03-2.75733E-04-7.17789E-03 3.92310E-05 9.54276E+06 1.32313E-03
 -1      1985-4.59260E-03-2.75733E-04-7.17789E-03 3.92310E-05 9.54276E+06 1.32313E-03
 -1      1986-4.55318E-03-1.15687E-04-7.33232E-03-1.54685E-04-5.40047E+06-3.87218E-04
 -1      1988-4.55318E-03-1.15687E-04-7.33232E-03-1.54685E-04-5.40047E+06-3.87218E-04
 -1      1989-4.11248E-03-2.14517E-04-7.13818E-03-6.92140E-05-1.85715E+07-1.93451E-03
 -1      1991-4.11248E-03-2.14517E-04-7.13818E-03-6.92140E-05-1.85715E+07-1.93451E-03
 -1      1992-3.13172E-03-3.42649E-04-7.21865E-03 4.39975E-05-3.08403E+07-2.43344E-03
 -1      1994-3.13172E-03-3.42649E-04-7.21865E-03 4.39975E-05-3.08403E+07-2.43344E-03
 -1      1995-2.82299E-03-1.99364E-04-6.27614E-03 4.86197E-05-3.91580E+07-1.68169E-03
 -1      1997-2.82299E-03-1.99364E-04-6.27614E-03 4.86197E-05-3.91580E+07-1.68169E-03
 -1      1998-3.65819E-03-1.50382E-04-3.51625E-03 1.60990E-04-4.55338E+07-3.58025E-04
 -1      2000-3.65819E-03-1.50382E-04-3.51625E-03 1.60990E-04-4.55338E+07-3.58025E-04
 -1      2001-3.80265E-03-2.78031E-04 3.95240E-05 1.35138E-04-4.61761E+07 5.04656E-04
 -1      2003-3.80265E-03-2.78031E-04 3.95240E-05 1.35138E-04-4.61761E+07 5.04656E-04
 -1      2004-2.27909E-03-1.77330E-04 2.80431E-03 9.91295E-05-4.50625E+07-1.00037E-04
 -1      2006-2.27909E-03-1.77330E-04 2.80431E-03 9.91295E-05-4.50625E+07-1.00037E-04
 -1      2007-4.58209E-04 5.87145E-05 3.46141E-03 3.05455E-05-3.70640E+07-1.71668E-03
 -1      2009-4.58209E-04 5.87145E-05 3.46141E-03 3.05455E-05-3.70640E+07-1.71668E-03
 -1      2010 1.21800E-03 1.27572E-05 1.36172E-03 1.63510E-04-2.90996E+07-2.66918E-03
 -1      2012 1.21800E-03 1.27572E-05 1.36172E-03 1.63510E-04-2.90996E+07-2.66918E-03
 -1      2013 3.04190E-03 2.66941E-05-2.14140E-03 6.50138E-05-1.36998E+07-1.92638E-03
 -1      2015 3.04190E-03 2.66941E-05-2.14140E-03 6.50138E-05-1.36998E+07-1.92638E-03
 -1      2016 3.64307E-03-5.22482E-05-4.68945E-03-4.48320E-05-1.87342E+06-1.20792E-04
 -1      2018 3.64307E-03-5.22482E-05-4.68945E-03-4.48320E-05-1.87342E+06-1.20792E-04
 -1      2019 2.47954E-03 6.82037E-05-5.22146E-03 9.24803E-06 1.73591E+07 5.90483E-04
 -1      2021 2.47954E-03 6.82037E-05-5.22146E-03 9.24803E-06 1.73591E+07 5.90483E-04
 -1      2022 1.21580E-03 3.31309E-04-5.12830E-03 6.75321E-05 2.76460E+07-3.66078E-04
 -1      2024 1.21580E-03 3.31309E-04-5.12830E-03 6.75321E-05 2.76460E+07-3.66078E-04
 -1      2025 9.37603E-04 5.15116E-04-5.50437E-03 2.04556E-05 4.34757E+07-8.88382E-04
 -1      2027 9.37603E-04 5.15116E-04-5.50437E-03 2.04556E-05 4.34757E+07-8.88382E-04
 -1      2028 1.04292E-03 4.53427E-04-5.28136E-03-3.36282E-05 4.18973E+07-2.80816E-04
 -1      2030 1.04292E-03 4.53427E-04-5.28136E-03-3.36282E-05 4.18973E+07-2.80816E-04
 -1      2031 7.10666E-04-5.29352E-05-3.62998E-03 1.55531E-05 3.34154E+07 1.07602E-04
 -1      2033 7.10666E-04-5.29352E-05-3.62998E-03 1.55531E-05 3.34154E+07 1.07602E-04
 -1      2034-2.04961E-03 1.06923E-04-2.06203E-03 4.18546E+07-2.50448E+07 3.17814E-03
 -1      2036-2.04961E-03 1.06923E-04-2.06203E-03 4.18546E+07-2.50448E+07 3.17814E-03
 -1      2037-2.30941E-03 1.14126E-04-1.12420E-03-1.40282E+06-2.30748E+07 4.41264E-03
 -1      2039-2.30941E-03 1.14126E-04-1.12420E-03-1.40282E+06-2.30748E+07 4.41264E-03
 -1      2040-2.38896E-03 5.63555E-06 1.51588E-03 2.42617E+07-9.43957E+06 4.70128E-03
 -1      2042-2.38896E-03 5.63555E-06 1.51588E-03 2.42617E+07-9.43957E+06 4.70128E-03
 -1      2043-2.01255E-03-3.20370E-05 4.13020E-03 4.52744E+06 4.91376E+06 4.31066E-03
 -1      2045-2.01255E-03-3.20370E-05 4.13020E-03 4.52744E+06 4.91376E+06 4.31066E-03
 -1      2046-1.66143E-03 1.15344E-04 5.82850E-03 1.43604E+07 1.81169E+07 4.10531E-03
 -1      2048-1.66143E-03 1.15344E-04 5.82850E-03 1.43604E+07 1.81169E+07 4.10531E-03
 -1      2049-1.64583E-03-1.60887E-04 5.33747E-03 2.08099E+06 2.88963E+07 2.68767E-03
 -1      2051-1.64583E-03-1.60887E-04 5.33747E-03 2.08099E+06 2.88963E+07 2.68767E-03
 -1      2052-2.24812E-03-5.54878E-04 1.94561E-03 4.50105E+06 3.56823E+07 5.08883E-04
 -1      2054-2.24812E-03-5.54878E-04 1.94561E-03 4.50105E+06 3.56823E+07 5.08883E-04
 -1      2055-3.21608E-03-5.86557E-04-1.31683E-03-4.05728E+06 3.85764E+07 1.00036E-03
 -1      2057-3.21608E-03-5.86557E-04-1.31683E-03-4.05728E+06 3.85764E+07 1.00036E-03
 -1      2058-3.71167E-03-3.55895E-04-7.59713E-04-4.93277E+06 3.73202E+07 3.62291E-03
 -1      2060-3.71167E-03-3.55895E-04-7.59713E-04-4.93277E+06 3.73202E+07 3.62291E-03
 -1      2061-3.93870E-03 1.15406E-04 1.28129E-03-1.07069E+07 3.20933E+07 4.61600E-03
 -1      2063-3.93870E-03 1.15406E-04 1.28129E-03-1.07069E+07 3.20933E+07 4.61600E-03
 -1      2064-4.40993E-03 1.27909E-04 1.35236E-05-1.21236E+07 2.37914E+07 3.30432E-03
 -1      2066-4.40993E-03 1.27909E-04 1.35236E-05-1.21236E+07 2.37914E+07 3.30432E-03
 -1      2067-4.12404E-03-6.16002E-05-3.95351E-03-1.51463E+07 1.26269E+07 1.79027E-03
 -1      2069-4.12404E-03-6.16002E-05-3.95351E-03-1.51463E+07 1.26269E+07 1.79027E-03
 -1      2070-3.06149E-03-1.37884E-04-7.06434E-03-1.54087E+07 2.86086E+05 1.20365E-03
 -1      2072-3.06149E-03-1.37884E-04-7.06434E-03-1.54087E+07 2.86086E+05 1.20365E-03
 -1      2073-2.30423E-03-8.25110E-05-7.52779E-03-1.56063E+07-1.31216E+07 3.89530E-04
 -1      2075-2.30423E-03-8.25110E-05-7.52779E-03-1.56063E+07-1.31216E+07 3.89530E-04
 -1      2076-2.25088E-03-7.68985E-05-6.87017E-03-1.40219E+07-2.53946E+07-1.38599E-03
 -1      2078-2.25088E-03-7.68985E-05-6.87017E-03-1.40219E+07-2.53946E+07-1.38599E-03
 -1      2079-2.72359E-03-4.06603E-04-6.94623E-03-1.16473E+07-3.69102E+07-2.28915E-03
 -1      2081-2.72359E-03-4.06603E-04-6.94623E-03-1.16473E+07-3.69102E+07-2.28915E-03
 -1      2082-3.58798E-03-2.92321E-04-6.05416E-03-8.44290E+06-4.50684E+07-1.23611E-03
 -1      2084-3.58798E-03-2.92321E-04-6.05416E-03-8.44290E+06-4.50684E+07-1.23611E-03
 -1      2085-4.96317E-03-4.31438E-05-2.98069E-03-4.18686E+06-5.12958E+07 2.20469E-04
 -1      2087-4.96317E-03-4.31438E-05-2.98069E-03-4.18686E+06-5.12958E+07 2.20469E-04
 -1      2088-5.58589E-03 8.60967E-05 7.43914E-04-3.40176E+05-5.24624E+07 6.28898E-04
 -1      2090-5.58589E-03 8.60967E-05 7.43914E-04-3.40176E+05-5.24624E+07 6.28898E-04
 -1      2091-4.66776E-03-4.99806E-05 3.59688E-03 4.83879E+06-5.17460E+07-6.29506E-05
 -1      2093-4.66776E-03-4.99806E-05 3.59688E-03 4.83879E+06-5.17460E+07-6.29506E-05
 -1      2094-3.14556E-03 2.01781E-05 4.50486E-03 7.83745E+06-4.49465E+07-1.78984E-03
 -1      2096-3.14556E-03 2.01781E-05 4.50486E-03 7.83745E+06-4.49465E+07-1.78984E-03
 -1      2097-1.57201E-03 1.24341E-04 1.64820E-03 1.30916E+07-3.79170E+07-3.46614E-03
 -1      2099-1.57201E-03 1.24341E-04 1.64820E-03 1.30916E+07-3.79170E+07-3.46614E-03
 -1      2100 7.16004E-05 4.60603E-05-3.29348E-03 1.34844E+07-2.41367E+07-2.68557E-03
 -1      2102 7.16004E-05 4.60603E-05-3.29348E-03 1.34844E+07-2.41367E+07-2.68557E-03
 -1      2103 1.00677E-03 6.83020E-05-5.26752E-03 1.84997E+07-1.36480E+07 2.32710E-04
 -1      2105 1.00677E-03 6.83020E-05-5.26752E-03 1.84997E+07-1.36480E+07 2.32710E-04
 -1      2106 6.23606E-04 1.46274E-04-3.54487E-03 1.46190E+07 5.20805E+06 1.39076E-03
 -1      2108 6.23606E-04 1.46274E-04-3.54487E-03 1.46190E+07 5.20805E+06 1.39076E-03
 -1      2109-1.98535E-04 3.99182E-04-2.24427E-03 1.93163E+07 1.47666E+07-3.19320E-04
 -1      2111-1.98535E-04 3.99182E-04-2.24427E-03 1.93163E+07 1.47666E+07-3.19320E-04
 -1      2112-6.59528E-04 5.94253E-04-3.21602E-03 1.15158E+07 3.96541E+07-1.21211E-03
 -1      2114-6.59528E-04 5.94253E-04-3.21602E-03 1.15158E+07 3.96541E+07-1.21211E-03
 -1      2115-6.26136E-04 5.19503E-04-3.81949E-03 1.14196E+07 4.44504E+07-5.34441E-05
 -1      2117-6.26136E-04 5.19503E-04-3.81949E-03 1.14196E+07 4.44504E+07-5.34441E-05
 -1      2118-2.29270E-04 1.23569E-04-2.25712E-03 1.13957E+07 9.33588E+07 6.87746E-04
 -1      2120-2.29270E-04 1.23569E-04-2.25712E-03 1.13957E+07 9.33588E+07 6.87746E-04
 -1      2121 8.91313E+09 5.76472E+08 2.34054E+06 3.01558E+09-2.56536E+06 2.12176E+07
 -1      2123 8.91313E+09 5.76472E+08 2.34054E+06 3.01558E+09-2.56536E+06 2.12176E+07
 -1      2124 4.42359E+09-4.67304E+07-9.62311E+04 2.40277E+09-1.57249E+07-7.44347E+06
 -1      2126 4.42359E+09-4.67304E+07-9.62311E+04 2.40277E+09-1.57249E+07-7.44347E+06
 -1      2127 6.87439E+08 4.77008E+07-4.64575E+05 1.92397E+09-7.86037E+06 8.13355E+06
 -1      2129 6.87439E+08 4.77008E+07-4.64575E+05 1.92397E+09-7.86037E+06 8.13355E+06
 -1      2130-2.21778E+09-9.20938E+07 1.85428E+05 1.51262E+09-3.01843E+06 1.39981E+06
 -1      2132-2.21778E+09-9.20938E+07 1.85428E+05 1.51262E+09-3.01843E+06 1.39981E+06
 -1      2133-4.47843E+09-1.34997E+08-1.42780E+06 1.11250E+09 2.57918E+06 4.17581E+06
 -1      2135-4.47843E+09-1.34997E+08-1.42780E+06 1.11250E+09 2.57918E+06 4.17581E+06
 -1      2136-6.04904E+09-1.82629E+08-4.87272E+05 7.26814E+08 8.05643E+06 1.85657E+06
 -1      2138-6.04904E+09-1.82629E+08-4.87272E+05 7.26814E+08 8.05643E+06 1.85657E+06
 -1      2139-6.96298E+09-2.05789E+08-1.42492E+06 3.38463E+08 1.08306E+07 1.28967E+06
 -1      2141-6.96298E+09-2.05789E+08-1.42492E+06 3.38463E+08 1.08306E+07 1.28967E+06
 -1      2142-7.21776E+09-2.13122E+08-9.71196E+05-3.26242E+07 1.30739E+07-2.64523E+05
 -1      2144-7.21776E+09-2.13122E+08-9.71196E+05-3.26242E+07 1.30739E+07-2.64523E+05
 -1      2145-6.85296E+09-2.00718E+08-1.11113E+06-3.80060E+08 1.25498E+07-1.51801E+06
 -1      2147-6.85296E+09-2.00718E+08-1.11113E+06-3.80060E+08 1.25498E+07-1.51801E+06
 -1      2148-5.92460E+09-1.74009E+08-9.55333E+05-6.81775E+08 1.11576E+07-2.74198E+06
 -1      2150-5.92460E+09-1.74009E+08-9.55333E+05-6.81775E+08 1.11576E+07-2.74198E+06
 -1      2151-4.52445E+09-1.32040E+08-6.18975E+05-9.24914E+08 7.70475E+06-3.75696E+06
 -1      2153-4.52445E+09-1.32040E+08-6.18975E+05-9.24914E+08 7.70475E+06-3.75696E+06
 -1      2154-2.76697E+09-8.10503E+07-5.30407E+05-1.09312E+09 3.63314E+06-4.45173E+06
 -1      2156-2.76697E+09-8.10503E+07-5.30407E+05-1.09312E+09 3.63314E+06-4.45173E+06
 -1      2157-7.90155E+08-2.26756E+07-1.91960E+04-1.17818E+09-1.53225E+06-4.83130E+06
 -1      2159-7.90155E+08-2.26756E+07-1.91960E+04-1.17818E+09-1.53225E+06-4.83130E+06
 -1      2160 1.25732E+09 3.69170E+07 1.04204E+05-1.17459E+09-6.63587E+06-4.81692E+06
 -1      2162 1.25732E+09 3.69170E+07 1.04204E+05-1.17459E+09-6.63587E+06-4.81692E+06
 -1      2163 3.22271E+09 9.47047E+07 5.58439E+05-1.08445E+09-1.18179E+07-4.44575E+06
 -1      2165 3.22271E+09 9.47047E+07 5.58439E+05-1.08445E+09-1.18179E+07-4.44575E+06
 -1      2166 4.96214E+09 1.45323E+08 7.40556E+05-9.15007E+08-1.61184E+07-3.72906E+06
 -1      2168 4.96214E+09 1.45323E+08 7.40556E+05-9.15007E+08-1.61184E+07-3.72906E+06
 -1      2169 6.34882E+09 1.86045E+08 9.47631E+05-6.79540E+08-1.96499E+07-2.72213E+06
 -1      2171 6.34882E+09 1.86045E+08 9.47631E+05-6.79540E+08-1.96499E+07-2.72213E+06
 -1      2172 7.28419E+09 2.13028E+08 1.21696E+06-3.96430E+08-2.16255E+07-1.50835E+06
 -1      2174 7.28419E+09 2.13028E+08 1.21696E+06-3.96430E+08-2.16255E+07-1.50835E+06
 -1      2175 7.70333E+09 2.25403E+08 9.95151E+05-8.70957E+07-2.23551E+07-1.60633E+05
 -1      2177 7.70333E+09 2.25403E+08 9.95151E+05-8.70957E+07-2.23551E+07-1.60633E+05
 -1      2178 7.58302E+09 2.21082E+08 1.46511E+06 2.23257E+08-2.12092E+07 1.21816E+06
 -1      2180 7.58302E+09 2.21082E+08 1.46511E+06 2.23257E+08-2.12092E+07 1.21816E+06
 -1      2181 6.94102E+09 2.02489E+08 5.97020E+05 5.10654E+08-1.88185E+07 2.51464E+06
 -1      2183 6.94102E+09 2.02489E+08 5.97020E+05 5.10654E+08-1.88185E+07 2.51464E+06
 -1      2184 5.84128E+09 1.68686E+08 1.54633E+06 7.48123E+08-1.46854E+07 3.73629E+06
 -1      2186 5.84128E+09 1.68686E+08 1.54633E+06 7.48123E+08-1.46854E+07 3.73629E+06
 -1      2187 4.38658E+09 1.25443E+08-2.89403E+05 9.15290E+08-9.69362E+06 4.58097E+06
 -1      2189 4.38658E+09 1.25443E+08-2.89403E+05 9.15290E+08-9.69362E+06 4.58097E+06
 -1      2190 2.72039E+09 7.70970E+07 1.65061E+06 9.85911E+08-3.55997E+06 5.54156E+06
 -1      2192 2.72039E+09 7.70970E+07 1.65061E+06 9.85911E+08-3.55997E+06 5.54156E+06
 -1      2193 1.02219E+09 1.33310E+07-1.58867E+06 9.48659E+08 3.22669E+06 5.54701E+06
 -1      2195 1.02219E+09 1.33310E+07-1.58867E+06 9.48659E+08 3.22669E+06 5.54701E+06
 -1      2196-5.05132E+08 1.32501E+06 1.83287E+06 7.70984E+08 9.99284E+06 6.66560E+06
 -1      2198-5.05132E+08 1.32501E+06 1.83287E+06 7.70984E+08 9.99284E+06 6.66560E+06
 -1      2199-1.61214E+09-1.33407E+08-2.36648E+06 4.58715E+08 1.95391E+07 5.28823E+06
 -1      2201-1.61214E+09-1.33407E+08-2.36648E+06 4.58715E+08 1.95391E+07 5.28823E+06
 -1      2202-2.00517E+09 5.28964E+07-9.69985E+04-5.95224E+07 2.69519E+07 7.72017E+06
 -1      2204-2.00517E+09 5.28964E+07-9.69985E+04-5.95224E+07 2.69519E+07 7.72017E+06
 -1      2205-1.50567E+09-3.04169E+08 4.19041E+06-7.44064E+08 5.03159E+07 3.77822E+06
 -1      2207-1.50567E+09-3.04169E+08 4.19041E+06-7.44064E+08 5.03159E+07 3.77822E+06
 -1      2208-8.91313E+09-5.76472E+08-2.34054E+06 3.01558E+09-2.56536E+06-2.12176E+07
 -1      2210-8.91313E+09-5.76472E+08-2.34054E+06 3.01558E+09-2.56536E+06-2.12176E+07
 -1      2211-4.42359E+09 4.67304E+07 9.62311E+04 2.40277E+09-1.57249E+07 7.44347E+06
 -1      2213-4.42359E+09 4.67304E+07 9.62311E+04 2.40277E+09-1.57249E+07 7.44347E+06
 -1      2214-6.87439E+08-4.77008E+07 4.64575E+05 1.92397E+09-7.86037E+06-8.13355E+06
 -1      2216-6.87439E+08-4.77008E+07 4.64575E+05 1.92397E+09-7.86037E+06-8.13355E+06
 -1      2217 2.21778E+09 9.20938E+07-1.85428E+05 1.51262E+09-3.01843E+06-1.39981E+06
 -1      2219 2.21778E+09 9.20938E+07-1.85428E+05 1.51262E+09-3.01843E+06-1.39981E+06
 -1      2220 4.47843E+09 1.34997E+08 1.42780E+06 1.11250E+09 2.57918E+06-4.17581E+06
 -1      2222 4.47843E+09 1.34997E+08 1.42780E+06 1.11250E+09 2.57918E+06-4.17581E+06
 -1      2223 6.04904E+09 1.82629E+08 4.87272E+05 7.26814E+08 8.05643E+06-1.85657E+06
 -1      2225 6.04904E+09 1.82629E+08 4.87272E+05 7.26814E+08 8.05643E+06-1.85657E+06
 -1      2226 6.96298E+09 2.05789E+08 1.42492E+06 3.38463E+08 1.08306E+07-1.28967E+06
 -1      2228 6.96298E+09 2.05789E+08 1.42492E+06 3.38463E+08 1.08306E+07-1.28967E+06
 -1      2229 7.21776E+09 2.13122E+08 9.71196E+05-3.26242E+07 1.30739E+07 2.64523E+05
 -1      2231 7.21776E+09 2.13122E+08 9.71196E+05-3.26242E+07 1.30739E+07 2.64523E+05
 -1      2232 6.85296E+09 2.00718E+08 1.11113E+06-3.80060E+08 1.25498E+07 1.51801E+06
 -1      2234 6.85296E+09 2.00718E+08 1.11113E+06-3.80060E+08 1.25498E+07 1.51801E+06
 -1      2235 5.92460E+09 1.74009E+08 9.55333E+05-6.81775E+08 1.11576E+07 2.74198E+06
 -1      2237 5.92460E+09 1.74009E+08 9.55333E+05-6.81775E+08 1.11576E+07 2.74198E+06
 -1      2238 4.52445E+09 1.32040E+08 6.18975E+05-9.24914E+08 7.70475E+06 3.75696E+06
 -1      2240 4.52445E+09 1.32040E+08 6.18975E+05-9.24914E+08 7.70475E+06 3.75696E+06
 -1      2241 2.76697E+09 8.10503E+07 5.30407E+05-1.09312E+09 3.63314E+06 4.45173E+06
 -1      2243 2.76697E+09 8.10503E+07 5.30407E+05-1.09312E+09 3.63314E+06 4.45173E+06
 -1      2244 7.90155E+08 2.26756E+07 1.91960E+04-1.17818E+09-1.53225E+06 4.83130E+06
 -1      2246 7.90155E+08 2.26756E+07 1.91960E+04-1.17818E+09-1.53225E+06 4.83130E+06
 -1      2247-1.25732E+09-3.69170E+07-1.04204E+05-1.17459E+09-6.63587E+06 4.81692E+06
 -1      2249-1.25732E+09-3.69170E+07-1.04204E+05-1.17459E+09-6.63587E+06 4.81692E+06
 -1      2250-3.22271E+09-9.47047E+07-5.58439E+05-1.08445E+09-1.18179E+07 4.44575E+06
 -1      2252-3.22271E+09-9.47047E+07-5.58439E+05-1.08445E+09-1.18179E+07 4.44575E+06
 -1      2253-4.96214E+09-1.45323E+08-7.40556E+05-9.15007E+08-1.61184E+07 3.72906E+06
 -1      2255-4.96214E+09-1.45323E+08-7.40556E+05-9.15007E+08-1.61184E+07 3.72906E+06
 -1      2256-6.34882E+09-1.86045E+08-9.47631E+05-6.79540E+08-1.96499E+07 2.72213E+06
 -1      2258-6.34882E+09-1.86045E+08-9.47631E+05-6.79540E+08-1.96499E+07 2.72213E+06
 -1      2259-7.28419E+09-2.13028E+08-1.21696E+06-3.96430E+08-2.16255E+07 1.50835E+06
 -1      2261-7.28419E+09-2.13028E+08-1.21696E+06-3.96430E+08-2.16255E+07 1.50835E+06
 -1      2262-7.70333E+09-2.25403E+08-9.95151E+05-8.70957E+07-2.23551E+07 1.60633E+05
 -1      2264-7.70333E+09-2.25403E+08-9.95151E+05-8.70957E+07-2.23551E+07 1.60633E+05
 -1      2265-7.58302E+09-2.21082E+08-1.46511E+06 2.23257E+08-2.12092E+07-1.21816E+06
 -1      2267-7.58302E+09-2.21082E+08-1.46511E+06 2.23257E+08-2.12092E+07-1.21816E+06
 -1      2268-6.94102E+09-2.02489E+08-5.97020E+05 5.10654E+08-1.88185E+07-2.51464E+06
 -1      2270-6.94102E+09-2.02489E+08-5.97020E+05 5.10654E+08-1.88185E+07-2.51464E+06
 -1      2271-5.84128E+09-1.68686E+08-1.54633E+06 7.48123E+08-1.46854E+07-3.73629E+06
 -1      2273-5.84128E+09-1.68686E+08-1.54633E+06 7.48123E+08-1.46854E+07-3.73629E+06
 -1      2274-4.38658E+09-1.25443E+08 2.89403E+05 9.15290E+08-9.69362E+06-4.58097E+06
 -1      2276-4.38658E+09-1.25443E+08 2.89403E+05 9.15290E+08-9.69362E+06-4.58097E+06
 -1      2277-2.72039E+09-7.70970E+07-1.65061E+06 9.85911E+08-3.55997E+06-5.54156E+06
 -1      2279-2.72039E+09-7.70970E+07-1.65061E+06 9.85911E+08-3.55997E+06-5.54156E+06
 -1      2280-1.02219E+09-1.33310E+07 1.58867E+06 9.48659E+08 3.22669E+06-5.54701E+06
 -1      2282-1.02219E+09-1.33310E+07 1.58867E+06 9.48659E+08 3.22669E+06-5.54701E+06
 -1      2283 5.05132E+08-1.32501E+06-1.83287E+06 7.70984E+08 9.99284E+06-6.66560E+06
 -1      2285 5.05132E+08-1.32501E+06-1.83287E+06 7.70984E+08 9.99284E+06-6.66560E+06
 -1      2286 1.61214E+09 1.33407E+08 2.36648E+06 4.58715E+08 1.95391E+07-5.28823E+06
 -1      2288 1.61214E+09 1.33407E+08 2.36648E+06 4.58715E+08 1.95391E+07-5.28823E+06
 -1      2289 2.00517E+09-5.28964E+07 9.69985E+04-5.95224E+07 2.69519E+07-7.72017E+06
 -1      2291 2.00517E+09-5.28964E+07 9.69985E+04-5.95224E+07 2.69519E+07-7.72017E+06
 -1      2292 1.50567E+09 3.04169E+08-4.19041E+06-7.44064E+08 5.03159E+07-3.77822E+06
 -1      2294 1.50567E+09 3.04169E+08-4.19041E+06-7.44064E+08 5.03159E+07-3.77822E+06
 -3
    1PSTEP                        47           1           1          
    1PGM                1.000000E+00                                  
    1PGK                8.423980E+06                                  
    1PHID                         -1                                  
    1PSUBC                         0                                  
    1PMODE                        12                                  
  100CL  112 461.9328067         930                     2   12MODAL      1
 -4  FORC        4    1
 -5  F1          1    2    1    0
 -5  F2          1    2    2    0
 -5  F3          1    2    3    0
 -5  ALL         1    2    0    0    1ALL
 -1       404-3.69439E+06 1.16315E+06 1.64250E+05
 -1       406-4.16547E+06 1.09768E+06 1.64250E+05
 -1       407 9.02025E+03-7.12138E+04-8.13629E+03
 -1       409 9.02025E+03-7.12138E+04-8.13629E+03
 -1       410 5.99313E-07 1.00531E+06 1.17884E-07
 -1       412 5.83073E-07 2.49080E+06-4.68112E-07
 -1       413 4.32639E-07-1.96900E+06-1.16594E+06
 -1       415 3.07204E-07-1.96900E+06 1.16594E+06
 -1       424 6.55435E-07 4.79401E+05-6.26667E-08
 -1       426 2.50181E-06 4.21136E+05 1.09859E-07
 -1       427 8.70268E+05 7.10228E+05 1.71930E+04
 -1       429-8.70268E+05 7.10228E+05-1.71930E+04
 -1       438-9.02025E+03-7.12138E+04 8.13629E+03
 -1       440-9.02025E+03-7.12138E+04 8.13629E+03
 -1       441 3.69439E+06 1.16315E+06-1.64250E+05
 -1       443 4.16547E+06 1.09768E+06-1.64250E+05
 -1       444-8.70268E+05-7.10228E+05 1.71930E+04
 -1       446 8.70268E+05-7.10228E+05-1.71930E+04
 -1       447 6.41838E-07-4.79401E+05 4.11035E-08
 -1       449 7.92777E-07-4.21136E+05 1.75836E-07
 -1       458 1.33945E-07 1.96900E+06-1.16594E+06
 -1       460 1.45827E-07 1.96900E+06 1.16594E+06
 -1       461-8.95545E-07-1.00531E+06-1.09029E-06
 -1       463-8.63312E-07-2.49080E+06-1.09602E-07
 -1       472-3.69439E+06-1.16315E+06-1.64250E+05
 -1       474-4.16547E+06-1.09768E+06-1.64250E+05
 -1       475 9.02025E+03 7.12138E+04 8.13629E+03
 -1       477 9.02025E+03 7.12138E+04 8.13629E+03
 -1       478-9.02025E+03 7.12138E+04-8.13629E+03
 -1       480-9.02025E+03 7.12138E+04-8.13629E+03
 -1       481 3.69439E+06-1.16315E+06 1.64250E+05
 -1       483 4.16547E+06-1.09768E+06 1.64250E+05
 -1       484 7.15024E+03-1.28041E+04-3.93619E+03
 -1       486 7.15024E+03-1.28041E+04-3.93619E+03
 -1       487 1.18637E+04-3.05553E+04-8.43865E+03
 -1       489 1.18637E+04-3.05553E+04-8.43865E+03
 -1       490 1.36635E+04-5.23309E+04-1.29203E+04
 -1       492 1.36635E+04-5.23309E+04-1.29203E+04
 -1       493 1.31050E+04-7.44538E+04-1.69544E+04
 -1       495 1.31050E+04-7.44538E+04-1.69544E+04
 -1       496 1.07069E+04-9.38403E+04-2.02799E+04
 -1       498 1.07069E+04-9.38403E+04-2.02799E+04
 -1       499 6.94771E+03-1.08143E+05-2.25667E+04
 -1       501 6.94771E+03-1.08143E+05-2.25667E+04
 -1       502 2.30421E+03-1.15706E+05-2.36077E+04
 -1       504 2.30421E+03-1.15706E+05-2.36077E+04
 -1       505-2.75432E+03-1.15577E+05-2.32664E+04
 -1       507-2.75432E+03-1.15577E+05-2.32664E+04
 -1       508-7.77270E+03-1.07505E+05-2.15243E+04
 -1       510-7.77270E+03-1.07505E+05-2.15243E+04
 -1       511-1.23294E+04-9.19082E+04-1.84639E+04
 -1       513-1.23294E+04-9.19082E+04-1.84639E+04
 -1       514-1.60556E+04-6.98132E+04-1.42704E+04
 -1       516-1.60556E+04-6.98132E+04-1.42704E+04
 -1       517-1.86557E+04-4.27584E+04-9.21368E+03
 -1       519-1.86557E+04-4.27584E+04-9.21368E+03
 -1       520-1.99244E+04-1.26692E+04-3.62931E+03
 -1       522-1.99244E+04-1.26692E+04-3.62931E+03
 -1       523-1.97582E+04 1.82908E+04 2.10675E+03
 -1       525-1.97582E+04 1.82908E+04 2.10675E+03
 -1       526-1.81613E+04 4.78826E+04 7.60567E+03
 -1       528-1.81613E+04 4.78826E+04 7.60567E+03
 -1       529-1.52436E+04 7.39574E+04 1.24943E+04
 -1       531-1.52436E+04 7.39574E+04 1.24943E+04
 -1       532-1.12114E+04 9.46147E+04 1.64422E+04
 -1       534-1.12114E+04 9.46147E+04 1.64422E+04
 -1       535-6.35137E+03 1.08340E+05 1.91859E+04
 -1       537-6.35137E+03 1.08340E+05 1.91859E+04
 -1       538-1.00857E+03 1.14114E+05 2.05474E+04
 -1       540-1.00857E+03 1.14114E+05 2.05474E+04
 -1       541 4.44061E+03 1.11481E+05 2.04470E+04
 -1       543 4.44061E+03 1.11481E+05 2.04470E+04
 -1       544 9.61771E+03 1.00579E+05 1.89091E+04
 -1       546 9.61771E+03 1.00579E+05 1.89091E+04
 -1       547 1.41735E+04 8.21186E+04 1.60593E+04
 -1       549 1.41735E+04 8.21186E+04 1.60593E+04
 -1       550 1.78178E+04 5.73152E+04 1.21152E+04
 -1       552 1.78178E+04 5.73152E+04 1.21152E+04
 -1       553 2.03489E+04 2.77789E+04 7.37136E+03
 -1       555 2.03489E+04 2.77789E+04 7.37136E+03
 -1       556 2.16785E+04-4.63951E+03 2.17642E+03
 -1       558 2.16785E+04-4.63951E+03 2.17642E+03
 -1       559 2.18560E+04-3.80267E+04-3.08470E+03
 -1       561 2.18560E+04-3.80267E+04-3.08470E+03
 -1       562 2.10941E+04-7.06688E+04-8.01404E+03
 -1       564 2.10941E+04-7.06688E+04-8.01404E+03
 -1       565 1.97776E+04-1.01177E+05-1.21950E+04
 -1       567 1.97776E+04-1.01177E+05-1.21950E+04
 -1       568 1.85400E+04-1.29085E+05-1.51580E+04
 -1       570 1.85400E+04-1.29085E+05-1.51580E+04
 -1       571 1.20300E+04-1.42353E+05-1.14718E+04
 -1       573 1.20300E+04-1.42353E+05-1.14718E+04
 -1       574 1.77035E-06-5.72553E+05-8.01477E-07
 -1       576 1.74923E-06-8.68854E+05-5.01502E-07
 -1       577-1.52309E-06 6.82166E+05 2.32562E+05
 -1       579-1.49246E-06 6.82166E+05-2.32562E+05
 -1       588 1.30173E-06-2.80014E+05-1.70360E-06
 -1       590 1.23485E-06-7.39506E+05-1.92340E-06
 -1       591-2.02785E-06 4.15484E+05 3.60647E+05
 -1       593-2.01873E-06 4.15484E+05-3.60647E+05
 -1       602 8.82666E-07-3.90976E+04 6.18882E-08
 -1       604 8.48849E-07-2.75037E+05-5.06886E-07
 -1       605-1.90514E-06-5.64461E+03 1.85185E+05
 -1       607-1.97497E-06-5.64461E+03-1.85185E+05
 -1       616 1.58536E-06-9.12453E+04 2.75229E-06
 -1       618 1.63931E-06-7.19997E+04 1.62493E-06
 -1       619-1.48453E-06-1.50183E+05-1.51055E+04
 -1       621-1.68838E-06-1.50183E+05 1.51055E+04
 -1       630 2.24817E-06-1.35642E+04 3.91742E-06
 -1       632 2.25431E-06 2.53262E+05 2.75775E-06
 -1       633-1.75711E-06-4.12163E+05-2.09428E+05
 -1       635-1.78647E-06-4.12163E+05 2.09428E+05
 -1       644 1.99058E-06-8.66356E+04 5.89323E-07
 -1       646 2.01673E-06 3.98755E+05 1.76519E-06
 -1       647-2.25973E-06-4.92962E+05-3.80975E+05
 -1       649-2.03610E-06-4.92962E+05 3.80975E+05
 -1       658 5.81982E-07-6.47890E+04-1.81037E-06
 -1       660 6.29610E-07 5.54501E+05-8.44469E-07
 -1       661-2.13988E-06-6.05320E+05-4.86071E+05
 -1       663-2.06213E-06-6.05320E+05 4.86071E+05
 -1       672-4.03622E-07-1.01683E+05-1.40595E-06
 -1       674-4.96152E-07 5.87186E+05-7.83430E-07
 -1       675-1.74302E-06-6.02796E+05-5.40682E+05
 -1       677-1.53701E-06-6.02796E+05 5.40682E+05
 -1       686 2.78098E-07-8.08869E+04 5.28082E-07
 -1       688 1.67656E-07 5.87106E+05 6.51801E-07
 -1       689-1.74392E-06-5.87986E+05-5.24297E+05
 -1       691-1.56040E-06-5.87986E+05 5.24297E+05
 -1       700 1.62505E-06-7.74088E+04 1.30467E-06
 -1       702 1.58990E-06 5.00786E+05 1.04561E-06
 -1       703-1.94536E-06-4.97952E+05-4.53815E+05
 -1       705-1.97301E-06-4.97952E+05 4.53815E+05
 -1       714 1.87155E-06-4.03474E+04-2.02603E-07
 -1       716 1.95426E-06 3.78410E+05-4.11924E-07
 -1       717-2.00976E-06-3.86443E+05-3.28676E+05
 -1       719-2.04261E-06-3.86443E+05 3.28676E+05
 -1       728 1.35326E-06-7.32846E+03-1.65802E-06
 -1       730 1.32782E-06 2.04339E+05-2.05546E-06
 -1       731-1.39034E-06-2.31618E+05-1.66134E+05
 -1       733-1.27637E-06-2.31618E+05 1.66134E+05
 -1       742 7.38719E-07 4.20696E+04-2.38057E-06
 -1       744 6.65310E-07 1.34982E+04-1.12801E-06
 -1       745-1.94074E-07-6.71529E+04 2.24252E+04
 -1       747-1.31448E-07-6.71529E+04-2.24252E+04
 -1       756-1.53160E-07 8.69823E+04-2.07324E-06
 -1       758-2.71291E-07-1.92693E+05-1.66300E-07
 -1       759 6.36051E-07 1.09932E+05 2.19512E+05
 -1       761 6.33786E-07 1.09932E+05-2.19512E+05
 -1       770-1.03846E-06 1.34822E+05-1.43171E-06
 -1       772-1.15009E-06-3.86154E+05-9.95523E-07
 -1       773 1.21660E-06 2.74911E+05 4.08905E+05
 -1       775 1.22371E-06 2.74911E+05-4.08905E+05
 -1       784-1.12235E-06 1.72162E+05-1.32222E-06
 -1       786-1.13343E-06-5.61311E+05-1.48747E-06
 -1       787 1.67133E-06 4.25016E+05 5.75691E+05
 -1       789 1.70035E-06 4.25016E+05-5.75691E+05
 -1       798-1.21660E-06 2.02817E+05-1.99204E-07
 -1       800-1.16887E-06-6.94799E+05-1.12240E-06
 -1       801 1.48614E-06 5.40733E+05 7.04525E+05
 -1       803 1.46786E-06 5.40733E+05-7.04525E+05
 -1       812-1.95826E-06 2.16015E+05 7.02174E-07
 -1       814-1.87704E-06-7.86755E+05 2.98008E-07
 -1       815 3.71270E-07 6.22797E+05 7.87058E+05
 -1       817 4.00956E-07 6.22797E+05-7.87058E+05
 -1       826-1.93652E-06 2.18219E+05-1.09564E-07
 -1       828-1.83533E-06-8.17056E+05 5.93323E-07
 -1       829-5.77747E-07 6.54739E+05 8.12570E+05
 -1       831-5.08331E-07 6.54739E+05-8.12570E+05
 -1       840-1.66486E-06 1.96954E+05-6.27072E-07
 -1       842-1.53412E-06-8.00503E+05-5.28350E-07
 -1       843-3.24668E-07 6.48781E+05 7.82888E+05
 -1       845-3.50068E-07 6.48781E+05-7.82888E+05
 -1       854-1.46755E-06 1.67207E+05 5.10473E-07
 -1       856-1.32077E-06-7.15023E+05 4.86421E-07
 -1       857 2.72194E-08 5.86827E+05 6.92448E+05
 -1       859 1.87538E-07 5.86827E+05-6.92448E+05
 -1       868-1.21843E-06 1.07542E+05 1.59747E-06
 -1       870-1.12216E-06-6.00980E+05 1.38457E-06
 -1       871 2.83701E-07 5.01994E+05 5.56107E+05
 -1       873 4.36226E-07 5.01994E+05-5.56107E+05
 -1       882-6.56044E-07 4.96282E+04 8.50174E-07
 -1       884-6.01533E-07-4.19354E+05 5.09993E-07
 -1       885 2.53747E-07 3.62737E+05 3.68096E+05
 -1       887 3.14942E-07 3.62737E+05-3.68096E+05
 -1       896 2.50690E-07-5.24181E+04-1.16862E-07
 -1       898 2.06152E-07-2.57431E+05-6.37597E-07
 -1       899 3.82222E-07 2.40672E+05 1.60911E+05
 -1       901 5.44968E-07 2.40672E+05-1.60911E+05
 -1       910 6.15814E-07-1.33338E+05-7.85447E-07
 -1       912 5.67914E-07-1.64152E+04-5.28970E-07
 -1       913 2.85075E-07 5.95773E+04-9.17711E+04
 -1       915 3.51659E-07 5.95773E+04 9.17711E+04
 -1       924 3.03133E-07-3.06280E+05-9.34962E-07
 -1       926 2.14642E-07 1.04405E+05-5.31173E-07
 -1       927 1.69547E-07-1.83855E+04-3.22340E+05
 -1       929 1.25234E-07-1.83855E+04 3.22340E+05
 -1       938 1.98385E-07-4.21154E+05-1.36605E-06
 -1       940 1.22252E-07 4.10185E+05-8.51896E-07
 -1       941-1.03591E-08-2.15281E+05-6.52504E+05
 -1       943 1.72749E-07-2.15281E+05 6.52504E+05
 -1       952 1.03650E-07-8.03562E+05-9.29970E-07
 -1       954 1.72306E-07 3.58915E+05-8.38698E-07
 -1       955 1.71508E-07-9.32486E+04-9.12409E+05
 -1       957 6.55446E-08-9.32486E+04 9.12409E+05
 -1       966 6.76497E-07-1.09128E+06-9.31118E-07
 -1       968 8.03768E-07 9.72894E+05-7.56300E-07
 -1       969 4.43151E-07-3.42230E+05-1.62014E+06
 -1       971 1.15442E-07-3.42230E+05 1.62014E+06
 -1       980-3.41138E+06 7.22878E+05 7.73806E+03
 -1       982-3.88636E+06 6.28276E+05 7.73806E+03
 -1       983-1.20300E+04-1.42353E+05 1.14718E+04
 -1       985-1.20300E+04-1.42353E+05 1.14718E+04
 -1       986-7.15024E+03-1.28041E+04 3.93619E+03
 -1       988-7.15024E+03-1.28041E+04 3.93619E+03
 -1       989-1.18637E+04-3.05553E+04 8.43865E+03
 -1       991-1.18637E+04-3.05553E+04 8.43865E+03
 -1       992-1.36635E+04-5.23309E+04 1.29203E+04
 -1       994-1.36635E+04-5.23309E+04 1.29203E+04
 -1       995-1.31050E+04-7.44538E+04 1.69544E+04
 -1       997-1.31050E+04-7.44538E+04 1.69544E+04
 -1       998-1.07069E+04-9.38403E+04 2.02799E+04
 -1      1000-1.07069E+04-9.38403E+04 2.02799E+04
 -1      1001-6.94771E+03-1.08143E+05 2.25667E+04
 -1      1003-6.94771E+03-1.08143E+05 2.25667E+04
 -1      1004-2.30421E+03-1.15706E+05 2.36077E+04
 -1      1006-2.30421E+03-1.15706E+05 2.36077E+04
 -1      1007 2.75432E+03-1.15577E+05 2.32664E+04
 -1      1009 2.75432E+03-1.15577E+05 2.32664E+04
 -1      1010 7.77270E+03-1.07505E+05 2.15243E+04
 -1      1012 7.77270E+03-1.07505E+05 2.15243E+04
 -1      1013 1.23294E+04-9.19082E+04 1.84639E+04
 -1      1015 1.23294E+04-9.19082E+04 1.84639E+04
 -1      1016 1.60556E+04-6.98132E+04 1.42704E+04
 -1      1018 1.60556E+04-6.98132E+04 1.42704E+04
 -1      1019 1.86557E+04-4.27584E+04 9.21368E+03
 -1      1021 1.86557E+04-4.27584E+04 9.21368E+03
 -1      1022 1.99244E+04-1.26692E+04 3.62931E+03
 -1      1024 1.99244E+04-1.26692E+04 3.62931E+03
 -1      1025 1.97582E+04 1.82908E+04-2.10675E+03
 -1      1027 1.97582E+04 1.82908E+04-2.10675E+03
 -1      1028 1.81613E+04 4.78826E+04-7.60567E+03
 -1      1030 1.81613E+04 4.78826E+04-7.60567E+03
 -1      1031 1.52436E+04 7.39574E+04-1.24943E+04
 -1      1033 1.52436E+04 7.39574E+04-1.24943E+04
 -1      1034 1.12114E+04 9.46147E+04-1.64422E+04
 -1      1036 1.12114E+04 9.46147E+04-1.64422E+04
 -1      1037 6.35137E+03 1.08340E+05-1.91859E+04
 -1      1039 6.35137E+03 1.08340E+05-1.91859E+04
 -1      1040 1.00857E+03 1.14114E+05-2.05474E+04
 -1      1042 1.00857E+03 1.14114E+05-2.05474E+04
 -1      1043-4.44061E+03 1.11481E+05-2.04470E+04
 -1      1045-4.44061E+03 1.11481E+05-2.04470E+04
 -1      1046-9.61771E+03 1.00579E+05-1.89091E+04
 -1      1048-9.61771E+03 1.00579E+05-1.89091E+04
 -1      1049-1.41735E+04 8.21186E+04-1.60593E+04
 -1      1051-1.41735E+04 8.21186E+04-1.60593E+04
 -1      1052-1.78178E+04 5.73152E+04-1.21152E+04
 -1      1054-1.78178E+04 5.73152E+04-1.21152E+04
 -1      1055-2.03489E+04 2.77789E+04-7.37136E+03
 -1      1057-2.03489E+04 2.77789E+04-7.37136E+03
 -1      1058-2.16785E+04-4.63951E+03-2.17642E+03
 -1      1060-2.16785E+04-4.63951E+03-2.17642E+03
 -1      1061-2.18560E+04-3.80267E+04 3.08470E+03
 -1      1063-2.18560E+04-3.80267E+04 3.08470E+03
 -1      1064-2.10941E+04-7.06688E+04 8.01404E+03
 -1      1066-2.10941E+04-7.06688E+04 8.01404E+03
 -1      1067-1.97776E+04-1.01177E+05 1.21950E+04
 -1      1069-1.97776E+04-1.01177E+05 1.21950E+04
 -1      1070-1.85400E+04-1.29085E+05 1.51580E+04
 -1      1072-1.85400E+04-1.29085E+05 1.51580E+04
 -1      1073 3.41138E+06 7.22878E+05-7.73806E+03
 -1      1075 3.88636E+06 6.28276E+05-7.73806E+03
 -1      1076 1.15893E+06 4.16000E+05-3.81256E+04
 -1      1078-1.15893E+06 4.16000E+05 3.81256E+04
 -1      1079-3.48411E-06-1.26256E-06-1.10637E+05
 -1      1081 6.66766E-06-7.74706E-07 1.10637E+05
 -1      1082-1.15893E+06-4.16000E+05-3.81256E+04
 -1      1084 1.15893E+06-4.16000E+05 3.81256E+04
 -1      1085 1.10466E-06-6.82166E+05 2.32562E+05
 -1      1087 1.26370E-06-6.82166E+05-2.32562E+05
 -1      1088 4.98831E-08 5.72553E+05 4.78526E-07
 -1      1090 8.64102E-08 8.68854E+05 3.93658E-07
 -1      1099 1.47305E-06-4.15484E+05 3.60647E+05
 -1      1101 1.59763E-06-4.15484E+05-3.60647E+05
 -1      1102-7.01109E-07 2.80014E+05 7.99153E-08
 -1      1104-6.97628E-07 7.39506E+05 2.92294E-07
 -1      1113 1.61738E-06 5.64461E+03 1.85185E+05
 -1      1115 1.55247E-06 5.64461E+03-1.85185E+05
 -1      1116-1.54062E-06 3.90976E+04-6.13527E-07
 -1      1118-1.59104E-06 2.75037E+05 7.03330E-08
 -1      1127 1.66175E-06 1.50183E+05-1.51055E+04
 -1      1129 1.54897E-06 1.50183E+05 1.51055E+04
 -1      1130-1.52522E-06 9.12453E+04-1.02706E-06
 -1      1132-1.56738E-06 7.19997E+04-6.56842E-08
 -1      1141 1.60672E-06 4.12163E+05-2.09428E+05
 -1      1143 1.55317E-06 4.12163E+05 2.09428E+05
 -1      1144-1.05230E-06 1.35642E+04-1.05801E-06
 -1      1146-1.18957E-06-2.53262E+05-1.74317E-06
 -1      1155 1.48460E-06 4.92962E+05-3.80975E+05
 -1      1157 1.55735E-06 4.92962E+05 3.80975E+05
 -1      1158-2.19982E-07 8.66356E+04-1.23265E-06
 -1      1160-3.00278E-07-3.98755E+05-2.93755E-06
 -1      1169 8.01003E-07 6.05320E+05-4.86071E+05
 -1      1171 6.39207E-07 6.05320E+05 4.86071E+05
 -1      1172 5.53784E-07 6.47890E+04-7.59198E-07
 -1      1174 5.77249E-07-5.54501E+05-1.64393E-06
 -1      1183 5.31356E-07 6.02796E+05-5.40682E+05
 -1      1185 4.07323E-07 6.02796E+05 5.40682E+05
 -1      1186-2.23335E-07 1.01683E+05 5.06575E-07
 -1      1188-1.71866E-07-5.87186E+05-8.90152E-08
 -1      1197 9.36583E-07 5.87986E+05-5.24297E+05
 -1      1199 9.05919E-07 5.87986E+05 5.24297E+05
 -1      1200-9.35336E-07 8.08869E+04 7.04813E-07
 -1      1202-9.48147E-07-5.87106E+05-1.14371E-06
 -1      1211 1.62037E-06 4.97952E+05-4.53815E+05
 -1      1213 1.50579E-06 4.97952E+05 4.53815E+05
 -1      1214-6.51436E-07 7.74088E+04-1.37418E-06
 -1      1216-6.83746E-07-5.00786E+05-8.03076E-07
 -1      1225 1.23823E-06 3.86443E+05-3.28676E+05
 -1      1227 1.31723E-06 3.86443E+05 3.28676E+05
 -1      1228-6.01425E-07 4.03474E+04-1.07912E-07
 -1      1230-7.00186E-07-3.78410E+05-6.54900E-07
 -1      1239 1.75030E-07 2.31618E+05-1.66134E+05
 -1      1241 3.83481E-07 2.31618E+05 1.66134E+05
 -1      1242-1.16375E-06 7.32846E+03 1.63558E-06
 -1      1244-1.23198E-06-2.04339E+05 1.32516E-06
 -1      1253 8.78823E-08 6.71529E+04 2.24252E+04
 -1      1255 1.10907E-07 6.71529E+04-2.24252E+04
 -1      1256-1.39899E-06-4.20696E+04 2.87646E-06
 -1      1258-1.45523E-06-1.34982E+04 2.52187E-06
 -1      1267-4.56166E-08-1.09932E+05 2.19512E+05
 -1      1269 1.25383E-08-1.09932E+05-2.19512E+05
 -1      1270-4.98799E-07-8.69823E+04 2.66416E-06
 -1      1272-4.62632E-07 1.92693E+05 1.70674E-06
 -1      1281-3.63378E-07-2.74911E+05 4.08905E+05
 -1      1283-2.35765E-07-2.74911E+05-4.08905E+05
 -1      1284 9.10627E-07-1.34822E+05 1.17300E-06
 -1      1286 1.03284E-06 3.86154E+05 1.44093E-06
 -1      1295-6.35784E-07-4.25016E+05 5.75691E+05
 -1      1297-4.02088E-07-4.25016E+05-5.75691E+05
 -1      1298 1.94520E-06-1.72162E+05 1.58141E-06
 -1      1300 1.92334E-06 5.61311E+05 1.14824E-06
 -1      1309-5.39352E-07-5.40733E+05 7.04525E+05
 -1      1311-1.16146E-07-5.40733E+05-7.04525E+05
 -1      1312 2.02344E-06-2.02817E+05 1.53516E-06
 -1      1314 1.90188E-06 6.94799E+05 1.24765E-06
 -1      1323 1.72255E-07-6.22797E+05 7.87058E+05
 -1      1325 4.04729E-07-6.22797E+05-7.87058E+05
 -1      1326 1.03009E-06-2.16015E+05 2.20854E-07
 -1      1328 9.59214E-07 7.86755E+05 1.39406E-06
 -1      1337 5.18776E-08-6.54739E+05 8.12570E+05
 -1      1339 8.38118E-08-6.54739E+05-8.12570E+05
 -1      1340-2.77562E-07-2.18219E+05-8.01064E-08
 -1      1342-2.33152E-07 8.17056E+05-4.90627E-08
 -1      1351-3.68069E-07-6.48781E+05 7.82888E+05
 -1      1353-3.92545E-07-6.48781E+05-7.82888E+05
 -1      1354-6.40217E-07-1.96954E+05-7.96334E-07
 -1      1356-6.30747E-07 8.00503E+05-7.99873E-07
 -1      1365-9.80926E-07-5.86827E+05 6.92448E+05
 -1      1367-9.66826E-07-5.86827E+05-6.92448E+05
 -1      1368-4.43563E-07-1.67207E+05-2.23470E-06
 -1      1370-4.80280E-07 7.15023E+05-1.47940E-06
 -1      1379-1.35868E-06-5.01994E+05 5.56107E+05
 -1      1381-1.34953E-06-5.01994E+05-5.56107E+05
 -1      1382-5.15795E-07-1.07542E+05-1.76514E-06
 -1      1384-6.30575E-07 6.00980E+05-1.49140E-06
 -1      1393-1.20520E-06-3.62737E+05 3.68096E+05
 -1      1395-1.16669E-06-3.62737E+05-3.68096E+05
 -1      1396-5.57630E-07-4.96282E+04 1.08503E-06
 -1      1398-6.89484E-07 4.19354E+05 1.86104E-06
 -1      1407-1.02914E-08-2.40672E+05 1.60911E+05
 -1      1409 8.17713E-08-2.40672E+05-1.60911E+05
 -1      1410-6.83577E-07 5.24181E+04 2.40747E-06
 -1      1412-7.17677E-07 2.57431E+05 3.05800E-06
 -1      1421 5.01432E-07-5.95773E+04-9.17711E+04
 -1      1423 6.63319E-07-5.95773E+04 9.17711E+04
 -1      1424-4.27063E-07 1.33338E+05 4.83194E-07
 -1      1426-5.25000E-07 1.64152E+04 8.40303E-07
 -1      1435 4.14366E-08 1.83855E+04-3.22340E+05
 -1      1437 2.42022E-07 1.83855E+04 3.22340E+05
 -1      1438-1.00809E-07 3.06280E+05-1.41509E-06
 -1      1440-2.09423E-07-1.04405E+05-3.70130E-08
 -1      1449-1.89342E-07 2.15281E+05-6.52504E+05
 -1      1451-8.81173E-08 2.15281E+05 6.52504E+05
 -1      1452-6.91550E-08 4.21154E+05 2.02702E-07
 -1      1454-2.04014E-07-4.10185E+05 3.84716E-10
 -1      1463 9.25256E-08 9.32486E+04-9.12409E+05
 -1      1465 1.44791E-07 9.32486E+04 9.12409E+05
 -1      1466-8.02755E-07 8.03562E+05 3.58874E-07
 -1      1468-9.08864E-07-3.58915E+05 1.23613E-06
 -1      1477 9.55424E-08 3.42230E+05-1.62014E+06
 -1      1479 6.26114E-08 3.42230E+05 1.62014E+06
 -1      1480-1.42637E-06 1.09128E+06-9.68049E-07
 -1      1482-1.32995E-06-9.72894E+05 1.28979E-06
 -1      1491 4.33574E-07-1.07024E+05 4.17698E-07
 -1      1493 2.20280E-07-1.07024E+05-2.89001E-08
 -1      1494 1.65102E-07 1.12425E-06 1.74870E-07
 -1      1496 2.86444E-07-1.34870E-06-3.84374E-07
 -1      1497-2.73676E-07 1.07024E+05-1.08193E-08
 -1      1499-1.61892E-07 1.07024E+05-3.95310E-07
 -1      1500 7.15024E+03 1.28041E+04 3.93619E+03
 -1      1502 7.15024E+03 1.28041E+04 3.93619E+03
 -1      1503 1.18637E+04 3.05553E+04 8.43865E+03
 -1      1505 1.18637E+04 3.05553E+04 8.43865E+03
 -1      1506 1.36635E+04 5.23309E+04 1.29203E+04
 -1      1508 1.36635E+04 5.23309E+04 1.29203E+04
 -1      1509 1.31050E+04 7.44538E+04 1.69544E+04
 -1      1511 1.31050E+04 7.44538E+04 1.69544E+04
 -1      1512 1.07069E+04 9.38403E+04 2.02799E+04
 -1      1514 1.07069E+04 9.38403E+04 2.02799E+04
 -1      1515 6.94771E+03 1.08143E+05 2.25667E+04
 -1      1517 6.94771E+03 1.08143E+05 2.25667E+04
 -1      1518 2.30421E+03 1.15706E+05 2.36077E+04
 -1      1520 2.30421E+03 1.15706E+05 2.36077E+04
 -1      1521-2.75432E+03 1.15577E+05 2.32664E+04
 -1      1523-2.75432E+03 1.15577E+05 2.32664E+04
 -1      1524-7.77270E+03 1.07505E+05 2.15243E+04
 -1      1526-7.77270E+03 1.07505E+05 2.15243E+04
 -1      1527-1.23294E+04 9.19082E+04 1.84639E+04
 -1      1529-1.23294E+04 9.19082E+04 1.84639E+04
 -1      1530-1.60556E+04 6.98132E+04 1.42704E+04
 -1      1532-1.60556E+04 6.98132E+04 1.42704E+04
 -1      1533-1.86557E+04 4.27584E+04 9.21368E+03
 -1      1535-1.86557E+04 4.27584E+04 9.21368E+03
 -1      1536-1.99244E+04 1.26692E+04 3.62931E+03
 -1      1538-1.99244E+04 1.26692E+04 3.62931E+03
 -1      1539-1.97582E+04-1.82908E+04-2.10675E+03
 -1      1541-1.97582E+04-1.82908E+04-2.10675E+03
 -1      1542-1.81613E+04-4.78826E+04-7.60567E+03
 -1      1544-1.81613E+04-4.78826E+04-7.60567E+03
 -1      1545-1.52436E+04-7.39574E+04-1.24943E+04
 -1      1547-1.52436E+04-7.39574E+04-1.24943E+04
 -1      1548-1.12114E+04-9.46147E+04-1.64422E+04
 -1      1550-1.12114E+04-9.46147E+04-1.64422E+04
 -1      1551-6.35137E+03-1.08340E+05-1.91859E+04
 -1      1553-6.35137E+03-1.08340E+05-1.91859E+04
 -1      1554-1.00857E+03-1.14114E+05-2.05474E+04
 -1      1556-1.00857E+03-1.14114E+05-2.05474E+04
 -1      1557 4.44061E+03-1.11481E+05-2.04470E+04
 -1      1559 4.44061E+03-1.11481E+05-2.04470E+04
 -1      1560 9.61771E+03-1.00579E+05-1.89091E+04
 -1      1562 9.61771E+03-1.00579E+05-1.89091E+04
 -1      1563 1.41735E+04-8.21186E+04-1.60593E+04
 -1      1565 1.41735E+04-8.21186E+04-1.60593E+04
 -1      1566 1.78178E+04-5.73152E+04-1.21152E+04
 -1      1568 1.78178E+04-5.73152E+04-1.21152E+04
 -1      1569 2.03489E+04-2.77789E+04-7.37136E+03
 -1      1571 2.03489E+04-2.77789E+04-7.37136E+03
 -1      1572 2.16785E+04 4.63951E+03-2.17642E+03
 -1      1574 2.16785E+04 4.63951E+03-2.17642E+03
 -1      1575 2.18560E+04 3.80267E+04 3.08470E+03
 -1      1577 2.18560E+04 3.80267E+04 3.08470E+03
 -1      1578 2.10941E+04 7.06688E+04 8.01404E+03
 -1      1580 2.10941E+04 7.06688E+04 8.01404E+03
 -1      1581 1.97776E+04 1.01177E+05 1.21950E+04
 -1      1583 1.97776E+04 1.01177E+05 1.21950E+04
 -1      1584 1.85400E+04 1.29085E+05 1.51580E+04
 -1      1586 1.85400E+04 1.29085E+05 1.51580E+04
 -1      1587 1.20300E+04 1.42353E+05 1.14718E+04
 -1      1589 1.20300E+04 1.42353E+05 1.14718E+04
 -1      1590-3.41138E+06-7.22878E+05-7.73806E+03
 -1      1592-3.88636E+06-6.28276E+05-7.73806E+03
 -1      1593-1.20300E+04 1.42353E+05-1.14718E+04
 -1      1595-1.20300E+04 1.42353E+05-1.14718E+04
 -1      1596-7.15024E+03 1.28041E+04-3.93619E+03
 -1      1598-7.15024E+03 1.28041E+04-3.93619E+03
 -1      1599-1.18637E+04 3.05553E+04-8.43865E+03
 -1      1601-1.18637E+04 3.05553E+04-8.43865E+03
 -1      1602-1.36635E+04 5.23309E+04-1.29203E+04
 -1      1604-1.36635E+04 5.23309E+04-1.29203E+04
 -1      1605-1.31050E+04 7.44538E+04-1.69544E+04
 -1      1607-1.31050E+04 7.44538E+04-1.69544E+04
 -1      1608-1.07069E+04 9.38403E+04-2.02799E+04
 -1      1610-1.07069E+04 9.38403E+04-2.02799E+04
 -1      1611-6.94771E+03 1.08143E+05-2.25667E+04
 -1      1613-6.94771E+03 1.08143E+05-2.25667E+04
 -1      1614-2.30421E+03 1.15706E+05-2.36077E+04
 -1      1616-2.30421E+03 1.15706E+05-2.36077E+04
 -1      1617 2.75432E+03 1.15577E+05-2.32664E+04
 -1      1619 2.75432E+03 1.15577E+05-2.32664E+04
 -1      1620 7.77270E+03 1.07505E+05-2.15243E+04
 -1      1622 7.77270E+03 1.07505E+05-2.15243E+04
 -1      1623 1.23294E+04 9.19082E+04-1.84639E+04
 -1      1625 1.23294E+04 9.19082E+04-1.84639E+04
 -1      1626 1.60556E+04 6.98132E+04-1.42704E+04
 -1      1628 1.60556E+04 6.98132E+04-1.42704E+04
 -1      1629 1.86557E+04 4.27584E+04-9.21368E+03
 -1      1631 1.86557E+04 4.27584E+04-9.21368E+03
 -1      1632 1.99244E+04 1.26692E+04-3.62931E+03
 -1      1634 1.99244E+04 1.26692E+04-3.62931E+03
 -1      1635 1.97582E+04-1.82908E+04 2.10675E+03
 -1      1637 1.97582E+04-1.82908E+04 2.10675E+03
 -1      1638 1.81613E+04-4.78826E+04 7.60567E+03
 -1      1640 1.81613E+04-4.78826E+04 7.60567E+03
 -1      1641 1.52436E+04-7.39574E+04 1.24943E+04
 -1      1643 1.52436E+04-7.39574E+04 1.24943E+04
 -1      1644 1.12114E+04-9.46147E+04 1.64422E+04
 -1      1646 1.12114E+04-9.46147E+04 1.64422E+04
 -1      1647 6.35137E+03-1.08340E+05 1.91859E+04
 -1      1649 6.35137E+03-1.08340E+05 1.91859E+04
 -1      1650 1.00857E+03-1.14114E+05 2.05474E+04
 -1      1652 1.00857E+03-1.14114E+05 2.05474E+04
 -1      1653-4.44061E+03-1.11481E+05 2.04470E+04
 -1      1655-4.44061E+03-1.11481E+05 2.04470E+04
 -1      1656-9.61771E+03-1.00579E+05 1.89091E+04
 -1      1658-9.61771E+03-1.00579E+05 1.89091E+04
 -1      1659-1.41735E+04-8.21186E+04 1.60593E+04
 -1      1661-1.41735E+04-8.21186E+04 1.60593E+04
 -1      1662-1.78178E+04-5.73152E+04 1.21152E+04
 -1      1664-1.78178E+04-5.73152E+04 1.21152E+04
 -1      1665-2.03489E+04-2.77789E+04 7.37136E+03
 -1      1667-2.03489E+04-2.77789E+04 7.37136E+03
 -1      1668-2.16785E+04 4.63951E+03 2.17642E+03
 -1      1670-2.16785E+04 4.63951E+03 2.17642E+03
 -1      1671-2.18560E+04 3.80267E+04-3.08470E+03
 -1      1673-2.18560E+04 3.80267E+04-3.08470E+03
 -1      1674-2.10941E+04 7.06688E+04-8.01404E+03
 -1      1676-2.10941E+04 7.06688E+04-8.01404E+03
 -1      1677-1.97776E+04 1.01177E+05-1.21950E+04
 -1      1679-1.97776E+04 1.01177E+05-1.21950E+04
 -1      1680-1.85400E+04 1.29085E+05-1.51580E+04
 -1      1682-1.85400E+04 1.29085E+05-1.51580E+04
 -1      1683 3.41138E+06-7.22878E+05 7.73806E+03
 -1      1685 3.88636E+06-6.28276E+05 7.73806E+03
 -1      1686 9.35579E+03-2.51566E+04-5.21850E+03
 -1      1688 9.35579E+03-2.51566E+04-5.21850E+03
 -1      1689 1.56577E+04-6.08149E+04-1.12618E+04
 -1      1691 1.56577E+04-6.08149E+04-1.12618E+04
 -1      1692 1.81020E+04-1.04628E+05-1.73316E+04
 -1      1694 1.81020E+04-1.04628E+05-1.73316E+04
 -1      1695 1.73765E+04-1.49031E+05-2.28338E+04
 -1      1697 1.73765E+04-1.49031E+05-2.28338E+04
 -1      1698 1.42069E+04-1.87941E+05-2.73969E+04
 -1      1700 1.42069E+04-1.87941E+05-2.73969E+04
 -1      1701 9.21795E+03-2.16638E+05-3.05550E+04
 -1      1703 9.21795E+03-2.16638E+05-3.05550E+04
 -1      1704 3.05097E+03-2.31818E+05-3.20153E+04
 -1      1706 3.05097E+03-2.31818E+05-3.20153E+04
 -1      1707-3.67051E+03-2.31574E+05-3.15849E+04
 -1      1709-3.67051E+03-2.31574E+05-3.15849E+04
 -1      1710-1.03401E+04-2.15409E+05-2.92348E+04
 -1      1712-1.03401E+04-2.15409E+05-2.92348E+04
 -1      1713-1.63969E+04-1.84161E+05-2.50763E+04
 -1      1715-1.63969E+04-1.84161E+05-2.50763E+04
 -1      1716-2.13500E+04-1.39890E+05-1.93624E+04
 -1      1718-2.13500E+04-1.39890E+05-1.93624E+04
 -1      1719-2.48064E+04-8.56781E+04-1.24627E+04
 -1      1721-2.48064E+04-8.56781E+04-1.24627E+04
 -1      1722-2.64926E+04-2.53845E+04-4.83746E+03
 -1      1724-2.64926E+04-2.53845E+04-4.83746E+03
 -1      1725-2.62713E+04 3.66549E+04 2.99768E+03
 -1      1727-2.62713E+04 3.66549E+04 2.99768E+03
 -1      1728-2.41477E+04 9.59529E+04 1.05094E+04
 -1      1730-2.41477E+04 9.59529E+04 1.05094E+04
 -1      1731-2.02679E+04 1.48204E+05 1.71857E+04
 -1      1733-2.02679E+04 1.48204E+05 1.71857E+04
 -1      1734-1.49063E+04 1.89599E+05 2.25735E+04
 -1      1736-1.49063E+04 1.89599E+05 2.25735E+04
 -1      1737-8.44385E+03 2.17105E+05 2.63112E+04
 -1      1739-8.44385E+03 2.17105E+05 2.63112E+04
 -1      1740-1.33930E+03 2.28677E+05 2.81544E+04
 -1      1742-1.33930E+03 2.28677E+05 2.81544E+04
 -1      1743 5.90697E+03 2.23404E+05 2.79940E+04
 -1      1745 5.90697E+03 2.23404E+05 2.79940E+04
 -1      1746 1.27920E+04 2.01563E+05 2.58622E+04
 -1      1748 1.27920E+04 2.01563E+05 2.58622E+04
 -1      1749 1.88516E+04 1.64578E+05 2.19307E+04
 -1      1751 1.88516E+04 1.64578E+05 2.19307E+04
 -1      1752 2.37007E+04 1.14887E+05 1.64958E+04
 -1      1754 2.37007E+04 1.14887E+05 1.64958E+04
 -1      1755 2.70703E+04 5.57169E+04 9.95824E+03
 -1      1757 2.70703E+04 5.57169E+04 9.95824E+03
 -1      1758 2.88472E+04-9.21600E+03 2.79165E+03
 -1      1760 2.88472E+04-9.21600E+03 2.79165E+03
 -1      1761 2.90923E+04-7.60863E+04-4.48287E+03
 -1      1763 2.90923E+04-7.60863E+04-4.48287E+03
 -1      1764 2.80988E+04-1.41413E+05-1.13264E+04
 -1      1766 2.80988E+04-1.41413E+05-1.13264E+04
 -1      1767 2.63807E+04-2.02496E+05-1.71718E+04
 -1      1769 2.63807E+04-2.02496E+05-1.71718E+04
 -1      1770 2.47371E+04-2.58202E+05-2.13569E+04
 -1      1772 2.47371E+04-2.58202E+05-2.13569E+04
 -1      1773-9.35579E+03-2.51566E+04 5.21850E+03
 -1      1775-9.35579E+03-2.51566E+04 5.21850E+03
 -1      1776-1.56577E+04-6.08149E+04 1.12618E+04
 -1      1778-1.56577E+04-6.08149E+04 1.12618E+04
 -1      1779-1.81020E+04-1.04628E+05 1.73316E+04
 -1      1781-1.81020E+04-1.04628E+05 1.73316E+04
 -1      1782-1.73765E+04-1.49031E+05 2.28338E+04
 -1      1784-1.73765E+04-1.49031E+05 2.28338E+04
 -1      1785-1.42069E+04-1.87941E+05 2.73969E+04
 -1      1787-1.42069E+04-1.87941E+05 2.73969E+04
 -1      1788-9.21795E+03-2.16638E+05 3.05550E+04
 -1      1790-9.21795E+03-2.16638E+05 3.05550E+04
 -1      1791-3.05097E+03-2.31818E+05 3.20153E+04
 -1      1793-3.05097E+03-2.31818E+05 3.20153E+04
 -1      1794 3.67051E+03-2.31574E+05 3.15849E+04
 -1      1796 3.67051E+03-2.31574E+05 3.15849E+04
 -1      1797 1.03401E+04-2.15409E+05 2.92348E+04
 -1      1799 1.03401E+04-2.15409E+05 2.92348E+04
 -1      1800 1.63969E+04-1.84161E+05 2.50763E+04
 -1      1802 1.63969E+04-1.84161E+05 2.50763E+04
 -1      1803 2.13500E+04-1.39890E+05 1.93624E+04
 -1      1805 2.13500E+04-1.39890E+05 1.93624E+04
 -1      1806 2.48064E+04-8.56781E+04 1.24627E+04
 -1      1808 2.48064E+04-8.56781E+04 1.24627E+04
 -1      1809 2.64926E+04-2.53845E+04 4.83746E+03
 -1      1811 2.64926E+04-2.53845E+04 4.83746E+03
 -1      1812 2.62713E+04 3.66549E+04-2.99768E+03
 -1      1814 2.62713E+04 3.66549E+04-2.99768E+03
 -1      1815 2.41477E+04 9.59529E+04-1.05094E+04
 -1      1817 2.41477E+04 9.59529E+04-1.05094E+04
 -1      1818 2.02679E+04 1.48204E+05-1.71857E+04
 -1      1820 2.02679E+04 1.48204E+05-1.71857E+04
 -1      1821 1.49063E+04 1.89599E+05-2.25735E+04
 -1      1823 1.49063E+04 1.89599E+05-2.25735E+04
 -1      1824 8.44385E+03 2.17105E+05-2.63112E+04
 -1      1826 8.44385E+03 2.17105E+05-2.63112E+04
 -1      1827 1.33930E+03 2.28677E+05-2.81544E+04
 -1      1829 1.33930E+03 2.28677E+05-2.81544E+04
 -1      1830-5.90697E+03 2.23404E+05-2.79940E+04
 -1      1832-5.90697E+03 2.23404E+05-2.79940E+04
 -1      1833-1.27920E+04 2.01563E+05-2.58622E+04
 -1      1835-1.27920E+04 2.01563E+05-2.58622E+04
 -1      1836-1.88516E+04 1.64578E+05-2.19307E+04
 -1      1838-1.88516E+04 1.64578E+05-2.19307E+04
 -1      1839-2.37007E+04 1.14887E+05-1.64958E+04
 -1      1841-2.37007E+04 1.14887E+05-1.64958E+04
 -1      1842-2.70703E+04 5.57169E+04-9.95824E+03
 -1      1844-2.70703E+04 5.57169E+04-9.95824E+03
 -1      1845-2.88472E+04-9.21600E+03-2.79165E+03
 -1      1847-2.88472E+04-9.21600E+03-2.79165E+03
 -1      1848-2.90923E+04-7.60863E+04 4.48287E+03
 -1      1850-2.90923E+04-7.60863E+04 4.48287E+03
 -1      1851-2.80988E+04-1.41413E+05 1.13264E+04
 -1      1853-2.80988E+04-1.41413E+05 1.13264E+04
 -1      1854-2.63807E+04-2.02496E+05 1.71718E+04
 -1      1856-2.63807E+04-2.02496E+05 1.71718E+04
 -1      1857-2.47371E+04-2.58202E+05 2.13569E+04
 -1      1859-2.47371E+04-2.58202E+05 2.13569E+04
 -1      1860-3.04804E-07-1.89787E+04 2.23517E-07
 -1      1862-1.38198E-07-1.89787E+04 1.83620E-07
 -1      1863-4.47209E-07-4.61405E+04 2.14468E-08
 -1      1865-3.82752E-07-4.61405E+04-1.56163E-07
 -1      1866-2.55885E-07-7.92260E+04 4.18495E-08
 -1      1868-4.73894E-07-7.92260E+04-3.24411E-07
 -1      1869 5.57879E-07-1.12496E+05 1.74496E-08
 -1      1871 1.29201E-07-1.12496E+05-3.65536E-07
 -1      1872 9.02051E-07-1.41584E+05-9.01669E-08
 -1      1874 6.39753E-07-1.41584E+05-7.03762E-08
 -1      1875 3.80449E-07-1.62982E+05 3.32038E-07
 -1      1877 8.08013E-07-1.62982E+05 2.59121E-07
 -1      1878-3.29950E-07-1.74239E+05 3.30028E-07
 -1      1880 4.55329E-08-1.74239E+05 2.63788E-07
 -1      1881-6.21705E-07-1.73936E+05 1.05769E-07
 -1      1883-1.93508E-07-1.73936E+05 2.57520E-07
 -1      1884-3.53350E-07-1.61702E+05-6.97941E-07
 -1      1886 1.31826E-07-1.61702E+05-7.28760E-07
 -1      1887 3.26283E-07-1.38166E+05-7.32853E-07
 -1      1889 4.48410E-07-1.38166E+05-8.94259E-07
 -1      1890 1.40557E-07-1.04875E+05 1.59373E-07
 -1      1892 6.96527E-08-1.04875E+05 3.21998E-07
 -1      1893-7.91715E-09-6.41434E+04 6.04428E-07
 -1      1895 2.87383E-07-6.41434E+04 1.23151E-06
 -1      1896 1.16962E-07-1.88699E+04 7.62164E-07
 -1      1898 3.10938E-07-1.88699E+04 1.66384E-06
 -1      1899-2.78478E-07 2.76881E+04 1.26698E-06
 -1      1901-3.86181E-07 2.76881E+04 1.32595E-06
 -1      1902-7.90857E-07 7.21573E+04 1.27928E-06
 -1      1904-9.58138E-07 7.21573E+04 4.66604E-07
 -1      1905-1.14242E-06 1.11302E+05 4.75922E-07
 -1      1907-8.43549E-07 1.11302E+05 4.15672E-07
 -1      1908-6.72117E-07 1.42260E+05 4.02885E-07
 -1      1910-7.35097E-07 1.42260E+05 6.43941E-07
 -1      1911-9.40163E-07 1.62749E+05 3.07799E-07
 -1      1913-8.20975E-07 1.62749E+05 2.26559E-07
 -1      1914-1.60903E-06 1.71236E+05-1.28094E-07
 -1      1916-1.41926E-06 1.71236E+05-7.13329E-07
 -1      1917-1.48611E-06 1.67037E+05-5.65658E-07
 -1      1919-1.46389E-06 1.67037E+05-7.98703E-07
 -1      1920-9.11314E-07 1.50365E+05-4.38798E-07
 -1      1922-7.97547E-07 1.50365E+05-3.91090E-07
 -1      1923-2.41915E-07 1.22297E+05 1.34867E-07
 -1      1925-1.82987E-07 1.22297E+05 5.86551E-08
 -1      1926 5.59485E-08 8.46760E+04 4.09927E-08
 -1      1928 1.52457E-07 8.46760E+04 7.28978E-08
 -1      1929 2.93515E-07 3.99457E+04-8.50796E-08
 -1      1931 6.91040E-07 3.99457E+04 2.58076E-07
 -1      1932 3.11426E-07-9.06445E+03 6.71573E-07
 -1      1934 5.66198E-07-9.06445E+03 5.74737E-07
 -1      1935 2.99342E-07-5.94618E+04 7.67877E-07
 -1      1937 3.97855E-07-5.94618E+04 3.67314E-07
 -1      1938 2.50628E-07-1.08476E+05 4.44926E-07
 -1      1940 5.52584E-07-1.08476E+05 1.44358E-07
 -1      1941 2.93892E-07-1.54126E+05 4.68259E-07
 -1      1943 2.07447E-07-1.54126E+05 2.23758E-07
 -1      1944 5.23829E-07-1.95000E+05 7.23776E-07
 -1      1946 4.30991E-08-1.95000E+05 1.20905E-07
 -1      1947-5.74820E-07 5.20027E-08-2.71510E-07
 -1      1949-1.94412E-07 2.03206E-06-8.19709E-07
 -1      1950-1.45315E-07-3.89045E-07-7.07032E-07
 -1      1952 7.34362E-08 1.52200E-06-1.29022E-06
 -1      1953 7.12535E-08-6.80851E-07 2.03181E-08
 -1      1955-1.01070E-07 1.59311E-07-4.05234E-07
 -1      1956 2.07512E-07-1.00785E-07 2.33767E-07
 -1      1958-8.74934E-10-3.13188E-07 2.48158E-07
 -1      1959 3.86070E-07-3.27141E-07-3.03592E-07
 -1      1961 2.15317E-07 1.36137E-06 9.08265E-08
 -1      1962 3.48024E-07-2.22430E-06-2.95744E-07
 -1      1964 1.92987E-07 3.11325E-06-1.76823E-07
 -1      1965 6.04312E-07 2.82174E-07-8.57156E-07
 -1      1967 6.57106E-07 1.41928E-06-5.30693E-07
 -1      1968 7.60538E-07 5.83050E-06-6.98567E-07
 -1      1970 9.45049E-07-2.69486E-06-3.92720E-07
 -1      1971 5.63632E-07 4.57064E-06-2.60732E-07
 -1      1973 5.78242E-07-2.07330E-06-4.37925E-07
 -1      1974 6.85097E-07 2.10526E-06-2.61651E-07
 -1      1976 6.00972E-07-2.05450E-06-5.39665E-07
 -1      1977 5.97865E-07 5.85977E-08-1.24555E-07
 -1      1979 7.27399E-07-4.40440E-07 1.66072E-07
 -1      1980 2.61385E-07 1.41544E-06-1.71747E-07
 -1      1982 3.65000E-07-1.64641E-06 3.90321E-07
 -1      1983-2.54123E-07 3.88054E-06 3.77286E-07
 -1      1985 4.04895E-08-1.94944E-06 9.10566E-07
 -1      1986-6.04568E-07 1.68532E-06 1.29399E-06
 -1      1988-6.33032E-07-2.58065E-07 1.13732E-06
 -1      1989-1.13677E-06 1.04200E-06 1.10546E-06
 -1      1991-8.68877E-07-3.88812E-06 1.92798E-07
 -1      1992-1.52486E-06 2.38157E-06 1.07904E-07
 -1      1994-7.58457E-07-4.37437E-06-2.21909E-07
 -1      1995-8.29583E-07 5.38735E-07-5.45381E-07
 -1      1997-1.76726E-07-3.72642E-06-1.63734E-07
 -1      1998 5.82077E-09-2.22330E-07-6.05253E-07
 -1      2000 1.75278E-07-3.18910E-06-8.32861E-07
 -1      2001-2.92617E-07 2.95880E-06-4.61025E-07
 -1      2003-4.00949E-07-2.83226E-06-8.60579E-07
 -1      2004-8.30511E-07 3.02598E-06-2.93289E-07
 -1      2006-8.58035E-07-6.41097E-07-2.23472E-08
 -1      2007-4.92466E-07-7.72281E-07-5.98191E-07
 -1      2009-3.19298E-07 5.28740E-07 9.87293E-08
 -1      2010-1.03970E-07 1.21944E-07-1.82654E-07
 -1      2012-7.24649E-08 8.73640E-07 2.08211E-07
 -1      2013-6.47378E-08 8.53179E-07-7.69251E-09
 -1      2015-6.48324E-08 1.21389E-06 2.00271E-09
 -1      2016 6.96709E-08 1.44949E-06-6.51246E-07
 -1      2018 4.42427E-07 1.39812E-07-6.59598E-07
 -1      2019 1.90671E-07-8.33251E-07-5.17904E-07
 -1      2021 9.29261E-07 6.11596E-07-7.50946E-07
 -1      2022 2.72787E-07-3.16776E-06-4.90840E-07
 -1      2024 7.25980E-07 3.19290E-06-8.75367E-07
 -1      2025 1.31971E-07-5.53531E-06-1.05661E-06
 -1      2027 4.27470E-07 5.42868E-06-1.44351E-06
 -1      2028 1.76271E-07-4.97726E-06-8.94725E-07
 -1      2030 2.41631E-07 3.82009E-06-1.31303E-06
 -1      2031 3.41151E-07 8.58065E-07 1.12392E-07
 -1      2033 4.12172E-07-6.41766E-07-9.05980E-07
 -1      2034 6.42118E-07 1.89787E+04-7.89063E-07
 -1      2036 1.01004E-06 1.89787E+04-1.10643E-06
 -1      2037 7.05166E-07 4.61405E+04-9.06875E-07
 -1      2039 9.71884E-07 4.61405E+04-1.04627E-06
 -1      2040 4.89308E-08 7.92260E+04 3.56184E-07
 -1      2042-3.77004E-08 7.92260E+04 9.20518E-08
 -1      2043-2.69105E-07 1.12496E+05 1.00478E-06
 -1      2045-3.04488E-07 1.12496E+05 7.75566E-07
 -1      2046 2.43381E-09 1.41584E+05 9.78871E-08
 -1      2048-3.57868E-08 1.41584E+05 4.69383E-07
 -1      2049 3.79066E-07 1.62982E+05-9.16771E-08
 -1      2051 8.17199E-08 1.62982E+05 3.08672E-07
 -1      2052 8.23413E-07 1.74239E+05-6.19458E-07
 -1      2054 5.56072E-07 1.74239E+05-2.88801E-07
 -1      2055 8.09152E-07 1.73936E+05-1.40469E-06
 -1      2057 6.60548E-07 1.73936E+05-1.27792E-06
 -1      2058 4.43375E-07 1.61702E+05-7.21629E-07
 -1      2060 2.53563E-07 1.61702E+05-9.85889E-07
 -1      2061 1.01741E-06 1.38166E+05 1.70388E-07
 -1      2063 8.05390E-07 1.38166E+05-9.81017E-08
 -1      2064 9.53698E-07 1.04875E+05 3.42618E-07
 -1      2066 1.09326E-06 1.04875E+05 3.71561E-07
 -1      2067-1.13883E-07 6.41434E+04 4.58895E-08
 -1      2069 1.76593E-07 6.41434E+04 2.19363E-07
 -1      2070-4.22431E-07 1.88699E+04 8.58417E-08
 -1      2072-3.28196E-07 1.88699E+04 2.95287E-07
 -1      2073-3.13757E-07-2.76881E+04 7.56896E-07
 -1      2075-1.50752E-07-2.76881E+04 6.19642E-07
 -1      2076 1.76531E-07-7.21573E+04 4.84302E-07
 -1      2078 3.09514E-07-7.21573E+04 3.29259E-07
 -1      2079 1.54319E-07-1.11302E+05-5.05705E-07
 -1      2081 8.83552E-07-1.11302E+05-4.00181E-07
 -1      2082 3.44618E-07-1.42260E+05-1.28578E-06
 -1      2084 1.27521E-06-1.42260E+05-7.92850E-07
 -1      2085 7.52243E-07-1.62749E+05-1.12535E-06
 -1      2087 1.07949E-06-1.62749E+05-7.47302E-07
 -1      2088 2.27301E-08-1.71236E+05 4.92946E-08
 -1      2090-2.55459E-08-1.71236E+05 4.78612E-08
 -1      2091-5.00208E-07-1.67037E+05 4.84852E-07
 -1      2093-5.89047E-07-1.67037E+05 1.05965E-06
 -1      2094-9.49065E-07-1.50365E+05 4.64242E-07
 -1      2096-9.26160E-07-1.50365E+05 1.11269E-06
 -1      2097-1.16835E-06-1.22297E+05-1.50627E-07
 -1      2099-1.08186E-06-1.22297E+05 9.29576E-08
 -1      2100-1.02663E-06-8.46760E+04-3.30365E-07
 -1      2102-1.08449E-06-8.46760E+04-3.20892E-07
 -1      2103-4.06767E-07-3.99457E+04-7.36829E-07
 -1      2105-1.51679E-07-3.99457E+04-6.01038E-07
 -1      2106-4.32215E-08 9.06445E+03-4.28139E-07
 -1      2108 4.36165E-07 9.06445E+03-5.81953E-07
 -1      2109-1.38818E-07 5.94618E+04-3.64191E-07
 -1      2111 3.42674E-07 5.94618E+04-6.39717E-07
 -1      2112-3.14503E-07 1.08476E+05-9.35768E-07
 -1      2114-7.97536E-08 1.08476E+05-1.32502E-06
 -1      2115-6.33275E-07 1.54126E+05-8.40344E-07
 -1      2117-5.70492E-07 1.54126E+05-1.33643E-06
 -1      2118-7.33236E-07 1.95000E+05-4.91949E-07
 -1      2120-6.41661E-07 1.95000E+05-9.18248E-07
 -1      2121 9.35579E+03 2.51566E+04 5.21850E+03
 -1      2123 9.35579E+03 2.51566E+04 5.21850E+03
 -1      2124 1.56577E+04 6.08149E+04 1.12618E+04
 -1      2126 1.56577E+04 6.08149E+04 1.12618E+04
 -1      2127 1.81020E+04 1.04628E+05 1.73316E+04
 -1      2129 1.81020E+04 1.04628E+05 1.73316E+04
 -1      2130 1.73765E+04 1.49031E+05 2.28338E+04
 -1      2132 1.73765E+04 1.49031E+05 2.28338E+04
 -1      2133 1.42069E+04 1.87941E+05 2.73969E+04
 -1      2135 1.42069E+04 1.87941E+05 2.73969E+04
 -1      2136 9.21795E+03 2.16638E+05 3.05550E+04
 -1      2138 9.21795E+03 2.16638E+05 3.05550E+04
 -1      2139 3.05097E+03 2.31818E+05 3.20153E+04
 -1      2141 3.05097E+03 2.31818E+05 3.20153E+04
 -1      2142-3.67051E+03 2.31574E+05 3.15849E+04
 -1      2144-3.67051E+03 2.31574E+05 3.15849E+04
 -1      2145-1.03401E+04 2.15409E+05 2.92348E+04
 -1      2147-1.03401E+04 2.15409E+05 2.92348E+04
 -1      2148-1.63969E+04 1.84161E+05 2.50763E+04
 -1      2150-1.63969E+04 1.84161E+05 2.50763E+04
 -1      2151-2.13500E+04 1.39890E+05 1.93624E+04
 -1      2153-2.13500E+04 1.39890E+05 1.93624E+04
 -1      2154-2.48064E+04 8.56781E+04 1.24627E+04
 -1      2156-2.48064E+04 8.56781E+04 1.24627E+04
 -1      2157-2.64926E+04 2.53845E+04 4.83746E+03
 -1      2159-2.64926E+04 2.53845E+04 4.83746E+03
 -1      2160-2.62713E+04-3.66549E+04-2.99768E+03
 -1      2162-2.62713E+04-3.66549E+04-2.99768E+03
 -1      2163-2.41477E+04-9.59529E+04-1.05094E+04
 -1      2165-2.41477E+04-9.59529E+04-1.05094E+04
 -1      2166-2.02679E+04-1.48204E+05-1.71857E+04
 -1      2168-2.02679E+04-1.48204E+05-1.71857E+04
 -1      2169-1.49063E+04-1.89599E+05-2.25735E+04
 -1      2171-1.49063E+04-1.89599E+05-2.25735E+04
 -1      2172-8.44385E+03-2.17105E+05-2.63112E+04
 -1      2174-8.44385E+03-2.17105E+05-2.63112E+04
 -1      2175-1.33930E+03-2.28677E+05-2.81544E+04
 -1      2177-1.33930E+03-2.28677E+05-2.81544E+04
 -1      2178 5.90697E+03-2.23404E+05-2.79940E+04
 -1      2180 5.90697E+03-2.23404E+05-2.79940E+04
 -1      2181 1.27920E+04-2.01563E+05-2.58622E+04
 -1      2183 1.27920E+04-2.01563E+05-2.58622E+04
 -1      2184 1.88516E+04-1.64578E+05-2.19307E+04
 -1      2186 1.88516E+04-1.64578E+05-2.19307E+04
 -1      2187 2.37007E+04-1.14887E+05-1.64958E+04
 -1      2189 2.37007E+04-1.14887E+05-1.64958E+04
 -1      2190 2.70703E+04-5.57169E+04-9.95824E+03
 -1      2192 2.70703E+04-5.57169E+04-9.95824E+03
 -1      2193 2.88472E+04 9.21600E+03-2.79165E+03
 -1      2195 2.88472E+04 9.21600E+03-2.79165E+03
 -1      2196 2.90923E+04 7.60863E+04 4.48287E+03
 -1      2198 2.90923E+04 7.60863E+04 4.48287E+03
 -1      2199 2.80988E+04 1.41413E+05 1.13264E+04
 -1      2201 2.80988E+04 1.41413E+05 1.13264E+04
 -1      2202 2.63807E+04 2.02496E+05 1.71718E+04
 -1      2204 2.63807E+04 2.02496E+05 1.71718E+04
 -1      2205 2.47371E+04 2.58202E+05 2.13569E+04
 -1      2207 2.47371E+04 2.58202E+05 2.13569E+04
 -1      2208-9.35579E+03 2.51566E+04-5.21850E+03
 -1      2210-9.35579E+03 2.51566E+04-5.21850E+03
 -1      2211-1.56577E+04 6.08149E+04-1.12618E+04
 -1      2213-1.56577E+04 6.08149E+04-1.12618E+04
 -1      2214-1.81020E+04 1.04628E+05-1.73316E+04
 -1      2216-1.81020E+04 1.04628E+05-1.73316E+04
 -1      2217-1.73765E+04 1.49031E+05-2.28338E+04
 -1      2219-1.73765E+04 1.49031E+05-2.28338E+04
 -1      2220-1.42069E+04 1.87941E+05-2.73969E+04
 -1      2222-1.42069E+04 1.87941E+05-2.73969E+04
 -1      2223-9.21795E+03 2.16638E+05-3.05550E+04
 -1      2225-9.21795E+03 2.16638E+05-3.05550E+04
 -1      2226-3.05097E+03 2.31818E+05-3.20153E+04
 -1      2228-3.05097E+03 2.31818E+05-3.20153E+04
 -1      2229 3.67051E+03 2.31574E+05-3.15849E+04
 -1      2231 3.67051E+03 2.31574E+05-3.15849E+04
 -1      2232 1.03401E+04 2.15409E+05-2.92348E+04
 -1      2234 1.03401E+04 2.15409E+05-2.92348E+04
 -1      2235 1.63969E+04 1.84161E+05-2.50763E+04
 -1      2237 1.63969E+04 1.84161E+05-2.50763E+04
 -1      2238 2.13500E+04 1.39890E+05-1.93624E+04
 -1      2240 2.13500E+04 1.39890E+05-1.93624E+04
 -1      2241 2.48064E+04 8.56781E+04-1.24627E+04
 -1      2243 2.48064E+04 8.56781E+04-1.24627E+04
 -1      2244 2.64926E+04 2.53845E+04-4.83746E+03
 -1      2246 2.64926E+04 2.53845E+04-4.83746E+03
 -1      2247 2.62713E+04-3.66549E+04 2.99768E+03
 -1      2249 2.62713E+04-3.66549E+04 2.99768E+03
 -1      2250 2.41477E+04-9.59529E+04 1.05094E+04
 -1      2252 2.41477E+04-9.59529E+04 1.05094E+04
 -1      2253 2.02679E+04-1.48204E+05 1.71857E+04
 -1      2255 2.02679E+04-1.48204E+05 1.71857E+04
 -1      2256 1.49063E+04-1.89599E+05 2.25735E+04
 -1      2258 1.49063E+04-1.89599E+05 2.25735E+04
 -1      2259 8.44385E+03-2.17105E+05 2.63112E+04
 -1      2261 8.44385E+03-2.17105E+05 2.63112E+04
 -1      2262 1.33930E+03-2.28677E+05 2.81544E+04
 -1      2264 1.33930E+03-2.28677E+05 2.81544E+04
 -1      2265-5.90697E+03-2.23404E+05 2.79940E+04
 -1      2267-5.90697E+03-2.23404E+05 2.79940E+04
 -1      2268-1.27920E+04-2.01563E+05 2.58622E+04
 -1      2270-1.27920E+04-2.01563E+05 2.58622E+04
 -1      2271-1.88516E+04-1.64578E+05 2.19307E+04
 -1      2273-1.88516E+04-1.64578E+05 2.19307E+04
 -1      2274-2.37007E+04-1.14887E+05 1.64958E+04
 -1      2276-2.37007E+04-1.14887E+05 1.64958E+04
 -1      2277-2.70703E+04-5.57169E+04 9.95824E+03
 -1      2279-2.70703E+04-5.57169E+04 9.95824E+03
 -1      2280-2.88472E+04 9.21600E+03 2.79165E+03
 -1      2282-2.88472E+04 9.21600E+03 2.79165E+03
 -1      2283-2.90923E+04 7.60863E+04-4.48287E+03
 -1      2285-2.90923E+04 7.60863E+04-4.48287E+03
 -1      2286-2.80988E+04 1.41413E+05-1.13264E+04
 -1      2288-2.80988E+04 1.41413E+05-1.13264E+04
 -1      2289-2.63807E+04 2.02496E+05-1.71718E+04
 -1      2291-2.63807E+04 2.02496E+05-1.71718E+04
 -1      2292-2.47371E+04 2.58202E+05-2.13569E+04
 -1      2294-2.47371E+04 2.58202E+05-2.13569E+04
 -3
    1PSTEP                        48           1           1          
    1PGM                1.000000E+00                                  
    1PGK                8.423980E+06                                  
    1PHID                         -1                                  
    1PSUBC                         0                                  
    1PMODE                        12                                  
  100CL  112 461.9328067         930                     2   12MODAL      1
 -4  ERROR       1    1
 -5  STR(%)      1    1    0    0
 -1       404 0.00000E+00
 -1       406 0.00000E+00
 -1       407 0.00000E+00
 -1       409 0.00000E+00
 -1       410 0.00000E+00
 -1       412 0.00000E+00
 -1       413 0.00000E+00
 -1       415 0.00000E+00
 -1       424 0.00000E+00
 -1       426 0.00000E+00
 -1       427 0.00000E+00
 -1       429 0.00000E+00
 -1       438 0.00000E+00
 -1       440 0.00000E+00
 -1       441 0.00000E+00
 -1       443 0.00000E+00
 -1       444 0.00000E+00
 -1       446 0.00000E+00
 -1       447 0.00000E+00
 -1       449 0.00000E+00
 -1       458 0.00000E+00
 -1       460 0.00000E+00
 -1       461 0.00000E+00
 -1       463 0.00000E+00
 -1       472 0.00000E+00
 -1       474 0.00000E+00
 -1       475 0.00000E+00
 -1       477 0.00000E+00
 -1       478 0.00000E+00
 -1       480 0.00000E+00
 -1       481 0.00000E+00
 -1       483 0.00000E+00
 -1       484 0.00000E+00
 -1       486 0.00000E+00
 -1       487 0.00000E+00
 -1       489 0.00000E+00
 -1       490 0.00000E+00
 -1       492 0.00000E+00
 -1       493 0.00000E+00
 -1       495 0.00000E+00
 -1       496 0.00000E+00
 -1       498 0.00000E+00
 -1       499 0.00000E+00
 -1       501 0.00000E+00
 -1       502 0.00000E+00
 -1       504 0.00000E+00
 -1       505 0.00000E+00
 -1       507 0.00000E+00
 -1       508 0.00000E+00
 -1       510 0.00000E+00
 -1       511 0.00000E+00
 -1       513 0.00000E+00
 -1       514 0.00000E+00
 -1       516 0.00000E+00
 -1       517 0.00000E+00
 -1       519 0.00000E+00
 -1       520 0.00000E+00
 -1       522 0.00000E+00
 -1       523 0.00000E+00
 -1       525 0.00000E+00
 -1       526 0.00000E+00
 -1       528 0.00000E+00
 -1       529 0.00000E+00
 -1       531 0.00000E+00
 -1       532 0.00000E+00
 -1       534 0.00000E+00
 -1       535 0.00000E+00
 -1       537 0.00000E+00
 -1       538 0.00000E+00
 -1       540 0.00000E+00
 -1       541 0.00000E+00
 -1       543 0.00000E+00
 -1       544 0.00000E+00
 -1       546 0.00000E+00
 -1       547 0.00000E+00
 -1       549 0.00000E+00
 -1       550 0.00000E+00
 -1       552 0.00000E+00
 -1       553 0.00000E+00
 -1       555 0.00000E+00
 -1       556 0.00000E+00
 -1       558 0.00000E+00
 -1       559 0.00000E+00
 -1       561 0.00000E+00
 -1       562 0.00000E+00
 -1       564 0.00000E+00
 -1       565 0.00000E+00
 -1       567 0.00000E+00
 -1       568 0.00000E+00
 -1       570 0.00000E+00
 -1       571 0.00000E+00
 -1       573 0.00000E+00
 -1       574 0.00000E+00
 -1       576 0.00000E+00
 -1       577 0.00000E+00
 -1       579 0.00000E+00
 -1       588 0.00000E+00
 -1       590 0.00000E+00
 -1       591 0.00000E+00
 -1       593 0.00000E+00
 -1       602 0.00000E+00
 -1       604 0.00000E+00
 -1       605 0.00000E+00
 -1       607 0.00000E+00
 -1       616 0.00000E+00
 -1       618 0.00000E+00
 -1       619 0.00000E+00
 -1       621 0.00000E+00
 -1       630 0.00000E+00
 -1       632 0.00000E+00
 -1       633 0.00000E+00
 -1       635 0.00000E+00
 -1       644 0.00000E+00
 -1       646 0.00000E+00
 -1       647 0.00000E+00
 -1       649 0.00000E+00
 -1       658 0.00000E+00
 -1       660 0.00000E+00
 -1       661 0.00000E+00
 -1       663 0.00000E+00
 -1       672 0.00000E+00
 -1       674 0.00000E+00
 -1       675 0.00000E+00
 -1       677 0.00000E+00
 -1       686 0.00000E+00
 -1       688 0.00000E+00
 -1       689 0.00000E+00
 -1       691 0.00000E+00
 -1       700 0.00000E+00
 -1       702 0.00000E+00
 -1       703 0.00000E+00
 -1       705 0.00000E+00
 -1       714 0.00000E+00
 -1       716 0.00000E+00
 -1       717 0.00000E+00
 -1       719 0.00000E+00
 -1       728 0.00000E+00
 -1       730 0.00000E+00
 -1       731 0.00000E+00
 -1       733 0.00000E+00
 -1       742 0.00000E+00
 -1       744 0.00000E+00
 -1       745 0.00000E+00
 -1       747 0.00000E+00
 -1       756 0.00000E+00
 -1       758 0.00000E+00
 -1       759 0.00000E+00
 -1       761 0.00000E+00
 -1       770 0.00000E+00
 -1       772 0.00000E+00
 -1       773 0.00000E+00
 -1       775 0.00000E+00
 -1       784 0.00000E+00
 -1       786 0.00000E+00
 -1       787 0.00000E+00
 -1       789 0.00000E+00
 -1       798 0.00000E+00
 -1       800 0.00000E+00
 -1       801 0.00000E+00
 -1       803 0.00000E+00
 -1       812 0.00000E+00
 -1       814 0.00000E+00
 -1       815 0.00000E+00
 -1       817 0.00000E+00
 -1       826 0.00000E+00
 -1       828 0.00000E+00
 -1       829 0.00000E+00
 -1       831 0.00000E+00
 -1       840 0.00000E+00
 -1       842 0.00000E+00
 -1       843 0.00000E+00
 -1       845 0.00000E+00
 -1       854 0.00000E+00
 -1       856 0.00000E+00
 -1       857 0.00000E+00
 -1       859 0.00000E+00
 -1       868 0.00000E+00
 -1       870 0.00000E+00
 -1       871 0.00000E+00
 -1       873 0.00000E+00
 -1       882 0.00000E+00
 -1       884 0.00000E+00
 -1       885 0.00000E+00
 -1       887 0.00000E+00
 -1       896 0.00000E+00
 -1       898 0.00000E+00
 -1       899 0.00000E+00
 -1       901 0.00000E+00
 -1       910 0.00000E+00
 -1       912 0.00000E+00
 -1       913 0.00000E+00
 -1       915 0.00000E+00
 -1       924 0.00000E+00
 -1       926 0.00000E+00
 -1       927 0.00000E+00
 -1       929 0.00000E+00
 -1       938 0.00000E+00
 -1       940 0.00000E+00
 -1       941 0.00000E+00
 -1       943 0.00000E+00
 -1       952 0.00000E+00
 -1       954 0.00000E+00
 -1       955 0.00000E+00
 -1       957 0.00000E+00
 -1       966 0.00000E+00
 -1       968 0.00000E+00
 -1       969 0.00000E+00
 -1       971 0.00000E+00
 -1       980 0.00000E+00
 -1       982 0.00000E+00
 -1       983 0.00000E+00
 -1       985 0.00000E+00
 -1       986 0.00000E+00
 -1       988 0.00000E+00
 -1       989 0.00000E+00
 -1       991 0.00000E+00
 -1       992 0.00000E+00
 -1       994 0.00000E+00
 -1       995 0.00000E+00
 -1       997 0.00000E+00
 -1       998 0.00000E+00
 -1      1000 0.00000E+00
 -1      1001 0.00000E+00
 -1      1003 0.00000E+00
 -1      1004 0.00000E+00
 -1      1006 0.00000E+00
 -1      1007 0.00000E+00
 -1      1009 0.00000E+00
 -1      1010 0.00000E+00
 -1      1012 0.00000E+00
 -1      1013 0.00000E+00
 -1      1015 0.00000E+00
 -1      1016 0.00000E+00
 -1      1018 0.00000E+00
 -1      1019 0.00000E+00
 -1      1021 0.00000E+00
 -1      1022 0.00000E+00
 -1      1024 0.00000E+00
 -1      1025 0.00000E+00
 -1      1027 0.00000E+00
 -1      1028 0.00000E+00
 -1      1030 0.00000E+00
 -1      1031 0.00000E+00
 -1      1033 0.00000E+00
 -1      1034 0.00000E+00
 -1      1036 0.00000E+00
 -1      1037 0.00000E+00
 -1      1039 0.00000E+00
 -1      1040 0.00000E+00
 -1      1042 0.00000E+00
 -1      1043 0.00000E+00
 -1      1045 0.00000E+00
 -1      1046 0.00000E+00
 -1      1048 0.00000E+00
 -1      1049 0.00000E+00
 -1      1051 0.00000E+00
 -1      1052 0.00000E+00
 -1      1054 0.00000E+00
 -1      1055 0.00000E+00
 -1      1057 0.00000E+00
 -1      1058 0.00000E+00
 -1      1060 0.00000E+00
 -1      1061 0.00000E+00
 -1      1063 0.00000E+00
 -1      1064 0.00000E+00
 -1      1066 0.00000E+00
 -1      1067 0.00000E+00
 -1      1069 0.00000E+00
 -1      1070 0.00000E+00
 -1      1072 0.00000E+00
 -1      1073 0.00000E+00
 -1      1075 0.00000E+00
 -1      1076 0.00000E+00
 -1      1078 0.00000E+00
 -1      1079 0.00000E+00
 -1      1081 0.00000E+00
 -1      1082 0.00000E+00
 -1      1084 0.00000E+00
 -1      1085 0.00000E+00
 -1      1087 0.00000E+00
 -1      1088 0.00000E+00
 -1      1090 0.00000E+00
 -1      1099 0.00000E+00
 -1      1101 0.00000E+00
 -1      1102 0.00000E+00
 -1      1104 0.00000E+00
 -1      1113 0.00000E+00
 -1      1115 0.00000E+00
 -1      1116 0.00000E+00
 -1      1118 0.00000E+00
 -1      1127 0.00000E+00
 -1      1129 0.00000E+00
 -1      1130 0.00000E+00
 -1      1132 0.00000E+00
 -1      1141 0.00000E+00
 -1      1143 0.00000E+00
 -1      1144 0.00000E+00
 -1      1146 0.00000E+00
 -1      1155 0.00000E+00
 -1      1157 0.00000E+00
 -1      1158 0.00000E+00
 -1      1160 0.00000E+00
 -1      1169 0.00000E+00
 -1      1171 0.00000E+00
 -1      1172 0.00000E+00
 -1      1174 0.00000E+00
 -1      1183 0.00000E+00
 -1      1185 0.00000E+00
 -1      1186 0.00000E+00
 -1      1188 0.00000E+00
 -1      1197 0.00000E+00
 -1      1199 0.00000E+00
 -1      1200 0.00000E+00
 -1      1202 0.00000E+00
 -1      1211 0.00000E+00
 -1      1213 0.00000E+00
 -1      1214 0.00000E+00
 -1      1216 0.00000E+00
 -1      1225 0.00000E+00
 -1      1227 0.00000E+00
 -1      1228 0.00000E+00
 -1      1230 0.00000E+00
 -1      1239 0.00000E+00
 -1      1241 0.00000E+00
 -1      1242 0.00000E+00
 -1      1244 0.00000E+00
 -1      1253 0.00000E+00
 -1      1255 0.00000E+00
 -1      1256 0.00000E+00
 -1      1258 0.00000E+00
 -1      1267 0.00000E+00
 -1      1269 0.00000E+00
 -1      1270 0.00000E+00
 -1      1272 0.00000E+00
 -1      1281 0.00000E+00
 -1      1283 0.00000E+00
 -1      1284 0.00000E+00
 -1      1286 0.00000E+00
 -1      1295 0.00000E+00
 -1      1297 0.00000E+00
 -1      1298 0.00000E+00
 -1      1300 0.00000E+00
 -1      1309 0.00000E+00
 -1      1311 0.00000E+00
 -1      1312 0.00000E+00
 -1      1314 0.00000E+00
 -1      1323 0.00000E+00
 -1      1325 0.00000E+00
 -1      1326 0.00000E+00
 -1      1328 0.00000E+00
 -1      1337 0.00000E+00
 -1      1339 0.00000E+00
 -1      1340 0.00000E+00
 -1      1342 0.00000E+00
 -1      1351 0.00000E+00
 -1      1353 0.00000E+00
 -1      1354 0.00000E+00
 -1      1356 0.00000E+00
 -1      1365 0.00000E+00
 -1      1367 0.00000E+00
 -1      1368 0.00000E+00
 -1      1370 0.00000E+00
 -1      1379 0.00000E+00
 -1      1381 0.00000E+00
 -1      1382 0.00000E+00
 -1      1384 0.00000E+00
 -1      1393 0.00000E+00
 -1      1395 0.00000E+00
 -1      1396 0.00000E+00
 -1      1398 0.00000E+00
 -1      1407 0.00000E+00
 -1      1409 0.00000E+00
 -1      1410 0.00000E+00
 -1      1412 0.00000E+00
 -1      1421 0.00000E+00
 -1      1423 0.00000E+00
 -1      1424 0.00000E+00
 -1      1426 0.00000E+00
 -1      1435 0.00000E+00
 -1      1437 0.00000E+00
 -1      1438 0.00000E+00
 -1      1440 0.00000E+00
 -1      1449 0.00000E+00
 -1      1451 0.00000E+00
 -1      1452 0.00000E+00
 -1      1454 0.00000E+00
 -1      1463 0.00000E+00
 -1      1465 0.00000E+00
 -1      1466 0.00000E+00
 -1      1468 0.00000E+00
 -1      1477 0.00000E+00
 -1      1479 0.00000E+00
 -1      1480 0.00000E+00
 -1      1482 0.00000E+00
 -1      1491 0.00000E+00
 -1      1493 0.00000E+00
 -1      1494 0.00000E+00
 -1      1496 0.00000E+00
 -1      1497 0.00000E+00
 -1      1499 0.00000E+00
 -1      1500 0.00000E+00
 -1      1502 0.00000E+00
 -1      1503 0.00000E+00
 -1      1505 0.00000E+00
 -1      1506 0.00000E+00
 -1      1508 0.00000E+00
 -1      1509 0.00000E+00
 -1      1511 0.00000E+00
 -1      1512 0.00000E+00
 -1      1514 0.00000E+00
 -1      1515 0.00000E+00
 -1      1517 0.00000E+00
 -1      1518 0.00000E+00
 -1      1520 0.00000E+00
 -1      1521 0.00000E+00
 -1      1523 0.00000E+00
 -1      1524 0.00000E+00
 -1      1526 0.00000E+00
 -1      1527 0.00000E+00
 -1      1529 0.00000E+00
 -1      1530 0.00000E+00
 -1      1532 0.00000E+00
 -1      1533 0.00000E+00
 -1      1535 0.00000E+00
 -1      1536 0.00000E+00
 -1      1538 0.00000E+00
 -1      1539 0.00000E+00
 -1      1541 0.00000E+00
 -1      1542 0.00000E+00
 -1      1544 0.00000E+00
 -1      1545 0.00000E+00
 -1      1547 0.00000E+00
 -1      1548 0.00000E+00
 -1      1550 0.00000E+00
 -1      1551 0.00000E+00
 -1      1553 0.00000E+00
 -1      1554 0.00000E+00
 -1      1556 0.00000E+00
 -1      1557 0.00000E+00
 -1      1559 0.00000E+00
 -1      1560 0.00000E+00
 -1      1562 0.00000E+00
 -1      1563 0.00000E+00
 -1      1565 0.00000E+00
 -1      1566 0.00000E+00
 -1      1568 0.00000E+00
 -1      1569 0.00000E+00
 -1      1571 0.00000E+00
 -1      1572 0.00000E+00
 -1      1574 0.00000E+00
 -1      1575 0.00000E+00
 -1      1577 0.00000E+00
 -1      1578 0.00000E+00
 -1      1580 0.00000E+00
 -1      1581 0.00000E+00
 -1      1583 0.00000E+00
 -1      1584 0.00000E+00
 -1      1586 0.00000E+00
 -1      1587 0.00000E+00
 -1      1589 0.00000E+00
 -1      1590 0.00000E+00
 -1      1592 0.00000E+00
 -1      1593 0.00000E+00
 -1      1595 0.00000E+00
 -1      1596 0.00000E+00
 -1      1598 0.00000E+00
 -1      1599 0.00000E+00
 -1      1601 0.00000E+00
 -1      1602 0.00000E+00
 -1      1604 0.00000E+00
 -1      1605 0.00000E+00
 -1      1607 0.00000E+00
 -1      1608 0.00000E+00
 -1      1610 0.00000E+00
 -1      1611 0.00000E+00
 -1      1613 0.00000E+00
 -1      1614 0.00000E+00
 -1      1616 0.00000E+00
 -1      1617 0.00000E+00
 -1      1619 0.00000E+00
 -1      1620 0.00000E+00
 -1      1622 0.00000E+00
 -1      1623 0.00000E+00
 -1      1625 0.00000E+00
 -1      1626 0.00000E+00
 -1      1628 0.00000E+00
 -1      1629 0.00000E+00
 -1      1631 0.00000E+00
 -1      1632 0.00000E+00
 -1      1634 0.00000E+00
 -1      1635 0.00000E+00
 -1      1637 0.00000E+00
 -1      1638 0.00000E+00
 -1      1640 0.00000E+00
 -1      1641 0.00000E+00
 -1      1643 0.00000E+00
 -1      1644 0.00000E+00
 -1      1646 0.00000E+00
 -1      1647 0.00000E+00
 -1      1649 0.00000E+00
 -1      1650 0.00000E+00
 -1      1652 0.00000E+00
 -1      1653 0.00000E+00
 -1      1655 0.00000E+00
 -1      1656 0.00000E+00
 -1      1658 0.00000E+00
 -1      1659 0.00000E+00
 -1      1661 0.00000E+00
 -1      1662 0.00000E+00
 -1      1664 0.00000E+00
 -1      1665 0.00000E+00
 -1      1667 0.00000E+00
 -1      1668 0.00000E+00
 -1      1670 0.00000E+00
 -1      1671 0.00000E+00
 -1      1673 0.00000E+00
 -1      1674 0.00000E+00
 -1      1676 0.00000E+00
 -1      1677 0.00000E+00
 -1      1679 0.00000E+00
 -1      1680 0.00000E+00
 -1      1682 0.00000E+00
 -1      1683 0.00000E+00
 -1      1685 0.00000E+00
 -1      1686 0.00000E+00
 -1      1688 0.00000E+00
 -1      1689 0.00000E+00
 -1      1691 0.00000E+00
 -1      1692 0.00000E+00
 -1      1694 0.00000E+00
 -1      1695 0.00000E+00
 -1      1697 0.00000E+00
 -1      1698 0.00000E+00
 -1      1700 0.00000E+00
 -1      1701 0.00000E+00
 -1      1703 0.00000E+00
 -1      1704 0.00000E+00
 -1      1706 0.00000E+00
 -1      1707 0.00000E+00
 -1      1709 0.00000E+00
 -1      1710 0.00000E+00
 -1      1712 0.00000E+00
 -1      1713 0.00000E+00
 -1      1715 0.00000E+00
 -1      1716 0.00000E+00
 -1      1718 0.00000E+00
 -1      1719 0.00000E+00
 -1      1721 0.00000E+00
 -1      1722 0.00000E+00
 -1      1724 0.00000E+00
 -1      1725 0.00000E+00
 -1      1727 0.00000E+00
 -1      1728 0.00000E+00
 -1      1730 0.00000E+00
 -1      1731 0.00000E+00
 -1      1733 0.00000E+00
 -1      1734 0.00000E+00
 -1      1736 0.00000E+00
 -1      1737 0.00000E+00
 -1      1739 0.00000E+00
 -1      1740 0.00000E+00
 -1      1742 0.00000E+00
 -1      1743 0.00000E+00
 -1      1745 0.00000E+00
 -1      1746 0.00000E+00
 -1      1748 0.00000E+00
 -1      1749 0.00000E+00
 -1      1751 0.00000E+00
 -1      1752 0.00000E+00
 -1      1754 0.00000E+00
 -1      1755 0.00000E+00
 -1      1757 0.00000E+00
 -1      1758 0.00000E+00
 -1      1760 0.00000E+00
 -1      1761 0.00000E+00
 -1      1763 0.00000E+00
 -1      1764 0.00000E+00
 -1      1766 0.00000E+00
 -1      1767 0.00000E+00
 -1      1769 0.00000E+00
 -1      1770 0.00000E+00
 -1      1772 0.00000E+00
 -1      1773 0.00000E+00
 -1      1775 0.00000E+00
 -1      1776 0.00000E+00
 -1      1778 0.00000E+00
 -1      1779 0.00000E+00
 -1      1781 0.00000E+00
 -1      1782 0.00000E+00
 -1      1784 0.00000E+00
 -1      1785 0.00000E+00
 -1      1787 0.00000E+00
 -1      1788 0.00000E+00
 -1      1790 0.00000E+00
 -1      1791 0.00000E+00
 -1      1793 0.00000E+00
 -1      1794 0.00000E+00
 -1      1796 0.00000E+00
 -1      1797 0.00000E+00
 -1      1799 0.00000E+00
 -1      1800 0.00000E+00
 -1      1802 0.00000E+00
 -1      1803 0.00000E+00
 -1      1805 0.00000E+00
 -1      1806 0.00000E+00
 -1      1808 0.00000E+00
 -1      1809 0.00000E+00
 -1      1811 0.00000E+00
 -1      1812 0.00000E+00
 -1      1814 0.00000E+00
 -1      1815 0.00000E+00
 -1      1817 0.00000E+00
 -1      1818 0.00000E+00
 -1      1820 0.00000E+00
 -1      1821 0.00000E+00
 -1      1823 0.00000E+00
 -1      1824 0.00000E+00
 -1      1826 0.00000E+00
 -1      1827 0.00000E+00
 -1      1829 0.00000E+00
 -1      1830 0.00000E+00
 -1      1832 0.00000E+00
 -1      1833 0.00000E+00
 -1      1835 0.00000E+00
 -1      1836 0.00000E+00
 -1      1838 0.00000E+00
 -1      1839 0.00000E+00
 -1      1841 0.00000E+00
 -1      1842 0.00000E+00
 -1      1844 0.00000E+00
 -1      1845 0.00000E+00
 -1      1847 0.00000E+00
 -1      1848 0.00000E+00
 -1      1850 0.00000E+00
 -1      1851 0.00000E+00
 -1      1853 0.00000E+00
 -1      1854 0.00000E+00
 -1      1856 0.00000E+00
 -1      1857 0.00000E+00
 -1      1859 0.00000E+00
 -1      1860 0.00000E+00
 -1      1862 0.00000E+00
 -1      1863 0.00000E+00
 -1      1865 0.00000E+00
 -1      1866 0.00000E+00
 -1      1868 0.00000E+00
 -1      1869 0.00000E+00
 -1      1871 0.00000E+00
 -1      1872 0.00000E+00
 -1      1874 0.00000E+00
 -1      1875 0.00000E+00
 -1      1877 0.00000E+00
 -1      1878 0.00000E+00
 -1      1880 0.00000E+00
 -1      1881 0.00000E+00
 -1      1883 0.00000E+00
 -1      1884 0.00000E+00
 -1      1886 0.00000E+00
 -1      1887 0.00000E+00
 -1      1889 0.00000E+00
 -1      1890 0.00000E+00
 -1      1892 0.00000E+00
 -1      1893 0.00000E+00
 -1      1895 0.00000E+00
 -1      1896 0.00000E+00
 -1      1898 0.00000E+00
 -1      1899 0.00000E+00
 -1      1901 0.00000E+00
 -1      1902 0.00000E+00
 -1      1904 0.00000E+00
 -1      1905 0.00000E+00
 -1      1907 0.00000E+00
 -1      1908 0.00000E+00
 -1      1910 0.00000E+00
 -1      1911 0.00000E+00
 -1      1913 0.00000E+00
 -1      1914 0.00000E+00
 -1      1916 0.00000E+00
 -1      1917 0.00000E+00
 -1      1919 0.00000E+00
 -1      1920 0.00000E+00
 -1      1922 0.00000E+00
 -1      1923 0.00000E+00
 -1      1925 0.00000E+00
 -1      1926 0.00000E+00
 -1      1928 0.00000E+00
 -1      1929 0.00000E+00
 -1      1931 0.00000E+00
 -1      1932 0.00000E+00
 -1      1934 0.00000E+00
 -1      1935 0.00000E+00
 -1      1937 0.00000E+00
 -1      1938 0.00000E+00
 -1      1940 0.00000E+00
 -1      1941 0.00000E+00
 -1      1943 0.00000E+00
 -1      1944 0.00000E+00
 -1      1946 0.00000E+00
 -1      1947 0.00000E+00
 -1      1949 0.00000E+00
 -1      1950 0.00000E+00
 -1      1952 0.00000E+00
 -1      1953 0.00000E+00
 -1      1955 0.00000E+00
 -1      1956 0.00000E+00
 -1      1958 0.00000E+00
 -1      1959 0.00000E+00
 -1      1961 0.00000E+00
 -1      1962 0.00000E+00
 -1      1964 0.00000E+00
 -1      1965 0.00000E+00
 -1      1967 0.00000E+00
 -1      1968 0.00000E+00
 -1      1970 0.00000E+00
 -1      1971 0.00000E+00
 -1      1973 0.00000E+00
 -1      1974 0.00000E+00
 -1      1976 0.00000E+00
 -1      1977 0.00000E+00
 -1      1979 0.00000E+00
 -1      1980 0.00000E+00
 -1      1982 0.00000E+00
 -1      1983 0.00000E+00
 -1      1985 0.00000E+00
 -1      1986 0.00000E+00
 -1      1988 0.00000E+00
 -1      1989 0.00000E+00
 -1      1991 0.00000E+00
 -1      1992 0.00000E+00
 -1      1994 0.00000E+00
 -1      1995 0.00000E+00
 -1      1997 0.00000E+00
 -1      1998 0.00000E+00
 -1      2000 0.00000E+00
 -1      2001 0.00000E+00
 -1      2003 0.00000E+00
 -1      2004 0.00000E+00
 -1      2006 0.00000E+00
 -1      2007 0.00000E+00
 -1      2009 0.00000E+00
 -1      2010 0.00000E+00
 -1      2012 0.00000E+00
 -1      2013 0.00000E+00
 -1      2015 0.00000E+00
 -1      2016 0.00000E+00
 -1      2018 0.00000E+00
 -1      2019 0.00000E+00
 -1      2021 0.00000E+00
 -1      2022 0.00000E+00
 -1      2024 0.00000E+00
 -1      2025 0.00000E+00
 -1      2027 0.00000E+00
 -1      2028 0.00000E+00
 -1      2030 0.00000E+00
 -1      2031 0.00000E+00
 -1      2033 0.00000E+00
 -1      2034 0.00000E+00
 -1      2036 0.00000E+00
 -1      2037 0.00000E+00
 -1      2039 0.00000E+00
 -1      2040 0.00000E+00
 -1      2042 0.00000E+00
 -1      2043 0.00000E+00
 -1      2045 0.00000E+00
 -1      2046 0.00000E+00
 -1      2048 0.00000E+00
 -1      2049 0.00000E+00
 -1      2051 0.00000E+00
 -1      2052 0.00000E+00
 -1      2054 0.00000E+00
 -1      2055 0.00000E+00
 -1      2057 0.00000E+00
 -1      2058 0.00000E+00
 -1      2060 0.00000E+00
 -1      2061 0.00000E+00
 -1      2063 0.00000E+00
 -1      2064 0.00000E+00
 -1      2066 0.00000E+00
 -1      2067 0.00000E+00
 -1      2069 0.00000E+00
 -1      2070 0.00000E+00
 -1      2072 0.00000E+00
 -1      2073 0.00000E+00
 -1      2075 0.00000E+00
 -1      2076 0.00000E+00
 -1      2078 0.00000E+00
 -1      2079 0.00000E+00
 -1      2081 0.00000E+00
 -1      2082 0.00000E+00
 -1      2084 0.00000E+00
 -1      2085 0.00000E+00
 -1      2087 0.00000E+00
 -1      2088 0.00000E+00
 -1      2090 0.00000E+00
 -1      2091 0.00000E+00
 -1      2093 0.00000E+00
 -1      2094 0.00000E+00
 -1      2096 0.00000E+00
 -1      2097 0.00000E+00
 -1      2099 0.00000E+00
 -1      2100 0.00000E+00
 -1      2102 0.00000E+00
 -1      2103 0.00000E+00
 -1      2105 0.00000E+00
 -1      2106 0.00000E+00
 -1      2108 0.00000E+00
 -1      2109 0.00000E+00
 -1      2111 0.00000E+00
 -1      2112 0.00000E+00
 -1      2114 0.00000E+00
 -1      2115 0.00000E+00
 -1      2117 0.00000E+00
 -1      2118 0.00000E+00
 -1      2120 0.00000E+00
 -1      2121 0.00000E+00
 -1      2123 0.00000E+00
 -1      2124 0.00000E+00
 -1      2126 0.00000E+00
 -1      2127 0.00000E+00
 -1      2129 0.00000E+00
 -1      2130 0.00000E+00
 -1      2132 0.00000E+00
 -1      2133 0.00000E+00
 -1      2135 0.00000E+00
 -1      2136 0.00000E+00
 -1      2138 0.00000E+00
 -1      2139 0.00000E+00
 -1      2141 0.00000E+00
 -1      2142 0.00000E+00
 -1      2144 0.00000E+00
 -1      2145 0.00000E+00
 -1      2147 0.00000E+00
 -1      2148 0.00000E+00
 -1      2150 0.00000E+00
 -1      2151 0.00000E+00
 -1      2153 0.00000E+00
 -1      2154 0.00000E+00
 -1      2156 0.00000E+00
 -1      2157 0.00000E+00
 -1      2159 0.00000E+00
 -1      2160 0.00000E+00
 -1      2162 0.00000E+00
 -1      2163 0.00000E+00
 -1      2165 0.00000E+00
 -1      2166 0.00000E+00
 -1      2168 0.00000E+00
 -1      2169 0.00000E+00
 -1      2171 0.00000E+00
 -1      2172 0.00000E+00
 -1      2174 0.00000E+00
 -1      2175 0.00000E+00
 -1      2177 0.00000E+00
 -1      2178 0.00000E+00
 -1      2180 0.00000E+00
 -1      2181 0.00000E+00
 -1      2183 0.00000E+00
 -1      2184 0.00000E+00
 -1      2186 0.00000E+00
 -1      2187 0.00000E+00
 -1      2189 0.00000E+00
 -1      2190 0.00000E+00
 -1      2192 0.00000E+00
 -1      2193 0.00000E+00
 -1      2195 0.00000E+00
 -1      2196 0.00000E+00
 -1      2198 0.00000E+00
 -1      2199 0.00000E+00
 -1      2201 0.00000E+00
 -1      2202 0.00000E+00
 -1      2204 0.00000E+00
 -1      2205 0.00000E+00
 -1      2207 0.00000E+00
 -1      2208 0.00000E+00
 -1      2210 0.00000E+00
 -1      2211 0.00000E+00
 -1      2213 0.00000E+00
 -1      2214 0.00000E+00
 -1      2216 0.00000E+00
 -1      2217 0.00000E+00
 -1      2219 0.00000E+00
 -1      2220 0.00000E+00
 -1      2222 0.00000E+00
 -1      2223 0.00000E+00
 -1      2225 0.00000E+00
 -1      2226 0.00000E+00
 -1      2228 0.00000E+00
 -1      2229 0.00000E+00
 -1      2231 0.00000E+00
 -1      2232 0.00000E+00
 -1      2234 0.00000E+00
 -1      2235 0.00000E+00
 -1      2237 0.00000E+00
 -1      2238 0.00000E+00
 -1      2240 0.00000E+00
 -1      2241 0.00000E+00
 -1      2243 0.00000E+00
 -1      2244 0.00000E+00
 -1      2246 0.00000E+00
 -1      2247 0.00000E+00
 -1      2249 0.00000E+00
 -1      2250 0.00000E+00
 -1      2252 0.00000E+00
 -1      2253 0.00000E+00
 -1      2255 0.00000E+00
 -1      2256 0.00000E+00
 -1      2258 0.00000E+00
 -1      2259 0.00000E+00
 -1      2261 0.00000E+00
 -1      2262 0.00000E+00
 -1      2264 0.00000E+00
 -1      2265 0.00000E+00
 -1      2267 0.00000E+00
 -1      2268 0.00000E+00
 -1      2270 0.00000E+00
 -1      2271 0.00000E+00
 -1      2273 0.00000E+00
 -1      2274 0.00000E+00
 -1      2276 0.00000E+00
 -1      2277 0.00000E+00
 -1      2279 0.00000E+00
 -1      2280 0.00000E+00
 -1      2282 0.00000E+00
 -1      2283 0.00000E+00
 -1      2285 0.00000E+00
 -1      2286 0.00000E+00
 -1      2288 0.00000E+00
 -1      2289 0.00000E+00
 -1      2291 0.00000E+00
 -1      2292 0.00000E+00
 -1      2294 0.00000E+00
 -3
    1PSTEP                        49           1           1          
    1PGM                1.000000E+00                                  
    1PGK                9.455029E+06                                  
    1PHID                         -1                                  
    1PSUBC                         0                                  
    1PMODE                        13                                  
  100CL  113 489.3860372         930                     2   13MODAL      1
 -4  DISP        4    1
 -5  D1          1    2    1    0
 -5  D2          1    2    2    0
 -5  D3          1    2    3    0
 -5  ALL         1    2    0    0    1ALL
 -1       404 0.00000E+00 0.00000E+00-5.61846E-05
 -1       406 0.00000E+00-0.00000E+00 5.61846E-05
 -1       407 6.82190E-03-7.08975E-02-2.07316E-01
 -1       409 6.94520E-03-3.74478E-02-2.07322E-01
 -1       410 8.49788E-14-6.63155E-02 4.11737E-13
 -1       412 7.31725E-14-4.19050E-02 4.13839E-13
 -1       413-3.24953E-04-5.41103E-02 7.77519E-03
 -1       415 3.24953E-04-5.41103E-02-7.77519E-03
 -1       424 0.00000E+00 0.00000E+00 4.45043E-16
 -1       426 0.00000E+00 0.00000E+00-4.45043E-16
 -1       427 0.00000E+00 2.83509E-16 0.00000E+00
 -1       429 0.00000E+00-2.83509E-16 0.00000E+00
 -1       438-6.82190E-03-7.08975E-02 2.07316E-01
 -1       440-6.94520E-03-3.74478E-02 2.07322E-01
 -1       441 0.00000E+00 0.00000E+00 5.61846E-05
 -1       443 0.00000E+00-0.00000E+00-5.61846E-05
 -1       444 0.00000E+00-5.43784E-16 0.00000E+00
 -1       446 0.00000E+00 5.43784E-16 0.00000E+00
 -1       447 0.00000E+00 0.00000E+00 8.53614E-16
 -1       449 0.00000E+00 0.00000E+00-8.53614E-16
 -1       458-3.24953E-04-5.41103E-02-7.77519E-03
 -1       460 3.24953E-04-5.41103E-02 7.77519E-03
 -1       461-2.55017E-13-6.63155E-02 3.94106E-13
 -1       463-2.44133E-13-4.19050E-02 3.92251E-13
 -1       472 0.00000E+00 0.00000E+00-5.61846E-05
 -1       474 0.00000E+00 0.00000E+00 5.61846E-05
 -1       475-6.82190E-03-7.08975E-02-2.07316E-01
 -1       477-6.94520E-03-3.74478E-02-2.07322E-01
 -1       478 6.82190E-03-7.08975E-02 2.07316E-01
 -1       480 6.94520E-03-3.74478E-02 2.07322E-01
 -1       481 0.00000E+00 0.00000E+00 5.61846E-05
 -1       483 0.00000E+00 0.00000E+00-5.61846E-05
 -1       484 8.99439E-04 4.52653E-03 2.63279E-02
 -1       486-5.54395E-03-2.95187E-04 2.63809E-02
 -1       487-2.55457E-03 1.07010E-02 6.13227E-02
 -1       489-5.67915E-03 8.31175E-04 6.14142E-02
 -1       490-3.48657E-03 1.88714E-02 9.00322E-02
 -1       492-7.84915E-03 4.25503E-03 9.00816E-02
 -1       493-4.95248E-03 2.83917E-02 1.18690E-01
 -1       495-8.25785E-03 9.20364E-03 1.18716E-01
 -1       496-5.28364E-03 3.83544E-02 1.43316E-01
 -1       498-8.48371E-03 1.51442E-02 1.43327E-01
 -1       499-5.22757E-03 4.80029E-02 1.64909E-01
 -1       501-7.76775E-03 2.13022E-02 1.64873E-01
 -1       502-4.38277E-03 5.64620E-02 1.82199E-01
 -1       504-6.42452E-03 2.69333E-02 1.82156E-01
 -1       505-3.07047E-03 6.29295E-02 1.95160E-01
 -1       507-4.46763E-03 3.13049E-02 1.95081E-01
 -1       508-1.33992E-03 6.68470E-02 2.03303E-01
 -1       510-2.10336E-03 3.38895E-02 2.03226E-01
 -1       511 5.30751E-04 6.78175E-02 2.06536E-01
 -1       513 4.36910E-04 3.43514E-02 2.06446E-01
 -1       514 2.33982E-03 6.58163E-02 2.04720E-01
 -1       516 2.91302E-03 3.26499E-02 2.04647E-01
 -1       517 3.85214E-03 6.10412E-02 1.97919E-01
 -1       519 5.08260E-03 2.90043E-02 1.97855E-01
 -1       520 4.90466E-03 5.39998E-02 1.86252E-01
 -1       522 6.76700E-03 2.38718E-02 1.86215E-01
 -1       523 5.39379E-03 4.53386E-02 1.69987E-01
 -1       525 7.84579E-03 1.78746E-02 1.69972E-01
 -1       526 5.30735E-03 3.58221E-02 1.49482E-01
 -1       528 8.29474E-03 1.16966E-02 1.49494E-01
 -1       529 4.71628E-03 2.61709E-02 1.25218E-01
 -1       531 8.16803E-03 5.99127E-03 1.25246E-01
 -1       532 3.76547E-03 1.70055E-02 9.77665E-02
 -1       534 7.59988E-03 1.27248E-03 9.78085E-02
 -1       535 2.64834E-03 8.74049E-03 6.77985E-02
 -1       537 6.77025E-03-2.14690E-03 6.78428E-02
 -1       538 1.57555E-03 1.56308E-03 3.60560E-02
 -1       540 5.88230E-03-4.20533E-03 3.60962E-02
 -1       541 7.41551E-04-4.58425E-03 3.34354E-03
 -1       543 5.12261E-03-5.08455E-03 3.37073E-03
 -1       544 2.93751E-04-9.95912E-03-2.95018E-02
 -1       546 4.63645E-03-5.17628E-03-2.94913E-02
 -1       547 3.09786E-04-1.49554E-02-6.16310E-02
 -1       549 4.50113E-03-5.00721E-03-6.16394E-02
 -1       550 7.88570E-04-2.00155E-02-9.22096E-02
 -1       552 4.71908E-03-5.14900E-03-9.22349E-02
 -1       553 1.64874E-03-2.55329E-02-1.20451E-01
 -1       555 5.21885E-03-6.12170E-03-1.20488E-01
 -1       556 2.75647E-03-3.17790E-02-1.45621E-01
 -1       558 5.86993E-03-8.30823E-03-1.45665E-01
 -1       559 3.92950E-03-3.88386E-02-1.67105E-01
 -1       561 6.52072E-03-1.18987E-02-1.67147E-01
 -1       562 5.02325E-03-4.66006E-02-1.84331E-01
 -1       564 7.00221E-03-1.68679E-02-1.84364E-01
 -1       565 5.86656E-03-5.47865E-02-1.96975E-01
 -1       567 7.24649E-03-2.30059E-02-1.96998E-01
 -1       568 6.50730E-03-6.30031E-02-2.04560E-01
 -1       570 7.13116E-03-2.99780E-02-2.04570E-01
 -1       571 3.40971E-03-7.07475E-02-9.62424E-02
 -1       573 3.46935E-03-3.75647E-02-9.62339E-02
 -1       574 1.88906E-14 3.50531E-03 6.10339E-14
 -1       576 4.24884E-15 3.84906E-04 6.06674E-14
 -1       577-1.36502E-04 1.94511E-03-9.93907E-04
 -1       579 1.36502E-04 1.94511E-03 9.93907E-04
 -1       588 1.56763E-14 8.93621E-03 1.36198E-13
 -1       590 9.72005E-15 1.65696E-03 1.36722E-13
 -1       591 1.20489E-04 5.29658E-03-2.31857E-03
 -1       593-1.20489E-04 5.29658E-03 2.31857E-03
 -1       602 1.29247E-14 1.68598E-02 1.97179E-13
 -1       604 3.93679E-15 6.24337E-03 1.97415E-13
 -1       605 1.19715E-04 1.15516E-02-3.38152E-03
 -1       607-1.19715E-04 1.15516E-02 3.38152E-03
 -1       616 3.13804E-15 2.55326E-02 2.54010E-13
 -1       618-2.63497E-15 1.15961E-02 2.54746E-13
 -1       619 2.19622E-04 1.85643E-02-4.43905E-03
 -1       621-2.19622E-04 1.85643E-02 4.43905E-03
 -1       630-9.82955E-15 3.51977E-02 3.03817E-13
 -1       632-1.62815E-14 1.83718E-02 3.04343E-13
 -1       633 2.43115E-04 2.67847E-02-5.35936E-03
 -1       635-2.43115E-04 2.67847E-02 5.35936E-03
 -1       644-2.95699E-14 4.43186E-02 3.45836E-13
 -1       646-3.37336E-14 2.50481E-02 3.47096E-13
 -1       647 2.36294E-04 3.46834E-02-6.13801E-03
 -1       649-2.36294E-04 3.46834E-02 6.13801E-03
 -1       658-5.28698E-14 5.25016E-02 3.72765E-13
 -1       660-5.49953E-14 3.12081E-02 3.73929E-13
 -1       661 2.12294E-04 4.18549E-02-6.78238E-03
 -1       663-2.12294E-04 4.18549E-02 6.78238E-03
 -1       672-7.78720E-14 5.86968E-02 3.73788E-13
 -1       674-7.51584E-14 3.59488E-02 3.74849E-13
 -1       675 1.37952E-04 4.73228E-02-7.24566E-03
 -1       677-1.37952E-04 4.73228E-02 7.24566E-03
 -1       686-9.90455E-14 6.24714E-02 3.51237E-13
 -1       688-9.46121E-14 3.87577E-02 3.52751E-13
 -1       689 6.53110E-05 5.06145E-02-7.55324E-03
 -1       691-6.53110E-05 5.06145E-02 7.55324E-03
 -1       700-1.17514E-13 6.33786E-02 3.18986E-13
 -1       702-1.12559E-13 3.92988E-02 3.19975E-13
 -1       703-3.35895E-05 5.13387E-02-7.66986E-03
 -1       705 3.35895E-05 5.13387E-02 7.66986E-03
 -1       714-1.35404E-13 6.14140E-02 2.75187E-13
 -1       716-1.28406E-13 3.75023E-02 2.75942E-13
 -1       717-1.14210E-04 4.94581E-02-7.61634E-03
 -1       719 1.14210E-04 4.94581E-02 7.61634E-03
 -1       728-1.51063E-13 5.67734E-02 2.14120E-13
 -1       730-1.41897E-13 3.36223E-02 2.15037E-13
 -1       731-1.89754E-04 4.51979E-02-7.37407E-03
 -1       733 1.89754E-04 4.51979E-02 7.37407E-03
 -1       742-1.62445E-13 4.99622E-02 1.35844E-13
 -1       744-1.50875E-13 2.81098E-02 1.36424E-13
 -1       745-2.32817E-04 3.90360E-02-6.96040E-03
 -1       747 2.32817E-04 3.90360E-02 6.96040E-03
 -1       756-1.67964E-13 4.16301E-02 4.70717E-14
 -1       758-1.55996E-13 2.16277E-02 4.58956E-14
 -1       759-2.51617E-04 3.16289E-02-6.37111E-03
 -1       761 2.51617E-04 3.16289E-02 6.37111E-03
 -1       770-1.67783E-13 3.25342E-02-4.71969E-14
 -1       772-1.55535E-13 1.48747E-02-4.57947E-14
 -1       773-2.36103E-04 2.37045E-02-5.62486E-03
 -1       775 2.36103E-04 2.37045E-02 5.62486E-03
 -1       784-1.60298E-13 2.33926E-02-1.33749E-13
 -1       786-1.50037E-13 8.54124E-03-1.34604E-13
 -1       787-1.97198E-04 1.59669E-02-4.73043E-03
 -1       789 1.97198E-04 1.59669E-02 4.73043E-03
 -1       798-1.49254E-13 1.48144E-02-2.12076E-13
 -1       800-1.39529E-13 3.16166E-03-2.12397E-13
 -1       801-1.38138E-04 8.98801E-03-3.71160E-03
 -1       803 1.38138E-04 8.98801E-03 3.71160E-03
 -1       812-1.33451E-13 7.20309E-03-2.76844E-13
 -1       814-1.25967E-13-9.25511E-04-2.76811E-13
 -1       815-7.30854E-05 3.13879E-03-2.58911E-03
 -1       817 7.30854E-05 3.13879E-03 2.58911E-03
 -1       826-1.11316E-13 7.28661E-04-3.15476E-13
 -1       828-1.08175E-13-3.64481E-03-3.16810E-13
 -1       829-1.10219E-05-1.45808E-03-1.39303E-03
 -1       831 1.10219E-05-1.45808E-03 1.39303E-03
 -1       840-8.56373E-14-4.68460E-03-3.28629E-13
 -1       842-8.49831E-14-5.16681E-03-3.29469E-13
 -1       843 3.53870E-05-4.92570E-03-1.53595E-04
 -1       845-3.53870E-05-4.92570E-03 1.53595E-04
 -1       854-5.72852E-14-9.31655E-03-3.19327E-13
 -1       856-5.95797E-14-5.87866E-03-3.21369E-13
 -1       857 5.98883E-05-7.59760E-03 1.09503E-03
 -1       859-5.98883E-05-7.59760E-03-1.09503E-03
 -1       868-2.88615E-14-1.35827E-02-2.91160E-13
 -1       870-3.30091E-14-6.30634E-03-2.92526E-13
 -1       871 5.66494E-05-9.94451E-03 2.31765E-03
 -1       873-5.66494E-05-9.94451E-03-2.31765E-03
 -1       882 2.52492E-16-1.79492E-02-2.34832E-13
 -1       884-9.07530E-15-7.02031E-03-2.36317E-13
 -1       885 2.77049E-05-1.24848E-02 3.48105E-03
 -1       887-2.77049E-05-1.24848E-02-3.48105E-03
 -1       896 2.46016E-14-2.28281E-02-1.57074E-13
 -1       898 1.44922E-14-8.54050E-03-1.57542E-13
 -1       899-2.43333E-05-1.56843E-02 4.55088E-03
 -1       901 2.43333E-05-1.56843E-02-4.55088E-03
 -1       910 4.50824E-14-2.85143E-02-6.44562E-14
 -1       912 3.22307E-14-1.12441E-02-6.63975E-14
 -1       913-8.94016E-05-1.98792E-02 5.50088E-03
 -1       915 8.94016E-05-1.98792E-02-5.50088E-03
 -1       924 5.92325E-14-3.50975E-02 3.29998E-14
 -1       926 4.69603E-14-1.53082E-02 3.28226E-14
 -1       927-1.59785E-04-2.52028E-02 6.30324E-03
 -1       929 1.59785E-04-2.52028E-02-6.30324E-03
 -1       938 7.02775E-14-4.24964E-02 1.31204E-13
 -1       940 5.78977E-14-2.07000E-02 1.29309E-13
 -1       941-2.24199E-04-3.15982E-02 6.94256E-03
 -1       943 2.24199E-04-3.15982E-02-6.94256E-03
 -1       952 7.90325E-14-5.04060E-02 2.31481E-13
 -1       954 6.48663E-14-2.71626E-02 2.29886E-13
 -1       955-2.74554E-04-3.87843E-02 7.40345E-03
 -1       957 2.74554E-04-3.87843E-02-7.40345E-03
 -1       966 8.24677E-14-5.84873E-02 3.27189E-13
 -1       968 7.08541E-14-3.43811E-02 3.27676E-13
 -1       969-3.11538E-04-4.64342E-02 7.67830E-03
 -1       971 3.11538E-04-4.64342E-02-7.67830E-03
 -1       980 0.00000E+00 0.00000E+00-4.40623E-05
 -1       982 0.00000E+00-0.00000E+00 4.40623E-05
 -1       983-3.40971E-03-7.07475E-02 9.62424E-02
 -1       985-3.46935E-03-3.75647E-02 9.62339E-02
 -1       986-8.99439E-04 4.52653E-03-2.63279E-02
 -1       988 5.54395E-03-2.95187E-04-2.63809E-02
 -1       989 2.55457E-03 1.07010E-02-6.13227E-02
 -1       991 5.67915E-03 8.31175E-04-6.14142E-02
 -1       992 3.48657E-03 1.88714E-02-9.00322E-02
 -1       994 7.84915E-03 4.25503E-03-9.00816E-02
 -1       995 4.95248E-03 2.83917E-02-1.18690E-01
 -1       997 8.25785E-03 9.20364E-03-1.18716E-01
 -1       998 5.28364E-03 3.83544E-02-1.43316E-01
 -1      1000 8.48371E-03 1.51442E-02-1.43327E-01
 -1      1001 5.22757E-03 4.80029E-02-1.64909E-01
 -1      1003 7.76775E-03 2.13022E-02-1.64873E-01
 -1      1004 4.38277E-03 5.64620E-02-1.82199E-01
 -1      1006 6.42452E-03 2.69333E-02-1.82156E-01
 -1      1007 3.07047E-03 6.29295E-02-1.95160E-01
 -1      1009 4.46763E-03 3.13049E-02-1.95081E-01
 -1      1010 1.33992E-03 6.68470E-02-2.03303E-01
 -1      1012 2.10336E-03 3.38895E-02-2.03226E-01
 -1      1013-5.30751E-04 6.78175E-02-2.06536E-01
 -1      1015-4.36910E-04 3.43514E-02-2.06446E-01
 -1      1016-2.33982E-03 6.58163E-02-2.04720E-01
 -1      1018-2.91302E-03 3.26499E-02-2.04647E-01
 -1      1019-3.85214E-03 6.10412E-02-1.97919E-01
 -1      1021-5.08260E-03 2.90043E-02-1.97855E-01
 -1      1022-4.90466E-03 5.39998E-02-1.86252E-01
 -1      1024-6.76700E-03 2.38718E-02-1.86215E-01
 -1      1025-5.39379E-03 4.53386E-02-1.69987E-01
 -1      1027-7.84579E-03 1.78746E-02-1.69972E-01
 -1      1028-5.30735E-03 3.58221E-02-1.49482E-01
 -1      1030-8.29474E-03 1.16966E-02-1.49494E-01
 -1      1031-4.71628E-03 2.61709E-02-1.25218E-01
 -1      1033-8.16803E-03 5.99127E-03-1.25246E-01
 -1      1034-3.76547E-03 1.70055E-02-9.77665E-02
 -1      1036-7.59988E-03 1.27248E-03-9.78085E-02
 -1      1037-2.64834E-03 8.74049E-03-6.77985E-02
 -1      1039-6.77025E-03-2.14690E-03-6.78428E-02
 -1      1040-1.57555E-03 1.56308E-03-3.60560E-02
 -1      1042-5.88230E-03-4.20533E-03-3.60962E-02
 -1      1043-7.41551E-04-4.58425E-03-3.34354E-03
 -1      1045-5.12261E-03-5.08455E-03-3.37073E-03
 -1      1046-2.93751E-04-9.95912E-03 2.95018E-02
 -1      1048-4.63645E-03-5.17628E-03 2.94913E-02
 -1      1049-3.09786E-04-1.49554E-02 6.16310E-02
 -1      1051-4.50113E-03-5.00721E-03 6.16394E-02
 -1      1052-7.88570E-04-2.00155E-02 9.22096E-02
 -1      1054-4.71908E-03-5.14900E-03 9.22349E-02
 -1      1055-1.64874E-03-2.55329E-02 1.20451E-01
 -1      1057-5.21885E-03-6.12170E-03 1.20488E-01
 -1      1058-2.75647E-03-3.17790E-02 1.45621E-01
 -1      1060-5.86993E-03-8.30823E-03 1.45665E-01
 -1      1061-3.92950E-03-3.88386E-02 1.67105E-01
 -1      1063-6.52072E-03-1.18987E-02 1.67147E-01
 -1      1064-5.02325E-03-4.66006E-02 1.84331E-01
 -1      1066-7.00221E-03-1.68679E-02 1.84364E-01
 -1      1067-5.86656E-03-5.47865E-02 1.96975E-01
 -1      1069-7.24649E-03-2.30059E-02 1.96998E-01
 -1      1070-6.50730E-03-6.30031E-02 2.04560E-01
 -1      1072-7.13116E-03-2.99780E-02 2.04570E-01
 -1      1073 0.00000E+00 0.00000E+00 4.40623E-05
 -1      1075 0.00000E+00-0.00000E+00-4.40623E-05
 -1      1076 0.00000E+00 2.39880E-17 0.00000E+00
 -1      1078 0.00000E+00-2.39880E-17 0.00000E+00
 -1      1079 0.00000E+00-1.79978E-17 0.00000E+00
 -1      1081 0.00000E+00 1.79978E-17 0.00000E+00
 -1      1082 0.00000E+00-2.51155E-16 0.00000E+00
 -1      1084 0.00000E+00 2.51155E-16 0.00000E+00
 -1      1085-1.36502E-04 1.94511E-03 9.93907E-04
 -1      1087 1.36502E-04 1.94511E-03-9.93907E-04
 -1      1088-2.92217E-14 3.50531E-03 5.94782E-14
 -1      1090-1.53780E-14 3.84906E-04 5.87085E-14
 -1      1099 1.20489E-04 5.29658E-03 2.31857E-03
 -1      1101-1.20489E-04 5.29658E-03-2.31857E-03
 -1      1102-4.02827E-14 8.93621E-03 1.37229E-13
 -1      1104-3.31551E-14 1.65696E-03 1.36877E-13
 -1      1113 1.19715E-04 1.15516E-02 3.38152E-03
 -1      1115-1.19715E-04 1.15516E-02-3.38152E-03
 -1      1116-4.96035E-14 1.68598E-02 2.06954E-13
 -1      1118-3.93393E-14 6.24337E-03 2.07006E-13
 -1      1127 2.19622E-04 1.85643E-02 4.43905E-03
 -1      1129-2.19622E-04 1.85643E-02-4.43905E-03
 -1      1130-4.92900E-14 2.55326E-02 2.72864E-13
 -1      1132-4.22756E-14 1.15961E-02 2.73033E-13
 -1      1141 2.43115E-04 2.67847E-02 5.35936E-03
 -1      1143-2.43115E-04 2.67847E-02-5.35936E-03
 -1      1144-4.55778E-14 3.51977E-02 3.26637E-13
 -1      1146-3.84660E-14 1.83718E-02 3.27229E-13
 -1      1155 2.36294E-04 3.46834E-02 6.13801E-03
 -1      1157-2.36294E-04 3.46834E-02-6.13801E-03
 -1      1158-3.57756E-14 4.43186E-02 3.64526E-13
 -1      1160-3.25725E-14 2.50481E-02 3.65099E-13
 -1      1169 2.12294E-04 4.18549E-02 6.78238E-03
 -1      1171-2.12294E-04 4.18549E-02-6.78238E-03
 -1      1172-2.50755E-14 5.25016E-02 3.78591E-13
 -1      1174-2.43711E-14 3.12081E-02 3.79504E-13
 -1      1183 1.37952E-04 4.73228E-02 7.24566E-03
 -1      1185-1.37952E-04 4.73228E-02-7.24566E-03
 -1      1186-1.47808E-14 5.86968E-02 3.72822E-13
 -1      1188-1.63748E-14 3.59488E-02 3.73102E-13
 -1      1197 6.53110E-05 5.06145E-02 7.55324E-03
 -1      1199-6.53110E-05 5.06145E-02-7.55324E-03
 -1      1200-4.60293E-15 6.24714E-02 3.55012E-13
 -1      1202-6.48542E-15 3.87577E-02 3.56179E-13
 -1      1211-3.35895E-05 5.13387E-02 7.66986E-03
 -1      1213 3.35895E-05 5.13387E-02-7.66986E-03
 -1      1214 7.28946E-15 6.33786E-02 3.26507E-13
 -1      1216 3.09806E-15 3.92988E-02 3.25867E-13
 -1      1225-1.14210E-04 4.94581E-02 7.61634E-03
 -1      1227 1.14210E-04 4.94581E-02-7.61634E-03
 -1      1228 1.79395E-14 6.14140E-02 2.73104E-13
 -1      1230 1.00243E-14 3.75023E-02 2.74958E-13
 -1      1239-1.89754E-04 4.51979E-02 7.37407E-03
 -1      1241 1.89754E-04 4.51979E-02-7.37407E-03
 -1      1242 2.37718E-14 5.67734E-02 2.01949E-13
 -1      1244 1.43609E-14 3.36223E-02 2.01041E-13
 -1      1253-2.32817E-04 3.90360E-02 6.96040E-03
 -1      1255 2.32817E-04 3.90360E-02-6.96040E-03
 -1      1256 2.70499E-14 4.99622E-02 1.15338E-13
 -1      1258 1.58845E-14 2.81098E-02 1.16757E-13
 -1      1267-2.51617E-04 3.16289E-02 6.37111E-03
 -1      1269 2.51617E-04 3.16289E-02-6.37111E-03
 -1      1270 2.57340E-14 4.16301E-02 2.62929E-14
 -1      1272 1.49036E-14 2.16277E-02 2.57470E-14
 -1      1281-2.36103E-04 2.37045E-02 5.62486E-03
 -1      1283 2.36103E-04 2.37045E-02-5.62486E-03
 -1      1284 2.06807E-14 3.25342E-02-6.49142E-14
 -1      1286 8.91365E-15 1.48747E-02-6.61788E-14
 -1      1295-1.97198E-04 1.59669E-02 4.73043E-03
 -1      1297 1.97198E-04 1.59669E-02-4.73043E-03
 -1      1298 8.34040E-15 2.33926E-02-1.56813E-13
 -1      1300-2.83092E-15 8.54124E-03-1.58074E-13
 -1      1309-1.38138E-04 8.98801E-03 3.71160E-03
 -1      1311 1.38138E-04 8.98801E-03-3.71160E-03
 -1      1312-1.17454E-14 1.48144E-02-2.33410E-13
 -1      1314-1.95768E-14 3.16166E-03-2.34078E-13
 -1      1323-7.30854E-05 3.13879E-03 2.58911E-03
 -1      1325 7.30854E-05 3.13879E-03-2.58911E-03
 -1      1326-3.64377E-14 7.20309E-03-2.86691E-13
 -1      1328-4.21279E-14-9.25511E-04-2.89543E-13
 -1      1337-1.10219E-05-1.45808E-03 1.39303E-03
 -1      1339 1.10219E-05-1.45808E-03-1.39303E-03
 -1      1340-6.55393E-14 7.28661E-04-3.23717E-13
 -1      1342-6.89027E-14-3.64481E-03-3.24057E-13
 -1      1351 3.53870E-05-4.92570E-03 1.53595E-04
 -1      1353-3.53870E-05-4.92570E-03-1.53595E-04
 -1      1354-9.69258E-14-4.68460E-03-3.35604E-13
 -1      1356-9.68636E-14-5.16681E-03-3.38287E-13
 -1      1365 5.98883E-05-7.59760E-03-1.09503E-03
 -1      1367-5.98883E-05-7.59760E-03 1.09503E-03
 -1      1368-1.27121E-13-9.31655E-03-3.27925E-13
 -1      1370-1.24803E-13-5.87866E-03-3.28012E-13
 -1      1379 5.66494E-05-9.94451E-03-2.31765E-03
 -1      1381-5.66494E-05-9.94451E-03 2.31765E-03
 -1      1382-1.55603E-13-1.35827E-02-3.01586E-13
 -1      1384-1.51360E-13-6.30634E-03-3.03069E-13
 -1      1393 2.77049E-05-1.24848E-02-3.48105E-03
 -1      1395-2.77049E-05-1.24848E-02 3.48105E-03
 -1      1396-1.82144E-13-1.79492E-02-2.57248E-13
 -1      1398-1.74876E-13-7.02031E-03-2.58312E-13
 -1      1407-2.43333E-05-1.56843E-02-4.55088E-03
 -1      1409 2.43333E-05-1.56843E-02 4.55088E-03
 -1      1410-2.05000E-13-2.28281E-02-1.86465E-13
 -1      1412-1.94035E-13-8.54050E-03-1.88096E-13
 -1      1421-8.94016E-05-1.98792E-02-5.50088E-03
 -1      1423 8.94016E-05-1.98792E-02 5.50088E-03
 -1      1424-2.22715E-13-2.85143E-02-9.55362E-14
 -1      1426-2.09876E-13-1.12441E-02-9.50059E-14
 -1      1435-1.59785E-04-2.52028E-02-6.30324E-03
 -1      1437 1.59785E-04-2.52028E-02 6.30324E-03
 -1      1438-2.35448E-13-3.50975E-02 3.75862E-15
 -1      1440-2.22914E-13-1.53082E-02 2.94782E-15
 -1      1449-2.24199E-04-3.15982E-02-6.94256E-03
 -1      1451 2.24199E-04-3.15982E-02 6.94256E-03
 -1      1452-2.45573E-13-4.24964E-02 1.02653E-13
 -1      1454-2.32364E-13-2.07000E-02 1.04449E-13
 -1      1463-2.74554E-04-3.87843E-02-7.40345E-03
 -1      1465 2.74554E-04-3.87843E-02 7.40345E-03
 -1      1466-2.51969E-13-5.04060E-02 2.04505E-13
 -1      1468-2.38909E-13-2.71626E-02 2.05431E-13
 -1      1477-3.11538E-04-4.64342E-02-7.67830E-03
 -1      1479 3.11538E-04-4.64342E-02 7.67830E-03
 -1      1480-2.55157E-13-5.84873E-02 3.04225E-13
 -1      1482-2.42327E-13-3.43811E-02 3.04486E-13
 -1      1491-3.15563E-04 6.54650E-02 2.55298E-03
 -1      1493 3.15563E-04 6.54650E-02-2.55298E-03
 -1      1494-3.06172E-04 9.52428E-02 4.08208E-13
 -1      1496 3.06172E-04 9.52428E-02 3.83804E-13
 -1      1497-3.15563E-04 6.54650E-02-2.55298E-03
 -1      1499 3.15563E-04 6.54650E-02 2.55298E-03
 -1      1500-8.99439E-04 4.52653E-03 2.63279E-02
 -1      1502 5.54395E-03-2.95187E-04 2.63809E-02
 -1      1503 2.55457E-03 1.07010E-02 6.13227E-02
 -1      1505 5.67915E-03 8.31175E-04 6.14142E-02
 -1      1506 3.48657E-03 1.88714E-02 9.00322E-02
 -1      1508 7.84915E-03 4.25503E-03 9.00816E-02
 -1      1509 4.95248E-03 2.83917E-02 1.18690E-01
 -1      1511 8.25785E-03 9.20364E-03 1.18716E-01
 -1      1512 5.28364E-03 3.83544E-02 1.43316E-01
 -1      1514 8.48371E-03 1.51442E-02 1.43327E-01
 -1      1515 5.22757E-03 4.80029E-02 1.64909E-01
 -1      1517 7.76775E-03 2.13022E-02 1.64873E-01
 -1      1518 4.38277E-03 5.64620E-02 1.82199E-01
 -1      1520 6.42452E-03 2.69333E-02 1.82156E-01
 -1      1521 3.07047E-03 6.29295E-02 1.95160E-01
 -1      1523 4.46763E-03 3.13049E-02 1.95081E-01
 -1      1524 1.33992E-03 6.68470E-02 2.03303E-01
 -1      1526 2.10336E-03 3.38895E-02 2.03226E-01
 -1      1527-5.30751E-04 6.78175E-02 2.06536E-01
 -1      1529-4.36910E-04 3.43514E-02 2.06446E-01
 -1      1530-2.33982E-03 6.58163E-02 2.04720E-01
 -1      1532-2.91302E-03 3.26499E-02 2.04647E-01
 -1      1533-3.85214E-03 6.10412E-02 1.97919E-01
 -1      1535-5.08260E-03 2.90043E-02 1.97855E-01
 -1      1536-4.90466E-03 5.39998E-02 1.86252E-01
 -1      1538-6.76700E-03 2.38718E-02 1.86215E-01
 -1      1539-5.39379E-03 4.53386E-02 1.69987E-01
 -1      1541-7.84579E-03 1.78746E-02 1.69972E-01
 -1      1542-5.30735E-03 3.58221E-02 1.49482E-01
 -1      1544-8.29474E-03 1.16966E-02 1.49494E-01
 -1      1545-4.71628E-03 2.61709E-02 1.25218E-01
 -1      1547-8.16803E-03 5.99127E-03 1.25246E-01
 -1      1548-3.76547E-03 1.70055E-02 9.77665E-02
 -1      1550-7.59988E-03 1.27248E-03 9.78085E-02
 -1      1551-2.64834E-03 8.74049E-03 6.77985E-02
 -1      1553-6.77025E-03-2.14690E-03 6.78428E-02
 -1      1554-1.57555E-03 1.56308E-03 3.60560E-02
 -1      1556-5.88230E-03-4.20533E-03 3.60962E-02
 -1      1557-7.41551E-04-4.58425E-03 3.34354E-03
 -1      1559-5.12261E-03-5.08455E-03 3.37073E-03
 -1      1560-2.93751E-04-9.95912E-03-2.95018E-02
 -1      1562-4.63645E-03-5.17628E-03-2.94913E-02
 -1      1563-3.09786E-04-1.49554E-02-6.16310E-02
 -1      1565-4.50113E-03-5.00721E-03-6.16394E-02
 -1      1566-7.88570E-04-2.00155E-02-9.22096E-02
 -1      1568-4.71908E-03-5.14900E-03-9.22349E-02
 -1      1569-1.64874E-03-2.55329E-02-1.20451E-01
 -1      1571-5.21885E-03-6.12170E-03-1.20488E-01
 -1      1572-2.75647E-03-3.17790E-02-1.45621E-01
 -1      1574-5.86993E-03-8.30823E-03-1.45665E-01
 -1      1575-3.92950E-03-3.88386E-02-1.67105E-01
 -1      1577-6.52072E-03-1.18987E-02-1.67147E-01
 -1      1578-5.02325E-03-4.66006E-02-1.84331E-01
 -1      1580-7.00221E-03-1.68679E-02-1.84364E-01
 -1      1581-5.86656E-03-5.47865E-02-1.96975E-01
 -1      1583-7.24649E-03-2.30059E-02-1.96998E-01
 -1      1584-6.50730E-03-6.30031E-02-2.04560E-01
 -1      1586-7.13116E-03-2.99780E-02-2.04570E-01
 -1      1587-3.40971E-03-7.07475E-02-9.62424E-02
 -1      1589-3.46935E-03-3.75647E-02-9.62339E-02
 -1      1590 0.00000E+00 0.00000E+00-4.40623E-05
 -1      1592 0.00000E+00 0.00000E+00 4.40623E-05
 -1      1593 3.40971E-03-7.07475E-02 9.62424E-02
 -1      1595 3.46935E-03-3.75647E-02 9.62339E-02
 -1      1596 8.99439E-04 4.52653E-03-2.63279E-02
 -1      1598-5.54395E-03-2.95187E-04-2.63809E-02
 -1      1599-2.55457E-03 1.07010E-02-6.13227E-02
 -1      1601-5.67915E-03 8.31175E-04-6.14142E-02
 -1      1602-3.48657E-03 1.88714E-02-9.00322E-02
 -1      1604-7.84915E-03 4.25503E-03-9.00816E-02
 -1      1605-4.95248E-03 2.83917E-02-1.18690E-01
 -1      1607-8.25785E-03 9.20364E-03-1.18716E-01
 -1      1608-5.28364E-03 3.83544E-02-1.43316E-01
 -1      1610-8.48371E-03 1.51442E-02-1.43327E-01
 -1      1611-5.22757E-03 4.80029E-02-1.64909E-01
 -1      1613-7.76775E-03 2.13022E-02-1.64873E-01
 -1      1614-4.38277E-03 5.64620E-02-1.82199E-01
 -1      1616-6.42452E-03 2.69333E-02-1.82156E-01
 -1      1617-3.07047E-03 6.29295E-02-1.95160E-01
 -1      1619-4.46763E-03 3.13049E-02-1.95081E-01
 -1      1620-1.33992E-03 6.68470E-02-2.03303E-01
 -1      1622-2.10336E-03 3.38895E-02-2.03226E-01
 -1      1623 5.30751E-04 6.78175E-02-2.06536E-01
 -1      1625 4.36910E-04 3.43514E-02-2.06446E-01
 -1      1626 2.33982E-03 6.58163E-02-2.04720E-01
 -1      1628 2.91302E-03 3.26499E-02-2.04647E-01
 -1      1629 3.85214E-03 6.10412E-02-1.97919E-01
 -1      1631 5.08260E-03 2.90043E-02-1.97855E-01
 -1      1632 4.90466E-03 5.39998E-02-1.86252E-01
 -1      1634 6.76700E-03 2.38718E-02-1.86215E-01
 -1      1635 5.39379E-03 4.53386E-02-1.69987E-01
 -1      1637 7.84579E-03 1.78746E-02-1.69972E-01
 -1      1638 5.30735E-03 3.58221E-02-1.49482E-01
 -1      1640 8.29474E-03 1.16966E-02-1.49494E-01
 -1      1641 4.71628E-03 2.61709E-02-1.25218E-01
 -1      1643 8.16803E-03 5.99127E-03-1.25246E-01
 -1      1644 3.76547E-03 1.70055E-02-9.77665E-02
 -1      1646 7.59988E-03 1.27248E-03-9.78085E-02
 -1      1647 2.64834E-03 8.74049E-03-6.77985E-02
 -1      1649 6.77025E-03-2.14690E-03-6.78428E-02
 -1      1650 1.57555E-03 1.56308E-03-3.60560E-02
 -1      1652 5.88230E-03-4.20533E-03-3.60962E-02
 -1      1653 7.41551E-04-4.58425E-03-3.34354E-03
 -1      1655 5.12261E-03-5.08455E-03-3.37073E-03
 -1      1656 2.93751E-04-9.95912E-03 2.95018E-02
 -1      1658 4.63645E-03-5.17628E-03 2.94913E-02
 -1      1659 3.09786E-04-1.49554E-02 6.16310E-02
 -1      1661 4.50113E-03-5.00721E-03 6.16394E-02
 -1      1662 7.88570E-04-2.00155E-02 9.22096E-02
 -1      1664 4.71908E-03-5.14900E-03 9.22349E-02
 -1      1665 1.64874E-03-2.55329E-02 1.20451E-01
 -1      1667 5.21885E-03-6.12170E-03 1.20488E-01
 -1      1668 2.75647E-03-3.17790E-02 1.45621E-01
 -1      1670 5.86993E-03-8.30823E-03 1.45665E-01
 -1      1671 3.92950E-03-3.88386E-02 1.67105E-01
 -1      1673 6.52072E-03-1.18987E-02 1.67147E-01
 -1      1674 5.02325E-03-4.66006E-02 1.84331E-01
 -1      1676 7.00221E-03-1.68679E-02 1.84364E-01
 -1      1677 5.86656E-03-5.47865E-02 1.96975E-01
 -1      1679 7.24649E-03-2.30059E-02 1.96998E-01
 -1      1680 6.50730E-03-6.30031E-02 2.04560E-01
 -1      1682 7.13116E-03-2.99780E-02 2.04570E-01
 -1      1683 0.00000E+00 0.00000E+00 4.40623E-05
 -1      1685 0.00000E+00 0.00000E+00-4.40623E-05
 -1      1686 5.77982E-04 3.83242E-03 1.16206E-02
 -1      1688-2.61636E-03-1.73156E-04 1.16796E-02
 -1      1689-1.31548E-03 1.04703E-02 2.86476E-02
 -1      1691-2.79184E-03 7.40660E-04 2.86577E-02
 -1      1692-1.71829E-03 1.86443E-02 4.16461E-02
 -1      1694-3.82371E-03 4.19729E-03 4.16771E-02
 -1      1695-2.42034E-03 2.82122E-02 5.50826E-02
 -1      1697-4.00141E-03 9.26844E-03 5.50869E-02
 -1      1698-2.61673E-03 3.82189E-02 6.63799E-02
 -1      1700-4.14486E-03 1.52397E-02 6.63691E-02
 -1      1701-2.54990E-03 4.79259E-02 7.63662E-02
 -1      1703-3.76485E-03 2.15420E-02 7.63487E-02
 -1      1704-2.16072E-03 5.64183E-02 8.43203E-02
 -1      1706-3.13274E-03 2.72097E-02 8.42795E-02
 -1      1707-1.49926E-03 6.29334E-02 9.02893E-02
 -1      1709-2.16789E-03 3.16767E-02 9.02486E-02
 -1      1710-6.62463E-04 6.68632E-02 9.40503E-02
 -1      1712-1.02722E-03 3.42732E-02 9.39949E-02
 -1      1713 2.60248E-04 6.78444E-02 9.55542E-02
 -1      1715 2.11433E-04 3.47576E-02 9.55045E-02
 -1      1716 1.14355E-03 6.58250E-02 9.47534E-02
 -1      1718 1.41300E-03 3.30204E-02 9.47022E-02
 -1      1719 1.88930E-03 6.10246E-02 9.16572E-02
 -1      1721 2.47090E-03 2.93306E-02 9.16176E-02
 -1      1722 2.40905E-03 5.39435E-02 8.63262E-02
 -1      1724 3.29335E-03 2.41224E-02 8.62948E-02
 -1      1725 2.65775E-03 4.52436E-02 7.88636E-02
 -1      1727 3.82500E-03 1.80468E-02 7.88463E-02
 -1      1728 2.62601E-03 3.56915E-02 6.94307E-02
 -1      1730 4.05228E-03 1.17854E-02 6.94243E-02
 -1      1731 2.34977E-03 2.60182E-02 5.82339E-02
 -1      1733 4.00178E-03 6.00926E-03 5.82386E-02
 -1      1734 1.89762E-03 1.68473E-02 4.55341E-02
 -1      1736 3.73725E-03 1.23492E-03 4.55457E-02
 -1      1737 1.36369E-03 8.59713E-03 3.16355E-02
 -1      1739 3.34525E-03-2.21741E-03 3.16510E-02
 -1      1740 8.49105E-04 1.45379E-03 1.68846E-02
 -1      1742 2.92312E-03-4.28713E-03 1.69000E-02
 -1      1743 4.48342E-04-4.64313E-03 1.65845E-03
 -1      1745 2.56062E-03-5.15845E-03 1.67037E-03
 -1      1746 2.32175E-04-9.95745E-03-1.36451E-02
 -1      1748 2.32748E-03-5.22882E-03-1.36385E-02
 -1      1749 2.39059E-04-1.48902E-02-2.86212E-02
 -1      1751 2.26133E-03-5.03427E-03-2.86212E-02
 -1      1752 4.67663E-04-1.98917E-02-4.28709E-02
 -1      1754 2.36327E-03-5.15231E-03-4.28761E-02
 -1      1755 8.81008E-04-2.53621E-02-5.60191E-02
 -1      1757 2.60041E-03-6.11433E-03-5.60286E-02
 -1      1758 1.41213E-03-3.15781E-02-6.77178E-02
 -1      1760 2.90933E-03-8.30183E-03-6.77278E-02
 -1      1761 1.97861E-03-3.86252E-02-7.76828E-02
 -1      1763 3.22112E-03-1.19140E-02-7.76915E-02
 -1      1764 2.50530E-03-4.63946E-02-8.56439E-02
 -1      1766 3.45202E-03-1.69121E-02-8.56481E-02
 -1      1767 2.91938E-03-5.45962E-02-9.14813E-02
 -1      1769 3.57713E-03-2.30884E-02-9.14798E-02
 -1      1770 3.24073E-03-6.28361E-02-9.49457E-02
 -1      1772 3.53648E-03-3.00939E-02-9.49408E-02
 -1      1773-5.77982E-04 3.83242E-03-1.16206E-02
 -1      1775 2.61636E-03-1.73156E-04-1.16796E-02
 -1      1776 1.31548E-03 1.04703E-02-2.86476E-02
 -1      1778 2.79184E-03 7.40660E-04-2.86577E-02
 -1      1779 1.71829E-03 1.86443E-02-4.16461E-02
 -1      1781 3.82371E-03 4.19729E-03-4.16771E-02
 -1      1782 2.42034E-03 2.82122E-02-5.50826E-02
 -1      1784 4.00141E-03 9.26844E-03-5.50869E-02
 -1      1785 2.61673E-03 3.82189E-02-6.63799E-02
 -1      1787 4.14486E-03 1.52397E-02-6.63691E-02
 -1      1788 2.54990E-03 4.79259E-02-7.63662E-02
 -1      1790 3.76485E-03 2.15420E-02-7.63487E-02
 -1      1791 2.16072E-03 5.64183E-02-8.43203E-02
 -1      1793 3.13274E-03 2.72097E-02-8.42795E-02
 -1      1794 1.49926E-03 6.29334E-02-9.02893E-02
 -1      1796 2.16789E-03 3.16767E-02-9.02486E-02
 -1      1797 6.62463E-04 6.68632E-02-9.40503E-02
 -1      1799 1.02722E-03 3.42732E-02-9.39949E-02
 -1      1800-2.60248E-04 6.78444E-02-9.55542E-02
 -1      1802-2.11433E-04 3.47576E-02-9.55045E-02
 -1      1803-1.14355E-03 6.58250E-02-9.47534E-02
 -1      1805-1.41300E-03 3.30204E-02-9.47022E-02
 -1      1806-1.88930E-03 6.10246E-02-9.16572E-02
 -1      1808-2.47090E-03 2.93306E-02-9.16176E-02
 -1      1809-2.40905E-03 5.39435E-02-8.63262E-02
 -1      1811-3.29335E-03 2.41224E-02-8.62948E-02
 -1      1812-2.65775E-03 4.52436E-02-7.88636E-02
 -1      1814-3.82500E-03 1.80468E-02-7.88463E-02
 -1      1815-2.62601E-03 3.56915E-02-6.94307E-02
 -1      1817-4.05228E-03 1.17854E-02-6.94243E-02
 -1      1818-2.34977E-03 2.60182E-02-5.82339E-02
 -1      1820-4.00178E-03 6.00926E-03-5.82386E-02
 -1      1821-1.89762E-03 1.68473E-02-4.55341E-02
 -1      1823-3.73725E-03 1.23492E-03-4.55457E-02
 -1      1824-1.36369E-03 8.59713E-03-3.16355E-02
 -1      1826-3.34525E-03-2.21741E-03-3.16510E-02
 -1      1827-8.49105E-04 1.45379E-03-1.68846E-02
 -1      1829-2.92312E-03-4.28713E-03-1.69000E-02
 -1      1830-4.48342E-04-4.64313E-03-1.65845E-03
 -1      1832-2.56062E-03-5.15845E-03-1.67037E-03
 -1      1833-2.32175E-04-9.95745E-03 1.36451E-02
 -1      1835-2.32748E-03-5.22882E-03 1.36385E-02
 -1      1836-2.39059E-04-1.48902E-02 2.86212E-02
 -1      1838-2.26133E-03-5.03427E-03 2.86212E-02
 -1      1839-4.67663E-04-1.98917E-02 4.28709E-02
 -1      1841-2.36327E-03-5.15231E-03 4.28761E-02
 -1      1842-8.81008E-04-2.53621E-02 5.60191E-02
 -1      1844-2.60041E-03-6.11433E-03 5.60286E-02
 -1      1845-1.41213E-03-3.15781E-02 6.77178E-02
 -1      1847-2.90933E-03-8.30183E-03 6.77278E-02
 -1      1848-1.97861E-03-3.86252E-02 7.76828E-02
 -1      1850-3.22112E-03-1.19140E-02 7.76915E-02
 -1      1851-2.50530E-03-4.63946E-02 8.56439E-02
 -1      1853-3.45202E-03-1.69121E-02 8.56481E-02
 -1      1854-2.91938E-03-5.45962E-02 9.14813E-02
 -1      1856-3.57713E-03-2.30884E-02 9.14798E-02
 -1      1857-3.24073E-03-6.28361E-02 9.49457E-02
 -1      1859-3.53648E-03-3.00939E-02 9.49408E-02
 -1      1860-9.04917E-04-1.41547E-02-3.66181E-04
 -1      1862 9.04917E-04-1.41547E-02 3.66181E-04
 -1      1863-1.95006E-04-3.02061E-02-7.56880E-04
 -1      1865 1.95006E-04-3.02061E-02 7.56880E-04
 -1      1866-4.03273E-04-4.04981E-02-1.11085E-03
 -1      1868 4.03273E-04-4.04981E-02 1.11085E-03
 -1      1869-1.22526E-04-4.95575E-02-1.44004E-03
 -1      1871 1.22526E-04-4.95575E-02 1.44004E-03
 -1      1872-1.25558E-04-5.51179E-02-1.71989E-03
 -1      1874 1.25558E-04-5.51179E-02 1.71989E-03
 -1      1875-2.72843E-05-5.91514E-02-1.96132E-03
 -1      1877 2.72843E-05-5.91514E-02 1.96132E-03
 -1      1878-1.74383E-05-6.15030E-02-2.15133E-03
 -1      1880 1.74383E-05-6.15030E-02 2.15133E-03
 -1      1881-8.05661E-06-6.31584E-02-2.29413E-03
 -1      1883 8.05661E-06-6.31584E-02 2.29413E-03
 -1      1884-2.48756E-05-6.44054E-02-2.38711E-03
 -1      1886 2.48756E-05-6.44054E-02 2.38711E-03
 -1      1887-4.67873E-05-6.55934E-02-2.42885E-03
 -1      1889 4.67873E-05-6.55934E-02 2.42885E-03
 -1      1890-6.27364E-05-6.67008E-02-2.42053E-03
 -1      1892 6.27364E-05-6.67008E-02 2.42053E-03
 -1      1893-6.43583E-05-6.74942E-02-2.35828E-03
 -1      1895 6.43583E-05-6.74942E-02 2.35828E-03
 -1      1896-4.03165E-05-6.75143E-02-2.24384E-03
 -1      1898 4.03165E-05-6.75143E-02 2.24384E-03
 -1      1899 1.03645E-05-6.61728E-02-2.07381E-03
 -1      1901-1.03645E-05-6.61728E-02 2.07381E-03
 -1      1902 8.87966E-05-6.28654E-02-1.85102E-03
 -1      1904-8.87966E-05-6.28654E-02 1.85102E-03
 -1      1905 1.87073E-04-5.70814E-02-1.57536E-03
 -1      1907-1.87073E-04-5.70814E-02 1.57536E-03
 -1      1908 2.96074E-04-4.85199E-02-1.25275E-03
 -1      1910-2.96074E-04-4.85199E-02 1.25275E-03
 -1      1911 4.01846E-04-3.71627E-02-8.88453E-04
 -1      1913-4.01846E-04-3.71627E-02 8.88453E-04
 -1      1914 4.91306E-04-2.33177E-02-4.92754E-04
 -1      1916-4.91306E-04-2.33177E-02 4.92754E-04
 -1      1917 5.51551E-04-7.60565E-03-7.62912E-05
 -1      1919-5.51551E-04-7.60565E-03 7.62912E-05
 -1      1920 5.73867E-04 9.09432E-03 3.47089E-04
 -1      1922-5.73867E-04 9.09432E-03-3.47089E-04
 -1      1923 5.53462E-04 2.57428E-02 7.63736E-04
 -1      1925-5.53462E-04 2.57428E-02-7.63736E-04
 -1      1926 4.91357E-04 4.12578E-02 1.15912E-03
 -1      1928-4.91357E-04 4.12578E-02-1.15912E-03
 -1      1929 3.93642E-04 5.46458E-02 1.52058E-03
 -1      1931-3.93642E-04 5.46458E-02-1.52058E-03
 -1      1932 2.69625E-04 6.51024E-02 1.83645E-03
 -1      1934-2.69625E-04 6.51024E-02-1.83645E-03
 -1      1935 1.34189E-04 7.21177E-02 2.09896E-03
 -1      1937-1.34189E-04 7.21177E-02-2.09896E-03
 -1      1938-5.34615E-06 7.54581E-02 2.30190E-03
 -1      1940 5.34615E-06 7.54581E-02-2.30190E-03
 -1      1941-1.26052E-04 7.52550E-02 2.44429E-03
 -1      1943 1.26052E-04 7.52550E-02-2.44429E-03
 -1      1944-2.45494E-04 7.17308E-02 2.52660E-03
 -1      1946 2.45494E-04 7.17308E-02-2.52660E-03
 -1      1947-1.67333E-03-1.80428E-02 5.97092E-14
 -1      1949 1.67333E-03-1.80428E-02 6.14686E-14
 -1      1950-5.10502E-04-3.91998E-02 1.26957E-13
 -1      1952 5.10502E-04-3.91998E-02 1.31422E-13
 -1      1953-9.26260E-04-5.33419E-02 1.95632E-13
 -1      1955 9.26260E-04-5.33419E-02 2.02560E-13
 -1      1956-4.64674E-04-6.63705E-02 2.58484E-13
 -1      1958 4.64674E-04-6.63705E-02 2.66807E-13
 -1      1959-4.94232E-04-7.51426E-02 3.10703E-13
 -1      1961 4.94232E-04-7.51426E-02 3.19411E-13
 -1      1962-2.90863E-04-8.20165E-02 3.49346E-13
 -1      1964 2.90863E-04-8.20165E-02 3.57096E-13
 -1      1965-2.47171E-04-8.65732E-02 3.69808E-13
 -1      1967 2.47171E-04-8.65732E-02 3.75474E-13
 -1      1968-1.54065E-04-8.99077E-02 3.70981E-13
 -1      1970 1.54065E-04-8.99077E-02 3.74435E-13
 -1      1971-1.15062E-04-9.22283E-02 3.54312E-13
 -1      1973 1.15062E-04-9.22283E-02 3.55578E-13
 -1      1974-5.99851E-05-9.39151E-02 3.21348E-13
 -1      1976 5.99851E-05-9.39151E-02 3.21303E-13
 -1      1977-1.12632E-05-9.49122E-02 2.72726E-13
 -1      1979 1.12632E-05-9.49122E-02 2.70273E-13
 -1      1980 6.10379E-05-9.49876E-02 2.07431E-13
 -1      1982-6.10379E-05-9.49876E-02 2.02081E-13
 -1      1983 1.52184E-04-9.36602E-02 1.28036E-13
 -1      1985-1.52184E-04-9.36602E-02 1.21771E-13
 -1      1986 2.72346E-04-9.03407E-02 3.99437E-14
 -1      1988-2.72346E-04-9.03407E-02 3.29493E-14
 -1      1989 4.13697E-04-8.44256E-02-5.21336E-14
 -1      1991-4.13697E-04-8.44256E-02-6.02981E-14
 -1      1992 5.71344E-04-7.54314E-02-1.41449E-13
 -1      1994-5.71344E-04-7.54314E-02-1.50539E-13
 -1      1995 7.30287E-04-6.31042E-02-2.18721E-13
 -1      1997-7.30287E-04-6.31042E-02-2.29365E-13
 -1      1998 8.76778E-04-4.75052E-02-2.78964E-13
 -1      2000-8.76778E-04-4.75052E-02-2.89865E-13
 -1      2001 9.93633E-04-2.90484E-02-3.17898E-13
 -1      2003-9.93633E-04-2.90484E-02-3.28113E-13
 -1      2004 1.06772E-03-8.48854E-03-3.32775E-13
 -1      2006-1.06772E-03-8.48854E-03-3.42421E-13
 -1      2007 1.08785E-03 1.31422E-02-3.24435E-13
 -1      2009-1.08785E-03 1.31422E-02-3.34115E-13
 -1      2010 1.05028E-03 3.46405E-02-2.95083E-13
 -1      2012-1.05028E-03 3.46405E-02-3.04628E-13
 -1      2013 9.55009E-04 5.47601E-02-2.44169E-13
 -1      2015-9.55009E-04 5.47601E-02-2.53110E-13
 -1      2016 8.11617E-04 7.23569E-02-1.71186E-13
 -1      2018-8.11617E-04 7.23569E-02-1.80318E-13
 -1      2019 6.28651E-04 8.64952E-02-8.21205E-14
 -1      2021-6.28651E-04 8.64952E-02-9.22853E-14
 -1      2022 4.28162E-04 9.65707E-02 1.67869E-14
 -1      2024-4.28162E-04 9.65707E-02 4.22232E-15
 -1      2025 2.13507E-04 1.02280E-01 1.17998E-13
 -1      2027-2.13507E-04 1.02280E-01 1.02214E-13
 -1      2028 2.24489E-05 1.03746E-01 2.21424E-13
 -1      2030-2.24489E-05 1.03746E-01 2.00770E-13
 -1      2031-1.79450E-04 1.01177E-01 3.20237E-13
 -1      2033 1.79450E-04 1.01177E-01 2.96298E-13
 -1      2034-9.04917E-04-1.41547E-02 3.66181E-04
 -1      2036 9.04917E-04-1.41547E-02-3.66181E-04
 -1      2037-1.95006E-04-3.02061E-02 7.56880E-04
 -1      2039 1.95006E-04-3.02061E-02-7.56880E-04
 -1      2040-4.03273E-04-4.04981E-02 1.11085E-03
 -1      2042 4.03273E-04-4.04981E-02-1.11085E-03
 -1      2043-1.22526E-04-4.95575E-02 1.44004E-03
 -1      2045 1.22526E-04-4.95575E-02-1.44004E-03
 -1      2046-1.25558E-04-5.51179E-02 1.71989E-03
 -1      2048 1.25558E-04-5.51179E-02-1.71989E-03
 -1      2049-2.72843E-05-5.91514E-02 1.96132E-03
 -1      2051 2.72843E-05-5.91514E-02-1.96132E-03
 -1      2052-1.74383E-05-6.15030E-02 2.15133E-03
 -1      2054 1.74383E-05-6.15030E-02-2.15133E-03
 -1      2055-8.05661E-06-6.31584E-02 2.29413E-03
 -1      2057 8.05661E-06-6.31584E-02-2.29413E-03
 -1      2058-2.48756E-05-6.44054E-02 2.38711E-03
 -1      2060 2.48756E-05-6.44054E-02-2.38711E-03
 -1      2061-4.67873E-05-6.55934E-02 2.42885E-03
 -1      2063 4.67873E-05-6.55934E-02-2.42885E-03
 -1      2064-6.27364E-05-6.67008E-02 2.42053E-03
 -1      2066 6.27364E-05-6.67008E-02-2.42053E-03
 -1      2067-6.43583E-05-6.74942E-02 2.35828E-03
 -1      2069 6.43583E-05-6.74942E-02-2.35828E-03
 -1      2070-4.03165E-05-6.75143E-02 2.24384E-03
 -1      2072 4.03165E-05-6.75143E-02-2.24384E-03
 -1      2073 1.03645E-05-6.61728E-02 2.07381E-03
 -1      2075-1.03645E-05-6.61728E-02-2.07381E-03
 -1      2076 8.87966E-05-6.28654E-02 1.85102E-03
 -1      2078-8.87966E-05-6.28654E-02-1.85102E-03
 -1      2079 1.87073E-04-5.70814E-02 1.57536E-03
 -1      2081-1.87073E-04-5.70814E-02-1.57536E-03
 -1      2082 2.96074E-04-4.85199E-02 1.25275E-03
 -1      2084-2.96074E-04-4.85199E-02-1.25275E-03
 -1      2085 4.01846E-04-3.71627E-02 8.88453E-04
 -1      2087-4.01846E-04-3.71627E-02-8.88453E-04
 -1      2088 4.91306E-04-2.33177E-02 4.92754E-04
 -1      2090-4.91306E-04-2.33177E-02-4.92754E-04
 -1      2091 5.51551E-04-7.60565E-03 7.62912E-05
 -1      2093-5.51551E-04-7.60565E-03-7.62912E-05
 -1      2094 5.73867E-04 9.09432E-03-3.47089E-04
 -1      2096-5.73867E-04 9.09432E-03 3.47089E-04
 -1      2097 5.53462E-04 2.57428E-02-7.63736E-04
 -1      2099-5.53462E-04 2.57428E-02 7.63736E-04
 -1      2100 4.91357E-04 4.12578E-02-1.15912E-03
 -1      2102-4.91357E-04 4.12578E-02 1.15912E-03
 -1      2103 3.93642E-04 5.46458E-02-1.52058E-03
 -1      2105-3.93642E-04 5.46458E-02 1.52058E-03
 -1      2106 2.69625E-04 6.51024E-02-1.83645E-03
 -1      2108-2.69625E-04 6.51024E-02 1.83645E-03
 -1      2109 1.34189E-04 7.21177E-02-2.09896E-03
 -1      2111-1.34189E-04 7.21177E-02 2.09896E-03
 -1      2112-5.34615E-06 7.54581E-02-2.30190E-03
 -1      2114 5.34615E-06 7.54581E-02 2.30190E-03
 -1      2115-1.26052E-04 7.52550E-02-2.44429E-03
 -1      2117 1.26052E-04 7.52550E-02 2.44429E-03
 -1      2118-2.45494E-04 7.17308E-02-2.52660E-03
 -1      2120 2.45494E-04 7.17308E-02 2.52660E-03
 -1      2121-5.77982E-04 3.83242E-03 1.16206E-02
 -1      2123 2.61636E-03-1.73156E-04 1.16796E-02
 -1      2124 1.31548E-03 1.04703E-02 2.86476E-02
 -1      2126 2.79184E-03 7.40660E-04 2.86577E-02
 -1      2127 1.71829E-03 1.86443E-02 4.16461E-02
 -1      2129 3.82371E-03 4.19729E-03 4.16771E-02
 -1      2130 2.42034E-03 2.82122E-02 5.50826E-02
 -1      2132 4.00141E-03 9.26844E-03 5.50869E-02
 -1      2133 2.61673E-03 3.82189E-02 6.63799E-02
 -1      2135 4.14486E-03 1.52397E-02 6.63691E-02
 -1      2136 2.54990E-03 4.79259E-02 7.63662E-02
 -1      2138 3.76485E-03 2.15420E-02 7.63487E-02
 -1      2139 2.16072E-03 5.64183E-02 8.43203E-02
 -1      2141 3.13274E-03 2.72097E-02 8.42795E-02
 -1      2142 1.49926E-03 6.29334E-02 9.02893E-02
 -1      2144 2.16789E-03 3.16767E-02 9.02486E-02
 -1      2145 6.62463E-04 6.68632E-02 9.40503E-02
 -1      2147 1.02722E-03 3.42732E-02 9.39949E-02
 -1      2148-2.60248E-04 6.78444E-02 9.55542E-02
 -1      2150-2.11433E-04 3.47576E-02 9.55045E-02
 -1      2151-1.14355E-03 6.58250E-02 9.47534E-02
 -1      2153-1.41300E-03 3.30204E-02 9.47022E-02
 -1      2154-1.88930E-03 6.10246E-02 9.16572E-02
 -1      2156-2.47090E-03 2.93306E-02 9.16176E-02
 -1      2157-2.40905E-03 5.39435E-02 8.63262E-02
 -1      2159-3.29335E-03 2.41224E-02 8.62948E-02
 -1      2160-2.65775E-03 4.52436E-02 7.88636E-02
 -1      2162-3.82500E-03 1.80468E-02 7.88463E-02
 -1      2163-2.62601E-03 3.56915E-02 6.94307E-02
 -1      2165-4.05228E-03 1.17854E-02 6.94243E-02
 -1      2166-2.34977E-03 2.60182E-02 5.82339E-02
 -1      2168-4.00178E-03 6.00926E-03 5.82386E-02
 -1      2169-1.89762E-03 1.68473E-02 4.55341E-02
 -1      2171-3.73725E-03 1.23492E-03 4.55457E-02
 -1      2172-1.36369E-03 8.59713E-03 3.16355E-02
 -1      2174-3.34525E-03-2.21741E-03 3.16510E-02
 -1      2175-8.49105E-04 1.45379E-03 1.68846E-02
 -1      2177-2.92312E-03-4.28713E-03 1.69000E-02
 -1      2178-4.48342E-04-4.64313E-03 1.65845E-03
 -1      2180-2.56062E-03-5.15845E-03 1.67037E-03
 -1      2181-2.32175E-04-9.95745E-03-1.36451E-02
 -1      2183-2.32748E-03-5.22882E-03-1.36385E-02
 -1      2184-2.39059E-04-1.48902E-02-2.86212E-02
 -1      2186-2.26133E-03-5.03427E-03-2.86212E-02
 -1      2187-4.67663E-04-1.98917E-02-4.28709E-02
 -1      2189-2.36327E-03-5.15231E-03-4.28761E-02
 -1      2190-8.81008E-04-2.53621E-02-5.60191E-02
 -1      2192-2.60041E-03-6.11433E-03-5.60286E-02
 -1      2193-1.41213E-03-3.15781E-02-6.77178E-02
 -1      2195-2.90933E-03-8.30183E-03-6.77278E-02
 -1      2196-1.97861E-03-3.86252E-02-7.76828E-02
 -1      2198-3.22112E-03-1.19140E-02-7.76915E-02
 -1      2199-2.50530E-03-4.63946E-02-8.56439E-02
 -1      2201-3.45202E-03-1.69121E-02-8.56481E-02
 -1      2202-2.91938E-03-5.45962E-02-9.14813E-02
 -1      2204-3.57713E-03-2.30884E-02-9.14798E-02
 -1      2205-3.24073E-03-6.28361E-02-9.49457E-02
 -1      2207-3.53648E-03-3.00939E-02-9.49408E-02
 -1      2208 5.77982E-04 3.83242E-03-1.16206E-02
 -1      2210-2.61636E-03-1.73156E-04-1.16796E-02
 -1      2211-1.31548E-03 1.04703E-02-2.86476E-02
 -1      2213-2.79184E-03 7.40660E-04-2.86577E-02
 -1      2214-1.71829E-03 1.86443E-02-4.16461E-02
 -1      2216-3.82371E-03 4.19729E-03-4.16771E-02
 -1      2217-2.42034E-03 2.82122E-02-5.50826E-02
 -1      2219-4.00141E-03 9.26844E-03-5.50869E-02
 -1      2220-2.61673E-03 3.82189E-02-6.63799E-02
 -1      2222-4.14486E-03 1.52397E-02-6.63691E-02
 -1      2223-2.54990E-03 4.79259E-02-7.63662E-02
 -1      2225-3.76485E-03 2.15420E-02-7.63487E-02
 -1      2226-2.16072E-03 5.64183E-02-8.43203E-02
 -1      2228-3.13274E-03 2.72097E-02-8.42795E-02
 -1      2229-1.49926E-03 6.29334E-02-9.02893E-02
 -1      2231-2.16789E-03 3.16767E-02-9.02486E-02
 -1      2232-6.62463E-04 6.68632E-02-9.40503E-02
 -1      2234-1.02722E-03 3.42732E-02-9.39949E-02
 -1      2235 2.60248E-04 6.78444E-02-9.55542E-02
 -1      2237 2.11433E-04 3.47576E-02-9.55045E-02
 -1      2238 1.14355E-03 6.58250E-02-9.47534E-02
 -1      2240 1.41300E-03 3.30204E-02-9.47022E-02
 -1      2241 1.88930E-03 6.10246E-02-9.16572E-02
 -1      2243 2.47090E-03 2.93306E-02-9.16176E-02
 -1      2244 2.40905E-03 5.39435E-02-8.63262E-02
 -1      2246 3.29335E-03 2.41224E-02-8.62948E-02
 -1      2247 2.65775E-03 4.52436E-02-7.88636E-02
 -1      2249 3.82500E-03 1.80468E-02-7.88463E-02
 -1      2250 2.62601E-03 3.56915E-02-6.94307E-02
 -1      2252 4.05228E-03 1.17854E-02-6.94243E-02
 -1      2253 2.34977E-03 2.60182E-02-5.82339E-02
 -1      2255 4.00178E-03 6.00926E-03-5.82386E-02
 -1      2256 1.89762E-03 1.68473E-02-4.55341E-02
 -1      2258 3.73725E-03 1.23492E-03-4.55457E-02
 -1      2259 1.36369E-03 8.59713E-03-3.16355E-02
 -1      2261 3.34525E-03-2.21741E-03-3.16510E-02
 -1      2262 8.49105E-04 1.45379E-03-1.68846E-02
 -1      2264 2.92312E-03-4.28713E-03-1.69000E-02
 -1      2265 4.48342E-04-4.64313E-03-1.65845E-03
 -1      2267 2.56062E-03-5.15845E-03-1.67037E-03
 -1      2268 2.32175E-04-9.95745E-03 1.36451E-02
 -1      2270 2.32748E-03-5.22882E-03 1.36385E-02
 -1      2271 2.39059E-04-1.48902E-02 2.86212E-02
 -1      2273 2.26133E-03-5.03427E-03 2.86212E-02
 -1      2274 4.67663E-04-1.98917E-02 4.28709E-02
 -1      2276 2.36327E-03-5.15231E-03 4.28761E-02
 -1      2277 8.81008E-04-2.53621E-02 5.60191E-02
 -1      2279 2.60041E-03-6.11433E-03 5.60286E-02
 -1      2280 1.41213E-03-3.15781E-02 6.77178E-02
 -1      2282 2.90933E-03-8.30183E-03 6.77278E-02
 -1      2283 1.97861E-03-3.86252E-02 7.76828E-02
 -1      2285 3.22112E-03-1.19140E-02 7.76915E-02
 -1      2286 2.50530E-03-4.63946E-02 8.56439E-02
 -1      2288 3.45202E-03-1.69121E-02 8.56481E-02
 -1      2289 2.91938E-03-5.45962E-02 9.14813E-02
 -1      2291 3.57713E-03-2.30884E-02 9.14798E-02
 -1      2292 3.24073E-03-6.28361E-02 9.49457E-02
 -1      2294 3.53648E-03-3.00939E-02 9.49408E-02
 -3
    1PSTEP                        50           1           1          
    1PGM                1.000000E+00                                  
    1PGK                9.455029E+06                                  
    1PHID                         -1                                  
    1PSUBC                         0                                  
    1PMODE                        13                                  
  100CL  113 489.3860372         930                     2   13MODAL      1
 -4  STRESS      6    1
 -5  SXX         1    4    1    1
 -5  SYY         1    4    2    2
 -5  SZZ         1    4    3    3
 -5  SXY         1    4    1    2
 -5  SYZ         1    4    2    3
 -5  SZX         1    4    3    1
 -1       404-3.63684E+09-4.24580E+08-3.17893E+06 4.23878E+08-7.09077E+06 9.32578E+08
 -1       406-3.63684E+09-4.24580E+08-3.17893E+06 4.23878E+08-7.09077E+06 9.32578E+08
 -1       407 1.00771E+08-6.79463E+07 5.00678E+05-3.88475E+07-3.24668E+07 1.41405E+07
 -1       409 1.00771E+08-6.79463E+07 5.00678E+05-3.88475E+07-3.24668E+07 1.41405E+07
 -1       410 5.16375E-03 1.70581E-03-1.96557E-04-7.81471E+07-3.99652E+08 1.51321E-05
 -1       412 5.16375E-03 1.70581E-03-1.96557E-04-7.81471E+07-3.99652E+08 1.51321E-05
 -1       413-1.57718E-04 3.50101E-04-2.10574E-02-6.82252E+06-4.10397E+08 4.65361E-03
 -1       415-1.57718E-04 3.50101E-04-2.10574E-02-6.82252E+06-4.10397E+08 4.65361E-03
 -1       424 1.86805E-02 2.32357E-03-1.21176E-04 6.09761E+08-2.03287E+08 2.27795E-03
 -1       426 1.86805E-02 2.32357E-03-1.21176E-04 6.09761E+08-2.03287E+08 2.27795E-03
 -1       427 1.23129E-02 1.18511E-04 4.08670E-03-4.04171E+07-1.15031E+08 4.41873E-02
 -1       429 1.23129E-02 1.18511E-04 4.08670E-03-4.04171E+07-1.15031E+08 4.41873E-02
 -1       438-1.00771E+08 6.79463E+07-5.00678E+05-3.88475E+07-3.24668E+07-1.41405E+07
 -1       440-1.00771E+08 6.79463E+07-5.00678E+05-3.88475E+07-3.24668E+07-1.41405E+07
 -1       441 3.63684E+09 4.24580E+08 3.17893E+06 4.23878E+08-7.09077E+06-9.32578E+08
 -1       443 3.63684E+09 4.24580E+08 3.17893E+06 4.23878E+08-7.09077E+06-9.32578E+08
 -1       444-3.54638E-02-2.85991E-04-1.09920E-02-4.04171E+07 1.15031E+08 4.21636E-02
 -1       446-3.54638E-02-2.85991E-04-1.09920E-02-4.04171E+07 1.15031E+08 4.21636E-02
 -1       447-4.31671E-02-5.14352E-03 5.72205E-05 6.09761E+08 2.03287E+08 2.04984E-03
 -1       449-4.31671E-02-5.14352E-03 5.72205E-05 6.09761E+08 2.03287E+08 2.04984E-03
 -1       458-5.07075E-04 4.52799E-04 1.23925E-03-6.82252E+06 4.10397E+08 4.38344E-03
 -1       460-5.07075E-04 4.52799E-04 1.23925E-03-6.82252E+06 4.10397E+08 4.38344E-03
 -1       461-2.66039E-03-1.89677E-03-9.55537E-06-7.81471E+07 3.99652E+08-1.68310E-04
 -1       463-2.66039E-03-1.89677E-03-9.55537E-06-7.81471E+07 3.99652E+08-1.68310E-04
 -1       472 3.63684E+09 4.24580E+08 3.17893E+06 4.23878E+08 7.09077E+06 9.32578E+08
 -1       474 3.63684E+09 4.24580E+08 3.17893E+06 4.23878E+08 7.09077E+06 9.32578E+08
 -1       475-1.00771E+08 6.79463E+07-5.00678E+05-3.88475E+07 3.24668E+07 1.41405E+07
 -1       477-1.00771E+08 6.79463E+07-5.00678E+05-3.88475E+07 3.24668E+07 1.41405E+07
 -1       478 1.00771E+08-6.79463E+07 5.00678E+05-3.88475E+07 3.24668E+07-1.41405E+07
 -1       480 1.00771E+08-6.79463E+07 5.00678E+05-3.88475E+07 3.24668E+07-1.41405E+07
 -1       481-3.63684E+09-4.24580E+08-3.17893E+06 4.23878E+08 7.09077E+06-9.32578E+08
 -1       483-3.63684E+09-4.24580E+08-3.17893E+06 4.23878E+08 7.09077E+06-9.32578E+08
 -1       484-3.27760E+09-1.28115E+08 1.18656E+06 2.00972E+08 1.53121E+07 3.21069E+08
 -1       486-3.27760E+09-1.28115E+08 1.18656E+06 2.00972E+08 1.53121E+07 3.21069E+08
 -1       487-2.65415E+09 7.72114E+07-3.90374E+06 1.08174E+08 2.16891E+07-3.60827E+06
 -1       489-2.65415E+09 7.72114E+07-3.90374E+06 1.08174E+08 2.16891E+07-3.60827E+06
 -1       490-1.91031E+09 1.31502E+07-1.19758E+06 2.34982E+08 1.24457E+07 1.44776E+08
 -1       492-1.91031E+09 1.31502E+07-1.19758E+06 2.34982E+08 1.24457E+07 1.44776E+08
 -1       493-9.46988E+08 3.89422E+07-7.35918E+05 2.39737E+08 2.30702E+07 6.35146E+07
 -1       495-9.46988E+08 3.89422E+07-7.35918E+05 2.39737E+08 2.30702E+07 6.35146E+07
 -1       496 9.84290E+07 4.76288E+07-1.27839E+06 2.65404E+08 2.42100E+07 8.70542E+07
 -1       498 9.84290E+07 4.76288E+07-1.27839E+06 2.65404E+08 2.42100E+07 8.70542E+07
 -1       499 1.17813E+09 5.13473E+07 1.08836E+06 2.57786E+08 2.91268E+07 5.88191E+07
 -1       501 1.17813E+09 5.13473E+07 1.08836E+06 2.57786E+08 2.91268E+07 5.88191E+07
 -1       502 2.14486E+09 5.77933E+07 1.70879E+04 2.13806E+08 3.23584E+07 5.20468E+07
 -1       504 2.14486E+09 5.77933E+07 1.70879E+04 2.13806E+08 3.23584E+07 5.20468E+07
 -1       505 2.89847E+09 6.26923E+07 2.06919E+06 1.50985E+08 3.42204E+07 3.36922E+07
 -1       507 2.89847E+09 6.26923E+07 2.06919E+06 1.50985E+08 3.42204E+07 3.36922E+07
 -1       508 3.33858E+09 6.35173E+07 1.05513E+06 6.38809E+07 3.63333E+07 1.90609E+07
 -1       510 3.33858E+09 6.35173E+07 1.05513E+06 6.38809E+07 3.63333E+07 1.90609E+07
 -1       511 3.41796E+09 6.64804E+07 2.14678E+06-2.64626E+07 3.60190E+07 2.08704E+06
 -1       513 3.41796E+09 6.64804E+07 2.14678E+06-2.64626E+07 3.60190E+07 2.08704E+06
 -1       514 3.13173E+09 6.43609E+07 1.09732E+06-1.12952E+08 3.60310E+07-1.42822E+07
 -1       516 3.13173E+09 6.43609E+07 1.09732E+06-1.12952E+08 3.60310E+07-1.42822E+07
 -1       517 2.53020E+09 6.36205E+07 1.29898E+06-1.80322E+08 3.38077E+07-3.05195E+07
 -1       519 2.53020E+09 6.36205E+07 1.29898E+06-1.80322E+08 3.38077E+07-3.05195E+07
 -1       520 1.70500E+09 5.91619E+07 2.22073E+05-2.20725E+08 3.17199E+07-4.61122E+07
 -1       522 1.70500E+09 5.91619E+07 2.22073E+05-2.20725E+08 3.17199E+07-4.61122E+07
 -1       523 7.79333E+08 5.48000E+07-5.17699E+04-2.28193E+08 2.79593E+07-6.05366E+07
 -1       525 7.79333E+08 5.48000E+07-5.17699E+04-2.28193E+08 2.79593E+07-6.05366E+07
 -1       526-1.13578E+08 4.79934E+07-9.26913E+05-2.02856E+08 2.42647E+07-7.36658E+07
 -1       528-1.13578E+08 4.79934E+07-9.26913E+05-2.02856E+08 2.42647E+07-7.36658E+07
 -1       529-8.49204E+08 4.06432E+07-1.17566E+06-1.49457E+08 1.95243E+07-8.49218E+07
 -1       531-8.49204E+08 4.06432E+07-1.17566E+06-1.49457E+08 1.95243E+07-8.49218E+07
 -1       532-1.33189E+09 3.17449E+07-1.57620E+06-7.71708E+07 1.48886E+07-9.42175E+07
 -1       534-1.33189E+09 3.17449E+07-1.57620E+06-7.71708E+07 1.48886E+07-9.42175E+07
 -1       535-1.50843E+09 2.22478E+07-1.45744E+06 2.07790E+06 9.75285E+06-1.01105E+08
 -1       537-1.50843E+09 2.22478E+07-1.45744E+06 2.07790E+06 9.75285E+06-1.01105E+08
 -1       538-1.37609E+09 1.19400E+07-1.28974E+06 7.54797E+07 4.76964E+06-1.05539E+08
 -1       540-1.37609E+09 1.19400E+07-1.28974E+06 7.54797E+07 4.76964E+06-1.05539E+08
 -1       541-9.81639E+08 1.33081E+06-7.72872E+05 1.31435E+08-3.09918E+05-1.07249E+08
 -1       543-9.81639E+08 1.33081E+06-7.72872E+05 1.31435E+08-3.09918E+05-1.07249E+08
 -1       544-4.12853E+08-9.37077E+06-2.20057E+05 1.61376E+08-5.23624E+06-1.06269E+08
 -1       546-4.12853E+08-9.37077E+06-2.20057E+05 1.61376E+08-5.23624E+06-1.06269E+08
 -1       547 2.16949E+08-1.99030E+07 4.33278E+05 1.61375E+08-9.97890E+06-1.02566E+08
 -1       549 2.16949E+08-1.99030E+07 4.33278E+05 1.61375E+08-9.97890E+06-1.02566E+08
 -1       550 7.88735E+08-2.98675E+07 1.00064E+06 1.32452E+08-1.45841E+07-9.61758E+07
 -1       552 7.88735E+08-2.98675E+07 1.00064E+06 1.32452E+08-1.45841E+07-9.61758E+07
 -1       553 1.19864E+09-3.90657E+07 1.42406E+06 8.13458E+07-1.87864E+07-8.75475E+07
 -1       555 1.19864E+09-3.90657E+07 1.42406E+06 8.13458E+07-1.87864E+07-8.75475E+07
 -1       556 1.37778E+09-4.73805E+07 1.66277E+06 1.81977E+07-2.27612E+07-7.61532E+07
 -1       558 1.37778E+09-4.73805E+07 1.66277E+06 1.81977E+07-2.27612E+07-7.61532E+07
 -1       559 1.30596E+09-5.39935E+07 1.64179E+06-4.25173E+07-2.61616E+07-6.41194E+07
 -1       561 1.30596E+09-5.39935E+07 1.64179E+06-4.25173E+07-2.61616E+07-6.41194E+07
 -1       562 1.02177E+09-6.01811E+07 1.43210E+06-8.67997E+07-2.89058E+07-4.76769E+07
 -1       564 1.02177E+09-6.01811E+07 1.43210E+06-8.67997E+07-2.89058E+07-4.76769E+07
 -1       565 6.19874E+08-6.36295E+07 1.10427E+06-1.00679E+08-3.11616E+07-3.61878E+07
 -1       567 6.19874E+08-6.36295E+07 1.10427E+06-1.00679E+08-3.11616E+07-3.61878E+07
 -1       568 2.52508E+08-6.59142E+07 5.85388E+05-6.82462E+07-3.18535E+07-1.08030E+07
 -1       570 2.52508E+08-6.59142E+07 5.85388E+05-6.82462E+07-3.18535E+07-1.08030E+07
 -1       571 4.99060E+07-1.23776E+08-6.65214E+05-5.84973E+07-2.16059E+08 1.13811E+07
 -1       573 4.99060E+07-1.23776E+08-6.65214E+05-5.84973E+07-2.16059E+08 1.13811E+07
 -1       574 1.07225E-02 4.44137E-04-1.56753E-04 3.65212E+08-6.66648E+07 4.09827E-04
 -1       576 1.07225E-02 4.44137E-04-1.56753E-04 3.65212E+08-6.66648E+07 4.09827E-04
 -1       577 5.38823E-03-3.23791E-05-7.09367E-04 3.55369E+07-6.28528E+07 4.60077E-02
 -1       579 5.38823E-03-3.23791E-05-7.09367E-04 3.55369E+07-6.28528E+07 4.60077E-02
 -1       588-2.85694E-03-4.09774E-04-6.98380E-05 3.32688E+08 1.21933E+08-3.92593E-04
 -1       590-2.85694E-03-4.09774E-04-6.98380E-05 3.32688E+08 1.21933E+08-3.92593E-04
 -1       591-5.87135E-03-3.71865E-04-6.86039E-03 8.13229E+07 8.46375E+07 4.39081E-02
 -1       593-5.87135E-03-3.71865E-04-6.86039E-03 8.13229E+07 8.46375E+07 4.39081E-02
 -1       602-1.24989E-02 4.80372E-04 4.63910E-05 4.82205E+08 1.64825E+08 6.55726E-05
 -1       604-1.24989E-02 4.80372E-04 4.63910E-05 4.82205E+08 1.64825E+08 6.55726E-05
 -1       605-1.29666E-02-1.23777E-04-4.38795E-03 5.01114E+07 1.76165E+08 3.85655E-02
 -1       607-1.29666E-02-1.23777E-04-4.38795E-03 5.01114E+07 1.76165E+08 3.85655E-02
 -1       616-2.18672E-02 4.29325E-04 5.04060E-05 5.25105E+08 2.20073E+08-1.72198E-04
 -1       618-2.18672E-02 4.29325E-04 5.04060E-05 5.25105E+08 2.20073E+08-1.72198E-04
 -1       619-1.99602E-02 4.04946E-05 7.82810E-04 5.76678E+07 2.18244E+08 3.48334E-02
 -1       621-1.99602E-02 4.04946E-05 7.82810E-04 5.76678E+07 2.18244E+08 3.48334E-02
 -1       630-3.26176E-02 7.80659E-04-1.67469E-04 5.92694E+08 2.76625E+08-5.33834E-05
 -1       632-3.26176E-02 7.80659E-04-1.67469E-04 5.92694E+08 2.76625E+08-5.33834E-05
 -1       633-2.86217E-02 2.60959E-05 8.08763E-04 4.68238E+07 2.85042E+08 3.05199E-02
 -1       635-2.86217E-02 2.60959E-05 8.08763E-04 4.68238E+07 2.85042E+08 3.05199E-02
 -1       644-4.14882E-02 1.07890E-03-2.38253E-04 5.50750E+08 3.12351E+08-1.85793E-04
 -1       646-4.14882E-02 1.07890E-03-2.38253E-04 5.50750E+08 3.12351E+08-1.85793E-04
 -1       647-3.61770E-02 5.61896E-04-4.46043E-03 3.86920E+07 3.27817E+08 2.49617E-02
 -1       649-3.61770E-02 5.61896E-04-4.46043E-03 3.86920E+07 3.27817E+08 2.49617E-02
 -1       658-4.54701E-02 6.22895E-04-9.32664E-05 4.75788E+08 3.53272E+08-1.31426E-04
 -1       660-4.54701E-02 6.22895E-04-9.32664E-05 4.75788E+08 3.53272E+08-1.31426E-04
 -1       661-3.97737E-02 8.25431E-04-1.07100E-02 3.23479E+07 3.70520E+08 1.56059E-02
 -1       663-3.97737E-02 8.25431E-04-1.07100E-02 3.23479E+07 3.70520E+08 1.56059E-02
 -1       672-4.41282E-02-4.47839E-04-4.99338E-05 3.24211E+08 3.74725E+08-2.31675E-04
 -1       674-4.41282E-02-4.47839E-04-4.99338E-05 3.24211E+08 3.74725E+08-2.31675E-04
 -1       675-3.82430E-02 1.07922E-03-1.13171E-02 2.02991E+07 4.00068E+08 4.70928E-03
 -1       677-3.82430E-02 1.07922E-03-1.13171E-02 2.02991E+07 4.00068E+08 4.70928E-03
 -1       686-4.00424E-02-6.08109E-04 1.77696E-04 1.42651E+08 3.94517E+08-1.32704E-04
 -1       688-4.00424E-02-6.08109E-04 1.77696E-04 1.42651E+08 3.94517E+08-1.32704E-04
 -1       689-3.54453E-02 6.43283E-04-8.88435E-03 1.30794E+07 4.18471E+08-2.27815E-03
 -1       691-3.54453E-02 6.43283E-04-8.88435E-03 1.30794E+07 4.18471E+08-2.27815E-03
 -1       700-3.58980E-02 5.76623E-04 4.48555E-04-5.86758E+07 3.98073E+08-3.71821E-05
 -1       702-3.58980E-02 5.76623E-04 4.48555E-04-5.86758E+07 3.98073E+08-3.71821E-05
 -1       703-3.41291E-02-6.31036E-04-1.03293E-02 9.52292E+05 4.24818E+08-6.88255E-03
 -1       705-3.41291E-02-6.31036E-04-1.03293E-02 9.52292E+05 4.24818E+08-6.88255E-03
 -1       714-3.14206E-02 1.32330E-03 2.57149E-04-2.45178E+08 3.95649E+08-2.52901E-05
 -1       716-3.14206E-02 1.32330E-03 2.57149E-04-2.45178E+08 3.95649E+08-2.52901E-05
 -1       717-3.13145E-02 2.27346E-04-1.45570E-02-7.51526E+06 4.17423E+08-1.41700E-02
 -1       719-3.13145E-02 2.27346E-04-1.45570E-02-7.51526E+06 4.17423E+08-1.41700E-02
 -1       728-2.49127E-02 8.61935E-04 2.19271E-05-3.92912E+08 3.79745E+08 3.73758E-05
 -1       730-2.49127E-02 8.61935E-04 2.19271E-05-3.92912E+08 3.79745E+08 3.73758E-05
 -1       731-2.57313E-02 1.28541E-03-1.75460E-02-1.86712E+07 3.98634E+08-2.33135E-02
 -1       733-2.57313E-02 1.28541E-03-1.75460E-02-1.86712E+07 3.98634E+08-2.33135E-02
 -1       742-1.59674E-02 2.53469E-05-3.24249E-04-4.80906E+08 3.56490E+08 4.96693E-05
 -1       744-1.59674E-02 2.53469E-05-3.24249E-04-4.80906E+08 3.56490E+08 4.96693E-05
 -1       745-1.86790E-02 8.24611E-04-1.70803E-02-2.73833E+07 3.67771E+08-3.11394E-02
 -1       747-1.86790E-02 8.24611E-04-1.70803E-02-2.73833E+07 3.67771E+08-3.11394E-02
 -1       756-4.61942E-03 2.64429E-04-2.52519E-04-4.97466E+08 3.22564E+08 1.56362E-04
 -1       758-4.61942E-03 2.64429E-04-2.52519E-04-4.97466E+08 3.22564E+08 1.56362E-04
 -1       759-1.04024E-02 2.09667E-04-1.36900E-02-3.70263E+07 3.28083E+08-3.63049E-02
 -1       761-1.04024E-02 2.09667E-04-1.36900E-02-3.70263E+07 3.28083E+08-3.63049E-02
 -1       770 8.15391E-03 1.63828E-03 5.68636E-04-4.42718E+08 2.82006E+08 1.20629E-04
 -1       772 8.15391E-03 1.63828E-03 5.68636E-04-4.42718E+08 2.82006E+08 1.20629E-04
 -1       773-2.28567E-04-3.28082E-04-1.05018E-02-4.47936E+07 2.80206E+08-3.80103E-02
 -1       775-2.28567E-04-3.28082E-04-1.05018E-02-4.47936E+07 2.80206E+08-3.80103E-02
 -1       784 1.86171E-02 2.20701E-03 2.86578E-04-3.26706E+08 2.33859E+08 1.93913E-04
 -1       786 1.86171E-02 2.20701E-03 2.86578E-04-3.26706E+08 2.33859E+08 1.93913E-04
 -1       787 9.84995E-03 3.66756E-04-8.37485E-03-5.23032E+07 2.27300E+08-3.58888E-02
 -1       789 9.84995E-03 3.66756E-04-8.37485E-03-5.23032E+07 2.27300E+08-3.58888E-02
 -1       798 2.64920E-02 1.34034E-03 9.17781E-05-1.69740E+08 1.81009E+08 5.96903E-05
 -1       800 2.64920E-02 1.34034E-03 9.17781E-05-1.69740E+08 1.81009E+08 5.96903E-05
 -1       801 1.72053E-02 1.78711E-04-5.54488E-03-5.80291E+07 1.70523E+08-3.11293E-02
 -1       803 1.72053E-02 1.78711E-04-5.54488E-03-5.80291E+07 1.70523E+08-3.11293E-02
 -1       812 3.52895E-02-5.22863E-04 1.13584E-04 2.58132E+06 1.23779E+08-6.83703E-05
 -1       814 3.52895E-02-5.22863E-04 1.13584E-04 2.58132E+06 1.23779E+08-6.83703E-05
 -1       815 2.46545E-02-2.04998E-04-1.28968E-03-6.27261E+07 1.12267E+08-2.30448E-02
 -1       817 2.46545E-02-2.04998E-04-1.28968E-03-6.27261E+07 1.12267E+08-2.30448E-02
 -1       826 4.48661E-02-1.94335E-03-4.49084E-05 1.62150E+08 6.42587E+07-4.53964E-05
 -1       828 4.48661E-02-1.94335E-03-4.49084E-05 1.62150E+08 6.42587E+07-4.53964E-05
 -1       829 3.24603E-02-1.76572E-04 5.58225E-04-6.55287E+07 5.34642E+07-1.28332E-02
 -1       831 3.24603E-02-1.76572E-04 5.58225E-04-6.55287E+07 5.34642E+07-1.28332E-02
 -1       840 5.21278E-02-2.29830E-03-3.15698E-04 2.83906E+08 3.47877E+06-1.36193E-04
 -1       842 5.21278E-02-2.29830E-03-3.15698E-04 2.83906E+08 3.47877E+06-1.36193E-04
 -1       843 3.84652E-02-1.15562E-04-4.12190E-05-6.68756E+07-4.54036E+06-4.74423E-03
 -1       845 3.84652E-02-1.15562E-04-4.12190E-05-6.68756E+07-4.54036E+06-4.74423E-03
 -1       854 5.58154E-02-1.73870E-03-1.04591E-04 3.49199E+08-5.71758E+07-1.45718E-04
 -1       856 5.58154E-02-1.73870E-03-1.04591E-04 3.49199E+08-5.71758E+07-1.45718E-04
 -1       857 4.17979E-02-8.44521E-05 6.83608E-04-6.62297E+07-6.12722E+07 8.40659E-04
 -1       859 4.17979E-02-8.44521E-05 6.83608E-04-6.62297E+07-6.12722E+07 8.40659E-04
 -1       868 5.56621E-02-8.17984E-04 1.44477E-04 3.49317E+08-1.16149E+08-2.86110E-04
 -1       870 5.56621E-02-8.17984E-04 1.44477E-04 3.49317E+08-1.16149E+08-2.86110E-04
 -1       871 4.16614E-02-5.23655E-04 9.68681E-04-6.40411E+07-1.16174E+08 7.81594E-03
 -1       873 4.16614E-02-5.23655E-04 9.68681E-04-6.40411E+07-1.16174E+08 7.81594E-03
 -1       882 5.18538E-02-1.86469E-04-1.70956E-04 2.87057E+08-1.72816E+08-2.27261E-04
 -1       884 5.18538E-02-1.86469E-04-1.70956E-04 2.87057E+08-1.72816E+08-2.27261E-04
 -1       885 3.85058E-02 8.19980E-05-3.10500E-03-5.99068E+07-1.68980E+08 1.58297E-02
 -1       887 3.85058E-02 8.19980E-05-3.10500E-03-5.99068E+07-1.68980E+08 1.58297E-02
 -1       896 4.50237E-02 9.25228E-04 5.93865E-04 1.75896E+08-2.24971E+08-4.22996E-04
 -1       898 4.50237E-02 9.25228E-04 5.93865E-04 1.75896E+08-2.24971E+08-4.22996E-04
 -1       899 3.13462E-02-4.86433E-04-1.09741E-02-5.44583E+07-2.19198E+08 2.11161E-02
 -1       901 3.13462E-02-4.86433E-04-1.09741E-02-5.44583E+07-2.19198E+08 2.11161E-02
 -1       910 3.54928E-02 8.60326E-04 2.96045E-04 4.01892E+07-2.72979E+08-2.43794E-04
 -1       912 3.54928E-02 8.60326E-04 2.96045E-04 4.01892E+07-2.72979E+08-2.43794E-04
 -1       913 2.26817E-02-6.35189E-04-1.72994E-02-4.73466E+07-2.66513E+08 2.30243E-02
 -1       915 2.26817E-02-6.35189E-04-1.72994E-02-4.73466E+07-2.66513E+08 2.30243E-02
 -1       924 2.68249E-02-4.00789E-04 2.07869E-04-9.21800E+07-3.13686E+08-2.12133E-04
 -1       926 2.68249E-02-4.00789E-04 2.07869E-04-9.21800E+07-3.13686E+08-2.12133E-04
 -1       927 1.55643E-02-1.94487E-04-1.99041E-02-3.92872E+07-3.09390E+08 2.11225E-02
 -1       929 1.55643E-02-1.94487E-04-1.99041E-02-3.92872E+07-3.09390E+08 2.11225E-02
 -1       938 2.02554E-02-9.81763E-05 3.56823E-04-1.85729E+08-3.48674E+08-1.64913E-04
 -1       940 2.02554E-02-9.81763E-05 3.56823E-04-1.85729E+08-3.48674E+08-1.64913E-04
 -1       941 9.74950E-03-2.90943E-04-2.03172E-02-3.02985E+07-3.48010E+08 1.86568E-02
 -1       943 9.74950E-03-2.90943E-04-2.03172E-02-3.02985E+07-3.48010E+08 1.86568E-02
 -1       952 1.43195E-02 1.33339E-03 1.45491E-04-2.14341E+08-3.74210E+08 7.77468E-06
 -1       954 1.43195E-02 1.33339E-03 1.45491E-04-2.14341E+08-3.74210E+08 7.77468E-06
 -1       955 4.83825E-03-4.71502E-04-2.07096E-02-2.03027E+07-3.78141E+08 1.59297E-02
 -1       957 4.83825E-03-4.71502E-04-2.07096E-02-2.03027E+07-3.78141E+08 1.59297E-02
 -1       966 8.38126E-03 1.85315E-03 1.95319E-04-1.44893E+08-3.90247E+08-1.38781E-04
 -1       968 8.38126E-03 1.85315E-03 1.95319E-04-1.44893E+08-3.90247E+08-1.38781E-04
 -1       969 1.18380E-03-3.57869E-04-2.11839E-02-1.12454E+07-4.00245E+08 9.14812E-03
 -1       971 1.18380E-03-3.57869E-04-2.11839E-02-1.12454E+07-4.00245E+08 9.14812E-03
 -1       980-2.45137E+09-5.37271E+08-2.84693E+06 5.16819E+08-1.05189E+08 4.29790E+08
 -1       982-2.45137E+09-5.37271E+08-2.84693E+06 5.16819E+08-1.05189E+08 4.29790E+08
 -1       983-4.99060E+07 1.23776E+08 6.65214E+05-5.84973E+07-2.16059E+08-1.13811E+07
 -1       985-4.99060E+07 1.23776E+08 6.65214E+05-5.84973E+07-2.16059E+08-1.13811E+07
 -1       986 3.27760E+09 1.28115E+08-1.18656E+06 2.00972E+08 1.53121E+07-3.21069E+08
 -1       988 3.27760E+09 1.28115E+08-1.18656E+06 2.00972E+08 1.53121E+07-3.21069E+08
 -1       989 2.65415E+09-7.72114E+07 3.90374E+06 1.08174E+08 2.16891E+07 3.60827E+06
 -1       991 2.65415E+09-7.72114E+07 3.90374E+06 1.08174E+08 2.16891E+07 3.60827E+06
 -1       992 1.91031E+09-1.31502E+07 1.19758E+06 2.34982E+08 1.24457E+07-1.44776E+08
 -1       994 1.91031E+09-1.31502E+07 1.19758E+06 2.34982E+08 1.24457E+07-1.44776E+08
 -1       995 9.46988E+08-3.89422E+07 7.35918E+05 2.39737E+08 2.30702E+07-6.35146E+07
 -1       997 9.46988E+08-3.89422E+07 7.35918E+05 2.39737E+08 2.30702E+07-6.35146E+07
 -1       998-9.84290E+07-4.76288E+07 1.27839E+06 2.65404E+08 2.42100E+07-8.70542E+07
 -1      1000-9.84290E+07-4.76288E+07 1.27839E+06 2.65404E+08 2.42100E+07-8.70542E+07
 -1      1001-1.17813E+09-5.13473E+07-1.08836E+06 2.57786E+08 2.91268E+07-5.88191E+07
 -1      1003-1.17813E+09-5.13473E+07-1.08836E+06 2.57786E+08 2.91268E+07-5.88191E+07
 -1      1004-2.14486E+09-5.77933E+07-1.70879E+04 2.13806E+08 3.23584E+07-5.20468E+07
 -1      1006-2.14486E+09-5.77933E+07-1.70879E+04 2.13806E+08 3.23584E+07-5.20468E+07
 -1      1007-2.89847E+09-6.26923E+07-2.06919E+06 1.50985E+08 3.42204E+07-3.36922E+07
 -1      1009-2.89847E+09-6.26923E+07-2.06919E+06 1.50985E+08 3.42204E+07-3.36922E+07
 -1      1010-3.33858E+09-6.35173E+07-1.05513E+06 6.38809E+07 3.63333E+07-1.90609E+07
 -1      1012-3.33858E+09-6.35173E+07-1.05513E+06 6.38809E+07 3.63333E+07-1.90609E+07
 -1      1013-3.41796E+09-6.64804E+07-2.14678E+06-2.64626E+07 3.60190E+07-2.08704E+06
 -1      1015-3.41796E+09-6.64804E+07-2.14678E+06-2.64626E+07 3.60190E+07-2.08704E+06
 -1      1016-3.13173E+09-6.43609E+07-1.09732E+06-1.12952E+08 3.60310E+07 1.42822E+07
 -1      1018-3.13173E+09-6.43609E+07-1.09732E+06-1.12952E+08 3.60310E+07 1.42822E+07
 -1      1019-2.53020E+09-6.36205E+07-1.29898E+06-1.80322E+08 3.38077E+07 3.05195E+07
 -1      1021-2.53020E+09-6.36205E+07-1.29898E+06-1.80322E+08 3.38077E+07 3.05195E+07
 -1      1022-1.70500E+09-5.91619E+07-2.22073E+05-2.20725E+08 3.17199E+07 4.61122E+07
 -1      1024-1.70500E+09-5.91619E+07-2.22073E+05-2.20725E+08 3.17199E+07 4.61122E+07
 -1      1025-7.79333E+08-5.48000E+07 5.17699E+04-2.28193E+08 2.79593E+07 6.05366E+07
 -1      1027-7.79333E+08-5.48000E+07 5.17699E+04-2.28193E+08 2.79593E+07 6.05366E+07
 -1      1028 1.13578E+08-4.79934E+07 9.26913E+05-2.02856E+08 2.42647E+07 7.36658E+07
 -1      1030 1.13578E+08-4.79934E+07 9.26913E+05-2.02856E+08 2.42647E+07 7.36658E+07
 -1      1031 8.49204E+08-4.06432E+07 1.17566E+06-1.49457E+08 1.95243E+07 8.49218E+07
 -1      1033 8.49204E+08-4.06432E+07 1.17566E+06-1.49457E+08 1.95243E+07 8.49218E+07
 -1      1034 1.33189E+09-3.17449E+07 1.57620E+06-7.71708E+07 1.48886E+07 9.42175E+07
 -1      1036 1.33189E+09-3.17449E+07 1.57620E+06-7.71708E+07 1.48886E+07 9.42175E+07
 -1      1037 1.50843E+09-2.22478E+07 1.45744E+06 2.07790E+06 9.75285E+06 1.01105E+08
 -1      1039 1.50843E+09-2.22478E+07 1.45744E+06 2.07790E+06 9.75285E+06 1.01105E+08
 -1      1040 1.37609E+09-1.19400E+07 1.28974E+06 7.54797E+07 4.76964E+06 1.05539E+08
 -1      1042 1.37609E+09-1.19400E+07 1.28974E+06 7.54797E+07 4.76964E+06 1.05539E+08
 -1      1043 9.81639E+08-1.33081E+06 7.72872E+05 1.31435E+08-3.09918E+05 1.07249E+08
 -1      1045 9.81639E+08-1.33081E+06 7.72872E+05 1.31435E+08-3.09918E+05 1.07249E+08
 -1      1046 4.12853E+08 9.37077E+06 2.20057E+05 1.61376E+08-5.23624E+06 1.06269E+08
 -1      1048 4.12853E+08 9.37077E+06 2.20057E+05 1.61376E+08-5.23624E+06 1.06269E+08
 -1      1049-2.16949E+08 1.99030E+07-4.33278E+05 1.61375E+08-9.97890E+06 1.02566E+08
 -1      1051-2.16949E+08 1.99030E+07-4.33278E+05 1.61375E+08-9.97890E+06 1.02566E+08
 -1      1052-7.88735E+08 2.98675E+07-1.00064E+06 1.32452E+08-1.45841E+07 9.61758E+07
 -1      1054-7.88735E+08 2.98675E+07-1.00064E+06 1.32452E+08-1.45841E+07 9.61758E+07
 -1      1055-1.19864E+09 3.90657E+07-1.42406E+06 8.13458E+07-1.87864E+07 8.75475E+07
 -1      1057-1.19864E+09 3.90657E+07-1.42406E+06 8.13458E+07-1.87864E+07 8.75475E+07
 -1      1058-1.37778E+09 4.73805E+07-1.66277E+06 1.81977E+07-2.27612E+07 7.61532E+07
 -1      1060-1.37778E+09 4.73805E+07-1.66277E+06 1.81977E+07-2.27612E+07 7.61532E+07
 -1      1061-1.30596E+09 5.39935E+07-1.64179E+06-4.25173E+07-2.61616E+07 6.41194E+07
 -1      1063-1.30596E+09 5.39935E+07-1.64179E+06-4.25173E+07-2.61616E+07 6.41194E+07
 -1      1064-1.02177E+09 6.01811E+07-1.43210E+06-8.67997E+07-2.89058E+07 4.76769E+07
 -1      1066-1.02177E+09 6.01811E+07-1.43210E+06-8.67997E+07-2.89058E+07 4.76769E+07
 -1      1067-6.19874E+08 6.36295E+07-1.10427E+06-1.00679E+08-3.11616E+07 3.61878E+07
 -1      1069-6.19874E+08 6.36295E+07-1.10427E+06-1.00679E+08-3.11616E+07 3.61878E+07
 -1      1070-2.52508E+08 6.59142E+07-5.85388E+05-6.82462E+07-3.18535E+07 1.08030E+07
 -1      1072-2.52508E+08 6.59142E+07-5.85388E+05-6.82462E+07-3.18535E+07 1.08030E+07
 -1      1073 2.45137E+09 5.37271E+08 2.84693E+06 5.16819E+08-1.05189E+08-4.29790E+08
 -1      1075 2.45137E+09 5.37271E+08 2.84693E+06 5.16819E+08-1.05189E+08-4.29790E+08
 -1      1076 2.47082E-03-9.89707E-05 5.77474E-04-4.68058E+08 1.71540E+07 4.58739E-02
 -1      1078 2.47082E-03-9.89707E-05 5.77474E-04-4.68058E+08 1.71540E+07 4.58739E-02
 -1      1079-1.15496E-02-1.04130E-04-4.45717E-03-8.95699E+08 5.85616E-05 4.73526E-02
 -1      1081-1.15496E-02-1.04130E-04-4.45717E-03-8.95699E+08 5.85616E-05 4.73526E-02
 -1      1082-2.55959E-02-8.88991E-05-8.48727E-03-4.68058E+08-1.71540E+07 4.46541E-02
 -1      1084-2.55959E-02-8.88991E-05-8.48727E-03-4.68058E+08-1.71540E+07 4.46541E-02
 -1      1085-3.01520E-02-2.33890E-04-6.20191E-03 3.55369E+07 6.28528E+07 4.44863E-02
 -1      1087-3.01520E-02-2.33890E-04-6.20191E-03 3.55369E+07 6.28528E+07 4.44863E-02
 -1      1088-3.68441E-02-1.66395E-03 2.40803E-05 3.65212E+08 6.66648E+07 3.19876E-04
 -1      1090-3.68441E-02-1.66395E-03 2.40803E-05 3.65212E+08 6.66648E+07 3.19876E-04
 -1      1099-1.97982E-02-1.75343E-04 2.42716E-03 8.13229E+07-8.46375E+07 4.41355E-02
 -1      1101-1.97982E-02-1.75343E-04 2.42716E-03 8.13229E+07-8.46375E+07 4.41355E-02
 -1      1102-2.31726E-02 4.58159E-04-2.31780E-04 3.32688E+08-1.21933E+08-3.95957E-04
 -1      1104-2.31726E-02 4.58159E-04-2.31780E-04 3.32688E+08-1.21933E+08-3.95957E-04
 -1      1113-9.40438E-03-1.38165E-04 7.23409E-03 5.01114E+07-1.76165E+08 4.01263E-02
 -1      1115-9.40438E-03-1.38165E-04 7.23409E-03 5.01114E+07-1.76165E+08 4.01263E-02
 -1      1116-9.60760E-03-3.23273E-04-9.09306E-05 4.82205E+08-1.64825E+08 1.70954E-05
 -1      1118-9.60760E-03-3.23273E-04-9.09306E-05 4.82205E+08-1.64825E+08 1.70954E-05
 -1      1127 5.17353E-04-2.97589E-04 1.03812E-02 5.76678E+07-2.18244E+08 3.58453E-02
 -1      1129 5.17353E-04-2.97589E-04 1.03812E-02 5.76678E+07-2.18244E+08 3.58453E-02
 -1      1130 1.90568E-03 2.65680E-04 4.73158E-05 5.25105E+08-2.20073E+08-1.89427E-04
 -1      1132 1.90568E-03 2.65680E-04 4.73158E-05 5.25105E+08-2.20073E+08-1.89427E-04
 -1      1141 8.83050E-03 3.37925E-05 1.46745E-02 4.68238E+07-2.85042E+08 2.94515E-02
 -1      1143 8.83050E-03 3.37925E-05 1.46745E-02 4.68238E+07-2.85042E+08 2.94515E-02
 -1      1144 1.09257E-02-7.21015E-04-1.92744E-04 5.92694E+08-2.76625E+08 2.92920E-05
 -1      1146 1.09257E-02-7.21015E-04-1.92744E-04 5.92694E+08-2.76625E+08 2.92920E-05
 -1      1155 1.44378E-02 8.70746E-04 1.65200E-02 3.86920E+07-3.27817E+08 2.05024E-02
 -1      1157 1.44378E-02 8.70746E-04 1.65200E-02 3.86920E+07-3.27817E+08 2.05024E-02
 -1      1158 1.62468E-02-1.37521E-03-3.86728E-04 5.50750E+08-3.12351E+08-3.93707E-05
 -1      1160 1.62468E-02-1.37521E-03-3.86728E-04 5.50750E+08-3.12351E+08-3.93707E-05
 -1      1169 1.62657E-02 1.67932E-03 1.33461E-02 3.23479E+07-3.70520E+08 9.98880E-03
 -1      1171 1.62657E-02 1.67932E-03 1.33461E-02 3.23479E+07-3.70520E+08 9.98880E-03
 -1      1172 1.81052E-02-5.25415E-04-3.25732E-04 4.75788E+08-3.53272E+08 3.86033E-05
 -1      1174 1.81052E-02-5.25415E-04-3.25732E-04 4.75788E+08-3.53272E+08 3.86033E-05
 -1      1183 1.56369E-02 9.68975E-04 7.79903E-03 2.02991E+07-4.00068E+08 2.59483E-03
 -1      1185 1.56369E-02 9.68975E-04 7.79903E-03 2.02991E+07-4.00068E+08 2.59483E-03
 -1      1186 1.93210E-02-8.22991E-05-1.85870E-04 3.24211E+08-3.74725E+08 1.01999E-04
 -1      1188 1.93210E-02-8.22991E-05-1.85870E-04 3.24211E+08-3.74725E+08 1.01999E-04
 -1      1197 1.52259E-02 1.42526E-05 6.34880E-03 1.30794E+07-4.18471E+08-2.01119E-03
 -1      1199 1.52259E-02 1.42526E-05 6.34880E-03 1.30794E+07-4.18471E+08-2.01119E-03
 -1      1200 2.08542E-02-5.67839E-04 1.45063E-04 1.42651E+08-3.94517E+08 2.70241E-04
 -1      1202 2.08542E-02-5.67839E-04 1.45063E-04 1.42651E+08-3.94517E+08 2.70241E-04
 -1      1211 1.35278E-02 3.05692E-04 7.85270E-03 9.52292E+05-4.24818E+08-9.14120E-03
 -1      1213 1.35278E-02 3.05692E-04 7.85270E-03 9.52292E+05-4.24818E+08-9.14120E-03
 -1      1214 1.90210E-02-1.40563E-03 6.49095E-05-5.86758E+07-3.98073E+08 2.89997E-04
 -1      1216 1.90210E-02-1.40563E-03 6.49095E-05-5.86758E+07-3.98073E+08 2.89997E-04
 -1      1225 8.35744E-03 1.24890E-03 5.52001E-03-7.51526E+06-4.17423E+08-1.86708E-02
 -1      1227 8.35744E-03 1.24890E-03 5.52001E-03-7.51526E+06-4.17423E+08-1.86708E-02
 -1      1228 1.31412E-02-1.80723E-03-4.50499E-04-2.45178E+08-3.95649E+08 2.86005E-04
 -1      1230 1.31412E-02-1.80723E-03-4.50499E-04-2.45178E+08-3.95649E+08 2.86005E-04
 -1      1239 1.84216E-03 3.29258E-04-1.91037E-03-1.86712E+07-3.98634E+08-2.62995E-02
 -1      1241 1.84216E-03 3.29258E-04-1.91037E-03-1.86712E+07-3.98634E+08-2.62995E-02
 -1      1242 7.09626E-03-1.31442E-03-1.11789E-04-3.92912E+08-3.79745E+08 3.97254E-04
 -1      1244 7.09626E-03-1.31442E-03-1.11789E-04-3.92912E+08-3.79745E+08 3.97254E-04
 -1      1253-3.59683E-03 1.05742E-03-8.81012E-03-2.73833E+07-3.67771E+08-3.06445E-02
 -1      1255-3.59683E-03 1.05742E-03-8.81012E-03-2.73833E+07-3.67771E+08-3.06445E-02
 -1      1256 7.49379E-04-8.79295E-04-8.36104E-05-4.80906E+08-3.56490E+08 3.17285E-04
 -1      1258 7.49379E-04-8.79295E-04-8.36104E-05-4.80906E+08-3.56490E+08 3.17285E-04
 -1      1267-9.84836E-03 2.28205E-03-1.24653E-02-3.70263E+07-3.28083E+08-3.30803E-02
 -1      1269-9.84836E-03 2.28205E-03-1.24653E-02-3.70263E+07-3.28083E+08-3.30803E-02
 -1      1270-8.11525E-03-1.43211E-03-1.36230E-04-4.97466E+08-3.22564E+08 3.59386E-04
 -1      1272-8.11525E-03-1.43211E-03-1.36230E-04-4.97466E+08-3.22564E+08 3.59386E-04
 -1      1281-1.94883E-02 8.84935E-05-1.59659E-02-4.47936E+07-2.80206E+08-3.53139E-02
 -1      1283-1.94883E-02 8.84935E-05-1.59659E-02-4.47936E+07-2.80206E+08-3.53139E-02
 -1      1284-1.93129E-02-1.01870E-03 4.25161E-04-4.42718E+08-2.82006E+08 2.56266E-04
 -1      1286-1.93129E-02-1.01870E-03 4.25161E-04-4.42718E+08-2.82006E+08 2.56266E-04
 -1      1295-2.98294E-02-1.27355E-04-1.88565E-02-5.23032E+07-2.27300E+08-3.37170E-02
 -1      1297-2.98294E-02-1.27355E-04-1.88565E-02-5.23032E+07-2.27300E+08-3.37170E-02
 -1      1298-3.14891E-02 5.34013E-04-6.61470E-05-3.26706E+08-2.33859E+08 1.50338E-04
 -1      1300-3.14891E-02 5.34013E-04-6.61470E-05-3.26706E+08-2.33859E+08 1.50338E-04
 -1      1309-3.91511E-02-6.10927E-04-1.90737E-02-5.80291E+07-1.70523E+08-2.65922E-02
 -1      1311-3.91511E-02-6.10927E-04-1.90737E-02-5.80291E+07-1.70523E+08-2.65922E-02
 -1      1312-4.27862E-02 1.11315E-03-7.62213E-05-1.69740E+08-1.81009E+08 2.11570E-04
 -1      1314-4.27862E-02 1.11315E-03-7.62213E-05-1.69740E+08-1.81009E+08 2.11570E-04
 -1      1323-4.69207E-02-5.94330E-04-1.68443E-02-6.27261E+07-1.12267E+08-1.90848E-02
 -1      1325-4.69207E-02-5.94330E-04-1.68443E-02-6.27261E+07-1.12267E+08-1.90848E-02
 -1      1326-5.23375E-02 1.46347E-03 4.33683E-04 2.58132E+06-1.23779E+08 1.51604E-04
 -1      1328-5.23375E-02 1.46347E-03 4.33683E-04 2.58132E+06-1.23779E+08 1.51604E-04
 -1      1337-5.18541E-02-6.55902E-04-1.54482E-02-6.55287E+07-5.34642E+07-1.18471E-02
 -1      1339-5.18541E-02-6.55902E-04-1.54482E-02-6.55287E+07-5.34642E+07-1.18471E-02
 -1      1340-5.83740E-02 2.79156E-03-1.87099E-04 1.62150E+08-6.42587E+07 7.64988E-05
 -1      1342-5.83740E-02 2.79156E-03-1.87099E-04 1.62150E+08-6.42587E+07 7.64988E-05
 -1      1351-5.26036E-02-1.40350E-03-1.43541E-02-6.68756E+07 4.54036E+06-4.26635E-03
 -1      1353-5.26036E-02-1.40350E-03-1.43541E-02-6.68756E+07 4.54036E+06-4.26635E-03
 -1      1354-5.97154E-02 2.88814E-03-1.30387E-04 2.83906E+08-3.47877E+06 1.45696E-05
 -1      1356-5.97154E-02 2.88814E-03-1.30387E-04 2.83906E+08-3.47877E+06 1.45696E-05
 -1      1365-5.00825E-02-6.18020E-04-1.31786E-02-6.62297E+07 6.12722E+07 1.39752E-03
 -1      1367-5.00825E-02-6.18020E-04-1.31786E-02-6.62297E+07 6.12722E+07 1.39752E-03
 -1      1368-5.81178E-02 1.31361E-03 1.81912E-04 3.49199E+08 5.71758E+07-7.36937E-05
 -1      1370-5.81178E-02 1.31361E-03 1.81912E-04 3.49199E+08 5.71758E+07-7.36937E-05
 -1      1379-4.60335E-02-3.16452E-04-1.53287E-02-6.40411E+07 1.16174E+08 6.13446E-03
 -1      1381-4.60335E-02-3.16452E-04-1.53287E-02-6.40411E+07 1.16174E+08 6.13446E-03
 -1      1382-5.40041E-02 1.04901E-03 2.66925E-04 3.49317E+08 1.16149E+08-1.00043E-04
 -1      1384-5.40041E-02 1.04901E-03 2.66925E-04 3.49317E+08 1.16149E+08-1.00043E-04
 -1      1393-4.00473E-02-4.52515E-04-1.88929E-02-5.99068E+07 1.68980E+08 1.33502E-02
 -1      1395-4.00473E-02-4.52515E-04-1.88929E-02-5.99068E+07 1.68980E+08 1.33502E-02
 -1      1396-4.69819E-02 1.52165E-03 6.00895E-04 2.87057E+08 1.72816E+08-1.19936E-04
 -1      1398-4.69819E-02 1.52165E-03 6.00895E-04 2.87057E+08 1.72816E+08-1.19936E-04
 -1      1407-3.29001E-02-2.42350E-05-1.84730E-02-5.44583E+07 2.19198E+08 2.11810E-02
 -1      1409-3.29001E-02-2.42350E-05-1.84730E-02-5.44583E+07 2.19198E+08 2.11810E-02
 -1      1410-3.88794E-02 7.14824E-04 6.59369E-04 1.75896E+08 2.24971E+08-7.00578E-05
 -1      1412-3.88794E-02 7.14824E-04 6.59369E-04 1.75896E+08 2.24971E+08-7.00578E-05
 -1      1421-2.60224E-02 7.99369E-04-1.37458E-02-4.73466E+07 2.66513E+08 2.38684E-02
 -1      1423-2.60224E-02 7.99369E-04-1.37458E-02-4.73466E+07 2.66513E+08 2.38684E-02
 -1      1424-3.14196E-02-8.03277E-04-7.70763E-05 4.01892E+07 2.72979E+08-1.47961E-04
 -1      1426-3.14196E-02-8.03277E-04-7.70763E-05 4.01892E+07 2.72979E+08-1.47961E-04
 -1      1435-2.01164E-02 9.21116E-04-9.45378E-03-3.92872E+07 3.09390E+08 2.17468E-02
 -1      1437-2.01164E-02 9.21116E-04-9.45378E-03-3.92872E+07 3.09390E+08 2.17468E-02
 -1      1438-2.43268E-02-9.02891E-04-1.33514E-05-9.21800E+07 3.13686E+08-2.52200E-04
 -1      1440-2.43268E-02-9.02891E-04-1.33514E-05-9.21800E+07 3.13686E+08-2.52200E-04
 -1      1449-1.45321E-02 1.01530E-03-6.79715E-03-3.02985E+07 3.48010E+08 1.89761E-02
 -1      1451-1.45321E-02 1.01530E-03-6.79715E-03-3.02985E+07 3.48010E+08 1.89761E-02
 -1      1452-1.75318E-02-7.24867E-04-3.35250E-04-1.85729E+08 3.48674E+08-1.93005E-04
 -1      1454-1.75318E-02-7.24867E-04-3.35250E-04-1.85729E+08 3.48674E+08-1.93005E-04
 -1      1463-8.63154E-03 7.19369E-04-4.04739E-03-2.03027E+07 3.78141E+08 1.58020E-02
 -1      1465-8.63154E-03 7.19369E-04-4.04739E-03-2.03027E+07 3.78141E+08 1.58020E-02
 -1      1466-1.09363E-02-5.86212E-04-4.84425E-04-2.14341E+08 3.74210E+08-1.39623E-04
 -1      1468-1.09363E-02-5.86212E-04-4.84425E-04-2.14341E+08 3.74210E+08-1.39623E-04
 -1      1477-3.05380E-03 3.14370E-04-6.38954E-04-1.12454E+07 4.00245E+08 9.06113E-03
 -1      1479-3.05380E-03 3.14370E-04-6.38954E-04-1.12454E+07 4.00245E+08 9.06113E-03
 -1      1480-5.09936E-03-9.50731E-04 1.91379E-04-1.44893E+08 3.90247E+08-6.88825E-05
 -1      1482-5.09936E-03-9.50731E-04 1.91379E-04-1.44893E+08 3.90247E+08-6.88825E-05
 -1      1491 9.08164E-04 1.99064E-03-1.80537E-02-9.34925E+06-1.73085E+08 4.74985E-03
 -1      1493 9.08164E-04 1.99064E-03-1.80537E-02-9.34925E+06-1.73085E+08 4.74985E-03
 -1      1494 1.06957E-03 3.02218E-03-1.13571E-02-1.18760E+07 1.86069E-03 4.23153E-03
 -1      1496 1.06957E-03 3.02218E-03-1.13571E-02-1.18760E+07 1.86069E-03 4.23153E-03
 -1      1497-1.70994E-04 1.43299E-03-3.21250E-03-9.34925E+06 1.73085E+08 4.00020E-03
 -1      1499-1.70994E-04 1.43299E-03-3.21250E-03-9.34925E+06 1.73085E+08 4.00020E-03
 -1      1500 3.27760E+09 1.28115E+08-1.18656E+06 2.00972E+08-1.53121E+07 3.21069E+08
 -1      1502 3.27760E+09 1.28115E+08-1.18656E+06 2.00972E+08-1.53121E+07 3.21069E+08
 -1      1503 2.65415E+09-7.72114E+07 3.90374E+06 1.08174E+08-2.16891E+07-3.60827E+06
 -1      1505 2.65415E+09-7.72114E+07 3.90374E+06 1.08174E+08-2.16891E+07-3.60827E+06
 -1      1506 1.91031E+09-1.31502E+07 1.19758E+06 2.34982E+08-1.24457E+07 1.44776E+08
 -1      1508 1.91031E+09-1.31502E+07 1.19758E+06 2.34982E+08-1.24457E+07 1.44776E+08
 -1      1509 9.46988E+08-3.89422E+07 7.35918E+05 2.39737E+08-2.30702E+07 6.35146E+07
 -1      1511 9.46988E+08-3.89422E+07 7.35918E+05 2.39737E+08-2.30702E+07 6.35146E+07
 -1      1512-9.84290E+07-4.76288E+07 1.27839E+06 2.65404E+08-2.42100E+07 8.70542E+07
 -1      1514-9.84290E+07-4.76288E+07 1.27839E+06 2.65404E+08-2.42100E+07 8.70542E+07
 -1      1515-1.17813E+09-5.13473E+07-1.08836E+06 2.57786E+08-2.91268E+07 5.88191E+07
 -1      1517-1.17813E+09-5.13473E+07-1.08836E+06 2.57786E+08-2.91268E+07 5.88191E+07
 -1      1518-2.14486E+09-5.77933E+07-1.70879E+04 2.13806E+08-3.23584E+07 5.20468E+07
 -1      1520-2.14486E+09-5.77933E+07-1.70879E+04 2.13806E+08-3.23584E+07 5.20468E+07
 -1      1521-2.89847E+09-6.26923E+07-2.06919E+06 1.50985E+08-3.42204E+07 3.36922E+07
 -1      1523-2.89847E+09-6.26923E+07-2.06919E+06 1.50985E+08-3.42204E+07 3.36922E+07
 -1      1524-3.33858E+09-6.35173E+07-1.05513E+06 6.38809E+07-3.63333E+07 1.90609E+07
 -1      1526-3.33858E+09-6.35173E+07-1.05513E+06 6.38809E+07-3.63333E+07 1.90609E+07
 -1      1527-3.41796E+09-6.64804E+07-2.14678E+06-2.64626E+07-3.60190E+07 2.08704E+06
 -1      1529-3.41796E+09-6.64804E+07-2.14678E+06-2.64626E+07-3.60190E+07 2.08704E+06
 -1      1530-3.13173E+09-6.43609E+07-1.09732E+06-1.12952E+08-3.60310E+07-1.42822E+07
 -1      1532-3.13173E+09-6.43609E+07-1.09732E+06-1.12952E+08-3.60310E+07-1.42822E+07
 -1      1533-2.53020E+09-6.36205E+07-1.29898E+06-1.80322E+08-3.38077E+07-3.05195E+07
 -1      1535-2.53020E+09-6.36205E+07-1.29898E+06-1.80322E+08-3.38077E+07-3.05195E+07
 -1      1536-1.70500E+09-5.91619E+07-2.22073E+05-2.20725E+08-3.17199E+07-4.61122E+07
 -1      1538-1.70500E+09-5.91619E+07-2.22073E+05-2.20725E+08-3.17199E+07-4.61122E+07
 -1      1539-7.79333E+08-5.48000E+07 5.17699E+04-2.28193E+08-2.79593E+07-6.05366E+07
 -1      1541-7.79333E+08-5.48000E+07 5.17699E+04-2.28193E+08-2.79593E+07-6.05366E+07
 -1      1542 1.13578E+08-4.79934E+07 9.26913E+05-2.02856E+08-2.42647E+07-7.36658E+07
 -1      1544 1.13578E+08-4.79934E+07 9.26913E+05-2.02856E+08-2.42647E+07-7.36658E+07
 -1      1545 8.49204E+08-4.06432E+07 1.17566E+06-1.49457E+08-1.95243E+07-8.49218E+07
 -1      1547 8.49204E+08-4.06432E+07 1.17566E+06-1.49457E+08-1.95243E+07-8.49218E+07
 -1      1548 1.33189E+09-3.17449E+07 1.57620E+06-7.71708E+07-1.48886E+07-9.42175E+07
 -1      1550 1.33189E+09-3.17449E+07 1.57620E+06-7.71708E+07-1.48886E+07-9.42175E+07
 -1      1551 1.50843E+09-2.22478E+07 1.45744E+06 2.07790E+06-9.75285E+06-1.01105E+08
 -1      1553 1.50843E+09-2.22478E+07 1.45744E+06 2.07790E+06-9.75285E+06-1.01105E+08
 -1      1554 1.37609E+09-1.19400E+07 1.28974E+06 7.54797E+07-4.76964E+06-1.05539E+08
 -1      1556 1.37609E+09-1.19400E+07 1.28974E+06 7.54797E+07-4.76964E+06-1.05539E+08
 -1      1557 9.81639E+08-1.33081E+06 7.72872E+05 1.31435E+08 3.09918E+05-1.07249E+08
 -1      1559 9.81639E+08-1.33081E+06 7.72872E+05 1.31435E+08 3.09918E+05-1.07249E+08
 -1      1560 4.12853E+08 9.37077E+06 2.20057E+05 1.61376E+08 5.23624E+06-1.06269E+08
 -1      1562 4.12853E+08 9.37077E+06 2.20057E+05 1.61376E+08 5.23624E+06-1.06269E+08
 -1      1563-2.16949E+08 1.99030E+07-4.33278E+05 1.61375E+08 9.97890E+06-1.02566E+08
 -1      1565-2.16949E+08 1.99030E+07-4.33278E+05 1.61375E+08 9.97890E+06-1.02566E+08
 -1      1566-7.88735E+08 2.98675E+07-1.00064E+06 1.32452E+08 1.45841E+07-9.61758E+07
 -1      1568-7.88735E+08 2.98675E+07-1.00064E+06 1.32452E+08 1.45841E+07-9.61758E+07
 -1      1569-1.19864E+09 3.90657E+07-1.42406E+06 8.13458E+07 1.87864E+07-8.75475E+07
 -1      1571-1.19864E+09 3.90657E+07-1.42406E+06 8.13458E+07 1.87864E+07-8.75475E+07
 -1      1572-1.37778E+09 4.73805E+07-1.66277E+06 1.81977E+07 2.27612E+07-7.61532E+07
 -1      1574-1.37778E+09 4.73805E+07-1.66277E+06 1.81977E+07 2.27612E+07-7.61532E+07
 -1      1575-1.30596E+09 5.39935E+07-1.64179E+06-4.25173E+07 2.61616E+07-6.41194E+07
 -1      1577-1.30596E+09 5.39935E+07-1.64179E+06-4.25173E+07 2.61616E+07-6.41194E+07
 -1      1578-1.02177E+09 6.01811E+07-1.43210E+06-8.67997E+07 2.89058E+07-4.76769E+07
 -1      1580-1.02177E+09 6.01811E+07-1.43210E+06-8.67997E+07 2.89058E+07-4.76769E+07
 -1      1581-6.19874E+08 6.36295E+07-1.10427E+06-1.00679E+08 3.11616E+07-3.61878E+07
 -1      1583-6.19874E+08 6.36295E+07-1.10427E+06-1.00679E+08 3.11616E+07-3.61878E+07
 -1      1584-2.52508E+08 6.59142E+07-5.85388E+05-6.82462E+07 3.18535E+07-1.08030E+07
 -1      1586-2.52508E+08 6.59142E+07-5.85388E+05-6.82462E+07 3.18535E+07-1.08030E+07
 -1      1587-4.99060E+07 1.23776E+08 6.65214E+05-5.84973E+07 2.16059E+08 1.13811E+07
 -1      1589-4.99060E+07 1.23776E+08 6.65214E+05-5.84973E+07 2.16059E+08 1.13811E+07
 -1      1590 2.45137E+09 5.37271E+08 2.84693E+06 5.16819E+08 1.05189E+08 4.29790E+08
 -1      1592 2.45137E+09 5.37271E+08 2.84693E+06 5.16819E+08 1.05189E+08 4.29790E+08
 -1      1593 4.99060E+07-1.23776E+08-6.65214E+05-5.84973E+07 2.16059E+08-1.13811E+07
 -1      1595 4.99060E+07-1.23776E+08-6.65214E+05-5.84973E+07 2.16059E+08-1.13811E+07
 -1      1596-3.27760E+09-1.28115E+08 1.18656E+06 2.00972E+08-1.53121E+07-3.21069E+08
 -1      1598-3.27760E+09-1.28115E+08 1.18656E+06 2.00972E+08-1.53121E+07-3.21069E+08
 -1      1599-2.65415E+09 7.72114E+07-3.90374E+06 1.08174E+08-2.16891E+07 3.60827E+06
 -1      1601-2.65415E+09 7.72114E+07-3.90374E+06 1.08174E+08-2.16891E+07 3.60827E+06
 -1      1602-1.91031E+09 1.31502E+07-1.19758E+06 2.34982E+08-1.24457E+07-1.44776E+08
 -1      1604-1.91031E+09 1.31502E+07-1.19758E+06 2.34982E+08-1.24457E+07-1.44776E+08
 -1      1605-9.46988E+08 3.89422E+07-7.35918E+05 2.39737E+08-2.30702E+07-6.35146E+07
 -1      1607-9.46988E+08 3.89422E+07-7.35918E+05 2.39737E+08-2.30702E+07-6.35146E+07
 -1      1608 9.84290E+07 4.76288E+07-1.27839E+06 2.65404E+08-2.42100E+07-8.70542E+07
 -1      1610 9.84290E+07 4.76288E+07-1.27839E+06 2.65404E+08-2.42100E+07-8.70542E+07
 -1      1611 1.17813E+09 5.13473E+07 1.08836E+06 2.57786E+08-2.91268E+07-5.88191E+07
 -1      1613 1.17813E+09 5.13473E+07 1.08836E+06 2.57786E+08-2.91268E+07-5.88191E+07
 -1      1614 2.14486E+09 5.77933E+07 1.70879E+04 2.13806E+08-3.23584E+07-5.20468E+07
 -1      1616 2.14486E+09 5.77933E+07 1.70879E+04 2.13806E+08-3.23584E+07-5.20468E+07
 -1      1617 2.89847E+09 6.26923E+07 2.06919E+06 1.50985E+08-3.42204E+07-3.36922E+07
 -1      1619 2.89847E+09 6.26923E+07 2.06919E+06 1.50985E+08-3.42204E+07-3.36922E+07
 -1      1620 3.33858E+09 6.35173E+07 1.05513E+06 6.38809E+07-3.63333E+07-1.90609E+07
 -1      1622 3.33858E+09 6.35173E+07 1.05513E+06 6.38809E+07-3.63333E+07-1.90609E+07
 -1      1623 3.41796E+09 6.64804E+07 2.14678E+06-2.64626E+07-3.60190E+07-2.08704E+06
 -1      1625 3.41796E+09 6.64804E+07 2.14678E+06-2.64626E+07-3.60190E+07-2.08704E+06
 -1      1626 3.13173E+09 6.43609E+07 1.09732E+06-1.12952E+08-3.60310E+07 1.42822E+07
 -1      1628 3.13173E+09 6.43609E+07 1.09732E+06-1.12952E+08-3.60310E+07 1.42822E+07
 -1      1629 2.53020E+09 6.36205E+07 1.29898E+06-1.80322E+08-3.38077E+07 3.05195E+07
 -1      1631 2.53020E+09 6.36205E+07 1.29898E+06-1.80322E+08-3.38077E+07 3.05195E+07
 -1      1632 1.70500E+09 5.91619E+07 2.22073E+05-2.20725E+08-3.17199E+07 4.61122E+07
 -1      1634 1.70500E+09 5.91619E+07 2.22073E+05-2.20725E+08-3.17199E+07 4.61122E+07
 -1      1635 7.79333E+08 5.48000E+07-5.17699E+04-2.28193E+08-2.79593E+07 6.05366E+07
 -1      1637 7.79333E+08 5.48000E+07-5.17699E+04-2.28193E+08-2.79593E+07 6.05366E+07
 -1      1638-1.13578E+08 4.79934E+07-9.26913E+05-2.02856E+08-2.42647E+07 7.36658E+07
 -1      1640-1.13578E+08 4.79934E+07-9.26913E+05-2.02856E+08-2.42647E+07 7.36658E+07
 -1      1641-8.49204E+08 4.06432E+07-1.17566E+06-1.49457E+08-1.95243E+07 8.49218E+07
 -1      1643-8.49204E+08 4.06432E+07-1.17566E+06-1.49457E+08-1.95243E+07 8.49218E+07
 -1      1644-1.33189E+09 3.17449E+07-1.57620E+06-7.71708E+07-1.48886E+07 9.42175E+07
 -1      1646-1.33189E+09 3.17449E+07-1.57620E+06-7.71708E+07-1.48886E+07 9.42175E+07
 -1      1647-1.50843E+09 2.22478E+07-1.45744E+06 2.07790E+06-9.75285E+06 1.01105E+08
 -1      1649-1.50843E+09 2.22478E+07-1.45744E+06 2.07790E+06-9.75285E+06 1.01105E+08
 -1      1650-1.37609E+09 1.19400E+07-1.28974E+06 7.54797E+07-4.76964E+06 1.05539E+08
 -1      1652-1.37609E+09 1.19400E+07-1.28974E+06 7.54797E+07-4.76964E+06 1.05539E+08
 -1      1653-9.81639E+08 1.33081E+06-7.72872E+05 1.31435E+08 3.09918E+05 1.07249E+08
 -1      1655-9.81639E+08 1.33081E+06-7.72872E+05 1.31435E+08 3.09918E+05 1.07249E+08
 -1      1656-4.12853E+08-9.37077E+06-2.20057E+05 1.61376E+08 5.23624E+06 1.06269E+08
 -1      1658-4.12853E+08-9.37077E+06-2.20057E+05 1.61376E+08 5.23624E+06 1.06269E+08
 -1      1659 2.16949E+08-1.99030E+07 4.33278E+05 1.61375E+08 9.97890E+06 1.02566E+08
 -1      1661 2.16949E+08-1.99030E+07 4.33278E+05 1.61375E+08 9.97890E+06 1.02566E+08
 -1      1662 7.88735E+08-2.98675E+07 1.00064E+06 1.32452E+08 1.45841E+07 9.61758E+07
 -1      1664 7.88735E+08-2.98675E+07 1.00064E+06 1.32452E+08 1.45841E+07 9.61758E+07
 -1      1665 1.19864E+09-3.90657E+07 1.42406E+06 8.13458E+07 1.87864E+07 8.75475E+07
 -1      1667 1.19864E+09-3.90657E+07 1.42406E+06 8.13458E+07 1.87864E+07 8.75475E+07
 -1      1668 1.37778E+09-4.73805E+07 1.66277E+06 1.81977E+07 2.27612E+07 7.61532E+07
 -1      1670 1.37778E+09-4.73805E+07 1.66277E+06 1.81977E+07 2.27612E+07 7.61532E+07
 -1      1671 1.30596E+09-5.39935E+07 1.64179E+06-4.25173E+07 2.61616E+07 6.41194E+07
 -1      1673 1.30596E+09-5.39935E+07 1.64179E+06-4.25173E+07 2.61616E+07 6.41194E+07
 -1      1674 1.02177E+09-6.01811E+07 1.43210E+06-8.67997E+07 2.89058E+07 4.76769E+07
 -1      1676 1.02177E+09-6.01811E+07 1.43210E+06-8.67997E+07 2.89058E+07 4.76769E+07
 -1      1677 6.19874E+08-6.36295E+07 1.10427E+06-1.00679E+08 3.11616E+07 3.61878E+07
 -1      1679 6.19874E+08-6.36295E+07 1.10427E+06-1.00679E+08 3.11616E+07 3.61878E+07
 -1      1680 2.52508E+08-6.59142E+07 5.85388E+05-6.82462E+07 3.18535E+07 1.08030E+07
 -1      1682 2.52508E+08-6.59142E+07 5.85388E+05-6.82462E+07 3.18535E+07 1.08030E+07
 -1      1683-2.45137E+09-5.37271E+08-2.84693E+06 5.16819E+08 1.05189E+08-4.29790E+08
 -1      1685-2.45137E+09-5.37271E+08-2.84693E+06 5.16819E+08 1.05189E+08-4.29790E+08
 -1      1686-2.21697E+09-1.92562E+08-1.17228E+06 2.83092E+08-2.56763E+07 1.12365E+08
 -1      1688-2.21697E+09-1.92562E+08-1.17228E+06 2.83092E+08-2.56763E+07 1.12365E+08
 -1      1689-1.75926E+09 1.26876E+08 1.99932E+06 2.20431E+08 7.18108E+07-5.76583E+07
 -1      1691-1.75926E+09 1.26876E+08 1.99932E+06 2.20431E+08 7.18108E+07-5.76583E+07
 -1      1692-1.24608E+09 4.95308E+07-7.41788E+05 3.58594E+08 8.86355E+07 2.31778E+07
 -1      1694-1.24608E+09 4.95308E+07-7.41788E+05 3.58594E+08 8.86355E+07 2.31778E+07
 -1      1695-6.17102E+08 7.34015E+07 5.81598E+05 3.82421E+08 1.21571E+08-1.43163E+07
 -1      1697-6.17102E+08 7.34015E+07 5.81598E+05 3.82421E+08 1.21571E+08-1.43163E+07
 -1      1698 8.74782E+07 1.03237E+08 6.73113E+05 4.29049E+08 1.50418E+08 2.89971E+06
 -1      1700 8.74782E+07 1.03237E+08 6.73113E+05 4.29049E+08 1.50418E+08 2.89971E+06
 -1      1701 8.01541E+08 9.21319E+07 2.00588E+04 4.04268E+08 1.70739E+08-4.31119E+06
 -1      1703 8.01541E+08 9.21319E+07 2.00588E+04 4.04268E+08 1.70739E+08-4.31119E+06
 -1      1704 1.44534E+09 1.12601E+08 1.00644E+06 3.44797E+08 1.92815E+08-7.18017E+05
 -1      1706 1.44534E+09 1.12601E+08 1.00644E+06 3.44797E+08 1.92815E+08-7.18017E+05
 -1      1707 1.94504E+09 1.08318E+08 1.09597E+05 2.37598E+08 2.04473E+08-1.44740E+06
 -1      1709 1.94504E+09 1.08318E+08 1.09597E+05 2.37598E+08 2.04473E+08-1.44740E+06
 -1      1710 2.23793E+09 1.16084E+08 9.26771E+05 1.03266E+08 2.15425E+08-4.38967E+05
 -1      1712 2.23793E+09 1.16084E+08 9.26771E+05 1.03266E+08 2.15425E+08-4.38967E+05
 -1      1713 2.29084E+09 1.15811E+08 3.02627E+05-4.25692E+07 2.17046E+08 1.00010E+05
 -1      1715 2.29084E+09 1.15811E+08 3.02627E+05-4.25692E+07 2.17046E+08 1.00010E+05
 -1      1716 2.10201E+09 1.17880E+08 7.81792E+05-1.79065E+08 2.15840E+08 6.67940E+05
 -1      1718 2.10201E+09 1.17880E+08 7.81792E+05-1.79065E+08 2.15840E+08 6.67940E+05
 -1      1719 1.70353E+09 1.17171E+08 4.21000E+05-2.86617E+08 2.06776E+08 1.30362E+06
 -1      1721 1.70353E+09 1.17171E+08 4.21000E+05-2.86617E+08 2.06776E+08 1.30362E+06
 -1      1722 1.15693E+09 1.15183E+08 6.44472E+05-3.50816E+08 1.94105E+08 1.70100E+06
 -1      1724 1.15693E+09 1.15183E+08 6.44472E+05-3.50816E+08 1.94105E+08 1.70100E+06
 -1      1725 5.42839E+08 1.10559E+08 4.39772E+05-3.62829E+08 1.75262E+08 2.13424E+06
 -1      1727 5.42839E+08 1.10559E+08 4.39772E+05-3.62829E+08 1.75262E+08 2.13424E+06
 -1      1728-5.00813E+07 1.02790E+08 5.01784E+05-3.22787E+08 1.53136E+08 2.33135E+06
 -1      1730-5.00813E+07 1.02790E+08 5.01784E+05-3.22787E+08 1.53136E+08 2.33135E+06
 -1      1731-5.39935E+08 9.14179E+07 3.68852E+05-2.38082E+08 1.26692E+08 2.51176E+06
 -1      1733-5.39935E+08 9.14179E+07 3.68852E+05-2.38082E+08 1.26692E+08 2.51176E+06
 -1      1734-8.63138E+08 7.60749E+07 3.31981E+05-1.23456E+08 9.79489E+07 2.51878E+06
 -1      1736-8.63138E+08 7.60749E+07 3.31981E+05-1.23456E+08 9.79489E+07 2.51878E+06
 -1      1737-9.84642E+08 5.69797E+07 2.25492E+05 2.32961E+06 6.67662E+07 2.51478E+06
 -1      1739-9.84642E+08 5.69797E+07 2.25492E+05 2.32961E+06 6.67662E+07 2.51478E+06
 -1      1740-9.02365E+08 3.45366E+07 1.28599E+05 1.18815E+08 3.45142E+07 2.41324E+06
 -1      1742-9.02365E+08 3.45366E+07 1.28599E+05 1.18815E+08 3.45142E+07 2.41324E+06
 -1      1743-6.47122E+08 9.73240E+06 3.48819E+04 2.07670E+08 1.58442E+06 2.33746E+06
 -1      1745-6.47122E+08 9.73240E+06 3.48819E+04 2.07670E+08 1.58442E+06 2.33746E+06
 -1      1746-2.76670E+08-1.63460E+07-9.50257E+04 2.55287E+08-3.12060E+07 2.22310E+06
 -1      1748-2.76670E+08-1.63460E+07-9.50257E+04 2.55287E+08-3.12060E+07 2.22310E+06
 -1      1749 1.34316E+08-4.21103E+07-1.69099E+05 2.55346E+08-6.30642E+07 2.14942E+06
 -1      1751 1.34316E+08-4.21103E+07-1.69099E+05 2.55346E+08-6.30642E+07 2.14942E+06
 -1      1752 5.07421E+08-6.64790E+07-3.10297E+05 2.09754E+08-9.37000E+07 2.08029E+06
 -1      1754 5.07421E+08-6.64790E+07-3.10297E+05 2.09754E+08-9.37000E+07 2.08029E+06
 -1      1755 7.74273E+08-8.74101E+07-3.51380E+05 1.28621E+08-1.21879E+08 1.95515E+06
 -1      1757 7.74273E+08-8.74101E+07-3.51380E+05 1.28621E+08-1.21879E+08 1.95515E+06
 -1      1758 8.89588E+08-1.05156E+08-4.80320E+05 2.91934E+07-1.47870E+08 2.00579E+06
 -1      1760 8.89588E+08-1.05156E+08-4.80320E+05 2.91934E+07-1.47870E+08 2.00579E+06
 -1      1761 8.40398E+08-1.16646E+08-4.92243E+05-6.73486E+07-1.69924E+08 1.46575E+06
 -1      1763 8.40398E+08-1.16646E+08-4.92243E+05-6.73486E+07-1.69924E+08 1.46575E+06
 -1      1764 6.52187E+08-1.25149E+08-5.60639E+05-1.36264E+08-1.88790E+08 2.14043E+06
 -1      1766 6.52187E+08-1.25149E+08-5.60639E+05-1.36264E+08-1.88790E+08 2.14043E+06
 -1      1767 3.88863E+08-1.26271E+08-6.06041E+05-1.57510E+08-2.02686E+08-2.62882E+05
 -1      1769 3.88863E+08-1.26271E+08-6.06041E+05-1.57510E+08-2.02686E+08-2.62882E+05
 -1      1770 1.49275E+08-1.22789E+08-5.06234E+05-1.06570E+08-2.11050E+08 3.69390E+06
 -1      1772 1.49275E+08-1.22789E+08-5.06234E+05-1.06570E+08-2.11050E+08 3.69390E+06
 -1      1773 2.21697E+09 1.92562E+08 1.17228E+06 2.83092E+08-2.56763E+07-1.12365E+08
 -1      1775 2.21697E+09 1.92562E+08 1.17228E+06 2.83092E+08-2.56763E+07-1.12365E+08
 -1      1776 1.75926E+09-1.26876E+08-1.99932E+06 2.20431E+08 7.18108E+07 5.76583E+07
 -1      1778 1.75926E+09-1.26876E+08-1.99932E+06 2.20431E+08 7.18108E+07 5.76583E+07
 -1      1779 1.24608E+09-4.95308E+07 7.41788E+05 3.58594E+08 8.86355E+07-2.31778E+07
 -1      1781 1.24608E+09-4.95308E+07 7.41788E+05 3.58594E+08 8.86355E+07-2.31778E+07
 -1      1782 6.17102E+08-7.34015E+07-5.81598E+05 3.82421E+08 1.21571E+08 1.43163E+07
 -1      1784 6.17102E+08-7.34015E+07-5.81598E+05 3.82421E+08 1.21571E+08 1.43163E+07
 -1      1785-8.74782E+07-1.03237E+08-6.73113E+05 4.29049E+08 1.50418E+08-2.89971E+06
 -1      1787-8.74782E+07-1.03237E+08-6.73113E+05 4.29049E+08 1.50418E+08-2.89971E+06
 -1      1788-8.01541E+08-9.21319E+07-2.00588E+04 4.04268E+08 1.70739E+08 4.31119E+06
 -1      1790-8.01541E+08-9.21319E+07-2.00588E+04 4.04268E+08 1.70739E+08 4.31119E+06
 -1      1791-1.44534E+09-1.12601E+08-1.00644E+06 3.44797E+08 1.92815E+08 7.18017E+05
 -1      1793-1.44534E+09-1.12601E+08-1.00644E+06 3.44797E+08 1.92815E+08 7.18017E+05
 -1      1794-1.94504E+09-1.08318E+08-1.09597E+05 2.37598E+08 2.04473E+08 1.44740E+06
 -1      1796-1.94504E+09-1.08318E+08-1.09597E+05 2.37598E+08 2.04473E+08 1.44740E+06
 -1      1797-2.23793E+09-1.16084E+08-9.26771E+05 1.03266E+08 2.15425E+08 4.38967E+05
 -1      1799-2.23793E+09-1.16084E+08-9.26771E+05 1.03266E+08 2.15425E+08 4.38967E+05
 -1      1800-2.29084E+09-1.15811E+08-3.02627E+05-4.25692E+07 2.17046E+08-1.00010E+05
 -1      1802-2.29084E+09-1.15811E+08-3.02627E+05-4.25692E+07 2.17046E+08-1.00010E+05
 -1      1803-2.10201E+09-1.17880E+08-7.81792E+05-1.79065E+08 2.15840E+08-6.67940E+05
 -1      1805-2.10201E+09-1.17880E+08-7.81792E+05-1.79065E+08 2.15840E+08-6.67940E+05
 -1      1806-1.70353E+09-1.17171E+08-4.21000E+05-2.86617E+08 2.06776E+08-1.30362E+06
 -1      1808-1.70353E+09-1.17171E+08-4.21000E+05-2.86617E+08 2.06776E+08-1.30362E+06
 -1      1809-1.15693E+09-1.15183E+08-6.44472E+05-3.50816E+08 1.94105E+08-1.70100E+06
 -1      1811-1.15693E+09-1.15183E+08-6.44472E+05-3.50816E+08 1.94105E+08-1.70100E+06
 -1      1812-5.42839E+08-1.10559E+08-4.39772E+05-3.62829E+08 1.75262E+08-2.13424E+06
 -1      1814-5.42839E+08-1.10559E+08-4.39772E+05-3.62829E+08 1.75262E+08-2.13424E+06
 -1      1815 5.00813E+07-1.02790E+08-5.01784E+05-3.22787E+08 1.53136E+08-2.33135E+06
 -1      1817 5.00813E+07-1.02790E+08-5.01784E+05-3.22787E+08 1.53136E+08-2.33135E+06
 -1      1818 5.39935E+08-9.14179E+07-3.68852E+05-2.38082E+08 1.26692E+08-2.51176E+06
 -1      1820 5.39935E+08-9.14179E+07-3.68852E+05-2.38082E+08 1.26692E+08-2.51176E+06
 -1      1821 8.63138E+08-7.60749E+07-3.31981E+05-1.23456E+08 9.79489E+07-2.51878E+06
 -1      1823 8.63138E+08-7.60749E+07-3.31981E+05-1.23456E+08 9.79489E+07-2.51878E+06
 -1      1824 9.84642E+08-5.69797E+07-2.25492E+05 2.32961E+06 6.67662E+07-2.51478E+06
 -1      1826 9.84642E+08-5.69797E+07-2.25492E+05 2.32961E+06 6.67662E+07-2.51478E+06
 -1      1827 9.02365E+08-3.45366E+07-1.28599E+05 1.18815E+08 3.45142E+07-2.41324E+06
 -1      1829 9.02365E+08-3.45366E+07-1.28599E+05 1.18815E+08 3.45142E+07-2.41324E+06
 -1      1830 6.47122E+08-9.73240E+06-3.48819E+04 2.07670E+08 1.58442E+06-2.33746E+06
 -1      1832 6.47122E+08-9.73240E+06-3.48819E+04 2.07670E+08 1.58442E+06-2.33746E+06
 -1      1833 2.76670E+08 1.63460E+07 9.50257E+04 2.55287E+08-3.12060E+07-2.22310E+06
 -1      1835 2.76670E+08 1.63460E+07 9.50257E+04 2.55287E+08-3.12060E+07-2.22310E+06
 -1      1836-1.34316E+08 4.21103E+07 1.69099E+05 2.55346E+08-6.30642E+07-2.14942E+06
 -1      1838-1.34316E+08 4.21103E+07 1.69099E+05 2.55346E+08-6.30642E+07-2.14942E+06
 -1      1839-5.07421E+08 6.64790E+07 3.10297E+05 2.09754E+08-9.37000E+07-2.08029E+06
 -1      1841-5.07421E+08 6.64790E+07 3.10297E+05 2.09754E+08-9.37000E+07-2.08029E+06
 -1      1842-7.74273E+08 8.74101E+07 3.51380E+05 1.28621E+08-1.21879E+08-1.95515E+06
 -1      1844-7.74273E+08 8.74101E+07 3.51380E+05 1.28621E+08-1.21879E+08-1.95515E+06
 -1      1845-8.89588E+08 1.05156E+08 4.80320E+05 2.91934E+07-1.47870E+08-2.00579E+06
 -1      1847-8.89588E+08 1.05156E+08 4.80320E+05 2.91934E+07-1.47870E+08-2.00579E+06
 -1      1848-8.40398E+08 1.16646E+08 4.92243E+05-6.73486E+07-1.69924E+08-1.46575E+06
 -1      1850-8.40398E+08 1.16646E+08 4.92243E+05-6.73486E+07-1.69924E+08-1.46575E+06
 -1      1851-6.52187E+08 1.25149E+08 5.60639E+05-1.36264E+08-1.88790E+08-2.14043E+06
 -1      1853-6.52187E+08 1.25149E+08 5.60639E+05-1.36264E+08-1.88790E+08-2.14043E+06
 -1      1854-3.88863E+08 1.26271E+08 6.06041E+05-1.57510E+08-2.02686E+08 2.62882E+05
 -1      1856-3.88863E+08 1.26271E+08 6.06041E+05-1.57510E+08-2.02686E+08 2.62882E+05
 -1      1857-1.49275E+08 1.22789E+08 5.06234E+05-1.06570E+08-2.11050E+08-3.69390E+06
 -1      1859-1.49275E+08 1.22789E+08 5.06234E+05-1.06570E+08-2.11050E+08-3.69390E+06
 -1      1860-9.28676E-04-2.37358E-04-2.38463E-03-1.07733E+08 2.37834E+07 4.77713E-02
 -1      1862-9.28676E-04-2.37358E-04-2.38463E-03-1.07733E+08 2.37834E+07 4.77713E-02
 -1      1863-7.04573E-03-3.22854E-04-5.60522E-03 6.12561E+07 4.81027E+07 4.69261E-02
 -1      1865-7.04573E-03-3.22854E-04-5.60522E-03 6.12561E+07 4.81027E+07 4.69261E-02
 -1      1866-1.20723E-02-2.58759E-04-2.46819E-03-3.26245E+07 7.64609E+07 4.20771E-02
 -1      1868-1.20723E-02-2.58759E-04-2.46819E-03-3.26245E+07 7.64609E+07 4.20771E-02
 -1      1869-1.73474E-02-3.20613E-04 2.42592E-03 1.89323E+07 1.00071E+08 3.72332E-02
 -1      1871-1.73474E-02-3.20613E-04 2.42592E-03 1.89323E+07 1.00071E+08 3.72332E-02
 -1      1872-2.33150E-02-1.06236E-04 2.71594E-03-6.75863E+06 1.24419E+08 3.18490E-02
 -1      1874-2.33150E-02-1.06236E-04 2.71594E-03-6.75863E+06 1.24419E+08 3.18490E-02
 -1      1875-2.78540E-02 6.77117E-04-1.86897E-03 5.89948E+06 1.43844E+08 2.51659E-02
 -1      1877-2.78540E-02 6.77117E-04-1.86897E-03 5.89948E+06 1.43844E+08 2.51659E-02
 -1      1878-2.93385E-02 1.33062E-03-7.37655E-03 3.09701E+04 1.60839E+08 1.55996E-02
 -1      1880-2.93385E-02 1.33062E-03-7.37655E-03 3.09701E+04 1.60839E+08 1.55996E-02
 -1      1881-2.83549E-02 1.33261E-03-8.31458E-03 1.74798E+06 1.73030E+08 5.15714E-03
 -1      1883-2.83549E-02 1.33261E-03-8.31458E-03 1.74798E+06 1.73030E+08 5.15714E-03
 -1      1884-2.73511E-02 7.79114E-04-6.26734E-03 3.39756E+05 1.80508E+08-2.29946E-03
 -1      1886-2.73511E-02 7.79114E-04-6.26734E-03 3.39756E+05 1.80508E+08-2.29946E-03
 -1      1887-2.70458E-02-1.53371E-04-7.38835E-03-3.97792E+05 1.83106E+08-8.01487E-03
 -1      1889-2.70458E-02-1.53371E-04-7.38835E-03-3.97792E+05 1.83106E+08-8.01487E-03
 -1      1890-2.51266E-02 2.80823E-04-1.16294E-02-9.55836E+05 1.80205E+08-1.60183E-02
 -1      1892-2.51266E-02 2.80823E-04-1.16294E-02-9.55836E+05 1.80205E+08-1.60183E-02
 -1      1893-2.10079E-02 1.27386E-03-1.50414E-02-1.71215E+06 1.72697E+08-2.54281E-02
 -1      1895-2.10079E-02 1.27386E-03-1.50414E-02-1.71215E+06 1.72697E+08-2.54281E-02
 -1      1896-1.63071E-02 9.89419E-04-1.56583E-02-1.77723E+06 1.60183E+08-3.32224E-02
 -1      1898-1.63071E-02 9.89419E-04-1.56583E-02-1.77723E+06 1.60183E+08-3.32224E-02
 -1      1899-1.09843E-02 5.82371E-04-1.38474E-02-1.85141E+06 1.43961E+08-3.82577E-02
 -1      1901-1.09843E-02 5.82371E-04-1.38474E-02-1.85141E+06 1.43961E+08-3.82577E-02
 -1      1902-3.87041E-03 3.52640E-04-1.18573E-02-1.32390E+06 1.24046E+08-3.98508E-02
 -1      1904-3.87041E-03 3.52640E-04-1.18573E-02-1.32390E+06 1.24046E+08-3.98508E-02
 -1      1905 3.52005E-03 3.36374E-04-1.06658E-02-7.15508E+05 1.01750E+08-3.73992E-02
 -1      1907 3.52005E-03 3.36374E-04-1.06658E-02-7.15508E+05 1.01750E+08-3.73992E-02
 -1      1908 8.80289E-03 4.63380E-04-8.48717E-03 2.15437E+05 7.73447E+07-3.17875E-02
 -1      1910 8.80289E-03 4.63380E-04-8.48717E-03 2.15437E+05 7.73447E+07-3.17875E-02
 -1      1911 1.31664E-02 2.86466E-04-4.83097E-03 1.08827E+06 5.19114E+07-2.32405E-02
 -1      1913 1.31664E-02 2.86466E-04-4.83097E-03 1.08827E+06 5.19114E+07-2.32405E-02
 -1      1914 1.80788E-02 1.64363E-05-2.40077E-03 1.94904E+06 2.57721E+07-1.30772E-02
 -1      1916 1.80788E-02 1.64363E-05-2.40077E-03 1.94904E+06 2.57721E+07-1.30772E-02
 -1      1917 2.29176E-02-3.12866E-04-1.85044E-03 2.53044E+06-3.16477E+05-4.66014E-03
 -1      1919 2.29176E-02-3.12866E-04-1.85044E-03 2.53044E+06-3.16477E+05-4.66014E-03
 -1      1920 2.60328E-02-3.26517E-04-1.32936E-03 2.85011E+06-2.60845E+07 1.49825E-03
 -1      1922 2.60328E-02-3.26517E-04-1.32936E-03 2.85011E+06-2.60845E+07 1.49825E-03
 -1      1923 2.64828E-02-1.31015E-04-2.08936E-03 2.78206E+06-5.10199E+07 8.46397E-03
 -1      1925 2.64828E-02-1.31015E-04-2.08936E-03 2.78206E+06-5.10199E+07 8.46397E-03
 -1      1926 2.48920E-02 2.45095E-05-6.35281E-03 2.37570E+06-7.48838E+07 1.65293E-02
 -1      1928 2.48920E-02 2.45095E-05-6.35281E-03 2.37570E+06-7.48838E+07 1.65293E-02
 -1      1929 2.07336E-02-1.88139E-04-1.26955E-02 1.75473E+06-9.72017E+07 2.24593E-02
 -1      1931 2.07336E-02-1.88139E-04-1.26955E-02 1.75473E+06-9.72017E+07 2.24593E-02
 -1      1932 1.49022E-02-1.54508E-04-1.77681E-02 7.61803E+05-1.17712E+08 2.47053E-02
 -1      1934 1.49022E-02-1.54508E-04-1.77681E-02 7.61803E+05-1.17712E+08 2.47053E-02
 -1      1935 9.75657E-03 1.39054E-04-1.98430E-02 2.73468E+05-1.35750E+08 2.28151E-02
 -1      1937 9.75657E-03 1.39054E-04-1.98430E-02 2.73468E+05-1.35750E+08 2.28151E-02
 -1      1938 5.59877E-03-2.96667E-05-1.99779E-02-1.25615E+06-1.51034E+08 1.99755E-02
 -1      1940 5.59877E-03-2.96667E-05-1.99779E-02-1.25615E+06-1.51034E+08 1.99755E-02
 -1      1941 2.50373E-03-4.83874E-04-2.00483E-02-8.43917E+04-1.62672E+08 1.66832E-02
 -1      1943 2.50373E-03-4.83874E-04-2.00483E-02-8.43917E+04-1.62672E+08 1.66832E-02
 -1      1944 1.13247E-03 5.37059E-04-1.91598E-02-3.29389E+06-1.70299E+08 9.46573E-03
 -1      1946 1.13247E-03 5.37059E-04-1.91598E-02-3.29389E+06-1.70299E+08 9.46573E-03
 -1      1947-1.13085E-02-3.54976E-04-4.54354E-03-2.51003E+08 2.65613E-06 4.96027E-02
 -1      1949-1.13085E-02-3.54976E-04-4.54354E-03-2.51003E+08 2.65613E-06 4.96027E-02
 -1      1950-1.11779E-02-4.17695E-04-2.76551E-03 4.11892E+07-1.08447E-04 5.04357E-02
 -1      1952-1.11779E-02-4.17695E-04-2.76551E-03 4.11892E+07-1.08447E-04 5.04357E-02
 -1      1953-1.12706E-02-2.91449E-04 1.86698E-03-1.15360E+08-2.01762E-04 4.61415E-02
 -1      1955-1.12706E-02-2.91449E-04 1.86698E-03-1.15360E+08-2.01762E-04 4.61415E-02
 -1      1956-1.15592E-02-7.08955E-04 6.12621E-03-1.98033E+07-2.53323E-04 3.99000E-02
 -1      1958-1.15592E-02-7.08955E-04 6.12621E-03-1.98033E+07-2.53323E-04 3.99000E-02
 -1      1959-1.21439E-02-6.87585E-04 7.20960E-03-6.03411E+07-2.13534E-04 3.29219E-02
 -1      1961-1.21439E-02-6.87585E-04 7.20960E-03-6.03411E+07-2.13534E-04 3.29219E-02
 -1      1962-1.16404E-02 2.80562E-04 4.72629E-03-2.68931E+07-7.67838E-05 2.43387E-02
 -1      1964-1.16404E-02 2.80562E-04 4.72629E-03-2.68931E+07-7.67838E-05 2.43387E-02
 -1      1965-1.01625E-02 1.14212E-03 3.69335E-04-3.22859E+07-3.92310E-05 1.41802E-02
 -1      1967-1.01625E-02 1.14212E-03 3.69335E-04-3.22859E+07-3.92310E-05 1.41802E-02
 -1      1968-9.74785E-03 1.36818E-03-2.01182E-03-1.68032E+07-6.61332E-05 4.87185E-03
 -1      1970-9.74785E-03 1.36818E-03-2.01182E-03-1.68032E+07-6.61332E-05 4.87185E-03
 -1      1971-1.11443E-02 4.34359E-04-1.39665E-03-1.23999E+07-1.79335E-05-2.41811E-03
 -1      1973-1.11443E-02 4.34359E-04-1.39665E-03-1.23999E+07-1.79335E-05-2.41811E-03
 -1      1974-1.26279E-02-2.55033E-04-1.51161E-03-1.74788E+06-2.57809E-05-9.63676E-03
 -1      1976-1.26279E-02-2.55033E-04-1.51161E-03-1.74788E+06-2.57809E-05-9.63676E-03
 -1      1977-1.29328E-02 5.32462E-04-4.79895E-03 5.60359E+06 6.27711E-05-1.88212E-02
 -1      1979-1.29328E-02 5.32462E-04-4.79895E-03 5.60359E+06 6.27711E-05-1.88212E-02
 -1      1980-1.23227E-02 9.84548E-04-9.45872E-03 1.52469E+07 2.16331E-04-2.81786E-02
 -1      1982-1.23227E-02 9.84548E-04-9.45872E-03 1.52469E+07 2.16331E-04-2.81786E-02
 -1      1983-1.16471E-02 9.11315E-04-1.25934E-02 2.38288E+07 1.64771E-04-3.50965E-02
 -1      1985-1.16471E-02 9.11315E-04-1.25934E-02 2.38288E+07 1.64771E-04-3.50965E-02
 -1      1986-1.14163E-02 5.04546E-04-1.37915E-02 3.33235E+07 1.59169E-04-3.93139E-02
 -1      1988-1.14163E-02 5.04546E-04-1.37915E-02 3.33235E+07 1.59169E-04-3.93139E-02
 -1      1989-1.04526E-02 4.35470E-04-1.41695E-02 4.21458E+07 1.52442E-04-4.06634E-02
 -1      1991-1.04526E-02 4.35470E-04-1.41695E-02 4.21458E+07 1.52442E-04-4.06634E-02
 -1      1992-8.89338E-03 5.89021E-04-1.46339E-02 5.08722E+07 8.63075E-05-3.78825E-02
 -1      1994-8.89338E-03 5.89021E-04-1.46339E-02 5.08722E+07 8.63075E-05-3.78825E-02
 -1      1995-8.46574E-03 1.05606E-03-1.35825E-02 5.84599E+07 2.18855E-04-3.12414E-02
 -1      1997-8.46574E-03 1.05606E-03-1.35825E-02 5.84599E+07 2.18855E-04-3.12414E-02
 -1      1998-9.58557E-03 1.22177E-03-1.04726E-02 6.49026E+07 2.91993E-04-2.26401E-02
 -1      2000-9.58557E-03 1.22177E-03-1.04726E-02 6.49026E+07 2.91993E-04-2.26401E-02
 -1      2001-9.68864E-03 6.38963E-04-7.38695E-03 6.94268E+07 2.90173E-04-1.32688E-02
 -1      2003-9.68864E-03 6.38963E-04-7.38695E-03 6.94268E+07 2.90173E-04-1.32688E-02
 -1      2004-7.47171E-03-2.99246E-04-5.65913E-03 7.19365E+07 3.90213E-04-4.84848E-03
 -1      2006-7.47171E-03-2.99246E-04-5.65913E-03 7.19365E+07 3.90213E-04-4.84848E-03
 -1      2007-5.06466E-03-5.49104E-04-5.62527E-03 7.19299E+07 3.91474E-04 1.61298E-03
 -1      2009-5.06466E-03-5.49104E-04-5.62527E-03 7.19299E+07 3.91474E-04 1.61298E-03
 -1      2010-3.04415E-03 2.40139E-05-7.87257E-03 6.96052E+07 4.54244E-04 8.07337E-03
 -1      2012-3.04415E-03 2.40139E-05-7.87257E-03 6.96052E+07 4.54244E-04 8.07337E-03
 -1      2013-7.83701E-04 2.42499E-04-1.17751E-02 6.46582E+07 5.20096E-04 1.62229E-02
 -1      2015-7.83701E-04 2.42499E-04-1.17751E-02 6.46582E+07 5.20096E-04 1.62229E-02
 -1      2016 1.34224E-04 1.70181E-04-1.49546E-02 5.79678E+07 5.68856E-04 2.34282E-02
 -1      2018 1.34224E-04 1.70181E-04-1.49546E-02 5.79678E+07 5.68856E-04 2.34282E-02
 -1      2019-9.60055E-04 8.73283E-05-1.65846E-02 4.88702E+07 7.63891E-04 2.63012E-02
 -1      2021-9.60055E-04 8.73283E-05-1.65846E-02 4.88702E+07 7.63891E-04 2.63012E-02
 -1      2022-2.12982E-03 4.37959E-04-1.68495E-02 3.98341E+07 1.02282E-03 2.44934E-02
 -1      2024-2.12982E-03 4.37959E-04-1.68495E-02 3.98341E+07 1.02282E-03 2.44934E-02
 -1      2025-2.95807E-03-2.86143E-04-1.66475E-02 2.77862E+07 1.33723E-03 2.11421E-02
 -1      2027-2.95807E-03-2.86143E-04-1.66475E-02 2.77862E+07 1.33723E-03 2.11421E-02
 -1      2028-2.41846E-03-8.75685E-04-1.58105E-02 2.01339E+07 1.75645E-03 1.69551E-02
 -1      2030-2.41846E-03-8.75685E-04-1.58105E-02 2.01339E+07 1.75645E-03 1.69551E-02
 -1      2031-1.57948E-04 1.17187E-03-1.31887E-02 4.65762E+06 1.94364E-03 9.17209E-03
 -1      2033-1.57948E-04 1.17187E-03-1.31887E-02 4.65762E+06 1.94364E-03 9.17209E-03
 -1      2034-2.27618E-02-2.50752E-04-5.61454E-03-1.07733E+08-2.37834E+07 4.70784E-02
 -1      2036-2.27618E-02-2.50752E-04-5.61454E-03-1.07733E+08-2.37834E+07 4.70784E-02
 -1      2037-1.69669E-02-3.68446E-04 6.23085E-04 6.12561E+07-4.81027E+07 4.75314E-02
 -1      2039-1.69669E-02-3.68446E-04 6.23085E-04 6.12561E+07-4.81027E+07 4.75314E-02
 -1      2040-1.03838E-02-1.63660E-04 5.75824E-03-3.26245E+07-7.64609E+07 4.34104E-02
 -1      2042-1.03838E-02-1.63660E-04 5.75824E-03-3.26245E+07-7.64609E+07 4.34104E-02
 -1      2043-3.93313E-03-5.16889E-04 9.28228E-03 1.89323E+07-1.00071E+08 3.80061E-02
 -1      2045-3.93313E-03-5.16889E-04 9.28228E-03 1.89323E+07-1.00071E+08 3.80061E-02
 -1      2046 1.27551E-03-5.51405E-04 1.22353E-02-6.75863E+06-1.24419E+08 3.10586E-02
 -1      2048 1.27551E-03-5.51405E-04 1.22353E-02-6.75863E+06-1.24419E+08 3.10586E-02
 -1      2049 5.34398E-03 3.19766E-04 1.26251E-02 5.89948E+06-1.43844E+08 2.19049E-02
 -1      2051 5.34398E-03 3.19766E-04 1.26251E-02 5.89948E+06-1.43844E+08 2.19049E-02
 -1      2052 7.42197E-03 1.06388E-03 9.06394E-03 3.09701E+04-1.60839E+08 1.13779E-02
 -1      2054 7.42197E-03 1.06388E-03 9.06394E-03 3.09701E+04-1.60839E+08 1.13779E-02
 -1      2055 7.30407E-03 1.05967E-03 4.54374E-03 1.74798E+06-1.73030E+08 3.36677E-03
 -1      2057 7.30407E-03 1.05967E-03 4.54374E-03 1.74798E+06-1.73030E+08 3.36677E-03
 -1      2058 6.09710E-03-1.59879E-05 3.60292E-03 3.39756E+05-1.80508E+08-2.26332E-03
 -1      2060 6.09710E-03-1.59879E-05 3.60292E-03 3.39756E+05-1.80508E+08-2.26332E-03
 -1      2061 4.11720E-03-2.64334E-04 4.63842E-03-3.97792E+05-1.83106E+08-9.63377E-03
 -1      2063 4.11720E-03-2.64334E-04 4.63842E-03-3.97792E+05-1.83106E+08-9.63377E-03
 -1      2064 7.15303E-04 9.89761E-04 2.31190E-03-9.55836E+05-1.80205E+08-1.92233E-02
 -1      2066 7.15303E-04 9.89761E-04 2.31190E-03-9.55836E+05-1.80205E+08-1.92233E-02
 -1      2067-3.25941E-03 5.18019E-04-4.14544E-03-1.71215E+06-1.72697E+08-2.75570E-02
 -1      2069-3.25941E-03 5.18019E-04-4.14544E-03-1.71215E+06-1.72697E+08-2.75570E-02
 -1      2070-6.47787E-03 8.62913E-04-9.88037E-03-1.77723E+06-1.60183E+08-3.27660E-02
 -1      2072-6.47787E-03 8.62913E-04-9.88037E-03-1.77723E+06-1.60183E+08-3.27660E-02
 -1      2073-1.05573E-02 1.16803E-03-1.30217E-02-1.85141E+06-1.43961E+08-3.57488E-02
 -1      2075-1.05573E-02 1.16803E-03-1.30217E-02-1.85141E+06-1.43961E+08-3.57488E-02
 -1      2076-1.64406E-02-3.69636E-05-1.55460E-02-1.32390E+06-1.24046E+08-3.74747E-02
 -1      2078-1.64406E-02-3.69636E-05-1.55460E-02-1.32390E+06-1.24046E+08-3.74747E-02
 -1      2079-2.24032E-02 3.72347E-04-1.75838E-02-7.15508E+05-1.01750E+08-3.52861E-02
 -1      2081-2.24032E-02 3.72347E-04-1.75838E-02-7.15508E+05-1.01750E+08-3.52861E-02
 -1      2082-2.82415E-02 3.76575E-04-1.74046E-02 2.15437E+05-7.73447E+07-2.83146E-02
 -1      2084-2.82415E-02 3.76575E-04-1.74046E-02 2.15437E+05-7.73447E+07-2.83146E-02
 -1      2085-3.38851E-02 5.35638E-04-1.47086E-02 1.08827E+06-5.19114E+07-2.04644E-02
 -1      2087-3.38851E-02 5.35638E-04-1.47086E-02 1.08827E+06-5.19114E+07-2.04644E-02
 -1      2088-3.74644E-02 2.06290E-04-1.24312E-02 1.94904E+06-2.57721E+07-1.25317E-02
 -1      2090-3.74644E-02 2.06290E-04-1.24312E-02 1.94904E+06-2.57721E+07-1.25317E-02
 -1      2091-3.74585E-02-7.45911E-04-1.10063E-02 2.53044E+06 3.16477E+05-4.69363E-03
 -1      2093-3.74585E-02-7.45911E-04-1.10063E-02 2.53044E+06 3.16477E+05-4.69363E-03
 -1      2094-3.52398E-02-5.73823E-04-1.05434E-02 2.85011E+06 2.60845E+07 1.23381E-03
 -1      2096-3.52398E-02-5.73823E-04-1.05434E-02 2.85011E+06 2.60845E+07 1.23381E-03
 -1      2097-3.17130E-02-2.65025E-04-1.29632E-02 2.78206E+06 5.10199E+07 6.58460E-03
 -1      2099-3.17130E-02-2.65025E-04-1.29632E-02 2.78206E+06 5.10199E+07 6.58460E-03
 -1      2100-2.64464E-02 3.27315E-05-1.64212E-02 2.37570E+06 7.48838E+07 1.42836E-02
 -1      2102-2.64464E-02 3.27315E-05-1.64212E-02 2.37570E+06 7.48838E+07 1.42836E-02
 -1      2103-2.13764E-02 1.02986E-04-1.69827E-02 1.75473E+06 9.72017E+07 2.21174E-02
 -1      2105-2.13764E-02 1.02986E-04-1.69827E-02 1.75473E+06 9.72017E+07 2.21174E-02
 -1      2106-1.75326E-02 3.23926E-04-1.43391E-02 7.61803E+05 1.17712E+08 2.50422E-02
 -1      2108-1.75326E-02 3.23926E-04-1.43391E-02 7.61803E+05 1.17712E+08 2.50422E-02
 -1      2109-1.41624E-02 6.62219E-04-1.16855E-02 2.73468E+05 1.35750E+08 2.31130E-02
 -1      2111-1.41624E-02 6.62219E-04-1.16855E-02 2.73468E+05 1.35750E+08 2.31130E-02
 -1      2112-1.09481E-02 1.05704E-04-1.02267E-02-1.25615E+06 1.51034E+08 1.99830E-02
 -1      2114-1.09481E-02 1.05704E-04-1.02267E-02-1.25615E+06 1.51034E+08 1.99830E-02
 -1      2115-6.81884E-03-2.67877E-04-8.14061E-03-8.43917E+04 1.62672E+08 1.61378E-02
 -1      2117-6.81884E-03-2.67877E-04-8.14061E-03-8.43917E+04 1.62672E+08 1.61378E-02
 -1      2118-2.22541E-03 6.13058E-04-4.94036E-03-3.29389E+06 1.70299E+08 8.81099E-03
 -1      2120-2.22541E-03 6.13058E-04-4.94036E-03-3.29389E+06 1.70299E+08 8.81099E-03
 -1      2121 2.21697E+09 1.92562E+08 1.17228E+06 2.83092E+08 2.56763E+07 1.12365E+08
 -1      2123 2.21697E+09 1.92562E+08 1.17228E+06 2.83092E+08 2.56763E+07 1.12365E+08
 -1      2124 1.75926E+09-1.26876E+08-1.99932E+06 2.20431E+08-7.18108E+07-5.76583E+07
 -1      2126 1.75926E+09-1.26876E+08-1.99932E+06 2.20431E+08-7.18108E+07-5.76583E+07
 -1      2127 1.24608E+09-4.95308E+07 7.41788E+05 3.58594E+08-8.86355E+07 2.31778E+07
 -1      2129 1.24608E+09-4.95308E+07 7.41788E+05 3.58594E+08-8.86355E+07 2.31778E+07
 -1      2130 6.17102E+08-7.34015E+07-5.81598E+05 3.82421E+08-1.21571E+08-1.43163E+07
 -1      2132 6.17102E+08-7.34015E+07-5.81598E+05 3.82421E+08-1.21571E+08-1.43163E+07
 -1      2133-8.74782E+07-1.03237E+08-6.73113E+05 4.29049E+08-1.50418E+08 2.89971E+06
 -1      2135-8.74782E+07-1.03237E+08-6.73113E+05 4.29049E+08-1.50418E+08 2.89971E+06
 -1      2136-8.01541E+08-9.21319E+07-2.00588E+04 4.04268E+08-1.70739E+08-4.31119E+06
 -1      2138-8.01541E+08-9.21319E+07-2.00588E+04 4.04268E+08-1.70739E+08-4.31119E+06
 -1      2139-1.44534E+09-1.12601E+08-1.00644E+06 3.44797E+08-1.92815E+08-7.18017E+05
 -1      2141-1.44534E+09-1.12601E+08-1.00644E+06 3.44797E+08-1.92815E+08-7.18017E+05
 -1      2142-1.94504E+09-1.08318E+08-1.09597E+05 2.37598E+08-2.04473E+08-1.44740E+06
 -1      2144-1.94504E+09-1.08318E+08-1.09597E+05 2.37598E+08-2.04473E+08-1.44740E+06
 -1      2145-2.23793E+09-1.16084E+08-9.26771E+05 1.03266E+08-2.15425E+08-4.38967E+05
 -1      2147-2.23793E+09-1.16084E+08-9.26771E+05 1.03266E+08-2.15425E+08-4.38967E+05
 -1      2148-2.29084E+09-1.15811E+08-3.02627E+05-4.25692E+07-2.17046E+08 1.00010E+05
 -1      2150-2.29084E+09-1.15811E+08-3.02627E+05-4.25692E+07-2.17046E+08 1.00010E+05
 -1      2151-2.10201E+09-1.17880E+08-7.81792E+05-1.79065E+08-2.15840E+08 6.67940E+05
 -1      2153-2.10201E+09-1.17880E+08-7.81792E+05-1.79065E+08-2.15840E+08 6.67940E+05
 -1      2154-1.70353E+09-1.17171E+08-4.21000E+05-2.86617E+08-2.06776E+08 1.30362E+06
 -1      2156-1.70353E+09-1.17171E+08-4.21000E+05-2.86617E+08-2.06776E+08 1.30362E+06
 -1      2157-1.15693E+09-1.15183E+08-6.44472E+05-3.50816E+08-1.94105E+08 1.70100E+06
 -1      2159-1.15693E+09-1.15183E+08-6.44472E+05-3.50816E+08-1.94105E+08 1.70100E+06
 -1      2160-5.42839E+08-1.10559E+08-4.39772E+05-3.62829E+08-1.75262E+08 2.13424E+06
 -1      2162-5.42839E+08-1.10559E+08-4.39772E+05-3.62829E+08-1.75262E+08 2.13424E+06
 -1      2163 5.00813E+07-1.02790E+08-5.01784E+05-3.22787E+08-1.53136E+08 2.33135E+06
 -1      2165 5.00813E+07-1.02790E+08-5.01784E+05-3.22787E+08-1.53136E+08 2.33135E+06
 -1      2166 5.39935E+08-9.14179E+07-3.68852E+05-2.38082E+08-1.26692E+08 2.51176E+06
 -1      2168 5.39935E+08-9.14179E+07-3.68852E+05-2.38082E+08-1.26692E+08 2.51176E+06
 -1      2169 8.63138E+08-7.60749E+07-3.31981E+05-1.23456E+08-9.79489E+07 2.51878E+06
 -1      2171 8.63138E+08-7.60749E+07-3.31981E+05-1.23456E+08-9.79489E+07 2.51878E+06
 -1      2172 9.84642E+08-5.69797E+07-2.25492E+05 2.32961E+06-6.67662E+07 2.51478E+06
 -1      2174 9.84642E+08-5.69797E+07-2.25492E+05 2.32961E+06-6.67662E+07 2.51478E+06
 -1      2175 9.02365E+08-3.45366E+07-1.28599E+05 1.18815E+08-3.45142E+07 2.41324E+06
 -1      2177 9.02365E+08-3.45366E+07-1.28599E+05 1.18815E+08-3.45142E+07 2.41324E+06
 -1      2178 6.47122E+08-9.73240E+06-3.48819E+04 2.07670E+08-1.58442E+06 2.33746E+06
 -1      2180 6.47122E+08-9.73240E+06-3.48819E+04 2.07670E+08-1.58442E+06 2.33746E+06
 -1      2181 2.76670E+08 1.63460E+07 9.50257E+04 2.55287E+08 3.12060E+07 2.22310E+06
 -1      2183 2.76670E+08 1.63460E+07 9.50257E+04 2.55287E+08 3.12060E+07 2.22310E+06
 -1      2184-1.34316E+08 4.21103E+07 1.69099E+05 2.55346E+08 6.30642E+07 2.14942E+06
 -1      2186-1.34316E+08 4.21103E+07 1.69099E+05 2.55346E+08 6.30642E+07 2.14942E+06
 -1      2187-5.07421E+08 6.64790E+07 3.10297E+05 2.09754E+08 9.37000E+07 2.08029E+06
 -1      2189-5.07421E+08 6.64790E+07 3.10297E+05 2.09754E+08 9.37000E+07 2.08029E+06
 -1      2190-7.74273E+08 8.74101E+07 3.51380E+05 1.28621E+08 1.21879E+08 1.95515E+06
 -1      2192-7.74273E+08 8.74101E+07 3.51380E+05 1.28621E+08 1.21879E+08 1.95515E+06
 -1      2193-8.89588E+08 1.05156E+08 4.80320E+05 2.91934E+07 1.47870E+08 2.00579E+06
 -1      2195-8.89588E+08 1.05156E+08 4.80320E+05 2.91934E+07 1.47870E+08 2.00579E+06
 -1      2196-8.40398E+08 1.16646E+08 4.92243E+05-6.73486E+07 1.69924E+08 1.46575E+06
 -1      2198-8.40398E+08 1.16646E+08 4.92243E+05-6.73486E+07 1.69924E+08 1.46575E+06
 -1      2199-6.52187E+08 1.25149E+08 5.60639E+05-1.36264E+08 1.88790E+08 2.14043E+06
 -1      2201-6.52187E+08 1.25149E+08 5.60639E+05-1.36264E+08 1.88790E+08 2.14043E+06
 -1      2202-3.88863E+08 1.26271E+08 6.06041E+05-1.57510E+08 2.02686E+08-2.62882E+05
 -1      2204-3.88863E+08 1.26271E+08 6.06041E+05-1.57510E+08 2.02686E+08-2.62882E+05
 -1      2205-1.49275E+08 1.22789E+08 5.06234E+05-1.06570E+08 2.11050E+08 3.69390E+06
 -1      2207-1.49275E+08 1.22789E+08 5.06234E+05-1.06570E+08 2.11050E+08 3.69390E+06
 -1      2208-2.21697E+09-1.92562E+08-1.17228E+06 2.83092E+08 2.56763E+07-1.12365E+08
 -1      2210-2.21697E+09-1.92562E+08-1.17228E+06 2.83092E+08 2.56763E+07-1.12365E+08
 -1      2211-1.75926E+09 1.26876E+08 1.99932E+06 2.20431E+08-7.18108E+07 5.76583E+07
 -1      2213-1.75926E+09 1.26876E+08 1.99932E+06 2.20431E+08-7.18108E+07 5.76583E+07
 -1      2214-1.24608E+09 4.95308E+07-7.41788E+05 3.58594E+08-8.86355E+07-2.31778E+07
 -1      2216-1.24608E+09 4.95308E+07-7.41788E+05 3.58594E+08-8.86355E+07-2.31778E+07
 -1      2217-6.17102E+08 7.34015E+07 5.81598E+05 3.82421E+08-1.21571E+08 1.43163E+07
 -1      2219-6.17102E+08 7.34015E+07 5.81598E+05 3.82421E+08-1.21571E+08 1.43163E+07
 -1      2220 8.74782E+07 1.03237E+08 6.73113E+05 4.29049E+08-1.50418E+08-2.89971E+06
 -1      2222 8.74782E+07 1.03237E+08 6.73113E+05 4.29049E+08-1.50418E+08-2.89971E+06
 -1      2223 8.01541E+08 9.21319E+07 2.00588E+04 4.04268E+08-1.70739E+08 4.31119E+06
 -1      2225 8.01541E+08 9.21319E+07 2.00588E+04 4.04268E+08-1.70739E+08 4.31119E+06
 -1      2226 1.44534E+09 1.12601E+08 1.00644E+06 3.44797E+08-1.92815E+08 7.18017E+05
 -1      2228 1.44534E+09 1.12601E+08 1.00644E+06 3.44797E+08-1.92815E+08 7.18017E+05
 -1      2229 1.94504E+09 1.08318E+08 1.09597E+05 2.37598E+08-2.04473E+08 1.44740E+06
 -1      2231 1.94504E+09 1.08318E+08 1.09597E+05 2.37598E+08-2.04473E+08 1.44740E+06
 -1      2232 2.23793E+09 1.16084E+08 9.26771E+05 1.03266E+08-2.15425E+08 4.38967E+05
 -1      2234 2.23793E+09 1.16084E+08 9.26771E+05 1.03266E+08-2.15425E+08 4.38967E+05
 -1      2235 2.29084E+09 1.15811E+08 3.02627E+05-4.25692E+07-2.17046E+08-1.00010E+05
 -1      2237 2.29084E+09 1.15811E+08 3.02627E+05-4.25692E+07-2.17046E+08-1.00010E+05
 -1      2238 2.10201E+09 1.17880E+08 7.81792E+05-1.79065E+08-2.15840E+08-6.67940E+05
 -1      2240 2.10201E+09 1.17880E+08 7.81792E+05-1.79065E+08-2.15840E+08-6.67940E+05
 -1      2241 1.70353E+09 1.17171E+08 4.21000E+05-2.86617E+08-2.06776E+08-1.30362E+06
 -1      2243 1.70353E+09 1.17171E+08 4.21000E+05-2.86617E+08-2.06776E+08-1.30362E+06
 -1      2244 1.15693E+09 1.15183E+08 6.44472E+05-3.50816E+08-1.94105E+08-1.70100E+06
 -1      2246 1.15693E+09 1.15183E+08 6.44472E+05-3.50816E+08-1.94105E+08-1.70100E+06
 -1      2247 5.42839E+08 1.10559E+08 4.39772E+05-3.62829E+08-1.75262E+08-2.13424E+06
 -1      2249 5.42839E+08 1.10559E+08 4.39772E+05-3.62829E+08-1.75262E+08-2.13424E+06
 -1      2250-5.00813E+07 1.02790E+08 5.01784E+05-3.22787E+08-1.53136E+08-2.33135E+06
 -1      2252-5.00813E+07 1.02790E+08 5.01784E+05-3.22787E+08-1.53136E+08-2.33135E+06
 -1      2253-5.39935E+08 9.14179E+07 3.68852E+05-2.38082E+08-1.26692E+08-2.51176E+06
 -1      2255-5.39935E+08 9.14179E+07 3.68852E+05-2.38082E+08-1.26692E+08-2.51176E+06
 -1      2256-8.63138E+08 7.60749E+07 3.31981E+05-1.23456E+08-9.79489E+07-2.51878E+06
 -1      2258-8.63138E+08 7.60749E+07 3.31981E+05-1.23456E+08-9.79489E+07-2.51878E+06
 -1      2259-9.84642E+08 5.69797E+07 2.25492E+05 2.32961E+06-6.67662E+07-2.51478E+06
 -1      2261-9.84642E+08 5.69797E+07 2.25492E+05 2.32961E+06-6.67662E+07-2.51478E+06
 -1      2262-9.02365E+08 3.45366E+07 1.28599E+05 1.18815E+08-3.45142E+07-2.41324E+06
 -1      2264-9.02365E+08 3.45366E+07 1.28599E+05 1.18815E+08-3.45142E+07-2.41324E+06
 -1      2265-6.47122E+08 9.73240E+06 3.48819E+04 2.07670E+08-1.58442E+06-2.33746E+06
 -1      2267-6.47122E+08 9.73240E+06 3.48819E+04 2.07670E+08-1.58442E+06-2.33746E+06
 -1      2268-2.76670E+08-1.63460E+07-9.50257E+04 2.55287E+08 3.12060E+07-2.22310E+06
 -1      2270-2.76670E+08-1.63460E+07-9.50257E+04 2.55287E+08 3.12060E+07-2.22310E+06
 -1      2271 1.34316E+08-4.21103E+07-1.69099E+05 2.55346E+08 6.30642E+07-2.14942E+06
 -1      2273 1.34316E+08-4.21103E+07-1.69099E+05 2.55346E+08 6.30642E+07-2.14942E+06
 -1      2274 5.07421E+08-6.64790E+07-3.10297E+05 2.09754E+08 9.37000E+07-2.08029E+06
 -1      2276 5.07421E+08-6.64790E+07-3.10297E+05 2.09754E+08 9.37000E+07-2.08029E+06
 -1      2277 7.74273E+08-8.74101E+07-3.51380E+05 1.28621E+08 1.21879E+08-1.95515E+06
 -1      2279 7.74273E+08-8.74101E+07-3.51380E+05 1.28621E+08 1.21879E+08-1.95515E+06
 -1      2280 8.89588E+08-1.05156E+08-4.80320E+05 2.91934E+07 1.47870E+08-2.00579E+06
 -1      2282 8.89588E+08-1.05156E+08-4.80320E+05 2.91934E+07 1.47870E+08-2.00579E+06
 -1      2283 8.40398E+08-1.16646E+08-4.92243E+05-6.73486E+07 1.69924E+08-1.46575E+06
 -1      2285 8.40398E+08-1.16646E+08-4.92243E+05-6.73486E+07 1.69924E+08-1.46575E+06
 -1      2286 6.52187E+08-1.25149E+08-5.60639E+05-1.36264E+08 1.88790E+08-2.14043E+06
 -1      2288 6.52187E+08-1.25149E+08-5.60639E+05-1.36264E+08 1.88790E+08-2.14043E+06
 -1      2289 3.88863E+08-1.26271E+08-6.06041E+05-1.57510E+08 2.02686E+08 2.62882E+05
 -1      2291 3.88863E+08-1.26271E+08-6.06041E+05-1.57510E+08 2.02686E+08 2.62882E+05
 -1      2292 1.49275E+08-1.22789E+08-5.06234E+05-1.06570E+08 2.11050E+08-3.69390E+06
 -1      2294 1.49275E+08-1.22789E+08-5.06234E+05-1.06570E+08 2.11050E+08-3.69390E+06
 -3
    1PSTEP                        51           1           1          
    1PGM                1.000000E+00                                  
    1PGK                9.455029E+06                                  
    1PHID                         -1                                  
    1PSUBC                         0                                  
    1PMODE                        13                                  
  100CL  113 489.3860372         930                     2   13MODAL      1
 -4  FORC        4    1
 -5  F1          1    2    1    0
 -5  F2          1    2    2    0
 -5  F3          1    2    3    0
 -5  ALL         1    2    0    0    1ALL
 -1       404-5.37322E+05-4.45087E+05-9.11804E+05
 -1       406 2.06421E+06-1.28318E+02-9.11804E+05
 -1       407 2.89292E+03-2.83621E+04-8.49754E+04
 -1       409 2.89292E+03-2.83621E+04-8.49754E+04
 -1       410 2.74904E-06 1.87547E+06-4.45195E-06
 -1       412 2.86608E-06-1.67734E+06-4.38525E-06
 -1       413-1.52604E-06-1.48445E+05 2.78855E+06
 -1       415-8.55496E-07-1.48445E+05-2.78855E+06
 -1       424-9.17568E-06 3.26766E+05 1.26090E-06
 -1       426 4.58577E-06 1.56136E+05 5.14668E-07
 -1       427 2.74738E+05-2.65182E+06 5.14424E+05
 -1       429-2.74738E+05-2.65182E+06-5.14424E+05
 -1       438-2.89292E+03-2.83621E+04 8.49754E+04
 -1       440-2.89292E+03-2.83621E+04 8.49754E+04
 -1       441 5.37322E+05-4.45087E+05 9.11804E+05
 -1       443-2.06421E+06-1.28318E+02 9.11804E+05
 -1       444 2.74738E+05-2.65182E+06-5.14424E+05
 -1       446-2.74738E+05-2.65182E+06 5.14424E+05
 -1       447 1.60323E-05 3.26766E+05 1.41790E-06
 -1       449 3.38697E-06 1.56136E+05 8.38807E-07
 -1       458 1.03295E-06-1.48445E+05-2.78855E+06
 -1       460 4.01003E-07-1.48445E+05 2.78855E+06
 -1       461-2.30209E-06 1.87547E+06 9.92028E-08
 -1       463-2.09560E-06-1.67734E+06-5.98028E-07
 -1       472 5.37322E+05-4.45087E+05-9.11804E+05
 -1       474-2.06421E+06-1.28318E+02-9.11804E+05
 -1       475-2.89292E+03-2.83621E+04-8.49754E+04
 -1       477-2.89292E+03-2.83621E+04-8.49754E+04
 -1       478 2.89292E+03-2.83621E+04 8.49754E+04
 -1       480 2.89292E+03-2.83621E+04 8.49754E+04
 -1       481-5.37322E+05-4.45087E+05 9.11804E+05
 -1       483 2.06421E+06-1.28318E+02 9.11804E+05
 -1       484-1.81112E+03 2.71416E+03 2.33946E+04
 -1       486-1.81112E+03 2.71416E+03 2.33946E+04
 -1       487-3.39884E+03 6.99914E+03 4.92839E+04
 -1       489-3.39884E+03 6.99914E+03 4.92839E+04
 -1       490-4.63077E+03 1.33688E+04 7.42920E+04
 -1       492-4.63077E+03 1.33688E+04 7.42920E+04
 -1       493-5.40168E+03 2.13527E+04 9.70827E+04
 -1       495-5.40168E+03 2.13527E+04 9.70827E+04
 -1       496-5.63623E+03 3.01372E+04 1.17576E+05
 -1       498-5.63623E+03 3.01372E+04 1.17576E+05
 -1       499-5.30157E+03 3.88566E+04 1.35082E+05
 -1       501-5.30157E+03 3.88566E+04 1.35082E+05
 -1       502-4.41858E+03 4.66162E+04 1.49303E+05
 -1       504-4.41858E+03 4.66162E+04 1.49303E+05
 -1       505-3.07486E+03 5.25991E+04 1.59864E+05
 -1       507-3.07486E+03 5.25991E+04 1.59864E+05
 -1       508-1.41130E+03 5.61764E+04 1.66548E+05
 -1       510-1.41130E+03 5.61764E+04 1.66548E+05
 -1       511 3.91373E+02 5.69771E+04 1.69191E+05
 -1       513 3.91373E+02 5.69771E+04 1.69191E+05
 -1       514 2.13846E+03 5.49388E+04 1.67730E+05
 -1       516 2.13846E+03 5.49388E+04 1.67730E+05
 -1       517 3.64758E+03 5.03069E+04 1.62183E+05
 -1       519 3.64758E+03 5.03069E+04 1.62183E+05
 -1       520 4.77427E+03 4.35948E+04 1.52664E+05
 -1       522 4.77427E+03 4.35948E+04 1.52664E+05
 -1       523 5.43185E+03 3.55041E+04 1.39374E+05
 -1       525 5.43185E+03 3.55041E+04 1.39374E+05
 -1       526 5.60234E+03 2.68203E+04 1.22607E+05
 -1       528 5.60234E+03 2.68203E+04 1.22607E+05
 -1       529 5.33697E+03 1.82991E+04 1.02746E+05
 -1       531 5.33697E+03 1.82991E+04 1.02746E+05
 -1       532 4.74598E+03 1.05597E+04 8.02582E+04
 -1       534 4.74598E+03 1.05597E+04 8.02582E+04
 -1       535 3.97956E+03 4.00393E+03 5.56893E+04
 -1       537 3.97956E+03 4.00393E+03 5.56893E+04
 -1       538 3.20284E+03-1.22928E+03 2.96497E+04
 -1       540 3.20284E+03-1.22928E+03 2.96497E+04
 -1       541 2.56915E+03-5.26551E+03 2.80024E+03
 -1       543 2.56915E+03-5.26551E+03 2.80024E+03
 -1       544 2.19560E+03-8.45440E+03-2.41670E+04
 -1       546 2.19560E+03-8.45440E+03-2.41670E+04
 -1       547 2.14536E+03-1.12939E+04-5.05495E+04
 -1       549 2.14536E+03-1.12939E+04-5.05495E+04
 -1       550 2.41917E+03-1.43326E+04-7.56581E+04
 -1       552 2.41917E+03-1.43326E+04-7.56581E+04
 -1       553 2.95793E+03-1.80668E+04-9.88381E+04
 -1       555 2.95793E+03-1.80668E+04-9.88381E+04
 -1       556 3.65613E+03-2.28508E+04-1.19493E+05
 -1       558 3.65613E+03-2.28508E+04-1.19493E+05
 -1       559 4.38432E+03-2.88360E+04-1.37099E+05
 -1       561 4.38432E+03-2.88360E+04-1.37099E+05
 -1       562 5.01801E+03-3.59524E+04-1.51230E+05
 -1       564 5.01801E+03-3.59524E+04-1.51230E+05
 -1       565 5.46838E+03-4.39373E+04-1.61539E+05
 -1       567 5.46838E+03-4.39373E+04-1.61539E+05
 -1       568 5.71282E+03-5.24139E+04-1.67824E+05
 -1       570 5.71282E+03-5.24139E+04-1.67824E+05
 -1       571 3.85505E+03-5.67075E+04-1.11914E+05
 -1       573 3.85505E+03-5.67075E+04-1.11914E+05
 -1       574 1.57858E-05 5.23064E+05 3.59384E-06
 -1       576 1.57893E-05 5.80737E+05 2.05557E-06
 -1       577-1.49791E-05-5.56541E+05-4.52664E+04
 -1       579-1.51251E-05-5.56541E+05 4.52664E+04
 -1       588 1.55149E-05-1.42238E+06-4.20916E-06
 -1       590 1.55542E-05 5.07645E+05-4.45656E-06
 -1       591-1.64510E-05 4.52905E+05-1.51485E+06
 -1       593-1.64409E-05 4.52905E+05 1.51485E+06
 -1       602 1.38922E-05-1.52941E+06-1.21990E-06
 -1       604 1.38694E-05 1.52930E+06-8.00602E-07
 -1       605-1.54009E-05 3.88664E+03-2.40074E+06
 -1       607-1.53489E-05 3.88664E+03 2.40074E+06
 -1       616 1.33732E-05-2.25539E+06-8.07289E-07
 -1       618 1.34176E-05 1.72369E+06-9.32997E-08
 -1       619-1.27928E-05 2.84637E+05-3.12312E+06
 -1       621-1.29960E-05 2.84637E+05 3.12312E+06
 -1       630 1.18687E-05-2.63005E+06 1.45892E-06
 -1       632 1.20029E-05 2.31758E+06-1.31089E-07
 -1       633-1.06081E-05 1.94108E+05-3.88332E+06
 -1       635-1.09138E-05 1.94108E+05 3.88332E+06
 -1       644 8.85298E-06-3.03652E+06-3.23522E-07
 -1       646 8.88142E-06 2.64143E+06-2.06538E-06
 -1       647-8.85552E-06 2.55995E+05-4.45653E+06
 -1       649-8.75026E-06 2.55995E+05 4.45653E+06
 -1       658 4.31388E-06-3.34363E+06-3.67343E-06
 -1       660 4.11066E-06 3.00161E+06-4.26970E-06
 -1       661-6.43834E-06 2.48516E+05-4.98027E+06
 -1       663-6.23521E-06 2.48516E+05 4.98027E+06
 -1       672 5.20740E-08-3.56470E+06-4.40875E-06
 -1       674-1.81608E-07 3.23634E+06-4.70354E-06
 -1       675-3.20763E-06 2.56618E+05-5.33803E+06
 -1       677-3.17908E-06 2.56618E+05 5.33803E+06
 -1       686-2.28788E-06-3.71678E+06-4.65940E-06
 -1       688-2.26143E-06 3.39169E+06-2.48038E-06
 -1       689 6.03450E-08 2.63662E+05-5.57933E+06
 -1       691 3.07813E-07 2.63662E+05 5.57933E+06
 -1       700-3.49491E-06-3.76648E+06-6.54683E-06
 -1       702-3.49932E-06 3.44140E+06-2.28593E-06
 -1       703 2.63874E-06 2.64894E+05-5.65735E+06
 -1       705 2.79573E-06 2.64894E+05 5.65735E+06
 -1       714-5.71495E-06-3.74135E+06-6.29754E-06
 -1       716-5.73695E-06 3.38577E+06-3.85560E-06
 -1       717 5.33874E-06 2.73749E+05-5.59396E+06
 -1       719 4.91831E-06 2.73749E+05 5.59396E+06
 -1       728-8.73797E-06-3.61795E+06-6.51282E-06
 -1       730-8.73593E-06 3.23242E+06-5.95049E-06
 -1       731 8.42134E-06 2.75557E+05-5.37674E+06
 -1       733 8.20918E-06 2.75557E+05 5.37674E+06
 -1       742-1.05868E-05-3.41545E+06-4.29877E-06
 -1       744-1.06568E-05 2.98557E+06-6.98357E-06
 -1       745 1.11883E-05 2.79545E+05-5.02406E+06
 -1       747 1.12511E-05 2.79545E+05 5.02406E+06
 -1       756-1.27394E-05-3.12423E+06-2.28616E-06
 -1       758-1.26942E-05 2.66304E+06-5.60237E-06
 -1       759 1.29485E-05 2.74355E+05-4.54233E+06
 -1       761 1.32200E-05 2.74355E+05 4.54233E+06
 -1       770-1.39870E-05-2.75837E+06-5.44114E-06
 -1       772-1.39952E-05 2.27712E+06 9.62412E-07
 -1       773 1.35368E-05 2.63492E+05-3.95227E+06
 -1       775 1.35353E-05 2.63492E+05 3.95227E+06
 -1       784-1.25513E-05-2.31885E+06-2.35558E-06
 -1       786-1.26503E-05 1.84735E+06-1.92520E-07
 -1       787 1.34683E-05 2.40125E+05-3.26998E+06
 -1       789 1.32354E-05 2.40125E+05 3.26998E+06
 -1       798-1.10674E-05-1.81926E+06-3.78841E-07
 -1       800-1.13289E-05 1.38794E+06 6.00380E-07
 -1       801 1.18654E-05 2.05861E+05-2.51728E+06
 -1       803 1.14457E-05 2.05861E+05 2.51728E+06
 -1       812-9.58050E-06-1.26857E+06 1.56339E-06
 -1       814-1.00738E-05 9.14477E+05 3.18577E-06
 -1       815 7.34548E-06 1.58482E+05-1.71344E+06
 -1       817 7.39401E-06 1.58482E+05 1.71344E+06
 -1       826-7.16113E-06-6.82067E+05 1.54303E-06
 -1       828-7.50499E-06 4.37379E+05 7.40461E-07
 -1       829 3.54997E-06 1.00568E+05-8.78635E+05
 -1       831 3.94828E-06 1.00568E+05 8.78635E+05
 -1       840-3.64504E-06-7.44634E+04 1.15900E-06
 -1       842-3.99945E-06-3.42561E+04-1.61896E-06
 -1       843 6.71371E-07 3.40875E+04-3.15581E+04
 -1       845 1.08573E-06 3.40875E+04 3.15581E+04
 -1       854-9.06816E-07 5.37618E+05 9.75969E-07
 -1       856-1.40806E-06-4.95416E+05-7.92149E-07
 -1       857-7.25422E-07-3.67930E+04 8.10812E+05
 -1       859-6.08186E-07-3.67930E+04-8.10812E+05
 -1       868 1.96907E-06 1.13624E+06 1.13838E-06
 -1       870 1.79651E-06-9.41759E+05 2.22102E-06
 -1       871-2.80986E-06-1.07446E+05 1.63099E+06
 -1       873-3.00318E-06-1.07446E+05-1.63099E+06
 -1       882 5.05330E-06 1.70576E+06 1.73178E-06
 -1       884 4.66539E-06-1.37143E+06-2.59238E-07
 -1       885-5.39673E-06-1.73321E+05 2.41524E+06
 -1       887-5.39717E-06-1.73321E+05-2.41524E+06
 -1       896 7.94939E-06 2.22776E+06-5.61612E-06
 -1       898 7.50191E-06-1.77951E+06 4.96033E-08
 -1       899-6.37472E-06-2.29802E+05 3.14524E+06
 -1       901-6.44056E-06-2.29802E+05-3.14524E+06
 -1       910 9.45682E-06 2.69028E+06-6.11779E-06
 -1       912 9.21752E-06-2.16498E+06-4.48281E-06
 -1       913-7.78586E-06-2.73004E+05 3.81081E+06
 -1       915-7.82876E-06-2.73004E+05-3.81081E+06
 -1       924 8.11189E-06 3.07763E+06-8.31907E-06
 -1       926 8.31578E-06-2.51422E+06-6.17307E-06
 -1       927-7.89614E-06-3.02715E+05 4.38895E+06
 -1       929-7.02851E-06-3.02715E+05-4.38895E+06
 -1       938 6.92755E-06 3.38030E+06-6.31306E-06
 -1       940 7.20725E-06-2.83199E+06-4.35093E-06
 -1       941-6.88088E-06-3.11775E+05 4.87592E+06
 -1       943-6.61201E-06-3.11775E+05-4.87592E+06
 -1       952 5.60827E-06 3.59477E+06-6.54240E-06
 -1       954 5.84144E-06-3.08170E+06-6.34996E-06
 -1       955-6.17829E-06-3.15950E+05 5.24026E+06
 -1       957-4.67265E-06-3.15950E+05-5.24026E+06
 -1       966 4.92812E-06 3.68675E+06-8.90011E-06
 -1       968 4.78419E-06-3.29158E+06-6.57016E-06
 -1       969-3.83153E-06-2.82702E+05 5.47718E+06
 -1       971-2.36088E-06-2.82702E+05-5.47718E+06
 -1       980-5.09522E+05-3.91907E+05-3.72942E+04
 -1       982 2.09455E+06-3.22642E+04-3.72942E+04
 -1       983-3.85505E+03-5.67075E+04 1.11914E+05
 -1       985-3.85505E+03-5.67075E+04 1.11914E+05
 -1       986 1.81112E+03 2.71416E+03-2.33946E+04
 -1       988 1.81112E+03 2.71416E+03-2.33946E+04
 -1       989 3.39884E+03 6.99914E+03-4.92839E+04
 -1       991 3.39884E+03 6.99914E+03-4.92839E+04
 -1       992 4.63077E+03 1.33688E+04-7.42920E+04
 -1       994 4.63077E+03 1.33688E+04-7.42920E+04
 -1       995 5.40168E+03 2.13527E+04-9.70827E+04
 -1       997 5.40168E+03 2.13527E+04-9.70827E+04
 -1       998 5.63623E+03 3.01372E+04-1.17576E+05
 -1      1000 5.63623E+03 3.01372E+04-1.17576E+05
 -1      1001 5.30157E+03 3.88566E+04-1.35082E+05
 -1      1003 5.30157E+03 3.88566E+04-1.35082E+05
 -1      1004 4.41858E+03 4.66162E+04-1.49303E+05
 -1      1006 4.41858E+03 4.66162E+04-1.49303E+05
 -1      1007 3.07486E+03 5.25991E+04-1.59864E+05
 -1      1009 3.07486E+03 5.25991E+04-1.59864E+05
 -1      1010 1.41130E+03 5.61764E+04-1.66548E+05
 -1      1012 1.41130E+03 5.61764E+04-1.66548E+05
 -1      1013-3.91373E+02 5.69771E+04-1.69191E+05
 -1      1015-3.91373E+02 5.69771E+04-1.69191E+05
 -1      1016-2.13846E+03 5.49388E+04-1.67730E+05
 -1      1018-2.13846E+03 5.49388E+04-1.67730E+05
 -1      1019-3.64758E+03 5.03069E+04-1.62183E+05
 -1      1021-3.64758E+03 5.03069E+04-1.62183E+05
 -1      1022-4.77427E+03 4.35948E+04-1.52664E+05
 -1      1024-4.77427E+03 4.35948E+04-1.52664E+05
 -1      1025-5.43185E+03 3.55041E+04-1.39374E+05
 -1      1027-5.43185E+03 3.55041E+04-1.39374E+05
 -1      1028-5.60234E+03 2.68203E+04-1.22607E+05
 -1      1030-5.60234E+03 2.68203E+04-1.22607E+05
 -1      1031-5.33697E+03 1.82991E+04-1.02746E+05
 -1      1033-5.33697E+03 1.82991E+04-1.02746E+05
 -1      1034-4.74598E+03 1.05597E+04-8.02582E+04
 -1      1036-4.74598E+03 1.05597E+04-8.02582E+04
 -1      1037-3.97956E+03 4.00393E+03-5.56893E+04
 -1      1039-3.97956E+03 4.00393E+03-5.56893E+04
 -1      1040-3.20284E+03-1.22928E+03-2.96497E+04
 -1      1042-3.20284E+03-1.22928E+03-2.96497E+04
 -1      1043-2.56915E+03-5.26551E+03-2.80024E+03
 -1      1045-2.56915E+03-5.26551E+03-2.80024E+03
 -1      1046-2.19560E+03-8.45440E+03 2.41670E+04
 -1      1048-2.19560E+03-8.45440E+03 2.41670E+04
 -1      1049-2.14536E+03-1.12939E+04 5.05495E+04
 -1      1051-2.14536E+03-1.12939E+04 5.05495E+04
 -1      1052-2.41917E+03-1.43326E+04 7.56581E+04
 -1      1054-2.41917E+03-1.43326E+04 7.56581E+04
 -1      1055-2.95793E+03-1.80668E+04 9.88381E+04
 -1      1057-2.95793E+03-1.80668E+04 9.88381E+04
 -1      1058-3.65613E+03-2.28508E+04 1.19493E+05
 -1      1060-3.65613E+03-2.28508E+04 1.19493E+05
 -1      1061-4.38432E+03-2.88360E+04 1.37099E+05
 -1      1063-4.38432E+03-2.88360E+04 1.37099E+05
 -1      1064-5.01801E+03-3.59524E+04 1.51230E+05
 -1      1066-5.01801E+03-3.59524E+04 1.51230E+05
 -1      1067-5.46838E+03-4.39373E+04 1.61539E+05
 -1      1069-5.46838E+03-4.39373E+04 1.61539E+05
 -1      1070-5.71282E+03-5.24139E+04 1.67824E+05
 -1      1072-5.71282E+03-5.24139E+04 1.67824E+05
 -1      1073 5.09522E+05-3.91907E+05 3.72942E+04
 -1      1075-2.09455E+06-3.22642E+04 3.72942E+04
 -1      1076 2.94400E+06 2.18118E+06 2.02150E+05
 -1      1078-2.94400E+06 2.18118E+06-2.02150E+05
 -1      1079 5.33853E+06 1.74635E+06-1.96969E-05
 -1      1081-5.33853E+06 1.74635E+06-1.99283E-05
 -1      1082 2.94400E+06 2.18118E+06-2.02150E+05
 -1      1084-2.94400E+06 2.18118E+06 2.02150E+05
 -1      1085 1.55119E-05-5.56541E+05 4.52664E+04
 -1      1087 1.53709E-05-5.56541E+05-4.52664E+04
 -1      1088-1.33830E-05 5.23064E+05 3.71060E-06
 -1      1090-1.33979E-05 5.80737E+05 3.47747E-06
 -1      1099 1.58686E-05 4.52905E+05 1.51485E+06
 -1      1101 1.57759E-05 4.52905E+05-1.51485E+06
 -1      1102-1.46953E-05-1.42238E+06-4.70077E-06
 -1      1104-1.47222E-05 5.07645E+05-2.54922E-06
 -1      1113 1.44196E-05 3.88664E+03 2.40074E+06
 -1      1115 1.43989E-05 3.88664E+03-2.40074E+06
 -1      1116-1.49632E-05-1.52941E+06-1.89190E-06
 -1      1118-1.50036E-05 1.52930E+06-8.72850E-07
 -1      1127 1.30365E-05 2.84637E+05 3.12312E+06
 -1      1129 1.30013E-05 2.84637E+05-3.12312E+06
 -1      1130-1.33850E-05-2.25539E+06-2.90266E-06
 -1      1132-1.34363E-05 1.72369E+06-3.22113E-06
 -1      1141 1.07025E-05 1.94108E+05 3.88332E+06
 -1      1143 1.05566E-05 1.94108E+05-3.88332E+06
 -1      1144-1.03742E-05-2.63005E+06-5.79967E-06
 -1      1146-1.04066E-05 2.31758E+06-3.73434E-06
 -1      1155 8.21772E-06 2.55995E+05 4.45653E+06
 -1      1157 7.91633E-06 2.55995E+05-4.45653E+06
 -1      1158-6.87717E-06-3.03652E+06-7.78877E-06
 -1      1160-6.71429E-06 2.64143E+06-4.07937E-06
 -1      1169 4.79017E-06 2.48516E+05 4.98027E+06
 -1      1171 4.47269E-06 2.48516E+05-4.98027E+06
 -1      1172-3.26409E-06-3.34363E+06-6.26795E-06
 -1      1174-2.87532E-06 3.00161E+06-2.86099E-06
 -1      1183 1.54179E-06 2.56618E+05 5.33803E+06
 -1      1185 9.63630E-07 2.56618E+05-5.33803E+06
 -1      1186-1.17019E-06-3.56470E+06-4.41657E-06
 -1      1188-1.21622E-06 3.23634E+06-2.81724E-06
 -1      1197-8.90155E-07 2.63662E+05 5.57933E+06
 -1      1199-1.62497E-06 2.63662E+05-5.57933E+06
 -1      1200 1.06678E-06-3.71678E+06-2.68548E-06
 -1      1202 8.05609E-07 3.39169E+06-3.32219E-06
 -1      1211-2.94702E-06 2.64894E+05 5.65735E+06
 -1      1213-3.25907E-06 2.64894E+05-5.65735E+06
 -1      1214 4.65002E-06-3.76648E+06-2.96611E-06
 -1      1216 4.70135E-06 3.44140E+06-4.35347E-06
 -1      1225-6.42555E-06 2.73749E+05 5.59396E+06
 -1      1227-6.08843E-06 2.73749E+05-5.59396E+06
 -1      1228 7.37728E-06-3.74135E+06-5.21363E-06
 -1      1230 7.43778E-06 3.38577E+06 2.00963E-07
 -1      1239-9.52066E-06 2.75557E+05 5.37674E+06
 -1      1241-9.32362E-06 2.75557E+05-5.37674E+06
 -1      1242 8.08122E-06-3.61795E+06 4.55533E-07
 -1      1244 8.00964E-06 3.23242E+06 6.21658E-07
 -1      1253-1.18725E-05 2.79545E+05 5.02406E+06
 -1      1255-1.17002E-05 2.79545E+05-5.02406E+06
 -1      1256 9.51225E-06-3.41545E+06 1.77244E-06
 -1      1258 9.48884E-06 2.98557E+06 3.70414E-06
 -1      1267-1.16875E-05 2.74355E+05 4.54233E+06
 -1      1269-1.23903E-05 2.74355E+05-4.54233E+06
 -1      1270 1.13448E-05-3.12423E+06 3.48493E-06
 -1      1272 1.13142E-05 2.66304E+06 4.39540E-06
 -1      1281-1.19599E-05 2.63492E+05 3.95227E+06
 -1      1283-1.22620E-05 2.63492E+05-3.95227E+06
 -1      1284 1.32756E-05-2.75837E+06 7.50302E-06
 -1      1286 1.32539E-05 2.27712E+06 2.99019E-06
 -1      1295-1.20503E-05 2.40125E+05 3.26998E+06
 -1      1297-1.15759E-05 2.40125E+05-3.26998E+06
 -1      1298 1.36056E-05-2.31885E+06 6.68971E-06
 -1      1300 1.38138E-05 1.84735E+06 6.75894E-06
 -1      1309-9.37295E-06 2.05861E+05 2.51728E+06
 -1      1311-8.91451E-06 2.05861E+05-2.51728E+06
 -1      1312 1.18479E-05-1.81926E+06 6.41435E-06
 -1      1314 1.17689E-05 1.38794E+06 7.24047E-06
 -1      1323-6.92753E-06 1.58482E+05 1.71344E+06
 -1      1325-6.40066E-06 1.58482E+05-1.71344E+06
 -1      1326 8.74215E-06-1.26857E+06 9.65501E-06
 -1      1328 8.40339E-06 9.14477E+05 4.19294E-06
 -1      1337-4.38319E-06 1.00568E+05 8.78635E+05
 -1      1339-3.99895E-06 1.00568E+05-8.78635E+05
 -1      1340 4.29880E-06-6.82067E+05 6.46100E-06
 -1      1342 3.82653E-06 4.37379E+05 8.72166E-06
 -1      1351-2.27454E-06 3.40875E+04 3.15581E+04
 -1      1353-2.34050E-06 3.40875E+04-3.15581E+04
 -1      1354 5.83725E-07-7.44634E+04 7.05170E-06
 -1      1356 5.52033E-07-3.42561E+04 6.94538E-06
 -1      1365 8.18809E-08-3.67930E+04-8.10812E+05
 -1      1367-3.14525E-07-3.67930E+04 8.10812E+05
 -1      1368-2.39836E-06 5.37618E+05 6.05045E-06
 -1      1370-2.02424E-06-4.95416E+05 5.26710E-06
 -1      1379 1.76171E-06-1.07446E+05-1.63099E+06
 -1      1381 1.69390E-06-1.07446E+05 1.63099E+06
 -1      1382-5.30771E-06 1.13624E+06 7.03555E-06
 -1      1384-4.98007E-06-9.41759E+05 4.22111E-06
 -1      1393 3.85059E-06-1.73321E+05-2.41524E+06
 -1      1395 4.47340E-06-1.73321E+05 2.41524E+06
 -1      1396-7.61919E-06 1.70576E+06 9.97456E-06
 -1      1398-7.30026E-06-1.37143E+06 4.48597E-06
 -1      1407 6.64240E-06-2.29802E+05-3.14524E+06
 -1      1409 7.45662E-06-2.29802E+05 3.14524E+06
 -1      1410-8.29729E-06 2.22776E+06 1.08921E-05
 -1      1412-8.57175E-06-1.77951E+06 4.24077E-06
 -1      1421 8.29408E-06-2.73004E+05-3.81081E+06
 -1      1423 8.32721E-06-2.73004E+05 3.81081E+06
 -1      1424-8.62166E-06 2.69028E+06 4.80385E-06
 -1      1426-8.65793E-06-2.16498E+06 6.43884E-06
 -1      1435 7.98805E-06-3.02715E+05-4.38895E+06
 -1      1437 7.78861E-06-3.02715E+05 4.38895E+06
 -1      1438-8.57144E-06 3.07763E+06 3.70355E-06
 -1      1440-8.53588E-06-2.51422E+06 3.54534E-06
 -1      1449 6.65533E-06-3.11775E+05-4.87592E+06
 -1      1451 6.52896E-06-3.11775E+05 4.87592E+06
 -1      1452-7.66625E-06 3.38030E+06-5.55932E-07
 -1      1454-7.67887E-06-2.83199E+06 4.22790E-06
 -1      1463 5.40316E-06-3.15950E+05-5.24026E+06
 -1      1465 5.20511E-06-3.15950E+05 5.24026E+06
 -1      1466-7.38505E-06 3.59477E+06-2.48057E-06
 -1      1468-7.59614E-06-3.08170E+06 2.82818E-06
 -1      1477 2.90937E-06-2.82702E+05-5.47718E+06
 -1      1479 2.27748E-06-2.82702E+05 5.47718E+06
 -1      1480-5.61041E-06 3.68675E+06-5.41792E-08
 -1      1482-5.37763E-06-3.29158E+06-1.46036E-06
 -1      1491 1.41881E-07 7.38578E+04 4.14519E-07
 -1      1493 1.38925E-06 7.38578E+04 5.78667E-07
 -1      1494 6.08690E-07 1.33094E+05 4.56190E-07
 -1      1496 9.61189E-07 1.33094E+05 5.40282E-07
 -1      1497-1.50118E-07 7.38578E+04-8.38008E-08
 -1      1499-7.35083E-07 7.38578E+04-4.04014E-07
 -1      1500 1.81112E+03 2.71416E+03 2.33946E+04
 -1      1502 1.81112E+03 2.71416E+03 2.33946E+04
 -1      1503 3.39884E+03 6.99914E+03 4.92839E+04
 -1      1505 3.39884E+03 6.99914E+03 4.92839E+04
 -1      1506 4.63077E+03 1.33688E+04 7.42920E+04
 -1      1508 4.63077E+03 1.33688E+04 7.42920E+04
 -1      1509 5.40168E+03 2.13527E+04 9.70827E+04
 -1      1511 5.40168E+03 2.13527E+04 9.70827E+04
 -1      1512 5.63623E+03 3.01372E+04 1.17576E+05
 -1      1514 5.63623E+03 3.01372E+04 1.17576E+05
 -1      1515 5.30157E+03 3.88566E+04 1.35082E+05
 -1      1517 5.30157E+03 3.88566E+04 1.35082E+05
 -1      1518 4.41858E+03 4.66162E+04 1.49303E+05
 -1      1520 4.41858E+03 4.66162E+04 1.49303E+05
 -1      1521 3.07486E+03 5.25991E+04 1.59864E+05
 -1      1523 3.07486E+03 5.25991E+04 1.59864E+05
 -1      1524 1.41130E+03 5.61764E+04 1.66548E+05
 -1      1526 1.41130E+03 5.61764E+04 1.66548E+05
 -1      1527-3.91373E+02 5.69771E+04 1.69191E+05
 -1      1529-3.91373E+02 5.69771E+04 1.69191E+05
 -1      1530-2.13846E+03 5.49388E+04 1.67730E+05
 -1      1532-2.13846E+03 5.49388E+04 1.67730E+05
 -1      1533-3.64758E+03 5.03069E+04 1.62183E+05
 -1      1535-3.64758E+03 5.03069E+04 1.62183E+05
 -1      1536-4.77427E+03 4.35948E+04 1.52664E+05
 -1      1538-4.77427E+03 4.35948E+04 1.52664E+05
 -1      1539-5.43185E+03 3.55041E+04 1.39374E+05
 -1      1541-5.43185E+03 3.55041E+04 1.39374E+05
 -1      1542-5.60234E+03 2.68203E+04 1.22607E+05
 -1      1544-5.60234E+03 2.68203E+04 1.22607E+05
 -1      1545-5.33697E+03 1.82991E+04 1.02746E+05
 -1      1547-5.33697E+03 1.82991E+04 1.02746E+05
 -1      1548-4.74598E+03 1.05597E+04 8.02582E+04
 -1      1550-4.74598E+03 1.05597E+04 8.02582E+04
 -1      1551-3.97956E+03 4.00393E+03 5.56893E+04
 -1      1553-3.97956E+03 4.00393E+03 5.56893E+04
 -1      1554-3.20284E+03-1.22928E+03 2.96497E+04
 -1      1556-3.20284E+03-1.22928E+03 2.96497E+04
 -1      1557-2.56915E+03-5.26551E+03 2.80024E+03
 -1      1559-2.56915E+03-5.26551E+03 2.80024E+03
 -1      1560-2.19560E+03-8.45440E+03-2.41670E+04
 -1      1562-2.19560E+03-8.45440E+03-2.41670E+04
 -1      1563-2.14536E+03-1.12939E+04-5.05495E+04
 -1      1565-2.14536E+03-1.12939E+04-5.05495E+04
 -1      1566-2.41917E+03-1.43326E+04-7.56581E+04
 -1      1568-2.41917E+03-1.43326E+04-7.56581E+04
 -1      1569-2.95793E+03-1.80668E+04-9.88381E+04
 -1      1571-2.95793E+03-1.80668E+04-9.88381E+04
 -1      1572-3.65613E+03-2.28508E+04-1.19493E+05
 -1      1574-3.65613E+03-2.28508E+04-1.19493E+05
 -1      1575-4.38432E+03-2.88360E+04-1.37099E+05
 -1      1577-4.38432E+03-2.88360E+04-1.37099E+05
 -1      1578-5.01801E+03-3.59524E+04-1.51230E+05
 -1      1580-5.01801E+03-3.59524E+04-1.51230E+05
 -1      1581-5.46838E+03-4.39373E+04-1.61539E+05
 -1      1583-5.46838E+03-4.39373E+04-1.61539E+05
 -1      1584-5.71282E+03-5.24139E+04-1.67824E+05
 -1      1586-5.71282E+03-5.24139E+04-1.67824E+05
 -1      1587-3.85505E+03-5.67075E+04-1.11914E+05
 -1      1589-3.85505E+03-5.67075E+04-1.11914E+05
 -1      1590 5.09522E+05-3.91907E+05-3.72942E+04
 -1      1592-2.09455E+06-3.22642E+04-3.72942E+04
 -1      1593 3.85505E+03-5.67075E+04 1.11914E+05
 -1      1595 3.85505E+03-5.67075E+04 1.11914E+05
 -1      1596-1.81112E+03 2.71416E+03-2.33946E+04
 -1      1598-1.81112E+03 2.71416E+03-2.33946E+04
 -1      1599-3.39884E+03 6.99914E+03-4.92839E+04
 -1      1601-3.39884E+03 6.99914E+03-4.92839E+04
 -1      1602-4.63077E+03 1.33688E+04-7.42920E+04
 -1      1604-4.63077E+03 1.33688E+04-7.42920E+04
 -1      1605-5.40168E+03 2.13527E+04-9.70827E+04
 -1      1607-5.40168E+03 2.13527E+04-9.70827E+04
 -1      1608-5.63623E+03 3.01372E+04-1.17576E+05
 -1      1610-5.63623E+03 3.01372E+04-1.17576E+05
 -1      1611-5.30157E+03 3.88566E+04-1.35082E+05
 -1      1613-5.30157E+03 3.88566E+04-1.35082E+05
 -1      1614-4.41858E+03 4.66162E+04-1.49303E+05
 -1      1616-4.41858E+03 4.66162E+04-1.49303E+05
 -1      1617-3.07486E+03 5.25991E+04-1.59864E+05
 -1      1619-3.07486E+03 5.25991E+04-1.59864E+05
 -1      1620-1.41130E+03 5.61764E+04-1.66548E+05
 -1      1622-1.41130E+03 5.61764E+04-1.66548E+05
 -1      1623 3.91373E+02 5.69771E+04-1.69191E+05
 -1      1625 3.91373E+02 5.69771E+04-1.69191E+05
 -1      1626 2.13846E+03 5.49388E+04-1.67730E+05
 -1      1628 2.13846E+03 5.49388E+04-1.67730E+05
 -1      1629 3.64758E+03 5.03069E+04-1.62183E+05
 -1      1631 3.64758E+03 5.03069E+04-1.62183E+05
 -1      1632 4.77427E+03 4.35948E+04-1.52664E+05
 -1      1634 4.77427E+03 4.35948E+04-1.52664E+05
 -1      1635 5.43185E+03 3.55041E+04-1.39374E+05
 -1      1637 5.43185E+03 3.55041E+04-1.39374E+05
 -1      1638 5.60234E+03 2.68203E+04-1.22607E+05
 -1      1640 5.60234E+03 2.68203E+04-1.22607E+05
 -1      1641 5.33697E+03 1.82991E+04-1.02746E+05
 -1      1643 5.33697E+03 1.82991E+04-1.02746E+05
 -1      1644 4.74598E+03 1.05597E+04-8.02582E+04
 -1      1646 4.74598E+03 1.05597E+04-8.02582E+04
 -1      1647 3.97956E+03 4.00393E+03-5.56893E+04
 -1      1649 3.97956E+03 4.00393E+03-5.56893E+04
 -1      1650 3.20284E+03-1.22928E+03-2.96497E+04
 -1      1652 3.20284E+03-1.22928E+03-2.96497E+04
 -1      1653 2.56915E+03-5.26551E+03-2.80024E+03
 -1      1655 2.56915E+03-5.26551E+03-2.80024E+03
 -1      1656 2.19560E+03-8.45440E+03 2.41670E+04
 -1      1658 2.19560E+03-8.45440E+03 2.41670E+04
 -1      1659 2.14536E+03-1.12939E+04 5.05495E+04
 -1      1661 2.14536E+03-1.12939E+04 5.05495E+04
 -1      1662 2.41917E+03-1.43326E+04 7.56581E+04
 -1      1664 2.41917E+03-1.43326E+04 7.56581E+04
 -1      1665 2.95793E+03-1.80668E+04 9.88381E+04
 -1      1667 2.95793E+03-1.80668E+04 9.88381E+04
 -1      1668 3.65613E+03-2.28508E+04 1.19493E+05
 -1      1670 3.65613E+03-2.28508E+04 1.19493E+05
 -1      1671 4.38432E+03-2.88360E+04 1.37099E+05
 -1      1673 4.38432E+03-2.88360E+04 1.37099E+05
 -1      1674 5.01801E+03-3.59524E+04 1.51230E+05
 -1      1676 5.01801E+03-3.59524E+04 1.51230E+05
 -1      1677 5.46838E+03-4.39373E+04 1.61539E+05
 -1      1679 5.46838E+03-4.39373E+04 1.61539E+05
 -1      1680 5.71282E+03-5.24139E+04 1.67824E+05
 -1      1682 5.71282E+03-5.24139E+04 1.67824E+05
 -1      1683-5.09522E+05-3.91907E+05 3.72942E+04
 -1      1685 2.09455E+06-3.22642E+04 3.72942E+04
 -1      1686-2.38771E+03 5.31409E+03 3.07151E+04
 -1      1688-2.38771E+03 5.31409E+03 3.07151E+04
 -1      1689-4.51164E+03 1.38403E+04 6.48705E+04
 -1      1691-4.51164E+03 1.38403E+04 6.48705E+04
 -1      1692-6.15347E+03 2.66353E+04 9.78318E+04
 -1      1694-6.15347E+03 2.66353E+04 9.78318E+04
 -1      1695-7.17336E+03 4.26429E+04 1.27829E+05
 -1      1697-7.17336E+03 4.26429E+04 1.27829E+05
 -1      1698-7.48631E+03 6.02558E+04 1.54802E+05
 -1      1700-7.48631E+03 6.02558E+04 1.54802E+05
 -1      1701-7.04067E+03 7.77491E+04 1.77832E+05
 -1      1703-7.04067E+03 7.77491E+04 1.77832E+05
 -1      1704-5.86771E+03 9.33099E+04 1.96538E+05
 -1      1706-5.86771E+03 9.33099E+04 1.96538E+05
 -1      1707-4.08356E+03 1.05313E+05 2.10429E+05
 -1      1709-4.08356E+03 1.05313E+05 2.10429E+05
 -1      1710-1.87452E+03 1.12487E+05 2.19225E+05
 -1      1712-1.87452E+03 1.12487E+05 2.19225E+05
 -1      1713 5.18909E+02 1.14092E+05 2.22708E+05
 -1      1715 5.18909E+02 1.14092E+05 2.22708E+05
 -1      1716 2.83911E+03 1.10002E+05 2.20798E+05
 -1      1718 2.83911E+03 1.10002E+05 2.20798E+05
 -1      1719 4.84383E+03 1.00709E+05 2.13517E+05
 -1      1721 4.84383E+03 1.00709E+05 2.13517E+05
 -1      1722 6.34169E+03 8.72457E+04 2.01011E+05
 -1      1724 6.34169E+03 8.72457E+04 2.01011E+05
 -1      1725 7.21757E+03 7.10208E+04 1.83541E+05
 -1      1727 7.21757E+03 7.10208E+04 1.83541E+05
 -1      1728 7.44756E+03 5.36122E+04 1.61489E+05
 -1      1730 7.44756E+03 5.36122E+04 1.61489E+05
 -1      1731 7.09944E+03 3.65370E+04 1.35357E+05
 -1      1733 7.09944E+03 3.65370E+04 1.35357E+05
 -1      1734 6.31920E+03 2.10385E+04 1.05756E+05
 -1      1736 6.31920E+03 2.10385E+04 1.05756E+05
 -1      1737 5.30583E+03 7.92275E+03 7.34038E+04
 -1      1739 5.30583E+03 7.92275E+03 7.34038E+04
 -1      1740 4.27812E+03-2.53228E+03 3.91034E+04
 -1      1742 4.27812E+03-2.53228E+03 3.91034E+04
 -1      1743 3.43923E+03-1.05803E+04 3.72731E+03
 -1      1745 3.43923E+03-1.05803E+04 3.72731E+03
 -1      1746 2.94442E+03-1.69249E+04-3.18098E+04
 -1      1748 2.94442E+03-1.69249E+04-3.18098E+04
 -1      1749 2.87747E+03-2.25679E+04-6.65786E+04
 -1      1751 2.87747E+03-2.25679E+04-6.65786E+04
 -1      1752 3.23950E+03-2.86124E+04-9.96674E+04
 -1      1754 3.23950E+03-2.86124E+04-9.96674E+04
 -1      1755 3.95238E+03-3.60564E+04-1.30210E+05
 -1      1757 3.95238E+03-3.60564E+04-1.30210E+05
 -1      1758 4.87666E+03-4.56118E+04-1.57419E+05
 -1      1760 4.87666E+03-4.56118E+04-1.57419E+05
 -1      1761 5.84117E+03-5.75830E+04-1.80603E+05
 -1      1763 5.84117E+03-5.75830E+04-1.80603E+05
 -1      1764 6.68147E+03-7.18273E+04-1.99202E+05
 -1      1766 6.68147E+03-7.18273E+04-1.99202E+05
 -1      1767 7.28096E+03-8.78159E+04-2.12766E+05
 -1      1769 7.28096E+03-8.78159E+04-2.12766E+05
 -1      1770 7.61011E+03-1.04787E+05-2.21031E+05
 -1      1772 7.61011E+03-1.04787E+05-2.21031E+05
 -1      1773 2.38771E+03 5.31409E+03-3.07151E+04
 -1      1775 2.38771E+03 5.31409E+03-3.07151E+04
 -1      1776 4.51164E+03 1.38403E+04-6.48705E+04
 -1      1778 4.51164E+03 1.38403E+04-6.48705E+04
 -1      1779 6.15347E+03 2.66353E+04-9.78318E+04
 -1      1781 6.15347E+03 2.66353E+04-9.78318E+04
 -1      1782 7.17336E+03 4.26429E+04-1.27829E+05
 -1      1784 7.17336E+03 4.26429E+04-1.27829E+05
 -1      1785 7.48631E+03 6.02558E+04-1.54802E+05
 -1      1787 7.48631E+03 6.02558E+04-1.54802E+05
 -1      1788 7.04067E+03 7.77491E+04-1.77832E+05
 -1      1790 7.04067E+03 7.77491E+04-1.77832E+05
 -1      1791 5.86771E+03 9.33099E+04-1.96538E+05
 -1      1793 5.86771E+03 9.33099E+04-1.96538E+05
 -1      1794 4.08356E+03 1.05313E+05-2.10429E+05
 -1      1796 4.08356E+03 1.05313E+05-2.10429E+05
 -1      1797 1.87452E+03 1.12487E+05-2.19225E+05
 -1      1799 1.87452E+03 1.12487E+05-2.19225E+05
 -1      1800-5.18909E+02 1.14092E+05-2.22708E+05
 -1      1802-5.18909E+02 1.14092E+05-2.22708E+05
 -1      1803-2.83911E+03 1.10002E+05-2.20798E+05
 -1      1805-2.83911E+03 1.10002E+05-2.20798E+05
 -1      1806-4.84383E+03 1.00709E+05-2.13517E+05
 -1      1808-4.84383E+03 1.00709E+05-2.13517E+05
 -1      1809-6.34169E+03 8.72457E+04-2.01011E+05
 -1      1811-6.34169E+03 8.72457E+04-2.01011E+05
 -1      1812-7.21757E+03 7.10208E+04-1.83541E+05
 -1      1814-7.21757E+03 7.10208E+04-1.83541E+05
 -1      1815-7.44756E+03 5.36122E+04-1.61489E+05
 -1      1817-7.44756E+03 5.36122E+04-1.61489E+05
 -1      1818-7.09944E+03 3.65370E+04-1.35357E+05
 -1      1820-7.09944E+03 3.65370E+04-1.35357E+05
 -1      1821-6.31920E+03 2.10385E+04-1.05756E+05
 -1      1823-6.31920E+03 2.10385E+04-1.05756E+05
 -1      1824-5.30583E+03 7.92275E+03-7.34038E+04
 -1      1826-5.30583E+03 7.92275E+03-7.34038E+04
 -1      1827-4.27812E+03-2.53228E+03-3.91034E+04
 -1      1829-4.27812E+03-2.53228E+03-3.91034E+04
 -1      1830-3.43923E+03-1.05803E+04-3.72731E+03
 -1      1832-3.43923E+03-1.05803E+04-3.72731E+03
 -1      1833-2.94442E+03-1.69249E+04 3.18098E+04
 -1      1835-2.94442E+03-1.69249E+04 3.18098E+04
 -1      1836-2.87747E+03-2.25679E+04 6.65786E+04
 -1      1838-2.87747E+03-2.25679E+04 6.65786E+04
 -1      1839-3.23950E+03-2.86124E+04 9.96674E+04
 -1      1841-3.23950E+03-2.86124E+04 9.96674E+04
 -1      1842-3.95238E+03-3.60564E+04 1.30210E+05
 -1      1844-3.95238E+03-3.60564E+04 1.30210E+05
 -1      1845-4.87666E+03-4.56118E+04 1.57419E+05
 -1      1847-4.87666E+03-4.56118E+04 1.57419E+05
 -1      1848-5.84117E+03-5.75830E+04 1.80603E+05
 -1      1850-5.84117E+03-5.75830E+04 1.80603E+05
 -1      1851-6.68147E+03-7.18273E+04 1.99202E+05
 -1      1853-6.68147E+03-7.18273E+04 1.99202E+05
 -1      1854-7.28096E+03-8.78159E+04 2.12766E+05
 -1      1856-7.28096E+03-8.78159E+04 2.12766E+05
 -1      1857-7.61011E+03-1.04787E+05 2.21031E+05
 -1      1859-7.61011E+03-1.04787E+05 2.21031E+05
 -1      1860-6.04050E-08-3.65292E+04 2.84730E-07
 -1      1862-3.65442E-07-3.65292E+04 9.41392E-07
 -1      1863-5.55454E-07-7.09769E+04-8.80973E-08
 -1      1865-6.97160E-07-7.09769E+04 7.37113E-07
 -1      1866-6.40808E-07-9.71047E+04 5.46672E-07
 -1      1868-6.12017E-07-9.71047E+04 4.44343E-07
 -1      1869 7.91946E-07-1.14741E+05 1.21420E-06
 -1      1871 6.01874E-07-1.14741E+05 1.88105E-07
 -1      1872 1.62061E-06-1.25616E+05 1.07271E-06
 -1      1874 1.18265E-06-1.25616E+05 6.28876E-07
 -1      1875 7.44035E-07-1.31170E+05 1.11001E-06
 -1      1877 9.22432E-07-1.31170E+05 1.40155E-06
 -1      1878-2.38722E-07-1.33643E+05 1.81603E-06
 -1      1880 6.80848E-09-1.33643E+05 1.83411E-06
 -1      1881-1.01358E-06-1.34833E+05 2.47094E-06
 -1      1883-1.13320E-06-1.34833E+05 9.35859E-07
 -1      1884 3.36249E-07-1.36342E+05 3.61564E-07
 -1      1886 3.05781E-07-1.36342E+05-2.29040E-07
 -1      1887 5.97598E-07-1.38993E+05 4.39072E-07
 -1      1889 5.68312E-07-1.38993E+05-2.80942E-07
 -1      1890-1.99216E-07-1.42872E+05 1.47895E-06
 -1      1892-1.25729E-07-1.42872E+05 1.80774E-06
 -1      1893-2.78973E-07-1.47223E+05 1.52725E-06
 -1      1895-2.45751E-07-1.47223E+05 1.83025E-06
 -1      1896 1.79858E-07-1.50629E+05 1.64034E-06
 -1      1898 2.25627E-07-1.50629E+05 1.27356E-06
 -1      1899-9.35257E-07-1.51243E+05 1.10674E-06
 -1      1901-3.61988E-07-1.51243E+05 2.44611E-06
 -1      1902-2.50396E-06-1.47128E+05 6.24896E-07
 -1      1904-1.61675E-06-1.47128E+05 1.66136E-06
 -1      1905-1.28487E-06-1.36611E+05 4.52230E-07
 -1      1907-2.11038E-06-1.36611E+05-6.13989E-07
 -1      1908-4.41420E-07-1.18612E+05 1.28537E-07
 -1      1910-1.43507E-06-1.18612E+05-9.57487E-07
 -1      1911-1.84092E-06-9.28902E+04-1.10229E-06
 -1      1913-1.82557E-06-9.28902E+04-7.78804E-07
 -1      1914-2.41575E-06-6.01608E+04-2.34229E-06
 -1      1916-1.58722E-06-6.01608E+04-1.28926E-06
 -1      1917-2.61485E-06-2.20735E+04-1.85063E-06
 -1      1919-1.80547E-06-2.20735E+04-1.48357E-06
 -1      1920-1.24965E-06 1.89543E+04-2.17969E-06
 -1      1922-1.01115E-06 1.89543E+04-3.13739E-08
 -1      1923 1.31799E-07 6.00185E+04-5.63814E-07
 -1      1925-3.51077E-07 6.00185E+04-5.96294E-07
 -1      1926 5.35609E-07 9.80857E+04 2.53247E-07
 -1      1928 3.07362E-07 9.80857E+04-8.71485E-07
 -1      1929 6.21627E-07 1.30363E+05 6.41550E-07
 -1      1931 1.25561E-06 1.30363E+05-1.59605E-06
 -1      1932 7.97223E-07 1.54632E+05 2.55975E-07
 -1      1934 1.04779E-06 1.54632E+05 2.97623E-07
 -1      1935 4.51613E-07 1.69476E+05 1.68478E-06
 -1      1937 4.99082E-07 1.69476E+05 1.55153E-06
 -1      1938 7.51486E-07 1.74392E+05 1.08637E-06
 -1      1940 7.12425E-07 1.74392E+05-2.05800E-07
 -1      1941-8.19320E-07 1.69700E+05 1.88958E-06
 -1      1943 1.05149E-06 1.69700E+05 1.33704E-06
 -1      1944-1.99910E-06 1.56374E+05 2.19482E-06
 -1      1946 1.55822E-06 1.56374E+05 2.91600E-06
 -1      1947-4.91986E-07-5.33790E+04-1.13391E-06
 -1      1949-7.77480E-07-5.33790E+04-1.50460E-07
 -1      1950-1.64204E-07-1.05660E+05-1.80062E-06
 -1      1952-3.94066E-07-1.05660E+05-6.02398E-07
 -1      1953-1.54570E-07-1.48811E+05-4.12765E-08
 -1      1955-2.19326E-07-1.48811E+05 8.88343E-07
 -1      1956 2.02593E-07-1.81901E+05 1.43996E-06
 -1      1958-1.37870E-08-1.81901E+05 1.29528E-06
 -1      1959 2.72008E-07-2.06500E+05 1.13655E-06
 -1      1961 3.20764E-07-2.06500E+05 1.06281E-06
 -1      1962 1.64918E-07-2.23676E+05 3.65144E-07
 -1      1964-1.28829E-07-2.23676E+05 1.19288E-06
 -1      1965 7.72790E-07-2.35531E+05 5.38450E-07
 -1      1967 3.73562E-07-2.35531E+05-2.14655E-07
 -1      1968 1.48313E-06-2.43691E+05 1.95046E-06
 -1      1970 9.66054E-07-2.43691E+05-2.67652E-07
 -1      1971 1.51738E-06-2.49675E+05 2.06530E-06
 -1      1973 7.24413E-07-2.49675E+05 5.62297E-07
 -1      1974 6.87285E-07-2.54232E+05 7.28358E-07
 -1      1976 6.10138E-07-2.54232E+05 1.01104E-06
 -1      1977 3.73140E-07-2.57405E+05 4.59988E-07
 -1      1979 9.41032E-07-2.57405E+05 1.19808E-06
 -1      1980 1.80724E-07-2.58416E+05 5.40822E-07
 -1      1982 3.46077E-07-2.58416E+05 1.00182E-06
 -1      1983 7.08440E-07-2.55860E+05 9.17073E-07
 -1      1985-1.36050E-06-2.55860E+05 1.09023E-06
 -1      1986-5.93825E-07-2.47940E+05 9.66022E-07
 -1      1988-1.23622E-06-2.47940E+05 1.59026E-06
 -1      1989-1.57389E-06-2.32827E+05 5.30315E-07
 -1      1991-1.73218E-06-2.32827E+05 6.82136E-07
 -1      1992-7.31790E-07-2.09023E+05-5.06676E-07
 -1      1994-2.87670E-06-2.09023E+05-9.25102E-07
 -1      1995-1.50878E-07-1.75706E+05-1.79462E-06
 -1      1997-1.75769E-06-1.75706E+05-1.14069E-06
 -1      1998 3.87837E-07-1.32978E+05-3.16456E-06
 -1      2000 1.62071E-07-1.32978E+05-1.36431E-06
 -1      2001-8.55879E-07-8.19805E+04-3.05273E-06
 -1      2003 6.63581E-08-8.19805E+04-1.47481E-06
 -1      2004-1.39161E-06-2.48613E+04-2.59533E-06
 -1      2006-8.77877E-07-2.48613E+04-6.31000E-07
 -1      2007-3.37520E-07 3.54110E+04 2.19006E-08
 -1      2009-3.48364E-07 3.54110E+04-1.11952E-06
 -1      2010 2.52986E-07 9.53558E+04 2.30939E-07
 -1      2012-2.50423E-07 9.53558E+04-1.79306E-06
 -1      2013-1.39024E-07 1.51368E+05-1.22223E-06
 -1      2015-1.65068E-07 1.51368E+05-2.17443E-06
 -1      2016-2.16076E-07 2.00118E+05-7.75472E-07
 -1      2018 1.22953E-06 2.00118E+05-2.44868E-06
 -1      2019 3.22209E-07 2.38922E+05-1.61113E-06
 -1      2021 1.08768E-06 2.38922E+05-2.32994E-06
 -1      2022 8.80211E-07 2.65980E+05-8.41734E-07
 -1      2024-2.33011E-07 2.65980E+05-1.07234E-06
 -1      2025 1.21562E-06 2.80523E+05-1.93539E-06
 -1      2027-3.37406E-07 2.80523E+05-6.54345E-07
 -1      2028-2.10690E-07 2.82711E+05-1.36160E-06
 -1      2030-6.93894E-07 2.82711E+05 3.08899E-07
 -1      2031-6.50758E-07 2.73485E+05-1.11252E-07
 -1      2033-2.36792E-07 2.73485E+05 1.07114E-06
 -1      2034 1.56180E-06-3.65292E+04-1.54690E-06
 -1      2036 1.30145E-06-3.65292E+04-8.57573E-07
 -1      2037 1.27282E-06-7.09769E+04-1.43048E-06
 -1      2039 9.48021E-07-7.09769E+04-6.22618E-07
 -1      2040-4.31693E-07-9.71047E+04 4.70405E-07
 -1      2042-5.28966E-07-9.71047E+04 1.58101E-06
 -1      2043-5.92762E-07-1.14741E+05 1.51606E-06
 -1      2045-7.64548E-07-1.14741E+05 2.67105E-06
 -1      2046-4.19674E-07-1.25616E+05 1.41968E-06
 -1      2048-5.76842E-07-1.25616E+05 1.14125E-06
 -1      2049-1.58013E-07-1.31170E+05 7.43326E-07
 -1      2051-5.91202E-07-1.31170E+05 1.56656E-06
 -1      2052 9.38791E-07-1.33643E+05 5.86813E-07
 -1      2054 3.38950E-08-1.33643E+05 4.07214E-07
 -1      2055 1.34429E-06-1.34833E+05 1.95803E-07
 -1      2057 7.80396E-07-1.34833E+05-1.03357E-06
 -1      2058 1.43684E-06-1.36342E+05 5.29109E-07
 -1      2060-2.10057E-08-1.36342E+05 1.55220E-07
 -1      2061 9.00425E-07-1.38993E+05 8.79326E-07
 -1      2063 1.01551E-06-1.38993E+05 1.66612E-06
 -1      2064 1.12962E-06-1.42872E+05 2.85832E-07
 -1      2066 1.63120E-06-1.42872E+05 2.32937E-06
 -1      2067 6.33736E-08-1.47223E+05-8.76025E-09
 -1      2069 1.59733E-07-1.47223E+05 1.74620E-06
 -1      2070-4.61167E-07-1.50629E+05 5.06538E-07
 -1      2072-1.26935E-06-1.50629E+05 9.85528E-07
 -1      2073 2.56878E-07-1.51243E+05 8.40344E-07
 -1      2075-3.86579E-07-1.51243E+05 6.70028E-07
 -1      2076 2.26019E-07-1.47128E+05 1.10826E-06
 -1      2078 1.28361E-06-1.47128E+05 1.81331E-07
 -1      2079 1.02551E-06-1.36611E+05-7.60818E-07
 -1      2081 1.05569E-06-1.36611E+05-1.20704E-06
 -1      2082 1.62115E-06-1.18612E+05-3.38697E-06
 -1      2084 8.96433E-07-1.18612E+05-1.57171E-06
 -1      2085 9.77398E-07-9.28902E+04-2.12190E-06
 -1      2087 1.37582E-06-9.28902E+04-6.16361E-07
 -1      2088-3.41315E-08-6.01608E+04-2.39050E-06
 -1      2090 4.76862E-07-6.01608E+04 1.13592E-07
 -1      2091-8.46093E-07-2.20735E+04-2.32481E-07
 -1      2093-1.03855E-06-2.20735E+04 7.03410E-07
 -1      2094-1.10037E-06 1.89543E+04 1.56637E-07
 -1      2096-1.30286E-06 1.89543E+04-4.98549E-07
 -1      2097-2.03314E-06 6.00185E+04 2.31696E-07
 -1      2099-2.15648E-06 6.00185E+04-9.41684E-07
 -1      2100-2.45599E-06 9.80857E+04-1.21398E-06
 -1      2102-1.49448E-06 9.80857E+04-2.92546E-06
 -1      2103-1.58541E-06 1.30363E+05 1.35871E-07
 -1      2105 1.55920E-07 1.30363E+05-2.16179E-06
 -1      2106-1.78199E-07 1.54632E+05 3.46074E-07
 -1      2108 9.00400E-09 1.54632E+05-1.36721E-06
 -1      2109 3.19493E-07 1.69476E+05-3.67887E-07
 -1      2111-7.54544E-07 1.69476E+05-6.55462E-07
 -1      2112 1.83238E-07 1.74392E+05-2.64087E-06
 -1      2114-9.86107E-07 1.74392E+05-1.03053E-06
 -1      2115-1.48052E-06 1.69700E+05-2.13859E-06
 -1      2117-2.39310E-06 1.69700E+05-3.82865E-07
 -1      2118-1.30057E-06 1.56374E+05 1.02699E-06
 -1      2120-2.66121E-06 1.56374E+05-2.13451E-07
 -1      2121 2.38771E+03 5.31409E+03 3.07151E+04
 -1      2123 2.38771E+03 5.31409E+03 3.07151E+04
 -1      2124 4.51164E+03 1.38403E+04 6.48705E+04
 -1      2126 4.51164E+03 1.38403E+04 6.48705E+04
 -1      2127 6.15347E+03 2.66353E+04 9.78318E+04
 -1      2129 6.15347E+03 2.66353E+04 9.78318E+04
 -1      2130 7.17336E+03 4.26429E+04 1.27829E+05
 -1      2132 7.17336E+03 4.26429E+04 1.27829E+05
 -1      2133 7.48631E+03 6.02558E+04 1.54802E+05
 -1      2135 7.48631E+03 6.02558E+04 1.54802E+05
 -1      2136 7.04067E+03 7.77491E+04 1.77832E+05
 -1      2138 7.04067E+03 7.77491E+04 1.77832E+05
 -1      2139 5.86771E+03 9.33099E+04 1.96538E+05
 -1      2141 5.86771E+03 9.33099E+04 1.96538E+05
 -1      2142 4.08356E+03 1.05313E+05 2.10429E+05
 -1      2144 4.08356E+03 1.05313E+05 2.10429E+05
 -1      2145 1.87452E+03 1.12487E+05 2.19225E+05
 -1      2147 1.87452E+03 1.12487E+05 2.19225E+05
 -1      2148-5.18909E+02 1.14092E+05 2.22708E+05
 -1      2150-5.18909E+02 1.14092E+05 2.22708E+05
 -1      2151-2.83911E+03 1.10002E+05 2.20798E+05
 -1      2153-2.83911E+03 1.10002E+05 2.20798E+05
 -1      2154-4.84383E+03 1.00709E+05 2.13517E+05
 -1      2156-4.84383E+03 1.00709E+05 2.13517E+05
 -1      2157-6.34169E+03 8.72457E+04 2.01011E+05
 -1      2159-6.34169E+03 8.72457E+04 2.01011E+05
 -1      2160-7.21757E+03 7.10208E+04 1.83541E+05
 -1      2162-7.21757E+03 7.10208E+04 1.83541E+05
 -1      2163-7.44756E+03 5.36122E+04 1.61489E+05
 -1      2165-7.44756E+03 5.36122E+04 1.61489E+05
 -1      2166-7.09944E+03 3.65370E+04 1.35357E+05
 -1      2168-7.09944E+03 3.65370E+04 1.35357E+05
 -1      2169-6.31920E+03 2.10385E+04 1.05756E+05
 -1      2171-6.31920E+03 2.10385E+04 1.05756E+05
 -1      2172-5.30583E+03 7.92275E+03 7.34038E+04
 -1      2174-5.30583E+03 7.92275E+03 7.34038E+04
 -1      2175-4.27812E+03-2.53228E+03 3.91034E+04
 -1      2177-4.27812E+03-2.53228E+03 3.91034E+04
 -1      2178-3.43923E+03-1.05803E+04 3.72731E+03
 -1      2180-3.43923E+03-1.05803E+04 3.72731E+03
 -1      2181-2.94442E+03-1.69249E+04-3.18098E+04
 -1      2183-2.94442E+03-1.69249E+04-3.18098E+04
 -1      2184-2.87747E+03-2.25679E+04-6.65786E+04
 -1      2186-2.87747E+03-2.25679E+04-6.65786E+04
 -1      2187-3.23950E+03-2.86124E+04-9.96674E+04
 -1      2189-3.23950E+03-2.86124E+04-9.96674E+04
 -1      2190-3.95238E+03-3.60564E+04-1.30210E+05
 -1      2192-3.95238E+03-3.60564E+04-1.30210E+05
 -1      2193-4.87666E+03-4.56118E+04-1.57419E+05
 -1      2195-4.87666E+03-4.56118E+04-1.57419E+05
 -1      2196-5.84117E+03-5.75830E+04-1.80603E+05
 -1      2198-5.84117E+03-5.75830E+04-1.80603E+05
 -1      2199-6.68147E+03-7.18273E+04-1.99202E+05
 -1      2201-6.68147E+03-7.18273E+04-1.99202E+05
 -1      2202-7.28096E+03-8.78159E+04-2.12766E+05
 -1      2204-7.28096E+03-8.78159E+04-2.12766E+05
 -1      2205-7.61011E+03-1.04787E+05-2.21031E+05
 -1      2207-7.61011E+03-1.04787E+05-2.21031E+05
 -1      2208-2.38771E+03 5.31409E+03-3.07151E+04
 -1      2210-2.38771E+03 5.31409E+03-3.07151E+04
 -1      2211-4.51164E+03 1.38403E+04-6.48705E+04
 -1      2213-4.51164E+03 1.38403E+04-6.48705E+04
 -1      2214-6.15347E+03 2.66353E+04-9.78318E+04
 -1      2216-6.15347E+03 2.66353E+04-9.78318E+04
 -1      2217-7.17336E+03 4.26429E+04-1.27829E+05
 -1      2219-7.17336E+03 4.26429E+04-1.27829E+05
 -1      2220-7.48631E+03 6.02558E+04-1.54802E+05
 -1      2222-7.48631E+03 6.02558E+04-1.54802E+05
 -1      2223-7.04067E+03 7.77491E+04-1.77832E+05
 -1      2225-7.04067E+03 7.77491E+04-1.77832E+05
 -1      2226-5.86771E+03 9.33099E+04-1.96538E+05
 -1      2228-5.86771E+03 9.33099E+04-1.96538E+05
 -1      2229-4.08356E+03 1.05313E+05-2.10429E+05
 -1      2231-4.08356E+03 1.05313E+05-2.10429E+05
 -1      2232-1.87452E+03 1.12487E+05-2.19225E+05
 -1      2234-1.87452E+03 1.12487E+05-2.19225E+05
 -1      2235 5.18909E+02 1.14092E+05-2.22708E+05
 -1      2237 5.18909E+02 1.14092E+05-2.22708E+05
 -1      2238 2.83911E+03 1.10002E+05-2.20798E+05
 -1      2240 2.83911E+03 1.10002E+05-2.20798E+05
 -1      2241 4.84383E+03 1.00709E+05-2.13517E+05
 -1      2243 4.84383E+03 1.00709E+05-2.13517E+05
 -1      2244 6.34169E+03 8.72457E+04-2.01011E+05
 -1      2246 6.34169E+03 8.72457E+04-2.01011E+05
 -1      2247 7.21757E+03 7.10208E+04-1.83541E+05
 -1      2249 7.21757E+03 7.10208E+04-1.83541E+05
 -1      2250 7.44756E+03 5.36122E+04-1.61489E+05
 -1      2252 7.44756E+03 5.36122E+04-1.61489E+05
 -1      2253 7.09944E+03 3.65370E+04-1.35357E+05
 -1      2255 7.09944E+03 3.65370E+04-1.35357E+05
 -1      2256 6.31920E+03 2.10385E+04-1.05756E+05
 -1      2258 6.31920E+03 2.10385E+04-1.05756E+05
 -1      2259 5.30583E+03 7.92275E+03-7.34038E+04
 -1      2261 5.30583E+03 7.92275E+03-7.34038E+04
 -1      2262 4.27812E+03-2.53228E+03-3.91034E+04
 -1      2264 4.27812E+03-2.53228E+03-3.91034E+04
 -1      2265 3.43923E+03-1.05803E+04-3.72731E+03
 -1      2267 3.43923E+03-1.05803E+04-3.72731E+03
 -1      2268 2.94442E+03-1.69249E+04 3.18098E+04
 -1      2270 2.94442E+03-1.69249E+04 3.18098E+04
 -1      2271 2.87747E+03-2.25679E+04 6.65786E+04
 -1      2273 2.87747E+03-2.25679E+04 6.65786E+04
 -1      2274 3.23950E+03-2.86124E+04 9.96674E+04
 -1      2276 3.23950E+03-2.86124E+04 9.96674E+04
 -1      2277 3.95238E+03-3.60564E+04 1.30210E+05
 -1      2279 3.95238E+03-3.60564E+04 1.30210E+05
 -1      2280 4.87666E+03-4.56118E+04 1.57419E+05
 -1      2282 4.87666E+03-4.56118E+04 1.57419E+05
 -1      2283 5.84117E+03-5.75830E+04 1.80603E+05
 -1      2285 5.84117E+03-5.75830E+04 1.80603E+05
 -1      2286 6.68147E+03-7.18273E+04 1.99202E+05
 -1      2288 6.68147E+03-7.18273E+04 1.99202E+05
 -1      2289 7.28096E+03-8.78159E+04 2.12766E+05
 -1      2291 7.28096E+03-8.78159E+04 2.12766E+05
 -1      2292 7.61011E+03-1.04787E+05 2.21031E+05
 -1      2294 7.61011E+03-1.04787E+05 2.21031E+05
 -3
    1PSTEP                        52           1           1          
    1PGM                1.000000E+00                                  
    1PGK                9.455029E+06                                  
    1PHID                         -1                                  
    1PSUBC                         0                                  
    1PMODE                        13                                  
  100CL  113 489.3860372         930                     2   13MODAL      1
 -4  ERROR       1    1
 -5  STR(%)      1    1    0    0
 -1       404 0.00000E+00
 -1       406 0.00000E+00
 -1       407 0.00000E+00
 -1       409 0.00000E+00
 -1       410 0.00000E+00
 -1       412 0.00000E+00
 -1       413 0.00000E+00
 -1       415 0.00000E+00
 -1       424 0.00000E+00
 -1       426 0.00000E+00
 -1       427 0.00000E+00
 -1       429 0.00000E+00
 -1       438 0.00000E+00
 -1       440 0.00000E+00
 -1       441 0.00000E+00
 -1       443 0.00000E+00
 -1       444 0.00000E+00
 -1       446 0.00000E+00
 -1       447 0.00000E+00
 -1       449 0.00000E+00
 -1       458 0.00000E+00
 -1       460 0.00000E+00
 -1       461 0.00000E+00
 -1       463 0.00000E+00
 -1       472 0.00000E+00
 -1       474 0.00000E+00
 -1       475 0.00000E+00
 -1       477 0.00000E+00
 -1       478 0.00000E+00
 -1       480 0.00000E+00
 -1       481 0.00000E+00
 -1       483 0.00000E+00
 -1       484 0.00000E+00
 -1       486 0.00000E+00
 -1       487 0.00000E+00
 -1       489 0.00000E+00
 -1       490 0.00000E+00
 -1       492 0.00000E+00
 -1       493 0.00000E+00
 -1       495 0.00000E+00
 -1       496 0.00000E+00
 -1       498 0.00000E+00
 -1       499 0.00000E+00
 -1       501 0.00000E+00
 -1       502 0.00000E+00
 -1       504 0.00000E+00
 -1       505 0.00000E+00
 -1       507 0.00000E+00
 -1       508 0.00000E+00
 -1       510 0.00000E+00
 -1       511 0.00000E+00
 -1       513 0.00000E+00
 -1       514 0.00000E+00
 -1       516 0.00000E+00
 -1       517 0.00000E+00
 -1       519 0.00000E+00
 -1       520 0.00000E+00
 -1       522 0.00000E+00
 -1       523 0.00000E+00
 -1       525 0.00000E+00
 -1       526 0.00000E+00
 -1       528 0.00000E+00
 -1       529 0.00000E+00
 -1       531 0.00000E+00
 -1       532 0.00000E+00
 -1       534 0.00000E+00
 -1       535 0.00000E+00
 -1       537 0.00000E+00
 -1       538 0.00000E+00
 -1       540 0.00000E+00
 -1       541 0.00000E+00
 -1       543 0.00000E+00
 -1       544 0.00000E+00
 -1       546 0.00000E+00
 -1       547 0.00000E+00
 -1       549 0.00000E+00
 -1       550 0.00000E+00
 -1       552 0.00000E+00
 -1       553 0.00000E+00
 -1       555 0.00000E+00
 -1       556 0.00000E+00
 -1       558 0.00000E+00
 -1       559 0.00000E+00
 -1       561 0.00000E+00
 -1       562 0.00000E+00
 -1       564 0.00000E+00
 -1       565 0.00000E+00
 -1       567 0.00000E+00
 -1       568 0.00000E+00
 -1       570 0.00000E+00
 -1       571 0.00000E+00
 -1       573 0.00000E+00
 -1       574 0.00000E+00
 -1       576 0.00000E+00
 -1       577 0.00000E+00
 -1       579 0.00000E+00
 -1       588 0.00000E+00
 -1       590 0.00000E+00
 -1       591 0.00000E+00
 -1       593 0.00000E+00
 -1       602 0.00000E+00
 -1       604 0.00000E+00
 -1       605 0.00000E+00
 -1       607 0.00000E+00
 -1       616 0.00000E+00
 -1       618 0.00000E+00
 -1       619 0.00000E+00
 -1       621 0.00000E+00
 -1       630 0.00000E+00
 -1       632 0.00000E+00
 -1       633 0.00000E+00
 -1       635 0.00000E+00
 -1       644 0.00000E+00
 -1       646 0.00000E+00
 -1       647 0.00000E+00
 -1       649 0.00000E+00
 -1       658 0.00000E+00
 -1       660 0.00000E+00
 -1       661 0.00000E+00
 -1       663 0.00000E+00
 -1       672 0.00000E+00
 -1       674 0.00000E+00
 -1       675 0.00000E+00
 -1       677 0.00000E+00
 -1       686 0.00000E+00
 -1       688 0.00000E+00
 -1       689 0.00000E+00
 -1       691 0.00000E+00
 -1       700 0.00000E+00
 -1       702 0.00000E+00
 -1       703 0.00000E+00
 -1       705 0.00000E+00
 -1       714 0.00000E+00
 -1       716 0.00000E+00
 -1       717 0.00000E+00
 -1       719 0.00000E+00
 -1       728 0.00000E+00
 -1       730 0.00000E+00
 -1       731 0.00000E+00
 -1       733 0.00000E+00
 -1       742 0.00000E+00
 -1       744 0.00000E+00
 -1       745 0.00000E+00
 -1       747 0.00000E+00
 -1       756 0.00000E+00
 -1       758 0.00000E+00
 -1       759 0.00000E+00
 -1       761 0.00000E+00
 -1       770 0.00000E+00
 -1       772 0.00000E+00
 -1       773 0.00000E+00
 -1       775 0.00000E+00
 -1       784 0.00000E+00
 -1       786 0.00000E+00
 -1       787 0.00000E+00
 -1       789 0.00000E+00
 -1       798 0.00000E+00
 -1       800 0.00000E+00
 -1       801 0.00000E+00
 -1       803 0.00000E+00
 -1       812 0.00000E+00
 -1       814 0.00000E+00
 -1       815 0.00000E+00
 -1       817 0.00000E+00
 -1       826 0.00000E+00
 -1       828 0.00000E+00
 -1       829 0.00000E+00
 -1       831 0.00000E+00
 -1       840 0.00000E+00
 -1       842 0.00000E+00
 -1       843 0.00000E+00
 -1       845 0.00000E+00
 -1       854 0.00000E+00
 -1       856 0.00000E+00
 -1       857 0.00000E+00
 -1       859 0.00000E+00
 -1       868 0.00000E+00
 -1       870 0.00000E+00
 -1       871 0.00000E+00
 -1       873 0.00000E+00
 -1       882 0.00000E+00
 -1       884 0.00000E+00
 -1       885 0.00000E+00
 -1       887 0.00000E+00
 -1       896 0.00000E+00
 -1       898 0.00000E+00
 -1       899 0.00000E+00
 -1       901 0.00000E+00
 -1       910 0.00000E+00
 -1       912 0.00000E+00
 -1       913 0.00000E+00
 -1       915 0.00000E+00
 -1       924 0.00000E+00
 -1       926 0.00000E+00
 -1       927 0.00000E+00
 -1       929 0.00000E+00
 -1       938 0.00000E+00
 -1       940 0.00000E+00
 -1       941 0.00000E+00
 -1       943 0.00000E+00
 -1       952 0.00000E+00
 -1       954 0.00000E+00
 -1       955 0.00000E+00
 -1       957 0.00000E+00
 -1       966 0.00000E+00
 -1       968 0.00000E+00
 -1       969 0.00000E+00
 -1       971 0.00000E+00
 -1       980 0.00000E+00
 -1       982 0.00000E+00
 -1       983 0.00000E+00
 -1       985 0.00000E+00
 -1       986 0.00000E+00
 -1       988 0.00000E+00
 -1       989 0.00000E+00
 -1       991 0.00000E+00
 -1       992 0.00000E+00
 -1       994 0.00000E+00
 -1       995 0.00000E+00
 -1       997 0.00000E+00
 -1       998 0.00000E+00
 -1      1000 0.00000E+00
 -1      1001 0.00000E+00
 -1      1003 0.00000E+00
 -1      1004 0.00000E+00
 -1      1006 0.00000E+00
 -1      1007 0.00000E+00
 -1      1009 0.00000E+00
 -1      1010 0.00000E+00
 -1      1012 0.00000E+00
 -1      1013 0.00000E+00
 -1      1015 0.00000E+00
 -1      1016 0.00000E+00
 -1      1018 0.00000E+00
 -1      1019 0.00000E+00
 -1      1021 0.00000E+00
 -1      1022 0.00000E+00
 -1      1024 0.00000E+00
 -1      1025 0.00000E+00
 -1      1027 0.00000E+00
 -1      1028 0.00000E+00
 -1      1030 0.00000E+00
 -1      1031 0.00000E+00
 -1      1033 0.00000E+00
 -1      1034 0.00000E+00
 -1      1036 0.00000E+00
 -1      1037 0.00000E+00
 -1      1039 0.00000E+00
 -1      1040 0.00000E+00
 -1      1042 0.00000E+00
 -1      1043 0.00000E+00
 -1      1045 0.00000E+00
 -1      1046 0.00000E+00
 -1      1048 0.00000E+00
 -1      1049 0.00000E+00
 -1      1051 0.00000E+00
 -1      1052 0.00000E+00
 -1      1054 0.00000E+00
 -1      1055 0.00000E+00
 -1      1057 0.00000E+00
 -1      1058 0.00000E+00
 -1      1060 0.00000E+00
 -1      1061 0.00000E+00
 -1      1063 0.00000E+00
 -1      1064 0.00000E+00
 -1      1066 0.00000E+00
 -1      1067 0.00000E+00
 -1      1069 0.00000E+00
 -1      1070 0.00000E+00
 -1      1072 0.00000E+00
 -1      1073 0.00000E+00
 -1      1075 0.00000E+00
 -1      1076 0.00000E+00
 -1      1078 0.00000E+00
 -1      1079 0.00000E+00
 -1      1081 0.00000E+00
 -1      1082 0.00000E+00
 -1      1084 0.00000E+00
 -1      1085 0.00000E+00
 -1      1087 0.00000E+00
 -1      1088 0.00000E+00
 -1      1090 0.00000E+00
 -1      1099 0.00000E+00
 -1      1101 0.00000E+00
 -1      1102 0.00000E+00
 -1      1104 0.00000E+00
 -1      1113 0.00000E+00
 -1      1115 0.00000E+00
 -1      1116 0.00000E+00
 -1      1118 0.00000E+00
 -1      1127 0.00000E+00
 -1      1129 0.00000E+00
 -1      1130 0.00000E+00
 -1      1132 0.00000E+00
 -1      1141 0.00000E+00
 -1      1143 0.00000E+00
 -1      1144 0.00000E+00
 -1      1146 0.00000E+00
 -1      1155 0.00000E+00
 -1      1157 0.00000E+00
 -1      1158 0.00000E+00
 -1      1160 0.00000E+00
 -1      1169 0.00000E+00
 -1      1171 0.00000E+00
 -1      1172 0.00000E+00
 -1      1174 0.00000E+00
 -1      1183 0.00000E+00
 -1      1185 0.00000E+00
 -1      1186 0.00000E+00
 -1      1188 0.00000E+00
 -1      1197 0.00000E+00
 -1      1199 0.00000E+00
 -1      1200 0.00000E+00
 -1      1202 0.00000E+00
 -1      1211 0.00000E+00
 -1      1213 0.00000E+00
 -1      1214 0.00000E+00
 -1      1216 0.00000E+00
 -1      1225 0.00000E+00
 -1      1227 0.00000E+00
 -1      1228 0.00000E+00
 -1      1230 0.00000E+00
 -1      1239 0.00000E+00
 -1      1241 0.00000E+00
 -1      1242 0.00000E+00
 -1      1244 0.00000E+00
 -1      1253 0.00000E+00
 -1      1255 0.00000E+00
 -1      1256 0.00000E+00
 -1      1258 0.00000E+00
 -1      1267 0.00000E+00
 -1      1269 0.00000E+00
 -1      1270 0.00000E+00
 -1      1272 0.00000E+00
 -1      1281 0.00000E+00
 -1      1283 0.00000E+00
 -1      1284 0.00000E+00
 -1      1286 0.00000E+00
 -1      1295 0.00000E+00
 -1      1297 0.00000E+00
 -1      1298 0.00000E+00
 -1      1300 0.00000E+00
 -1      1309 0.00000E+00
 -1      1311 0.00000E+00
 -1      1312 0.00000E+00
 -1      1314 0.00000E+00
 -1      1323 0.00000E+00
 -1      1325 0.00000E+00
 -1      1326 0.00000E+00
 -1      1328 0.00000E+00
 -1      1337 0.00000E+00
 -1      1339 0.00000E+00
 -1      1340 0.00000E+00
 -1      1342 0.00000E+00
 -1      1351 0.00000E+00
 -1      1353 0.00000E+00
 -1      1354 0.00000E+00
 -1      1356 0.00000E+00
 -1      1365 0.00000E+00
 -1      1367 0.00000E+00
 -1      1368 0.00000E+00
 -1      1370 0.00000E+00
 -1      1379 0.00000E+00
 -1      1381 0.00000E+00
 -1      1382 0.00000E+00
 -1      1384 0.00000E+00
 -1      1393 0.00000E+00
 -1      1395 0.00000E+00
 -1      1396 0.00000E+00
 -1      1398 0.00000E+00
 -1      1407 0.00000E+00
 -1      1409 0.00000E+00
 -1      1410 0.00000E+00
 -1      1412 0.00000E+00
 -1      1421 0.00000E+00
 -1      1423 0.00000E+00
 -1      1424 0.00000E+00
 -1      1426 0.00000E+00
 -1      1435 0.00000E+00
 -1      1437 0.00000E+00
 -1      1438 0.00000E+00
 -1      1440 0.00000E+00
 -1      1449 0.00000E+00
 -1      1451 0.00000E+00
 -1      1452 0.00000E+00
 -1      1454 0.00000E+00
 -1      1463 0.00000E+00
 -1      1465 0.00000E+00
 -1      1466 0.00000E+00
 -1      1468 0.00000E+00
 -1      1477 0.00000E+00
 -1      1479 0.00000E+00
 -1      1480 0.00000E+00
 -1      1482 0.00000E+00
 -1      1491 0.00000E+00
 -1      1493 0.00000E+00
 -1      1494 0.00000E+00
 -1      1496 0.00000E+00
 -1      1497 0.00000E+00
 -1      1499 0.00000E+00
 -1      1500 0.00000E+00
 -1      1502 0.00000E+00
 -1      1503 0.00000E+00
 -1      1505 0.00000E+00
 -1      1506 0.00000E+00
 -1      1508 0.00000E+00
 -1      1509 0.00000E+00
 -1      1511 0.00000E+00
 -1      1512 0.00000E+00
 -1      1514 0.00000E+00
 -1      1515 0.00000E+00
 -1      1517 0.00000E+00
 -1      1518 0.00000E+00
 -1      1520 0.00000E+00
 -1      1521 0.00000E+00
 -1      1523 0.00000E+00
 -1      1524 0.00000E+00
 -1      1526 0.00000E+00
 -1      1527 0.00000E+00
 -1      1529 0.00000E+00
 -1      1530 0.00000E+00
 -1      1532 0.00000E+00
 -1      1533 0.00000E+00
 -1      1535 0.00000E+00
 -1      1536 0.00000E+00
 -1      1538 0.00000E+00
 -1      1539 0.00000E+00
 -1      1541 0.00000E+00
 -1      1542 0.00000E+00
 -1      1544 0.00000E+00
 -1      1545 0.00000E+00
 -1      1547 0.00000E+00
 -1      1548 0.00000E+00
 -1      1550 0.00000E+00
 -1      1551 0.00000E+00
 -1      1553 0.00000E+00
 -1      1554 0.00000E+00
 -1      1556 0.00000E+00
 -1      1557 0.00000E+00
 -1      1559 0.00000E+00
 -1      1560 0.00000E+00
 -1      1562 0.00000E+00
 -1      1563 0.00000E+00
 -1      1565 0.00000E+00
 -1      1566 0.00000E+00
 -1      1568 0.00000E+00
 -1      1569 0.00000E+00
 -1      1571 0.00000E+00
 -1      1572 0.00000E+00
 -1      1574 0.00000E+00
 -1      1575 0.00000E+00
 -1      1577 0.00000E+00
 -1      1578 0.00000E+00
 -1      1580 0.00000E+00
 -1      1581 0.00000E+00
 -1      1583 0.00000E+00
 -1      1584 0.00000E+00
 -1      1586 0.00000E+00
 -1      1587 0.00000E+00
 -1      1589 0.00000E+00
 -1      1590 0.00000E+00
 -1      1592 0.00000E+00
 -1      1593 0.00000E+00
 -1      1595 0.00000E+00
 -1      1596 0.00000E+00
 -1      1598 0.00000E+00
 -1      1599 0.00000E+00
 -1      1601 0.00000E+00
 -1      1602 0.00000E+00
 -1      1604 0.00000E+00
 -1      1605 0.00000E+00
 -1      1607 0.00000E+00
 -1      1608 0.00000E+00
 -1      1610 0.00000E+00
 -1      1611 0.00000E+00
 -1      1613 0.00000E+00
 -1      1614 0.00000E+00
 -1      1616 0.00000E+00
 -1      1617 0.00000E+00
 -1      1619 0.00000E+00
 -1      1620 0.00000E+00
 -1      1622 0.00000E+00
 -1      1623 0.00000E+00
 -1      1625 0.00000E+00
 -1      1626 0.00000E+00
 -1      1628 0.00000E+00
 -1      1629 0.00000E+00
 -1      1631 0.00000E+00
 -1      1632 0.00000E+00
 -1      1634 0.00000E+00
 -1      1635 0.00000E+00
 -1      1637 0.00000E+00
 -1      1638 0.00000E+00
 -1      1640 0.00000E+00
 -1      1641 0.00000E+00
 -1      1643 0.00000E+00
 -1      1644 0.00000E+00
 -1      1646 0.00000E+00
 -1      1647 0.00000E+00
 -1      1649 0.00000E+00
 -1      1650 0.00000E+00
 -1      1652 0.00000E+00
 -1      1653 0.00000E+00
 -1      1655 0.00000E+00
 -1      1656 0.00000E+00
 -1      1658 0.00000E+00
 -1      1659 0.00000E+00
 -1      1661 0.00000E+00
 -1      1662 0.00000E+00
 -1      1664 0.00000E+00
 -1      1665 0.00000E+00
 -1      1667 0.00000E+00
 -1      1668 0.00000E+00
 -1      1670 0.00000E+00
 -1      1671 0.00000E+00
 -1      1673 0.00000E+00
 -1      1674 0.00000E+00
 -1      1676 0.00000E+00
 -1      1677 0.00000E+00
 -1      1679 0.00000E+00
 -1      1680 0.00000E+00
 -1      1682 0.00000E+00
 -1      1683 0.00000E+00
 -1      1685 0.00000E+00
 -1      1686 0.00000E+00
 -1      1688 0.00000E+00
 -1      1689 0.00000E+00
 -1      1691 0.00000E+00
 -1      1692 0.00000E+00
 -1      1694 0.00000E+00
 -1      1695 0.00000E+00
 -1      1697 0.00000E+00
 -1      1698 0.00000E+00
 -1      1700 0.00000E+00
 -1      1701 0.00000E+00
 -1      1703 0.00000E+00
 -1      1704 0.00000E+00
 -1      1706 0.00000E+00
 -1      1707 0.00000E+00
 -1      1709 0.00000E+00
 -1      1710 0.00000E+00
 -1      1712 0.00000E+00
 -1      1713 0.00000E+00
 -1      1715 0.00000E+00
 -1      1716 0.00000E+00
 -1      1718 0.00000E+00
 -1      1719 0.00000E+00
 -1      1721 0.00000E+00
 -1      1722 0.00000E+00
 -1      1724 0.00000E+00
 -1      1725 0.00000E+00
 -1      1727 0.00000E+00
 -1      1728 0.00000E+00
 -1      1730 0.00000E+00
 -1      1731 0.00000E+00
 -1      1733 0.00000E+00
 -1      1734 0.00000E+00
 -1      1736 0.00000E+00
 -1      1737 0.00000E+00
 -1      1739 0.00000E+00
 -1      1740 0.00000E+00
 -1      1742 0.00000E+00
 -1      1743 0.00000E+00
 -1      1745 0.00000E+00
 -1      1746 0.00000E+00
 -1      1748 0.00000E+00
 -1      1749 0.00000E+00
 -1      1751 0.00000E+00
 -1      1752 0.00000E+00
 -1      1754 0.00000E+00
 -1      1755 0.00000E+00
 -1      1757 0.00000E+00
 -1      1758 0.00000E+00
 -1      1760 0.00000E+00
 -1      1761 0.00000E+00
 -1      1763 0.00000E+00
 -1      1764 0.00000E+00
 -1      1766 0.00000E+00
 -1      1767 0.00000E+00
 -1      1769 0.00000E+00
 -1      1770 0.00000E+00
 -1      1772 0.00000E+00
 -1      1773 0.00000E+00
 -1      1775 0.00000E+00
 -1      1776 0.00000E+00
 -1      1778 0.00000E+00
 -1      1779 0.00000E+00
 -1      1781 0.00000E+00
 -1      1782 0.00000E+00
 -1      1784 0.00000E+00
 -1      1785 0.00000E+00
 -1      1787 0.00000E+00
 -1      1788 0.00000E+00
 -1      1790 0.00000E+00
 -1      1791 0.00000E+00
 -1      1793 0.00000E+00
 -1      1794 0.00000E+00
 -1      1796 0.00000E+00
 -1      1797 0.00000E+00
 -1      1799 0.00000E+00
 -1      1800 0.00000E+00
 -1      1802 0.00000E+00
 -1      1803 0.00000E+00
 -1      1805 0.00000E+00
 -1      1806 0.00000E+00
 -1      1808 0.00000E+00
 -1      1809 0.00000E+00
 -1      1811 0.00000E+00
 -1      1812 0.00000E+00
 -1      1814 0.00000E+00
 -1      1815 0.00000E+00
 -1      1817 0.00000E+00
 -1      1818 0.00000E+00
 -1      1820 0.00000E+00
 -1      1821 0.00000E+00
 -1      1823 0.00000E+00
 -1      1824 0.00000E+00
 -1      1826 0.00000E+00
 -1      1827 0.00000E+00
 -1      1829 0.00000E+00
 -1      1830 0.00000E+00
 -1      1832 0.00000E+00
 -1      1833 0.00000E+00
 -1      1835 0.00000E+00
 -1      1836 0.00000E+00
 -1      1838 0.00000E+00
 -1      1839 0.00000E+00
 -1      1841 0.00000E+00
 -1      1842 0.00000E+00
 -1      1844 0.00000E+00
 -1      1845 0.00000E+00
 -1      1847 0.00000E+00
 -1      1848 0.00000E+00
 -1      1850 0.00000E+00
 -1      1851 0.00000E+00
 -1      1853 0.00000E+00
 -1      1854 0.00000E+00
 -1      1856 0.00000E+00
 -1      1857 0.00000E+00
 -1      1859 0.00000E+00
 -1      1860 0.00000E+00
 -1      1862 0.00000E+00
 -1      1863 0.00000E+00
 -1      1865 0.00000E+00
 -1      1866 0.00000E+00
 -1      1868 0.00000E+00
 -1      1869 0.00000E+00
 -1      1871 0.00000E+00
 -1      1872 0.00000E+00
 -1      1874 0.00000E+00
 -1      1875 0.00000E+00
 -1      1877 0.00000E+00
 -1      1878 0.00000E+00
 -1      1880 0.00000E+00
 -1      1881 0.00000E+00
 -1      1883 0.00000E+00
 -1      1884 0.00000E+00
 -1      1886 0.00000E+00
 -1      1887 0.00000E+00
 -1      1889 0.00000E+00
 -1      1890 0.00000E+00
 -1      1892 0.00000E+00
 -1      1893 0.00000E+00
 -1      1895 0.00000E+00
 -1      1896 0.00000E+00
 -1      1898 0.00000E+00
 -1      1899 0.00000E+00
 -1      1901 0.00000E+00
 -1      1902 0.00000E+00
 -1      1904 0.00000E+00
 -1      1905 0.00000E+00
 -1      1907 0.00000E+00
 -1      1908 0.00000E+00
 -1      1910 0.00000E+00
 -1      1911 0.00000E+00
 -1      1913 0.00000E+00
 -1      1914 0.00000E+00
 -1      1916 0.00000E+00
 -1      1917 0.00000E+00
 -1      1919 0.00000E+00
 -1      1920 0.00000E+00
 -1      1922 0.00000E+00
 -1      1923 0.00000E+00
 -1      1925 0.00000E+00
 -1      1926 0.00000E+00
 -1      1928 0.00000E+00
 -1      1929 0.00000E+00
 -1      1931 0.00000E+00
 -1      1932 0.00000E+00
 -1      1934 0.00000E+00
 -1      1935 0.00000E+00
 -1      1937 0.00000E+00
 -1      1938 0.00000E+00
 -1      1940 0.00000E+00
 -1      1941 0.00000E+00
 -1      1943 0.00000E+00
 -1      1944 0.00000E+00
 -1      1946 0.00000E+00
 -1      1947 0.00000E+00
 -1      1949 0.00000E+00
 -1      1950 0.00000E+00
 -1      1952 0.00000E+00
 -1      1953 0.00000E+00
 -1      1955 0.00000E+00
 -1      1956 0.00000E+00
 -1      1958 0.00000E+00
 -1      1959 0.00000E+00
 -1      1961 0.00000E+00
 -1      1962 0.00000E+00
 -1      1964 0.00000E+00
 -1      1965 0.00000E+00
 -1      1967 0.00000E+00
 -1      1968 0.00000E+00
 -1      1970 0.00000E+00
 -1      1971 0.00000E+00
 -1      1973 0.00000E+00
 -1      1974 0.00000E+00
 -1      1976 0.00000E+00
 -1      1977 0.00000E+00
 -1      1979 0.00000E+00
 -1      1980 0.00000E+00
 -1      1982 0.00000E+00
 -1      1983 0.00000E+00
 -1      1985 0.00000E+00
 -1      1986 0.00000E+00
 -1      1988 0.00000E+00
 -1      1989 0.00000E+00
 -1      1991 0.00000E+00
 -1      1992 0.00000E+00
 -1      1994 0.00000E+00
 -1      1995 0.00000E+00
 -1      1997 0.00000E+00
 -1      1998 0.00000E+00
 -1      2000 0.00000E+00
 -1      2001 0.00000E+00
 -1      2003 0.00000E+00
 -1      2004 0.00000E+00
 -1      2006 0.00000E+00
 -1      2007 0.00000E+00
 -1      2009 0.00000E+00
 -1      2010 0.00000E+00
 -1      2012 0.00000E+00
 -1      2013 0.00000E+00
 -1      2015 0.00000E+00
 -1      2016 0.00000E+00
 -1      2018 0.00000E+00
 -1      2019 0.00000E+00
 -1      2021 0.00000E+00
 -1      2022 0.00000E+00
 -1      2024 0.00000E+00
 -1      2025 0.00000E+00
 -1      2027 0.00000E+00
 -1      2028 0.00000E+00
 -1      2030 0.00000E+00
 -1      2031 0.00000E+00
 -1      2033 0.00000E+00
 -1      2034 0.00000E+00
 -1      2036 0.00000E+00
 -1      2037 0.00000E+00
 -1      2039 0.00000E+00
 -1      2040 0.00000E+00
 -1      2042 0.00000E+00
 -1      2043 0.00000E+00
 -1      2045 0.00000E+00
 -1      2046 0.00000E+00
 -1      2048 0.00000E+00
 -1      2049 0.00000E+00
 -1      2051 0.00000E+00
 -1      2052 0.00000E+00
 -1      2054 0.00000E+00
 -1      2055 0.00000E+00
 -1      2057 0.00000E+00
 -1      2058 0.00000E+00
 -1      2060 0.00000E+00
 -1      2061 0.00000E+00
 -1      2063 0.00000E+00
 -1      2064 0.00000E+00
 -1      2066 0.00000E+00
 -1      2067 0.00000E+00
 -1      2069 0.00000E+00
 -1      2070 0.00000E+00
 -1      2072 0.00000E+00
 -1      2073 0.00000E+00
 -1      2075 0.00000E+00
 -1      2076 0.00000E+00
 -1      2078 0.00000E+00
 -1      2079 0.00000E+00
 -1      2081 0.00000E+00
 -1      2082 0.00000E+00
 -1      2084 0.00000E+00
 -1      2085 0.00000E+00
 -1      2087 0.00000E+00
 -1      2088 0.00000E+00
 -1      2090 0.00000E+00
 -1      2091 0.00000E+00
 -1      2093 0.00000E+00
 -1      2094 0.00000E+00
 -1      2096 0.00000E+00
 -1      2097 0.00000E+00
 -1      2099 0.00000E+00
 -1      2100 0.00000E+00
 -1      2102 0.00000E+00
 -1      2103 0.00000E+00
 -1      2105 0.00000E+00
 -1      2106 0.00000E+00
 -1      2108 0.00000E+00
 -1      2109 0.00000E+00
 -1      2111 0.00000E+00
 -1      2112 0.00000E+00
 -1      2114 0.00000E+00
 -1      2115 0.00000E+00
 -1      2117 0.00000E+00
 -1      2118 0.00000E+00
 -1      2120 0.00000E+00
 -1      2121 0.00000E+00
 -1      2123 0.00000E+00
 -1      2124 0.00000E+00
 -1      2126 0.00000E+00
 -1      2127 0.00000E+00
 -1      2129 0.00000E+00
 -1      2130 0.00000E+00
 -1      2132 0.00000E+00
 -1      2133 0.00000E+00
 -1      2135 0.00000E+00
 -1      2136 0.00000E+00
 -1      2138 0.00000E+00
 -1      2139 0.00000E+00
 -1      2141 0.00000E+00
 -1      2142 0.00000E+00
 -1      2144 0.00000E+00
 -1      2145 0.00000E+00
 -1      2147 0.00000E+00
 -1      2148 0.00000E+00
 -1      2150 0.00000E+00
 -1      2151 0.00000E+00
 -1      2153 0.00000E+00
 -1      2154 0.00000E+00
 -1      2156 0.00000E+00
 -1      2157 0.00000E+00
 -1      2159 0.00000E+00
 -1      2160 0.00000E+00
 -1      2162 0.00000E+00
 -1      2163 0.00000E+00
 -1      2165 0.00000E+00
 -1      2166 0.00000E+00
 -1      2168 0.00000E+00
 -1      2169 0.00000E+00
 -1      2171 0.00000E+00
 -1      2172 0.00000E+00
 -1      2174 0.00000E+00
 -1      2175 0.00000E+00
 -1      2177 0.00000E+00
 -1      2178 0.00000E+00
 -1      2180 0.00000E+00
 -1      2181 0.00000E+00
 -1      2183 0.00000E+00
 -1      2184 0.00000E+00
 -1      2186 0.00000E+00
 -1      2187 0.00000E+00
 -1      2189 0.00000E+00
 -1      2190 0.00000E+00
 -1      2192 0.00000E+00
 -1      2193 0.00000E+00
 -1      2195 0.00000E+00
 -1      2196 0.00000E+00
 -1      2198 0.00000E+00
 -1      2199 0.00000E+00
 -1      2201 0.00000E+00
 -1      2202 0.00000E+00
 -1      2204 0.00000E+00
 -1      2205 0.00000E+00
 -1      2207 0.00000E+00
 -1      2208 0.00000E+00
 -1      2210 0.00000E+00
 -1      2211 0.00000E+00
 -1      2213 0.00000E+00
 -1      2214 0.00000E+00
 -1      2216 0.00000E+00
 -1      2217 0.00000E+00
 -1      2219 0.00000E+00
 -1      2220 0.00000E+00
 -1      2222 0.00000E+00
 -1      2223 0.00000E+00
 -1      2225 0.00000E+00
 -1      2226 0.00000E+00
 -1      2228 0.00000E+00
 -1      2229 0.00000E+00
 -1      2231 0.00000E+00
 -1      2232 0.00000E+00
 -1      2234 0.00000E+00
 -1      2235 0.00000E+00
 -1      2237 0.00000E+00
 -1      2238 0.00000E+00
 -1      2240 0.00000E+00
 -1      2241 0.00000E+00
 -1      2243 0.00000E+00
 -1      2244 0.00000E+00
 -1      2246 0.00000E+00
 -1      2247 0.00000E+00
 -1      2249 0.00000E+00
 -1      2250 0.00000E+00
 -1      2252 0.00000E+00
 -1      2253 0.00000E+00
 -1      2255 0.00000E+00
 -1      2256 0.00000E+00
 -1      2258 0.00000E+00
 -1      2259 0.00000E+00
 -1      2261 0.00000E+00
 -1      2262 0.00000E+00
 -1      2264 0.00000E+00
 -1      2265 0.00000E+00
 -1      2267 0.00000E+00
 -1      2268 0.00000E+00
 -1      2270 0.00000E+00
 -1      2271 0.00000E+00
 -1      2273 0.00000E+00
 -1      2274 0.00000E+00
 -1      2276 0.00000E+00
 -1      2277 0.00000E+00
 -1      2279 0.00000E+00
 -1      2280 0.00000E+00
 -1      2282 0.00000E+00
 -1      2283 0.00000E+00
 -1      2285 0.00000E+00
 -1      2286 0.00000E+00
 -1      2288 0.00000E+00
 -1      2289 0.00000E+00
 -1      2291 0.00000E+00
 -1      2292 0.00000E+00
 -1      2294 0.00000E+00
 -3
    1PSTEP                        53           1           1          
    1PGM                1.000000E+00                                  
    1PGK                1.163915E+07                                  
    1PHID                         -1                                  
    1PSUBC                         0                                  
    1PMODE                        14                                  
  100CL  114 542.9762473         930                     2   14MODAL      1
 -4  DISP        4    1
 -5  D1          1    2    1    0
 -5  D2          1    2    2    0
 -5  D3          1    2    3    0
 -5  ALL         1    2    0    0    1ALL
 -1       404 0.00000E+00 0.00000E+00-1.13798E-04
 -1       406 0.00000E+00-0.00000E+00 1.13798E-04
 -1       407-3.76252E-02-3.56747E-03-1.40090E-01
 -1       409-3.49072E-02 3.34321E-03-1.40166E-01
 -1       410-3.79068E-02-1.38128E-13-1.00815E-01
 -1       412-3.53626E-02 2.41191E-13-1.00872E-01
 -1       413-3.66347E-02 1.79823E-05-1.00843E-01
 -1       415-3.66347E-02-1.79823E-05-1.00843E-01
 -1       424 0.00000E+00 0.00000E+00-1.64752E-04
 -1       426 0.00000E+00 0.00000E+00 1.64752E-04
 -1       427 0.00000E+00-1.04953E-04 0.00000E+00
 -1       429 0.00000E+00 1.04953E-04 0.00000E+00
 -1       438-3.76252E-02 3.56747E-03-1.40090E-01
 -1       440-3.49072E-02-3.34321E-03-1.40166E-01
 -1       441 0.00000E+00 0.00000E+00-1.13798E-04
 -1       443 0.00000E+00-0.00000E+00 1.13798E-04
 -1       444 0.00000E+00 1.04953E-04 0.00000E+00
 -1       446 0.00000E+00-1.04953E-04 0.00000E+00
 -1       447 0.00000E+00 0.00000E+00-1.64752E-04
 -1       449 0.00000E+00 0.00000E+00 1.64752E-04
 -1       458 3.66347E-02-1.79823E-05-1.00843E-01
 -1       460 3.66347E-02 1.79823E-05-1.00843E-01
 -1       461 3.79068E-02-5.05911E-13-1.00815E-01
 -1       463 3.53626E-02-6.31110E-13-1.00872E-01
 -1       472 0.00000E+00 0.00000E+00-1.13798E-04
 -1       474 0.00000E+00 0.00000E+00 1.13798E-04
 -1       475 3.76252E-02-3.56747E-03-1.40090E-01
 -1       477 3.49072E-02 3.34321E-03-1.40166E-01
 -1       478 3.76252E-02 3.56747E-03-1.40090E-01
 -1       480 3.49072E-02-3.34321E-03-1.40166E-01
 -1       481 0.00000E+00 0.00000E+00-1.13798E-04
 -1       483 0.00000E+00 0.00000E+00 1.13798E-04
 -1       484-6.22016E-03-7.37201E-04-2.76313E-02
 -1       486 4.84720E-04 3.02066E-03-2.75198E-02
 -1       487-6.33558E-03-3.17771E-03-6.68282E-02
 -1       489-2.70929E-03 3.78994E-03-6.68022E-02
 -1       490-7.43135E-03-5.24404E-03-9.77639E-02
 -1       492-3.15278E-03 5.03417E-03-9.78098E-02
 -1       493-6.15378E-03-7.00952E-03-1.26962E-01
 -1       495-2.87652E-03 6.19545E-03-1.27073E-01
 -1       496-3.91074E-03-8.40819E-03-1.49290E-01
 -1       498-1.42801E-03 7.00176E-03-1.49445E-01
 -1       499-6.83782E-04-9.38082E-03-1.64557E-01
 -1       501 7.73113E-04 7.56930E-03-1.64754E-01
 -1       502 3.20047E-03-9.83324E-03-1.71293E-01
 -1       504 3.48514E-03 7.78478E-03-1.71505E-01
 -1       505 7.33703E-03-9.78378E-03-1.69122E-01
 -1       507 6.48416E-03 7.67404E-03-1.69343E-01
 -1       508 1.14408E-02-9.22049E-03-1.58086E-01
 -1       510 9.43688E-03 7.22856E-03-1.58288E-01
 -1       511 1.51225E-02-8.19082E-03-1.38778E-01
 -1       513 1.21249E-02 6.47935E-03-1.38957E-01
 -1       514 1.81174E-02-6.75900E-03-1.12361E-01
 -1       516 1.42753E-02 5.47237E-03-1.12494E-01
 -1       517 2.01447E-02-5.01287E-03-8.04032E-02
 -1       519 1.57109E-02 4.26392E-03-8.04886E-02
 -1       520 2.10338E-02-3.06394E-03-4.48699E-02
 -1       522 1.62664E-02 2.93161E-03-4.48930E-02
 -1       523 2.06571E-02-1.02860E-03-7.92981E-03
 -1       525 1.58586E-02 1.55088E-03-7.89291E-03
 -1       526 1.89889E-02 9.64770E-04 2.81267E-02
 -1       528 1.44508E-02 2.09865E-04 2.82278E-02
 -1       529 1.60692E-02 2.79818E-03 6.10692E-02
 -1       531 1.20778E-02-1.01455E-03 6.12262E-02
 -1       532 1.20252E-02 4.35782E-03 8.88397E-02
 -1       534 8.82796E-03-2.04489E-03 8.90478E-02
 -1       535 7.04422E-03 5.55450E-03 1.09702E-01
 -1       537 4.84397E-03-2.82329E-03 1.09948E-01
 -1       538 1.37262E-03 6.31675E-03 1.22339E-01
 -1       540 3.08848E-04-3.30168E-03 1.22612E-01
 -1       541-4.70946E-03 6.60898E-03 1.25946E-01
 -1       543-4.56670E-03-3.45798E-03 1.26230E-01
 -1       544-1.09016E-02 6.42016E-03 1.20278E-01
 -1       546-9.55734E-03-3.28620E-03 1.20558E-01
 -1       547-1.69076E-02 5.78153E-03 1.05673E-01
 -1       549-1.44429E-02-2.80852E-03 1.05936E-01
 -1       550-2.24531E-02 4.74675E-03 8.30387E-02
 -1       552-1.90190E-02-2.06588E-03 8.32701E-02
 -1       553-2.73077E-02 3.41300E-03 5.37922E-02
 -1       555-2.31184E-02-1.12148E-03 5.39839E-02
 -1       556-3.12966E-02 1.88701E-03 1.98043E-02
 -1       558-2.66187E-02-6.28182E-05 1.99472E-02
 -1       559-3.43299E-02 3.22485E-04-1.67587E-02
 -1       561-2.94529E-02 1.02715E-03-1.66650E-02
 -1       562-3.63566E-02-1.15766E-03-5.34248E-02
 -1       564-3.16299E-02 2.00554E-03-5.33836E-02
 -1       565-3.75458E-02-2.35445E-03-8.78758E-02
 -1       567-3.32061E-02 2.81603E-03-8.78758E-02
 -1       568-3.77883E-02-3.12168E-03-1.17241E-01
 -1       570-3.43652E-02 3.34420E-03-1.17279E-01
 -1       571-3.77249E-02-4.21491E-03-1.14952E-01
 -1       573-3.50938E-02 4.01036E-03-1.14874E-01
 -1       574-6.05977E-03-4.07260E-14-1.47088E-02
 -1       576-2.68947E-03-8.29997E-14-1.45511E-02
 -1       577-4.37462E-03-5.02302E-05-1.46299E-02
 -1       579-4.37462E-03 5.02302E-05-1.46299E-02
 -1       588-7.15632E-03-1.29178E-13-3.30771E-02
 -1       590-5.69227E-03-2.25763E-13-3.30845E-02
 -1       591-6.42429E-03 2.35803E-06-3.30808E-02
 -1       593-6.42429E-03-2.35803E-06-3.30808E-02
 -1       602-7.97949E-03-2.15083E-13-4.87286E-02
 -1       604-5.66708E-03-3.47831E-13-4.87742E-02
 -1       605-6.82329E-03 1.45279E-05-4.87514E-02
 -1       607-6.82329E-03-1.45279E-05-4.87514E-02
 -1       616-6.57575E-03-2.97955E-13-6.35525E-02
 -1       618-5.09371E-03-4.66959E-13-6.36702E-02
 -1       619-5.83473E-03 3.74758E-05-6.36113E-02
 -1       621-5.83473E-03-3.74758E-05-6.36113E-02
 -1       630-4.38518E-03-3.38431E-13-7.50779E-02
 -1       632-3.02257E-03-5.42871E-13-7.52460E-02
 -1       633-3.70388E-03 5.35642E-05-7.51619E-02
 -1       635-3.70388E-03-5.35642E-05-7.51619E-02
 -1       644-9.80664E-04-3.21365E-13-8.30147E-02
 -1       646-3.19974E-04-5.58674E-13-8.32194E-02
 -1       647-6.50319E-04 6.52195E-05-8.31171E-02
 -1       649-6.50319E-04-6.52195E-05-8.31171E-02
 -1       658 2.91457E-03-2.45913E-13-8.64418E-02
 -1       660 3.09453E-03-5.11297E-13-8.66678E-02
 -1       661 3.00455E-03 7.20030E-05-8.65548E-02
 -1       663 3.00455E-03-7.20030E-05-8.65548E-02
 -1       672 7.18579E-03-1.30541E-13-8.51580E-02
 -1       674 6.68765E-03-4.17243E-13-8.53870E-02
 -1       675 6.93672E-03 7.29658E-05-8.52725E-02
 -1       677 6.93672E-03-7.29658E-05-8.52725E-02
 -1       686 1.13377E-02 1.73991E-14-7.90813E-02
 -1       688 1.02876E-02-2.85905E-13-7.92970E-02
 -1       689 1.08127E-02 6.86922E-05-7.91891E-02
 -1       691 1.08127E-02-6.86922E-05-7.91891E-02
 -1       700 1.51191E-02 1.72460E-13-6.85498E-02
 -1       702 1.35058E-02-1.41596E-13-6.87360E-02
 -1       703 1.43125E-02 5.93095E-05-6.86429E-02
 -1       705 1.43125E-02-5.93095E-05-6.86429E-02
 -1       714 1.81671E-02 3.09871E-13-5.41422E-02
 -1       716 1.61280E-02-1.55513E-14-5.42849E-02
 -1       717 1.71476E-02 4.54733E-05-5.42136E-02
 -1       719 1.71476E-02-4.54733E-05-5.42136E-02
 -1       728 2.02622E-02 4.09627E-13-3.67262E-02
 -1       730 1.78918E-02 7.87236E-14-3.68150E-02
 -1       731 1.90770E-02 2.82831E-05-3.67706E-02
 -1       733 1.90770E-02-2.82831E-05-3.67706E-02
 -1       742 2.11899E-02 4.86954E-13-1.73529E-02
 -1       744 1.86516E-02 1.68237E-13-1.73798E-02
 -1       745 1.99208E-02 8.56592E-06-1.73663E-02
 -1       747 1.99208E-02-8.56592E-06-1.73663E-02
 -1       756 2.08498E-02 5.58933E-13 2.78009E-03
 -1       758 1.82892E-02 2.72388E-13 2.81798E-03
 -1       759 1.95695E-02-1.20698E-05 2.79904E-03
 -1       761 1.95695E-02 1.20698E-05 2.79904E-03
 -1       770 1.91972E-02 5.91486E-13 2.24216E-02
 -1       772 1.67825E-02 3.43823E-13 2.25244E-02
 -1       773 1.79899E-02-3.27302E-05 2.24730E-02
 -1       775 1.79899E-02 3.27302E-05 2.24730E-02
 -1       784 1.62856E-02 5.77438E-13 4.03349E-02
 -1       786 1.41649E-02 3.81405E-13 4.04972E-02
 -1       787 1.52253E-02-5.16949E-05 4.04160E-02
 -1       789 1.52253E-02 5.16949E-05 4.04160E-02
 -1       798 1.22350E-02 5.02766E-13 5.53800E-02
 -1       800 1.05482E-02 3.64580E-13 5.55944E-02
 -1       801 1.13916E-02-6.82834E-05 5.54872E-02
 -1       803 1.13916E-02 6.82834E-05 5.54872E-02
 -1       812 7.24041E-03 3.65256E-13 6.65821E-02
 -1       814 6.09699E-03 2.78669E-13 6.68364E-02
 -1       815 6.66870E-03-8.09800E-05 6.67093E-02
 -1       817 6.66870E-03 8.09800E-05 6.67093E-02
 -1       826 1.54686E-03 1.97380E-13 7.31914E-02
 -1       828 1.02790E-03 1.58166E-13 7.34728E-02
 -1       829 1.28738E-03-8.96263E-05 7.33321E-02
 -1       831 1.28738E-03 8.96263E-05 7.33321E-02
 -1       840-4.56005E-03 2.20316E-14 7.47300E-02
 -1       842-4.41216E-03 3.11897E-14 7.50224E-02
 -1       843-4.48611E-03-9.31236E-05 7.48762E-02
 -1       845-4.48611E-03 9.31236E-05 7.48762E-02
 -1       854-1.07790E-02-1.37537E-13 7.10165E-02
 -1       856-9.95930E-03-7.32844E-14 7.13055E-02
 -1       857-1.03691E-02-9.20620E-05 7.11610E-02
 -1       859-1.03691E-02 9.20620E-05 7.11610E-02
 -1       868-1.68096E-02-2.57770E-13 6.21801E-02
 -1       870-1.53526E-02-1.41109E-13 6.24496E-02
 -1       871-1.60811E-02-8.58416E-05 6.23148E-02
 -1       873-1.60811E-02 8.58416E-05 6.23148E-02
 -1       882-2.23768E-02-3.25419E-13 4.86423E-02
 -1       884-2.03524E-02-1.58434E-13 4.88805E-02
 -1       885-2.13646E-02-7.58629E-05 4.87614E-02
 -1       887-2.13646E-02 7.58629E-05 4.87614E-02
 -1       896-2.72468E-02-3.39815E-13 3.10958E-02
 -1       898-2.47558E-02-1.23363E-13 3.12904E-02
 -1       899-2.60013E-02-6.19983E-05 3.11931E-02
 -1       901-2.60013E-02 6.19983E-05 3.11931E-02
 -1       910-3.12470E-02-3.27949E-13 1.04475E-02
 -1       912-2.84154E-02-6.77834E-14 1.05928E-02
 -1       913-2.98312E-02-4.62622E-05 1.05202E-02
 -1       915-2.98312E-02 4.62622E-05 1.05202E-02
 -1       924-3.42816E-02-3.08135E-13-1.22387E-02
 -1       926-3.12446E-02-1.03286E-14-1.21476E-02
 -1       927-3.27631E-02-2.90285E-05-1.21932E-02
 -1       929-3.27631E-02 2.90285E-05-1.21932E-02
 -1       938-3.63251E-02-2.74791E-13-3.58019E-02
 -1       940-3.32389E-02 5.80755E-14-3.57634E-02
 -1       941-3.47820E-02-1.22763E-05-3.57826E-02
 -1       943-3.47820E-02 1.22763E-05-3.57826E-02
 -1       952-3.74666E-02-2.29237E-13-5.91293E-02
 -1       954-3.44425E-02 1.25314E-13-5.91389E-02
 -1       955-3.59546E-02 3.05978E-06-5.91341E-02
 -1       957-3.59546E-02-3.05978E-06-5.91341E-02
 -1       966-3.78375E-02-1.70527E-13-8.10306E-02
 -1       968-3.50738E-02 2.01145E-13-8.10775E-02
 -1       969-3.64557E-02 1.49563E-05-8.10541E-02
 -1       971-3.64557E-02-1.49563E-05-8.10541E-02
 -1       980 0.00000E+00 0.00000E+00-6.94952E-05
 -1       982 0.00000E+00-0.00000E+00 6.94952E-05
 -1       983-3.77249E-02 4.21491E-03-1.14952E-01
 -1       985-3.50938E-02-4.01036E-03-1.14874E-01
 -1       986-6.22016E-03 7.37201E-04-2.76313E-02
 -1       988 4.84720E-04-3.02066E-03-2.75198E-02
 -1       989-6.33558E-03 3.17771E-03-6.68282E-02
 -1       991-2.70929E-03-3.78994E-03-6.68022E-02
 -1       992-7.43135E-03 5.24404E-03-9.77639E-02
 -1       994-3.15278E-03-5.03417E-03-9.78098E-02
 -1       995-6.15378E-03 7.00952E-03-1.26962E-01
 -1       997-2.87652E-03-6.19545E-03-1.27073E-01
 -1       998-3.91074E-03 8.40819E-03-1.49290E-01
 -1      1000-1.42801E-03-7.00176E-03-1.49445E-01
 -1      1001-6.83782E-04 9.38082E-03-1.64557E-01
 -1      1003 7.73113E-04-7.56930E-03-1.64754E-01
 -1      1004 3.20047E-03 9.83324E-03-1.71293E-01
 -1      1006 3.48514E-03-7.78478E-03-1.71505E-01
 -1      1007 7.33703E-03 9.78378E-03-1.69122E-01
 -1      1009 6.48416E-03-7.67404E-03-1.69343E-01
 -1      1010 1.14408E-02 9.22049E-03-1.58086E-01
 -1      1012 9.43688E-03-7.22856E-03-1.58288E-01
 -1      1013 1.51225E-02 8.19082E-03-1.38778E-01
 -1      1015 1.21249E-02-6.47935E-03-1.38957E-01
 -1      1016 1.81174E-02 6.75900E-03-1.12361E-01
 -1      1018 1.42753E-02-5.47237E-03-1.12494E-01
 -1      1019 2.01447E-02 5.01287E-03-8.04032E-02
 -1      1021 1.57109E-02-4.26392E-03-8.04886E-02
 -1      1022 2.10338E-02 3.06394E-03-4.48699E-02
 -1      1024 1.62664E-02-2.93161E-03-4.48930E-02
 -1      1025 2.06571E-02 1.02860E-03-7.92981E-03
 -1      1027 1.58586E-02-1.55088E-03-7.89291E-03
 -1      1028 1.89889E-02-9.64770E-04 2.81267E-02
 -1      1030 1.44508E-02-2.09865E-04 2.82278E-02
 -1      1031 1.60692E-02-2.79818E-03 6.10692E-02
 -1      1033 1.20778E-02 1.01455E-03 6.12262E-02
 -1      1034 1.20252E-02-4.35782E-03 8.88397E-02
 -1      1036 8.82796E-03 2.04489E-03 8.90478E-02
 -1      1037 7.04422E-03-5.55450E-03 1.09702E-01
 -1      1039 4.84397E-03 2.82329E-03 1.09948E-01
 -1      1040 1.37262E-03-6.31675E-03 1.22339E-01
 -1      1042 3.08848E-04 3.30168E-03 1.22612E-01
 -1      1043-4.70946E-03-6.60898E-03 1.25946E-01
 -1      1045-4.56670E-03 3.45798E-03 1.26230E-01
 -1      1046-1.09016E-02-6.42016E-03 1.20278E-01
 -1      1048-9.55734E-03 3.28620E-03 1.20558E-01
 -1      1049-1.69076E-02-5.78153E-03 1.05673E-01
 -1      1051-1.44429E-02 2.80852E-03 1.05936E-01
 -1      1052-2.24531E-02-4.74675E-03 8.30387E-02
 -1      1054-1.90190E-02 2.06588E-03 8.32701E-02
 -1      1055-2.73077E-02-3.41300E-03 5.37922E-02
 -1      1057-2.31184E-02 1.12148E-03 5.39839E-02
 -1      1058-3.12966E-02-1.88701E-03 1.98043E-02
 -1      1060-2.66187E-02 6.28182E-05 1.99472E-02
 -1      1061-3.43299E-02-3.22485E-04-1.67587E-02
 -1      1063-2.94529E-02-1.02715E-03-1.66650E-02
 -1      1064-3.63566E-02 1.15766E-03-5.34248E-02
 -1      1066-3.16299E-02-2.00554E-03-5.33836E-02
 -1      1067-3.75458E-02 2.35445E-03-8.78758E-02
 -1      1069-3.32061E-02-2.81603E-03-8.78758E-02
 -1      1070-3.77883E-02 3.12168E-03-1.17241E-01
 -1      1072-3.43652E-02-3.34420E-03-1.17279E-01
 -1      1073 0.00000E+00 0.00000E+00-6.94952E-05
 -1      1075 0.00000E+00-0.00000E+00 6.94952E-05
 -1      1076 0.00000E+00-2.61258E-05 0.00000E+00
 -1      1078 0.00000E+00 2.61258E-05 0.00000E+00
 -1      1079 0.00000E+00 1.31920E-16 0.00000E+00
 -1      1081 0.00000E+00-1.31920E-16 0.00000E+00
 -1      1082 0.00000E+00 2.61258E-05 0.00000E+00
 -1      1084 0.00000E+00-2.61258E-05 0.00000E+00
 -1      1085 4.37462E-03 5.02302E-05-1.46299E-02
 -1      1087 4.37462E-03-5.02302E-05-1.46299E-02
 -1      1088 6.05977E-03 3.07737E-14-1.47088E-02
 -1      1090 2.68947E-03 3.38968E-14-1.45511E-02
 -1      1099 6.42429E-03-2.35803E-06-3.30808E-02
 -1      1101 6.42429E-03 2.35803E-06-3.30808E-02
 -1      1102 7.15632E-03 8.87120E-14-3.30771E-02
 -1      1104 5.69227E-03 9.77985E-14-3.30845E-02
 -1      1113 6.82329E-03-1.45279E-05-4.87514E-02
 -1      1115 6.82329E-03 1.45279E-05-4.87514E-02
 -1      1116 7.97949E-03 1.59620E-13-4.87286E-02
 -1      1118 5.66708E-03 1.74842E-13-4.87742E-02
 -1      1127 5.83473E-03-3.74758E-05-6.36113E-02
 -1      1129 5.83473E-03 3.74758E-05-6.36113E-02
 -1      1130 6.57575E-03 2.05549E-13-6.35525E-02
 -1      1132 5.09371E-03 2.29219E-13-6.36702E-02
 -1      1141 3.70388E-03-5.35642E-05-7.51619E-02
 -1      1143 3.70388E-03 5.35642E-05-7.51619E-02
 -1      1144 4.38518E-03 2.17195E-13-7.50779E-02
 -1      1146 3.02257E-03 2.53151E-13-7.52460E-02
 -1      1155 6.50319E-04-6.52195E-05-8.31171E-02
 -1      1157 6.50319E-04 6.52195E-05-8.31171E-02
 -1      1158 9.80664E-04 2.07593E-13-8.30147E-02
 -1      1160 3.19974E-04 2.59956E-13-8.32194E-02
 -1      1169-3.00455E-03-7.20030E-05-8.65548E-02
 -1      1171-3.00455E-03 7.20030E-05-8.65548E-02
 -1      1172-2.91457E-03 1.79060E-13-8.64418E-02
 -1      1174-3.09453E-03 2.48605E-13-8.66678E-02
 -1      1183-6.93672E-03-7.29658E-05-8.52725E-02
 -1      1185-6.93672E-03 7.29658E-05-8.52725E-02
 -1      1186-7.18579E-03 1.53789E-13-8.51580E-02
 -1      1188-6.68765E-03 2.36781E-13-8.53870E-02
 -1      1197-1.08127E-02-6.86922E-05-7.91891E-02
 -1      1199-1.08127E-02 6.86922E-05-7.91891E-02
 -1      1200-1.13377E-02 1.41044E-13-7.90813E-02
 -1      1202-1.02876E-02 2.32858E-13-7.92970E-02
 -1      1211-1.43125E-02-5.93095E-05-6.86429E-02
 -1      1213-1.43125E-02 5.93095E-05-6.86429E-02
 -1      1214-1.51191E-02 1.27915E-13-6.85498E-02
 -1      1216-1.35058E-02 2.29660E-13-6.87360E-02
 -1      1225-1.71476E-02-4.54733E-05-5.42136E-02
 -1      1227-1.71476E-02 4.54733E-05-5.42136E-02
 -1      1228-1.81671E-02 1.18356E-13-5.41422E-02
 -1      1230-1.61280E-02 2.25730E-13-5.42849E-02
 -1      1239-1.90770E-02-2.82831E-05-3.67706E-02
 -1      1241-1.90770E-02 2.82831E-05-3.67706E-02
 -1      1242-2.02622E-02 1.01650E-13-3.67262E-02
 -1      1244-1.78918E-02 2.15013E-13-3.68150E-02
 -1      1253-1.99208E-02-8.56592E-06-1.73663E-02
 -1      1255-1.99208E-02 8.56592E-06-1.73663E-02
 -1      1256-2.11899E-02 1.32286E-13-1.73529E-02
 -1      1258-1.86516E-02 2.44309E-13-1.73798E-02
 -1      1267-1.95695E-02 1.20698E-05 2.79904E-03
 -1      1269-1.95695E-02-1.20698E-05 2.79904E-03
 -1      1270-2.08498E-02 2.00167E-13 2.78009E-03
 -1      1272-1.82892E-02 3.10351E-13 2.81798E-03
 -1      1281-1.79899E-02 3.27302E-05 2.24730E-02
 -1      1283-1.79899E-02-3.27302E-05 2.24730E-02
 -1      1284-1.91972E-02 2.56698E-13 2.24216E-02
 -1      1286-1.67825E-02 3.45470E-13 2.25244E-02
 -1      1295-1.52253E-02 5.16949E-05 4.04160E-02
 -1      1297-1.52253E-02-5.16949E-05 4.04160E-02
 -1      1298-1.62856E-02 2.84499E-13 4.03349E-02
 -1      1300-1.41649E-02 3.40020E-13 4.04972E-02
 -1      1309-1.13916E-02 6.82834E-05 5.54872E-02
 -1      1311-1.13916E-02-6.82834E-05 5.54872E-02
 -1      1312-1.22350E-02 2.81520E-13 5.53800E-02
 -1      1314-1.05482E-02 2.97045E-13 5.55944E-02
 -1      1323-6.66870E-03 8.09800E-05 6.67093E-02
 -1      1325-6.66870E-03-8.09800E-05 6.67093E-02
 -1      1326-7.24041E-03 2.52841E-13 6.65821E-02
 -1      1328-6.09699E-03 2.24167E-13 6.68364E-02
 -1      1337-1.28738E-03 8.96263E-05 7.33321E-02
 -1      1339-1.28738E-03-8.96263E-05 7.33321E-02
 -1      1340-1.54686E-03 2.11439E-13 7.31914E-02
 -1      1342-1.02790E-03 1.46004E-13 7.34728E-02
 -1      1351 4.48611E-03 9.31236E-05 7.48762E-02
 -1      1353 4.48611E-03-9.31236E-05 7.48762E-02
 -1      1354 4.56005E-03 1.66672E-13 7.47300E-02
 -1      1356 4.41216E-03 7.26924E-14 7.50224E-02
 -1      1365 1.03691E-02 9.20620E-05 7.11610E-02
 -1      1367 1.03691E-02-9.20620E-05 7.11610E-02
 -1      1368 1.07790E-02 1.31900E-13 7.10165E-02
 -1      1370 9.95930E-03 1.36086E-14 7.13055E-02
 -1      1379 1.60811E-02 8.58416E-05 6.23148E-02
 -1      1381 1.60811E-02-8.58416E-05 6.23148E-02
 -1      1382 1.68096E-02 8.16477E-14 6.21801E-02
 -1      1384 1.53526E-02-5.46623E-14 6.24496E-02
 -1      1393 2.13646E-02 7.58629E-05 4.87614E-02
 -1      1395 2.13646E-02-7.58629E-05 4.87614E-02
 -1      1396 2.23768E-02 2.84241E-14 4.86423E-02
 -1      1398 2.03524E-02-1.21287E-13 4.88805E-02
 -1      1407 2.60013E-02 6.19983E-05 3.11931E-02
 -1      1409 2.60013E-02-6.19983E-05 3.11931E-02
 -1      1410 2.72468E-02-6.94723E-15 3.10958E-02
 -1      1412 2.47558E-02-1.58691E-13 3.12904E-02
 -1      1421 2.98312E-02 4.62622E-05 1.05202E-02
 -1      1423 2.98312E-02-4.62622E-05 1.05202E-02
 -1      1424 3.12470E-02-4.53437E-14 1.04475E-02
 -1      1426 2.84154E-02-1.87788E-13 1.05928E-02
 -1      1435 3.27631E-02 2.90285E-05-1.21932E-02
 -1      1437 3.27631E-02-2.90285E-05-1.21932E-02
 -1      1438 3.42816E-02-1.09852E-13-1.22387E-02
 -1      1440 3.12446E-02-2.45665E-13-1.21476E-02
 -1      1449 3.47820E-02 1.22763E-05-3.57826E-02
 -1      1451 3.47820E-02-1.22763E-05-3.57826E-02
 -1      1452 3.63251E-02-1.98572E-13-3.58019E-02
 -1      1454 3.32389E-02-3.30521E-13-3.57634E-02
 -1      1463 3.59546E-02-3.05978E-06-5.91341E-02
 -1      1465 3.59546E-02 3.05978E-06-5.91341E-02
 -1      1466 3.74666E-02-3.04093E-13-5.91293E-02
 -1      1468 3.44425E-02-4.33632E-13-5.91389E-02
 -1      1477 3.64557E-02-1.49563E-05-8.10541E-02
 -1      1479 3.64557E-02 1.49563E-05-8.10541E-02
 -1      1480 3.78375E-02-4.13874E-13-8.10306E-02
 -1      1482 3.50738E-02-5.40047E-13-8.10775E-02
 -1      1491-1.83282E-02 1.12954E-05-9.98040E-02
 -1      1493-1.83282E-02-1.12954E-05-9.98040E-02
 -1      1494 4.95732E-14 7.43284E-13-9.94210E-02
 -1      1496 6.00700E-14 7.40609E-13-9.94210E-02
 -1      1497 1.83282E-02-1.12954E-05-9.98040E-02
 -1      1499 1.83282E-02 1.12954E-05-9.98040E-02
 -1      1500 6.22016E-03-7.37201E-04-2.76313E-02
 -1      1502-4.84720E-04 3.02066E-03-2.75198E-02
 -1      1503 6.33558E-03-3.17771E-03-6.68282E-02
 -1      1505 2.70929E-03 3.78994E-03-6.68022E-02
 -1      1506 7.43135E-03-5.24404E-03-9.77639E-02
 -1      1508 3.15278E-03 5.03417E-03-9.78098E-02
 -1      1509 6.15378E-03-7.00952E-03-1.26962E-01
 -1      1511 2.87652E-03 6.19545E-03-1.27073E-01
 -1      1512 3.91074E-03-8.40819E-03-1.49290E-01
 -1      1514 1.42801E-03 7.00176E-03-1.49445E-01
 -1      1515 6.83782E-04-9.38082E-03-1.64557E-01
 -1      1517-7.73113E-04 7.56930E-03-1.64754E-01
 -1      1518-3.20047E-03-9.83324E-03-1.71293E-01
 -1      1520-3.48514E-03 7.78478E-03-1.71505E-01
 -1      1521-7.33703E-03-9.78378E-03-1.69122E-01
 -1      1523-6.48416E-03 7.67404E-03-1.69343E-01
 -1      1524-1.14408E-02-9.22049E-03-1.58086E-01
 -1      1526-9.43688E-03 7.22856E-03-1.58288E-01
 -1      1527-1.51225E-02-8.19082E-03-1.38778E-01
 -1      1529-1.21249E-02 6.47935E-03-1.38957E-01
 -1      1530-1.81174E-02-6.75900E-03-1.12361E-01
 -1      1532-1.42753E-02 5.47237E-03-1.12494E-01
 -1      1533-2.01447E-02-5.01287E-03-8.04032E-02
 -1      1535-1.57109E-02 4.26392E-03-8.04886E-02
 -1      1536-2.10338E-02-3.06394E-03-4.48699E-02
 -1      1538-1.62664E-02 2.93161E-03-4.48930E-02
 -1      1539-2.06571E-02-1.02860E-03-7.92981E-03
 -1      1541-1.58586E-02 1.55088E-03-7.89291E-03
 -1      1542-1.89889E-02 9.64770E-04 2.81267E-02
 -1      1544-1.44508E-02 2.09865E-04 2.82278E-02
 -1      1545-1.60692E-02 2.79818E-03 6.10692E-02
 -1      1547-1.20778E-02-1.01455E-03 6.12262E-02
 -1      1548-1.20252E-02 4.35782E-03 8.88397E-02
 -1      1550-8.82796E-03-2.04489E-03 8.90478E-02
 -1      1551-7.04422E-03 5.55450E-03 1.09702E-01
 -1      1553-4.84397E-03-2.82329E-03 1.09948E-01
 -1      1554-1.37262E-03 6.31675E-03 1.22339E-01
 -1      1556-3.08848E-04-3.30168E-03 1.22612E-01
 -1      1557 4.70946E-03 6.60898E-03 1.25946E-01
 -1      1559 4.56670E-03-3.45798E-03 1.26230E-01
 -1      1560 1.09016E-02 6.42016E-03 1.20278E-01
 -1      1562 9.55734E-03-3.28620E-03 1.20558E-01
 -1      1563 1.69076E-02 5.78153E-03 1.05673E-01
 -1      1565 1.44429E-02-2.80852E-03 1.05936E-01
 -1      1566 2.24531E-02 4.74675E-03 8.30387E-02
 -1      1568 1.90190E-02-2.06588E-03 8.32701E-02
 -1      1569 2.73077E-02 3.41300E-03 5.37922E-02
 -1      1571 2.31184E-02-1.12148E-03 5.39839E-02
 -1      1572 3.12966E-02 1.88701E-03 1.98043E-02
 -1      1574 2.66187E-02-6.28182E-05 1.99472E-02
 -1      1575 3.43299E-02 3.22485E-04-1.67587E-02
 -1      1577 2.94529E-02 1.02715E-03-1.66650E-02
 -1      1578 3.63566E-02-1.15766E-03-5.34248E-02
 -1      1580 3.16299E-02 2.00554E-03-5.33836E-02
 -1      1581 3.75458E-02-2.35445E-03-8.78758E-02
 -1      1583 3.32061E-02 2.81603E-03-8.78758E-02
 -1      1584 3.77883E-02-3.12168E-03-1.17241E-01
 -1      1586 3.43652E-02 3.34420E-03-1.17279E-01
 -1      1587 3.77249E-02-4.21491E-03-1.14952E-01
 -1      1589 3.50938E-02 4.01036E-03-1.14874E-01
 -1      1590 0.00000E+00 0.00000E+00-6.94952E-05
 -1      1592 0.00000E+00 0.00000E+00 6.94952E-05
 -1      1593 3.77249E-02 4.21491E-03-1.14952E-01
 -1      1595 3.50938E-02-4.01036E-03-1.14874E-01
 -1      1596 6.22016E-03 7.37201E-04-2.76313E-02
 -1      1598-4.84720E-04-3.02066E-03-2.75198E-02
 -1      1599 6.33558E-03 3.17771E-03-6.68282E-02
 -1      1601 2.70929E-03-3.78994E-03-6.68022E-02
 -1      1602 7.43135E-03 5.24404E-03-9.77639E-02
 -1      1604 3.15278E-03-5.03417E-03-9.78098E-02
 -1      1605 6.15378E-03 7.00952E-03-1.26962E-01
 -1      1607 2.87652E-03-6.19545E-03-1.27073E-01
 -1      1608 3.91074E-03 8.40819E-03-1.49290E-01
 -1      1610 1.42801E-03-7.00176E-03-1.49445E-01
 -1      1611 6.83782E-04 9.38082E-03-1.64557E-01
 -1      1613-7.73113E-04-7.56930E-03-1.64754E-01
 -1      1614-3.20047E-03 9.83324E-03-1.71293E-01
 -1      1616-3.48514E-03-7.78478E-03-1.71505E-01
 -1      1617-7.33703E-03 9.78378E-03-1.69122E-01
 -1      1619-6.48416E-03-7.67404E-03-1.69343E-01
 -1      1620-1.14408E-02 9.22049E-03-1.58086E-01
 -1      1622-9.43688E-03-7.22856E-03-1.58288E-01
 -1      1623-1.51225E-02 8.19082E-03-1.38778E-01
 -1      1625-1.21249E-02-6.47935E-03-1.38957E-01
 -1      1626-1.81174E-02 6.75900E-03-1.12361E-01
 -1      1628-1.42753E-02-5.47237E-03-1.12494E-01
 -1      1629-2.01447E-02 5.01287E-03-8.04032E-02
 -1      1631-1.57109E-02-4.26392E-03-8.04886E-02
 -1      1632-2.10338E-02 3.06394E-03-4.48699E-02
 -1      1634-1.62664E-02-2.93161E-03-4.48930E-02
 -1      1635-2.06571E-02 1.02860E-03-7.92981E-03
 -1      1637-1.58586E-02-1.55088E-03-7.89291E-03
 -1      1638-1.89889E-02-9.64770E-04 2.81267E-02
 -1      1640-1.44508E-02-2.09865E-04 2.82278E-02
 -1      1641-1.60692E-02-2.79818E-03 6.10692E-02
 -1      1643-1.20778E-02 1.01455E-03 6.12262E-02
 -1      1644-1.20252E-02-4.35782E-03 8.88397E-02
 -1      1646-8.82796E-03 2.04489E-03 8.90478E-02
 -1      1647-7.04422E-03-5.55450E-03 1.09702E-01
 -1      1649-4.84397E-03 2.82329E-03 1.09948E-01
 -1      1650-1.37262E-03-6.31675E-03 1.22339E-01
 -1      1652-3.08848E-04 3.30168E-03 1.22612E-01
 -1      1653 4.70946E-03-6.60898E-03 1.25946E-01
 -1      1655 4.56670E-03 3.45798E-03 1.26230E-01
 -1      1656 1.09016E-02-6.42016E-03 1.20278E-01
 -1      1658 9.55734E-03 3.28620E-03 1.20558E-01
 -1      1659 1.69076E-02-5.78153E-03 1.05673E-01
 -1      1661 1.44429E-02 2.80852E-03 1.05936E-01
 -1      1662 2.24531E-02-4.74675E-03 8.30387E-02
 -1      1664 1.90190E-02 2.06588E-03 8.32701E-02
 -1      1665 2.73077E-02-3.41300E-03 5.37922E-02
 -1      1667 2.31184E-02 1.12148E-03 5.39839E-02
 -1      1668 3.12966E-02-1.88701E-03 1.98043E-02
 -1      1670 2.66187E-02 6.28182E-05 1.99472E-02
 -1      1671 3.43299E-02-3.22485E-04-1.67587E-02
 -1      1673 2.94529E-02-1.02715E-03-1.66650E-02
 -1      1674 3.63566E-02 1.15766E-03-5.34248E-02
 -1      1676 3.16299E-02-2.00554E-03-5.33836E-02
 -1      1677 3.75458E-02 2.35445E-03-8.78758E-02
 -1      1679 3.32061E-02-2.81603E-03-8.78758E-02
 -1      1680 3.77883E-02 3.12168E-03-1.17241E-01
 -1      1682 3.43652E-02-3.34420E-03-1.17279E-01
 -1      1683 0.00000E+00 0.00000E+00-6.94952E-05
 -1      1685 0.00000E+00 0.00000E+00 6.94952E-05
 -1      1686-5.53631E-03-4.14751E-04-1.77969E-02
 -1      1688-4.98717E-04 1.67343E-03-1.77274E-02
 -1      1689-6.55213E-03-3.08573E-03-4.44403E-02
 -1      1691-4.00696E-03 3.40252E-03-4.43626E-02
 -1      1692-7.34338E-03-4.87311E-03-6.46789E-02
 -1      1694-4.04789E-03 4.70547E-03-6.46327E-02
 -1      1695-6.11833E-03-6.34746E-03-8.45233E-02
 -1      1697-3.73868E-03 5.92138E-03-8.45341E-02
 -1      1698-3.94202E-03-7.61843E-03-9.95003E-02
 -1      1700-2.01935E-03 6.86776E-03-9.95286E-02
 -1      1701-6.94812E-04-8.39447E-03-1.09927E-01
 -1      1703 3.63980E-04 7.44425E-03-1.09988E-01
 -1      1704 3.12529E-03-8.80496E-03-1.14412E-01
 -1      1706 3.35760E-03 7.73145E-03-1.14481E-01
 -1      1707 7.25791E-03-8.71219E-03-1.12841E-01
 -1      1709 6.58240E-03 7.61015E-03-1.12922E-01
 -1      1710 1.13179E-02-8.20376E-03-1.05095E-01
 -1      1712 9.79093E-03 7.16304E-03-1.05168E-01
 -1      1713 1.49879E-02-7.25889E-03-9.16352E-02
 -1      1715 1.26824E-02 6.36472E-03-9.17000E-02
 -1      1716 1.79581E-02-5.97160E-03-7.32137E-02
 -1      1718 1.50175E-02 5.29728E-03-7.32562E-02
 -1      1719 1.99805E-02-4.39795E-03-5.09417E-02
 -1      1721 1.65784E-02 4.00226E-03-5.09625E-02
 -1      1722 2.08651E-02-2.65029E-03-2.61706E-02
 -1      1724 1.72122E-02 2.57325E-03-2.61603E-02
 -1      1725 2.04985E-02-8.25569E-04-4.24569E-04
 -1      1727 1.68189E-02 1.08698E-03-3.85338E-04
 -1      1728 1.88459E-02 9.56924E-04 2.46981E-02
 -1      1730 1.53695E-02-3.58744E-04 2.47702E-02
 -1      1731 1.59530E-02 2.59329E-03 4.76282E-02
 -1      1733 1.28969E-02-1.68077E-03 4.77283E-02
 -1      1734 1.19417E-02 3.97983E-03 6.69173E-02
 -1      1736 9.49972E-03-2.79443E-03 6.70448E-02
 -1      1737 7.00043E-03 5.03624E-03 8.13360E-02
 -1      1739 5.32860E-03-3.63564E-03 8.14836E-02
 -1      1740 1.37156E-03 5.69730E-03 8.99420E-02
 -1      1742 5.80195E-04-4.15090E-03 9.01058E-02
 -1      1743-4.66595E-03 5.92966E-03 9.21471E-02
 -1      1745-4.52063E-03-4.31475E-03 9.23186E-02
 -1      1746-1.08152E-02 5.72196E-03 8.77454E-02
 -1      1748-9.73323E-03-4.11677E-03 8.79197E-02
 -1      1749-1.67822E-02 5.09995E-03 7.69334E-02
 -1      1751-1.48213E-02-3.58109E-03 7.71022E-02
 -1      1752-2.22957E-02 4.10931E-03 6.02910E-02
 -1      1754-1.95665E-02-2.74152E-03 6.04506E-02
 -1      1755-2.71276E-02 2.83415E-03 3.87468E-02
 -1      1757-2.37874E-02-1.67393E-03 3.88911E-02
 -1      1758-3.11063E-02 1.36690E-03 1.35294E-02
 -1      1760-2.73515E-02-4.45057E-04 1.36582E-02
 -1      1761-3.41394E-02-1.60687E-04-1.39470E-02
 -1      1763-3.01824E-02 8.23835E-04-1.38377E-02
 -1      1764-3.62009E-02-1.63202E-03-4.20641E-02
 -1      1766-3.22944E-02 2.04822E-03-4.19674E-02
 -1      1767-3.73789E-02-2.89349E-03-6.93574E-02
 -1      1769-3.36970E-02 3.07167E-03-6.92770E-02
 -1      1770-3.77756E-02-3.71776E-03-9.39270E-02
 -1      1772-3.46822E-02 3.85413E-03-9.38552E-02
 -1      1773-5.53631E-03 4.14751E-04-1.77969E-02
 -1      1775-4.98717E-04-1.67343E-03-1.77274E-02
 -1      1776-6.55213E-03 3.08573E-03-4.44403E-02
 -1      1778-4.00696E-03-3.40252E-03-4.43626E-02
 -1      1779-7.34338E-03 4.87311E-03-6.46789E-02
 -1      1781-4.04789E-03-4.70547E-03-6.46327E-02
 -1      1782-6.11833E-03 6.34746E-03-8.45233E-02
 -1      1784-3.73868E-03-5.92138E-03-8.45341E-02
 -1      1785-3.94202E-03 7.61843E-03-9.95003E-02
 -1      1787-2.01935E-03-6.86776E-03-9.95286E-02
 -1      1788-6.94812E-04 8.39447E-03-1.09927E-01
 -1      1790 3.63980E-04-7.44425E-03-1.09988E-01
 -1      1791 3.12529E-03 8.80496E-03-1.14412E-01
 -1      1793 3.35760E-03-7.73145E-03-1.14481E-01
 -1      1794 7.25791E-03 8.71219E-03-1.12841E-01
 -1      1796 6.58240E-03-7.61015E-03-1.12922E-01
 -1      1797 1.13179E-02 8.20376E-03-1.05095E-01
 -1      1799 9.79093E-03-7.16304E-03-1.05168E-01
 -1      1800 1.49879E-02 7.25889E-03-9.16352E-02
 -1      1802 1.26824E-02-6.36472E-03-9.17000E-02
 -1      1803 1.79581E-02 5.97160E-03-7.32137E-02
 -1      1805 1.50175E-02-5.29728E-03-7.32562E-02
 -1      1806 1.99805E-02 4.39795E-03-5.09417E-02
 -1      1808 1.65784E-02-4.00226E-03-5.09625E-02
 -1      1809 2.08651E-02 2.65029E-03-2.61706E-02
 -1      1811 1.72122E-02-2.57325E-03-2.61603E-02
 -1      1812 2.04985E-02 8.25569E-04-4.24569E-04
 -1      1814 1.68189E-02-1.08698E-03-3.85338E-04
 -1      1815 1.88459E-02-9.56924E-04 2.46981E-02
 -1      1817 1.53695E-02 3.58744E-04 2.47702E-02
 -1      1818 1.59530E-02-2.59329E-03 4.76282E-02
 -1      1820 1.28969E-02 1.68077E-03 4.77283E-02
 -1      1821 1.19417E-02-3.97983E-03 6.69173E-02
 -1      1823 9.49972E-03 2.79443E-03 6.70448E-02
 -1      1824 7.00043E-03-5.03624E-03 8.13360E-02
 -1      1826 5.32860E-03 3.63564E-03 8.14836E-02
 -1      1827 1.37156E-03-5.69730E-03 8.99420E-02
 -1      1829 5.80195E-04 4.15090E-03 9.01058E-02
 -1      1830-4.66595E-03-5.92966E-03 9.21471E-02
 -1      1832-4.52063E-03 4.31475E-03 9.23186E-02
 -1      1833-1.08152E-02-5.72196E-03 8.77454E-02
 -1      1835-9.73323E-03 4.11677E-03 8.79197E-02
 -1      1836-1.67822E-02-5.09995E-03 7.69334E-02
 -1      1838-1.48213E-02 3.58109E-03 7.71022E-02
 -1      1839-2.22957E-02-4.10931E-03 6.02910E-02
 -1      1841-1.95665E-02 2.74152E-03 6.04506E-02
 -1      1842-2.71276E-02-2.83415E-03 3.87468E-02
 -1      1844-2.37874E-02 1.67393E-03 3.88911E-02
 -1      1845-3.11063E-02-1.36690E-03 1.35294E-02
 -1      1847-2.73515E-02 4.45057E-04 1.36582E-02
 -1      1848-3.41394E-02 1.60687E-04-1.39470E-02
 -1      1850-3.01824E-02-8.23835E-04-1.38377E-02
 -1      1851-3.62009E-02 1.63202E-03-4.20641E-02
 -1      1853-3.22944E-02-2.04822E-03-4.19674E-02
 -1      1854-3.73789E-02 2.89349E-03-6.93574E-02
 -1      1856-3.36970E-02-3.07167E-03-6.92770E-02
 -1      1857-3.77756E-02 3.71776E-03-9.39270E-02
 -1      1859-3.46822E-02-3.85413E-03-9.38552E-02
 -1      1860-1.14224E-03-2.36494E-05-1.47580E-02
 -1      1862-1.14224E-03 2.36494E-05-1.47580E-02
 -1      1863-2.11017E-03-4.31143E-06-3.19781E-02
 -1      1865-2.11017E-03 4.31143E-06-3.19781E-02
 -1      1866-2.52652E-03 9.86837E-06-4.83770E-02
 -1      1868-2.52652E-03-9.86838E-06-4.83770E-02
 -1      1869-2.17336E-03 1.95654E-05-6.30898E-02
 -1      1871-2.17336E-03-1.95654E-05-6.30898E-02
 -1      1872-1.28234E-03 2.87610E-05-7.48539E-02
 -1      1874-1.28234E-03-2.87610E-05-7.48539E-02
 -1      1875 5.54814E-05 3.41011E-05-8.28312E-02
 -1      1877 5.54814E-05-3.41011E-05-8.28312E-02
 -1      1878 1.67617E-03 3.82605E-05-8.63519E-02
 -1      1880 1.67617E-03-3.82605E-05-8.63519E-02
 -1      1881 3.43574E-03 3.80244E-05-8.50962E-02
 -1      1883 3.43574E-03-3.80244E-05-8.50962E-02
 -1      1884 5.17388E-03 3.64413E-05-7.90426E-02
 -1      1886 5.17388E-03-3.64413E-05-7.90426E-02
 -1      1887 6.74463E-03 3.08937E-05-6.84995E-02
 -1      1889 6.74463E-03-3.08937E-05-6.84995E-02
 -1      1890 8.01194E-03 2.42424E-05-5.40659E-02
 -1      1892 8.01194E-03-2.42424E-05-5.40659E-02
 -1      1893 8.86484E-03 1.47648E-05-3.66029E-02
 -1      1895 8.86484E-03-1.47648E-05-3.66029E-02
 -1      1896 9.21841E-03 4.94086E-06-1.71715E-02
 -1      1898 9.21841E-03-4.94087E-06-1.71715E-02
 -1      1899 9.02195E-03-6.20679E-06 3.02959E-03
 -1      1901 9.02195E-03 6.20679E-06 3.02959E-03
 -1      1902 8.25867E-03-1.66053E-05 2.27429E-02
 -1      1904 8.25867E-03 1.66053E-05 2.27429E-02
 -1      1905 6.94805E-03-2.67961E-05 4.07282E-02
 -1      1907 6.94805E-03 2.67961E-05 4.07282E-02
 -1      1908 5.14235E-03-3.51176E-05 5.58414E-02
 -1      1910 5.14235E-03 3.51176E-05 5.58414E-02
 -1      1911 2.92374E-03-4.19994E-05 6.71046E-02
 -1      1913 2.92374E-03 4.19994E-05 6.71046E-02
 -1      1914 3.97567E-04-4.61863E-05 7.37659E-02
 -1      1916 3.97567E-04 4.61863E-05 7.37659E-02
 -1      1917-2.31444E-03-4.82726E-05 7.53456E-02
 -1      1919-2.31444E-03 4.82726E-05 7.53456E-02
 -1      1920-5.08303E-03-4.73657E-05 7.16636E-02
 -1      1922-5.08303E-03 4.73657E-05 7.16636E-02
 -1      1923-7.78029E-03-4.44192E-05 6.28486E-02
 -1      1925-7.78029E-03 4.44192E-05 6.28486E-02
 -1      1926-1.02886E-02-3.88033E-05 4.93267E-02
 -1      1928-1.02886E-02 3.88033E-05 4.93267E-02
 -1      1929-1.25095E-02-3.19091E-05 3.17918E-02
 -1      1931-1.25095E-02 3.19091E-05 3.17918E-02
 -1      1932-1.43705E-02-2.32529E-05 1.11571E-02
 -1      1934-1.43705E-02 2.32529E-05 1.11571E-02
 -1      1935-1.58330E-02-1.45532E-05-1.15064E-02
 -1      1937-1.58330E-02 1.45532E-05-1.15064E-02
 -1      1938-1.68945E-02-5.46679E-06-3.50425E-02
 -1      1940-1.68945E-02 5.46679E-06-3.50425E-02
 -1      1941-1.76044E-02 2.31572E-06-5.82913E-02
 -1      1943-1.76044E-02-2.31572E-06-5.82913E-02
 -1      1944-1.80442E-02 7.71492E-06-8.01564E-02
 -1      1946-1.80442E-02-7.71492E-06-8.01564E-02
 -1      1947-5.54288E-15-1.18745E-13-1.48772E-02
 -1      1949 1.64356E-14-1.19030E-13-1.48772E-02
 -1      1950 4.89214E-15-2.52420E-13-3.16713E-02
 -1      1952 9.99548E-15-2.52375E-13-3.16713E-02
 -1      1953 4.91447E-15-3.39291E-13-4.81615E-02
 -1      1955 1.65614E-14-3.39402E-13-4.81615E-02
 -1      1956 1.16903E-14-4.59396E-13-6.28938E-02
 -1      1958 2.32687E-14-4.59459E-13-6.28938E-02
 -1      1959 2.09416E-14-5.79037E-13-7.46924E-02
 -1      1961 3.13777E-14-5.79488E-13-7.46924E-02
 -1      1962 3.26501E-14-6.58994E-13-8.26862E-02
 -1      1964 3.74518E-14-6.58446E-13-8.26862E-02
 -1      1965 3.75585E-14-7.15372E-13-8.62257E-02
 -1      1967 4.32241E-14-7.15931E-13-8.62257E-02
 -1      1968 4.18901E-14-7.54119E-13-8.49831E-02
 -1      1970 4.34930E-14-7.53848E-13-8.49831E-02
 -1      1971 4.70284E-14-7.66489E-13-7.89414E-02
 -1      1973 4.82323E-14-7.66666E-13-7.89414E-02
 -1      1974 5.68504E-14-7.61863E-13-6.84070E-02
 -1      1976 5.50046E-14-7.62231E-13-6.84070E-02
 -1      1977 6.83550E-14-7.12118E-13-5.39806E-02
 -1      1979 6.20545E-14-7.12437E-13-5.39806E-02
 -1      1980 7.13579E-14-6.84001E-13-3.65223E-02
 -1      1982 7.33233E-14-6.83792E-13-3.65223E-02
 -1      1983 8.45556E-14-6.19942E-13-1.70941E-02
 -1      1985 7.00225E-14-6.20844E-13-1.70941E-02
 -1      1986 8.94545E-14-4.48697E-13 3.10597E-03
 -1      1988 7.27692E-14-4.46559E-13 3.10597E-03
 -1      1989 8.80511E-14-3.19855E-13 2.28199E-02
 -1      1991 8.14262E-14-3.23543E-13 2.28199E-02
 -1      1992 9.27938E-14-2.17215E-13 4.08078E-02
 -1      1994 8.10688E-14-2.15487E-13 4.08078E-02
 -1      1995 8.37316E-14-1.87086E-13 5.59255E-02
 -1      1997 8.93782E-14-1.88440E-13 5.59255E-02
 -1      1998 8.45595E-14-2.61317E-13 6.71951E-02
 -1      2000 9.05213E-14-2.62576E-13 6.71951E-02
 -1      2001 9.07148E-14-3.13933E-13 7.38650E-02
 -1      2003 9.32431E-14-3.13870E-13 7.38650E-02
 -1      2004 9.87890E-14-3.16160E-13 7.54554E-02
 -1      2006 9.51947E-14-3.16608E-13 7.54554E-02
 -1      2007 1.02755E-13-2.60701E-13 7.17866E-02
 -1      2009 9.48720E-14-2.58932E-13 7.17866E-02
 -1      2010 1.02199E-13-1.86792E-13 6.29874E-02
 -1      2012 9.50975E-14-1.87831E-13 6.29874E-02
 -1      2013 1.00942E-13-8.76244E-14 4.94842E-02
 -1      2015 8.81378E-14-8.69652E-14 4.94842E-02
 -1      2016 9.76458E-14 9.25544E-14 3.19712E-02
 -1      2018 7.55689E-14 9.14685E-14 3.19712E-02
 -1      2019 8.63871E-14 2.97481E-13 1.13621E-02
 -1      2021 6.93794E-14 2.98915E-13 1.13621E-02
 -1      2022 7.91285E-14 4.69470E-13-1.12714E-02
 -1      2024 6.33573E-14 4.68394E-13-1.12714E-02
 -1      2025 7.23831E-14 6.13924E-13-3.47707E-02
 -1      2027 6.02530E-14 6.15809E-13-3.47707E-02
 -1      2028 6.62161E-14 7.11554E-13-5.79727E-02
 -1      2030 5.89372E-14 7.13561E-13-5.79727E-02
 -1      2031 6.06876E-14 7.79313E-13-7.98023E-02
 -1      2033 5.60003E-14 7.78269E-13-7.98023E-02
 -1      2034 1.14224E-03 2.36494E-05-1.47580E-02
 -1      2036 1.14224E-03-2.36494E-05-1.47580E-02
 -1      2037 2.11017E-03 4.31143E-06-3.19781E-02
 -1      2039 2.11017E-03-4.31143E-06-3.19781E-02
 -1      2040 2.52652E-03-9.86837E-06-4.83770E-02
 -1      2042 2.52652E-03 9.86837E-06-4.83770E-02
 -1      2043 2.17336E-03-1.95654E-05-6.30898E-02
 -1      2045 2.17336E-03 1.95654E-05-6.30898E-02
 -1      2046 1.28234E-03-2.87610E-05-7.48539E-02
 -1      2048 1.28234E-03 2.87610E-05-7.48539E-02
 -1      2049-5.54814E-05-3.41011E-05-8.28312E-02
 -1      2051-5.54814E-05 3.41011E-05-8.28312E-02
 -1      2052-1.67617E-03-3.82605E-05-8.63519E-02
 -1      2054-1.67617E-03 3.82605E-05-8.63519E-02
 -1      2055-3.43574E-03-3.80244E-05-8.50962E-02
 -1      2057-3.43574E-03 3.80244E-05-8.50962E-02
 -1      2058-5.17388E-03-3.64413E-05-7.90426E-02
 -1      2060-5.17388E-03 3.64413E-05-7.90426E-02
 -1      2061-6.74463E-03-3.08937E-05-6.84995E-02
 -1      2063-6.74463E-03 3.08937E-05-6.84995E-02
 -1      2064-8.01194E-03-2.42424E-05-5.40659E-02
 -1      2066-8.01194E-03 2.42424E-05-5.40659E-02
 -1      2067-8.86484E-03-1.47648E-05-3.66029E-02
 -1      2069-8.86484E-03 1.47648E-05-3.66029E-02
 -1      2070-9.21841E-03-4.94087E-06-1.71715E-02
 -1      2072-9.21841E-03 4.94087E-06-1.71715E-02
 -1      2073-9.02195E-03 6.20679E-06 3.02959E-03
 -1      2075-9.02195E-03-6.20679E-06 3.02959E-03
 -1      2076-8.25867E-03 1.66053E-05 2.27429E-02
 -1      2078-8.25867E-03-1.66053E-05 2.27429E-02
 -1      2079-6.94805E-03 2.67961E-05 4.07282E-02
 -1      2081-6.94805E-03-2.67961E-05 4.07282E-02
 -1      2082-5.14235E-03 3.51176E-05 5.58414E-02
 -1      2084-5.14235E-03-3.51176E-05 5.58414E-02
 -1      2085-2.92374E-03 4.19994E-05 6.71046E-02
 -1      2087-2.92374E-03-4.19994E-05 6.71046E-02
 -1      2088-3.97567E-04 4.61863E-05 7.37659E-02
 -1      2090-3.97567E-04-4.61863E-05 7.37659E-02
 -1      2091 2.31444E-03 4.82726E-05 7.53456E-02
 -1      2093 2.31444E-03-4.82726E-05 7.53456E-02
 -1      2094 5.08303E-03 4.73657E-05 7.16636E-02
 -1      2096 5.08303E-03-4.73657E-05 7.16636E-02
 -1      2097 7.78029E-03 4.44192E-05 6.28486E-02
 -1      2099 7.78029E-03-4.44192E-05 6.28486E-02
 -1      2100 1.02886E-02 3.88033E-05 4.93267E-02
 -1      2102 1.02886E-02-3.88033E-05 4.93267E-02
 -1      2103 1.25095E-02 3.19091E-05 3.17918E-02
 -1      2105 1.25095E-02-3.19091E-05 3.17918E-02
 -1      2106 1.43705E-02 2.32529E-05 1.11571E-02
 -1      2108 1.43705E-02-2.32529E-05 1.11571E-02
 -1      2109 1.58330E-02 1.45532E-05-1.15064E-02
 -1      2111 1.58330E-02-1.45532E-05-1.15064E-02
 -1      2112 1.68945E-02 5.46679E-06-3.50425E-02
 -1      2114 1.68945E-02-5.46679E-06-3.50425E-02
 -1      2115 1.76044E-02-2.31572E-06-5.82913E-02
 -1      2117 1.76044E-02 2.31572E-06-5.82913E-02
 -1      2118 1.80442E-02-7.71492E-06-8.01564E-02
 -1      2120 1.80442E-02 7.71492E-06-8.01564E-02
 -1      2121 5.53631E-03-4.14751E-04-1.77969E-02
 -1      2123 4.98717E-04 1.67343E-03-1.77274E-02
 -1      2124 6.55213E-03-3.08573E-03-4.44403E-02
 -1      2126 4.00696E-03 3.40252E-03-4.43626E-02
 -1      2127 7.34338E-03-4.87311E-03-6.46789E-02
 -1      2129 4.04789E-03 4.70547E-03-6.46327E-02
 -1      2130 6.11833E-03-6.34746E-03-8.45233E-02
 -1      2132 3.73868E-03 5.92138E-03-8.45341E-02
 -1      2133 3.94202E-03-7.61843E-03-9.95003E-02
 -1      2135 2.01935E-03 6.86776E-03-9.95286E-02
 -1      2136 6.94812E-04-8.39447E-03-1.09927E-01
 -1      2138-3.63980E-04 7.44425E-03-1.09988E-01
 -1      2139-3.12529E-03-8.80496E-03-1.14412E-01
 -1      2141-3.35760E-03 7.73145E-03-1.14481E-01
 -1      2142-7.25791E-03-8.71219E-03-1.12841E-01
 -1      2144-6.58240E-03 7.61015E-03-1.12922E-01
 -1      2145-1.13179E-02-8.20376E-03-1.05095E-01
 -1      2147-9.79093E-03 7.16304E-03-1.05168E-01
 -1      2148-1.49879E-02-7.25889E-03-9.16352E-02
 -1      2150-1.26824E-02 6.36472E-03-9.17000E-02
 -1      2151-1.79581E-02-5.97160E-03-7.32137E-02
 -1      2153-1.50175E-02 5.29728E-03-7.32562E-02
 -1      2154-1.99805E-02-4.39795E-03-5.09417E-02
 -1      2156-1.65784E-02 4.00226E-03-5.09625E-02
 -1      2157-2.08651E-02-2.65029E-03-2.61706E-02
 -1      2159-1.72122E-02 2.57325E-03-2.61603E-02
 -1      2160-2.04985E-02-8.25569E-04-4.24569E-04
 -1      2162-1.68189E-02 1.08698E-03-3.85338E-04
 -1      2163-1.88459E-02 9.56924E-04 2.46981E-02
 -1      2165-1.53695E-02-3.58744E-04 2.47702E-02
 -1      2166-1.59530E-02 2.59329E-03 4.76282E-02
 -1      2168-1.28969E-02-1.68077E-03 4.77283E-02
 -1      2169-1.19417E-02 3.97983E-03 6.69173E-02
 -1      2171-9.49972E-03-2.79443E-03 6.70448E-02
 -1      2172-7.00043E-03 5.03624E-03 8.13360E-02
 -1      2174-5.32860E-03-3.63564E-03 8.14836E-02
 -1      2175-1.37156E-03 5.69730E-03 8.99420E-02
 -1      2177-5.80195E-04-4.15090E-03 9.01058E-02
 -1      2178 4.66595E-03 5.92966E-03 9.21471E-02
 -1      2180 4.52063E-03-4.31475E-03 9.23186E-02
 -1      2181 1.08152E-02 5.72196E-03 8.77454E-02
 -1      2183 9.73323E-03-4.11677E-03 8.79197E-02
 -1      2184 1.67822E-02 5.09995E-03 7.69334E-02
 -1      2186 1.48213E-02-3.58109E-03 7.71022E-02
 -1      2187 2.22957E-02 4.10931E-03 6.02910E-02
 -1      2189 1.95665E-02-2.74152E-03 6.04506E-02
 -1      2190 2.71276E-02 2.83415E-03 3.87468E-02
 -1      2192 2.37874E-02-1.67393E-03 3.88911E-02
 -1      2193 3.11063E-02 1.36690E-03 1.35294E-02
 -1      2195 2.73515E-02-4.45057E-04 1.36582E-02
 -1      2196 3.41394E-02-1.60687E-04-1.39470E-02
 -1      2198 3.01824E-02 8.23835E-04-1.38377E-02
 -1      2199 3.62009E-02-1.63202E-03-4.20641E-02
 -1      2201 3.22944E-02 2.04822E-03-4.19674E-02
 -1      2202 3.73789E-02-2.89349E-03-6.93574E-02
 -1      2204 3.36970E-02 3.07167E-03-6.92770E-02
 -1      2205 3.77756E-02-3.71776E-03-9.39270E-02
 -1      2207 3.46822E-02 3.85413E-03-9.38552E-02
 -1      2208 5.53631E-03 4.14751E-04-1.77969E-02
 -1      2210 4.98717E-04-1.67343E-03-1.77274E-02
 -1      2211 6.55213E-03 3.08573E-03-4.44403E-02
 -1      2213 4.00696E-03-3.40252E-03-4.43626E-02
 -1      2214 7.34338E-03 4.87311E-03-6.46789E-02
 -1      2216 4.04789E-03-4.70547E-03-6.46327E-02
 -1      2217 6.11833E-03 6.34746E-03-8.45233E-02
 -1      2219 3.73868E-03-5.92138E-03-8.45341E-02
 -1      2220 3.94202E-03 7.61843E-03-9.95003E-02
 -1      2222 2.01935E-03-6.86776E-03-9.95286E-02
 -1      2223 6.94812E-04 8.39447E-03-1.09927E-01
 -1      2225-3.63980E-04-7.44425E-03-1.09988E-01
 -1      2226-3.12529E-03 8.80496E-03-1.14412E-01
 -1      2228-3.35760E-03-7.73145E-03-1.14481E-01
 -1      2229-7.25791E-03 8.71219E-03-1.12841E-01
 -1      2231-6.58240E-03-7.61015E-03-1.12922E-01
 -1      2232-1.13179E-02 8.20376E-03-1.05095E-01
 -1      2234-9.79093E-03-7.16304E-03-1.05168E-01
 -1      2235-1.49879E-02 7.25889E-03-9.16352E-02
 -1      2237-1.26824E-02-6.36472E-03-9.17000E-02
 -1      2238-1.79581E-02 5.97160E-03-7.32137E-02
 -1      2240-1.50175E-02-5.29728E-03-7.32562E-02
 -1      2241-1.99805E-02 4.39795E-03-5.09417E-02
 -1      2243-1.65784E-02-4.00226E-03-5.09625E-02
 -1      2244-2.08651E-02 2.65029E-03-2.61706E-02
 -1      2246-1.72122E-02-2.57325E-03-2.61603E-02
 -1      2247-2.04985E-02 8.25569E-04-4.24569E-04
 -1      2249-1.68189E-02-1.08698E-03-3.85338E-04
 -1      2250-1.88459E-02-9.56924E-04 2.46981E-02
 -1      2252-1.53695E-02 3.58744E-04 2.47702E-02
 -1      2253-1.59530E-02-2.59329E-03 4.76282E-02
 -1      2255-1.28969E-02 1.68077E-03 4.77283E-02
 -1      2256-1.19417E-02-3.97983E-03 6.69173E-02
 -1      2258-9.49972E-03 2.79443E-03 6.70448E-02
 -1      2259-7.00043E-03-5.03624E-03 8.13360E-02
 -1      2261-5.32860E-03 3.63564E-03 8.14836E-02
 -1      2262-1.37156E-03-5.69730E-03 8.99420E-02
 -1      2264-5.80195E-04 4.15090E-03 9.01058E-02
 -1      2265 4.66595E-03-5.92966E-03 9.21471E-02
 -1      2267 4.52063E-03 4.31475E-03 9.23186E-02
 -1      2268 1.08152E-02-5.72196E-03 8.77454E-02
 -1      2270 9.73323E-03 4.11677E-03 8.79197E-02
 -1      2271 1.67822E-02-5.09995E-03 7.69334E-02
 -1      2273 1.48213E-02 3.58109E-03 7.71022E-02
 -1      2274 2.22957E-02-4.10931E-03 6.02910E-02
 -1      2276 1.95665E-02 2.74152E-03 6.04506E-02
 -1      2277 2.71276E-02-2.83415E-03 3.87468E-02
 -1      2279 2.37874E-02 1.67393E-03 3.88911E-02
 -1      2280 3.11063E-02-1.36690E-03 1.35294E-02
 -1      2282 2.73515E-02 4.45057E-04 1.36582E-02
 -1      2283 3.41394E-02 1.60687E-04-1.39470E-02
 -1      2285 3.01824E-02-8.23835E-04-1.38377E-02
 -1      2286 3.62009E-02 1.63202E-03-4.20641E-02
 -1      2288 3.22944E-02-2.04822E-03-4.19674E-02
 -1      2289 3.73789E-02 2.89349E-03-6.93574E-02
 -1      2291 3.36970E-02-3.07167E-03-6.92770E-02
 -1      2292 3.77756E-02 3.71776E-03-9.39270E-02
 -1      2294 3.46822E-02-3.85413E-03-9.38552E-02
 -3
    1PSTEP                        54           1           1          
    1PGM                1.000000E+00                                  
    1PGK                1.163915E+07                                  
    1PHID                         -1                                  
    1PSUBC                         0                                  
    1PMODE                        14                                  
  100CL  114 542.9762473         930                     2   14MODAL      1
 -4  STRESS      6    1
 -5  SXX         1    4    1    1
 -5  SYY         1    4    2    2
 -5  SZZ         1    4    3    3
 -5  SXY         1    4    1    2
 -5  SYZ         1    4    2    3
 -5  SZX         1    4    3    1
 -1       404-6.40011E+09-7.26985E+08-8.41807E+06 8.49669E+08-6.27531E+07-7.45931E+08
 -1       406-6.40011E+09-7.26985E+08-8.41807E+06 8.49669E+08-6.27531E+07-7.45931E+08
 -1       407-3.97965E+08-3.95073E+07 7.88400E+06 1.05951E+08 3.55295E+07 2.30531E+07
 -1       409-3.97965E+08-3.95073E+07 7.88400E+06 1.05951E+08 3.55295E+07 2.30531E+07
 -1       410-4.49902E+08-2.20658E+08-2.04779E+07-8.27086E-03-7.93371E-03 1.98587E+07
 -1       412-4.49902E+08-2.20658E+08-2.04779E+07-8.27086E-03-7.93371E-03 1.98587E+07
 -1       413 1.53133E+08 3.91912E+07 2.09170E+09-4.29855E-04-3.30477E-03-1.09806E+09
 -1       415 1.53133E+08 3.91912E+07 2.09170E+09-4.29855E-04-3.30477E-03-1.09806E+09
 -1       424-8.04036E+09-9.40205E+08 1.14686E+07-2.75860E-02-3.06258E-03-5.05517E+08
 -1       426-8.04036E+09-9.40205E+08 1.14686E+07-2.75860E-02-3.06258E-03-5.05517E+08
 -1       427-6.43178E+09-5.09388E+07-2.07936E+09-3.85848E-03-1.60871E-03-1.05628E+10
 -1       429-6.43178E+09-5.09388E+07-2.07936E+09-3.85848E-03-1.60871E-03-1.05628E+10
 -1       438-3.97965E+08-3.95073E+07 7.88400E+06-1.05951E+08-3.55295E+07 2.30531E+07
 -1       440-3.97965E+08-3.95073E+07 7.88400E+06-1.05951E+08-3.55295E+07 2.30531E+07
 -1       441-6.40011E+09-7.26985E+08-8.41807E+06-8.49669E+08 6.27531E+07-7.45931E+08
 -1       443-6.40011E+09-7.26985E+08-8.41807E+06-8.49669E+08 6.27531E+07-7.45931E+08
 -1       444 6.43178E+09 5.09388E+07 2.07936E+09 2.27627E-03-2.43812E-04-1.05628E+10
 -1       446 6.43178E+09 5.09388E+07 2.07936E+09 2.27627E-03-2.43812E-04-1.05628E+10
 -1       447 8.04036E+09 9.40205E+08-1.14686E+07 1.31873E-02-4.04358E-04-5.05517E+08
 -1       449 8.04036E+09 9.40205E+08-1.14686E+07 1.31873E-02-4.04358E-04-5.05517E+08
 -1       458-1.53133E+08-3.91912E+07-2.09170E+09-3.77846E-05-3.77392E-03-1.09806E+09
 -1       460-1.53133E+08-3.91912E+07-2.09170E+09-3.77846E-05-3.77392E-03-1.09806E+09
 -1       461 4.49902E+08 2.20658E+08 2.04779E+07 1.79964E-03-3.68103E-03 1.98587E+07
 -1       463 4.49902E+08 2.20658E+08 2.04779E+07 1.79964E-03-3.68103E-03 1.98587E+07
 -1       472 6.40011E+09 7.26985E+08 8.41807E+06 8.49669E+08 6.27531E+07-7.45931E+08
 -1       474 6.40011E+09 7.26985E+08 8.41807E+06 8.49669E+08 6.27531E+07-7.45931E+08
 -1       475 3.97965E+08 3.95073E+07-7.88400E+06 1.05951E+08-3.55295E+07 2.30531E+07
 -1       477 3.97965E+08 3.95073E+07-7.88400E+06 1.05951E+08-3.55295E+07 2.30531E+07
 -1       478 3.97965E+08 3.95073E+07-7.88400E+06-1.05951E+08 3.55295E+07 2.30531E+07
 -1       480 3.97965E+08 3.95073E+07-7.88400E+06-1.05951E+08 3.55295E+07 2.30531E+07
 -1       481 6.40011E+09 7.26985E+08 8.41807E+06-8.49669E+08-6.27531E+07-7.45931E+08
 -1       483 6.40011E+09 7.26985E+08 8.41807E+06-8.49669E+08-6.27531E+07-7.45931E+08
 -1       484-5.20432E+09-1.93587E+08-6.91944E+05 5.67954E+08-5.70287E+07-2.78276E+08
 -1       486-5.20432E+09-1.93587E+08-6.91944E+05 5.67954E+08-5.70287E+07-2.78276E+08
 -1       487-2.64024E+09 1.26400E+08 2.09870E+06 5.32029E+08-3.62780E+07 3.07385E+07
 -1       489-2.64024E+09 1.26400E+08 2.09870E+06 5.32029E+08-3.62780E+07 3.07385E+07
 -1       490 1.74427E+08-4.96957E+07 4.05816E+06 6.68385E+08-4.15669E+07-8.41475E+07
 -1       492 1.74427E+08-4.96957E+07 4.05816E+06 6.68385E+08-4.15669E+07-8.41475E+07
 -1       493 2.79825E+09-1.87247E+07 5.34903E+06 5.12068E+08-5.73102E+07-3.39370E+07
 -1       495 2.79825E+09-1.87247E+07 5.34903E+06 5.12068E+08-5.73102E+07-3.39370E+07
 -1       496 4.88858E+09-2.55188E+07 5.70517E+06 4.05504E+08-6.06234E+07-3.33991E+07
 -1       498 4.88858E+09-2.55188E+07 5.70517E+06 4.05504E+08-6.06234E+07-3.33991E+07
 -1       499 6.41635E+09-2.91225E+07 6.93113E+06 2.76291E+08-6.93026E+07-1.97417E+07
 -1       501 6.41635E+09-2.91225E+07 6.93113E+06 2.76291E+08-6.93026E+07-1.97417E+07
 -1       502 7.31737E+09-3.05058E+07 6.61964E+06 1.35504E+08-7.03886E+07-2.97115E+06
 -1       504 7.31737E+09-3.05058E+07 6.61964E+06 1.35504E+08-7.03886E+07-2.97115E+06
 -1       505 7.55793E+09-2.97492E+07 7.06457E+06-5.94050E+06-7.11508E+07 8.72849E+06
 -1       507 7.55793E+09-2.97492E+07 7.06457E+06-5.94050E+06-7.11508E+07 8.72849E+06
 -1       508 7.14817E+09-2.80359E+07 6.10379E+06-1.41692E+08-6.83053E+07 2.48102E+07
 -1       510 7.14817E+09-2.80359E+07 6.10379E+06-1.41692E+08-6.83053E+07 2.48102E+07
 -1       511 6.13217E+09-2.41830E+07 5.74597E+06-2.64190E+08-6.33269E+07 3.55171E+07
 -1       513 6.13217E+09-2.41830E+07 5.74597E+06-2.64190E+08-6.33269E+07 3.55171E+07
 -1       514 4.58834E+09-1.94101E+07 4.25255E+06-3.66715E+08-5.66195E+07 4.67930E+07
 -1       516 4.58834E+09-1.94101E+07 4.25255E+06-3.66715E+08-5.66195E+07 4.67930E+07
 -1       517 2.62440E+09-1.32743E+07 3.26361E+06-4.43875E+08-4.80491E+07 5.33236E+07
 -1       519 2.62440E+09-1.32743E+07 3.26361E+06-4.43875E+08-4.80491E+07 5.33236E+07
 -1       520 3.70831E+08-6.69622E+06 1.49485E+06-4.91667E+08-3.89545E+07 5.78410E+07
 -1       522 3.70831E+08-6.69622E+06 1.49485E+06-4.91667E+08-3.89545E+07 5.78410E+07
 -1       523-2.02698E+09 3.37431E+05 2.04024E+05-5.07982E+08-2.90457E+07 5.79861E+07
 -1       525-2.02698E+09 3.37431E+05 2.04024E+05-5.07982E+08-2.90457E+07 5.79861E+07
 -1       526-4.41781E+09 7.06591E+06-1.49812E+06-4.92582E+08-1.96870E+07 5.51167E+07
 -1       528-4.41781E+09 7.06591E+06-1.49812E+06-4.92582E+08-1.96870E+07 5.51167E+07
 -1       529-6.65391E+09 1.33128E+07-2.69932E+06-4.47262E+08-1.06669E+07 4.85329E+07
 -1       531-6.65391E+09 1.33128E+07-2.69932E+06-4.47262E+08-1.06669E+07 4.85329E+07
 -1       532-8.60032E+09 1.85151E+07-3.98171E+06-3.75653E+08-3.11815E+06 3.92178E+07
 -1       534-8.60032E+09 1.85151E+07-3.98171E+06-3.75653E+08-3.11815E+06 3.92178E+07
 -1       535-1.01433E+10 2.24283E+07-4.74138E+06-2.83103E+08 3.24230E+06 2.74235E+07
 -1       537-1.01433E+10 2.24283E+07-4.74138E+06-2.83103E+08 3.24230E+06 2.74235E+07
 -1       538-1.11976E+10 2.48145E+07-5.32511E+06-1.76266E+08 7.57821E+06 1.41084E+07
 -1       540-1.11976E+10 2.48145E+07-5.32511E+06-1.76266E+08 7.57821E+06 1.41084E+07
 -1       541-1.17122E+10 2.53480E+07-5.41716E+06-6.28197E+07 1.04567E+07 6.04005E+04
 -1       543-1.17122E+10 2.53480E+07-5.41716E+06-6.28197E+07 1.04567E+07 6.04005E+04
 -1       544-1.16732E+10 2.43725E+07-5.16720E+06 4.91520E+07 1.13515E+07-1.37856E+07
 -1       546-1.16732E+10 2.43725E+07-5.16720E+06 4.91520E+07 1.13515E+07-1.37856E+07
 -1       547-1.11058E+10 2.11532E+07-4.54551E+06 1.51392E+08 1.12511E+07-2.64163E+07
 -1       549-1.11058E+10 2.11532E+07-4.54551E+06 1.51392E+08 1.12511E+07-2.64163E+07
 -1       550-1.00725E+10 1.73173E+07-3.50686E+06 2.36439E+08 9.98393E+06-3.70255E+07
 -1       552-1.00725E+10 1.73173E+07-3.50686E+06 2.36439E+08 9.98393E+06-3.70255E+07
 -1       553-8.67033E+09 1.03886E+07-2.31066E+06 2.97069E+08 8.88193E+06-4.47857E+07
 -1       555-8.67033E+09 1.03886E+07-2.31066E+06 2.97069E+08 8.88193E+06-4.47857E+07
 -1       556-7.02393E+09 5.72607E+06-7.07033E+05 3.28769E+08 8.37405E+06-4.86664E+07
 -1       558-7.02393E+09 5.72607E+06-7.07033E+05 3.28769E+08 8.37405E+06-4.86664E+07
 -1       559-5.27963E+09-4.57391E+06 7.66073E+05 3.28129E+08 9.54634E+06-4.96878E+07
 -1       561-5.27963E+09-4.57391E+06 7.66073E+05 3.28129E+08 9.54634E+06-4.96878E+07
 -1       562-3.60494E+09-1.12856E+07 2.66757E+06 2.83303E+08 1.39940E+07-4.28319E+07
 -1       564-3.60494E+09-1.12856E+07 2.66757E+06 2.83303E+08 1.39940E+07-4.28319E+07
 -1       565-2.13479E+09-6.57667E+06 3.85759E+06 2.36355E+08 2.07544E+07-4.09000E+07
 -1       567-2.13479E+09-6.57667E+06 3.85759E+06 2.36355E+08 2.07544E+07-4.09000E+07
 -1       568-9.30237E+08-2.31589E+07 5.27586E+06 1.65535E+08 3.04013E+07-1.13812E+07
 -1       570-9.30237E+08-2.31589E+07 5.27586E+06 1.65535E+08 3.04013E+07-1.13812E+07
 -1       571-4.23934E+08-1.30083E+08-6.29697E+06 2.21443E+08-2.41710E+08 2.14559E+07
 -1       573-4.23934E+08-1.30083E+08-6.29697E+06 2.21443E+08-2.41710E+08 2.14559E+07
 -1       574-6.20334E+09-2.05060E+08 8.96682E+06-2.93066E-02-3.11755E-04-7.12137E+07
 -1       576-6.20334E+09-2.05060E+08 8.96682E+06-2.93066E-02-3.11755E-04-7.12137E+07
 -1       577-4.78628E+09-2.11037E+07-9.97852E+08-2.33673E-04 6.99895E-05-1.09604E+10
 -1       579-4.78628E+09-2.11037E+07-9.97852E+08-2.33673E-04 6.99895E-05-1.09604E+10
 -1       588-2.62943E+09 2.14869E+08-7.74660E+06-2.24770E-02 3.66531E-03 1.19767E+08
 -1       590-2.62943E+09 2.14869E+08-7.74660E+06-2.24770E-02 3.66531E-03 1.19767E+08
 -1       591-1.77827E+09 2.03670E+07 7.59732E+08 8.97539E-04 4.14598E-03-1.04158E+10
 -1       593-1.77827E+09 2.03670E+07 7.59732E+08 8.97539E-04 4.14598E-03-1.04158E+10
 -1       602 4.51377E+08-1.27979E+08-1.34931E+07-1.61909E-02 4.59231E-03 6.81562E+06
 -1       604 4.51377E+08-1.27979E+08-1.34931E+07-1.61909E-02 4.59231E-03 6.81562E+06
 -1       605 7.24911E+08 2.45246E+07 1.47068E+09 5.77725E-05 6.61816E-03-9.10130E+09
 -1       607 7.24911E+08 2.45246E+07 1.47068E+09 5.77725E-05 6.61816E-03-9.10130E+09
 -1       616 3.01969E+09-1.30941E+08-1.35570E+07-1.51609E-02 4.93306E-03 5.52342E+07
 -1       618 3.01969E+09-1.30941E+08-1.35570E+07-1.51609E-02 4.93306E-03 5.52342E+07
 -1       619 2.82889E+09 2.97979E+07 1.76354E+09 5.57627E-04 7.19582E-03-7.84399E+09
 -1       621 2.82889E+09 2.97979E+07 1.76354E+09 5.57627E-04 7.19582E-03-7.84399E+09
 -1       630 5.17773E+09-1.30780E+08-1.82580E+07-7.02932E-03 5.60448E-03 1.45139E+07
 -1       632 5.17773E+09-1.30780E+08-1.82580E+07-7.02932E-03 5.60448E-03 1.45139E+07
 -1       633 4.53976E+09 3.85160E+07 2.12085E+09 3.37110E-04 8.14960E-03-6.06514E+09
 -1       635 4.53976E+09 3.85160E+07 2.12085E+09 3.37110E-04 8.14960E-03-6.06514E+09
 -1       644 6.73564E+09-1.57613E+08-1.87195E+07 2.27049E-03 6.53481E-03 2.14774E+07
 -1       646 6.73564E+09-1.57613E+08-1.87195E+07 2.27049E-03 6.53481E-03 2.14774E+07
 -1       647 5.78198E+09 4.08586E+07 2.31529E+09 6.70322E-04 8.93827E-03-4.11642E+09
 -1       649 5.78198E+09 4.08586E+07 2.31529E+09 6.70322E-04 8.93827E-03-4.11642E+09
 -1       658 7.64867E+09-1.61097E+08-2.04108E+07 7.52238E-03 7.13566E-03-8.03987E+05
 -1       660 7.64867E+09-1.61097E+08-2.04108E+07 7.52238E-03 7.13566E-03-8.03987E+05
 -1       661 6.49648E+09 4.42154E+07 2.41795E+09 5.95696E-04 9.20438E-03-1.99346E+09
 -1       663 6.49648E+09 4.42154E+07 2.41795E+09 5.95696E-04 9.20438E-03-1.99346E+09
 -1       672 7.88491E+09-1.59380E+08-1.94791E+07 1.07143E-02 7.00563E-03-6.11382E+06
 -1       674 7.88491E+09-1.59380E+08-1.94791E+07 1.07143E-02 7.00563E-03-6.11382E+06
 -1       675 6.66243E+09 4.27403E+07 2.38017E+09 5.93159E-04 9.05102E-03 1.42528E+08
 -1       677 6.66243E+09 4.27403E+07 2.38017E+09 5.93159E-04 9.05102E-03 1.42528E+08
 -1       686 7.45253E+09-1.48451E+08-1.85928E+07 1.40427E-02 6.59540E-03-2.14202E+07
 -1       688 7.45253E+09-1.48451E+08-1.85928E+07 1.40427E-02 6.59540E-03-2.14202E+07
 -1       689 6.28764E+09 4.05261E+07 2.22019E+09 6.07580E-04 8.63289E-03 2.19692E+09
 -1       691 6.28764E+09 4.05261E+07 2.22019E+09 6.07580E-04 8.63289E-03 2.19692E+09
 -1       700 6.39730E+09-1.29231E+08-1.59302E+07 1.16855E-02 6.30172E-03-2.88674E+07
 -1       702 6.39730E+09-1.29231E+08-1.59302E+07 1.16855E-02 6.30172E-03-2.88674E+07
 -1       703 5.40763E+09 3.49149E+07 1.93780E+09 3.87592E-04 7.89111E-03 4.04697E+09
 -1       705 5.40763E+09 3.49149E+07 1.93780E+09 3.87592E-04 7.89111E-03 4.04697E+09
 -1       714 4.79983E+09-1.03068E+08-1.29857E+07 2.62260E-03 6.99216E-03-3.87326E+07
 -1       716 4.79983E+09-1.03068E+08-1.29857E+07 2.62260E-03 6.99216E-03-3.87326E+07
 -1       717 4.08900E+09 2.81193E+07 1.55351E+09 2.91805E-04 7.91043E-03 5.59681E+09
 -1       719 4.08900E+09 2.81193E+07 1.55351E+09 2.91805E-04 7.91043E-03 5.59681E+09
 -1       728 2.77106E+09-7.12920E+07-8.94254E+06-1.41084E-03 8.04695E-03-4.35420E+07
 -1       730 2.77106E+09-7.12920E+07-8.94254E+06-1.41084E-03 8.04695E-03-4.35420E+07
 -1       731 2.42155E+09 1.92749E+07 1.08813E+09-1.89760E-04 8.61997E-03 6.76023E+09
 -1       733 2.42155E+09 1.92749E+07 1.08813E+09-1.89760E-04 8.61997E-03 6.76023E+09
 -1       742 4.45393E+08-3.60352E+07-4.81419E+06 6.99788E-03 8.75589E-03-4.74453E+07
 -1       744 4.45393E+08-3.60352E+07-4.81419E+06 6.99788E-03 8.75589E-03-4.74453E+07
 -1       745 5.15319E+08 9.81084E+06 5.71145E+08-1.50804E-04 9.65011E-03 7.47876E+09
 -1       747 5.15319E+08 9.81084E+06 5.71145E+08-1.50804E-04 9.65011E-03 7.47876E+09
 -1       756-2.02734E+09 7.04815E+05-2.31350E+05 1.19825E-02 8.64328E-03-4.73119E+07
 -1       758-2.02734E+09 7.04815E+05-2.31350E+05 1.19825E-02 8.64328E-03-4.73119E+07
 -1       759-1.50760E+09-3.25318E+05 3.36271E+07-2.91102E-04 1.09373E-02 7.71852E+09
 -1       761-1.50760E+09-3.25318E+05 3.36271E+07-2.91102E-04 1.09373E-02 7.71852E+09
 -1       770-4.49127E+09 3.64875E+07 3.99266E+06 9.98729E-03 7.78075E-03-4.50393E+07
 -1       772-4.49127E+09 3.64875E+07 3.99266E+06 9.98729E-03 7.78075E-03-4.50393E+07
 -1       773-3.51972E+09-1.00312E+07-4.90665E+08-9.08436E-04 1.03418E-02 7.47689E+09
 -1       775-3.51972E+09-1.00312E+07-4.90665E+08-9.08436E-04 1.03418E-02 7.47689E+09
 -1       784-6.79406E+09 6.92272E+07 8.06364E+06 4.45276E-03 5.42571E-03-3.95408E+07
 -1       786-6.79406E+09 6.92272E+07 8.06364E+06 4.45276E-03 5.42571E-03-3.95408E+07
 -1       787-5.39667E+09-1.90640E+07-9.69292E+08-5.50407E-04 7.79247E-03 6.78014E+09
 -1       789-5.39667E+09-1.90640E+07-9.69292E+08-5.50407E-04 7.79247E-03 6.78014E+09
 -1       798-8.79655E+09 9.67004E+07 1.12906E+07-8.63922E-03 3.09983E-03-3.19738E+07
 -1       800-8.79655E+09 9.67004E+07 1.12906E+07-8.63922E-03 3.09983E-03-3.19738E+07
 -1       801-7.02452E+09-2.65698E+07-1.37192E+09-9.45236E-04 5.99170E-03 5.68392E+09
 -1       803-7.02452E+09-2.65698E+07-1.37192E+09-9.45236E-04 5.99170E-03 5.68392E+09
 -1       812-1.03814E+10 1.17323E+08 1.38880E+07-1.83086E-02 2.03665E-03-2.23037E+07
 -1       814-1.03814E+10 1.17323E+08 1.38880E+07-1.83086E-02 2.03665E-03-2.23037E+07
 -1       815-8.30734E+09-3.23119E+07-1.67306E+09-7.72993E-04 4.68140E-03 4.26874E+09
 -1       817-8.30734E+09-3.23119E+07-1.67306E+09-7.72993E-04 4.68140E-03 4.26874E+09
 -1       826-1.14607E+10 1.29543E+08 1.52620E+07-2.02450E-02 9.65089E-04-1.14992E+07
 -1       828-1.14607E+10 1.29543E+08 1.52620E+07-2.02450E-02 9.65089E-04-1.14992E+07
 -1       829-9.17296E+09-3.57145E+07-1.85308E+09-9.74322E-04 2.76323E-03 2.63613E+09
 -1       831-9.17296E+09-3.57145E+07-1.85308E+09-9.74322E-04 2.76323E-03 2.63613E+09
 -1       840-1.19814E+10 1.32786E+08 1.57700E+07-1.82271E-02-6.18741E-04-6.13294E+04
 -1       842-1.19814E+10 1.32786E+08 1.57700E+07-1.82271E-02-6.18741E-04-6.13294E+04
 -1       843-9.57798E+09-3.67573E+07-1.89986E+09-9.35464E-04 2.44494E-04 9.01842E+08
 -1       845-9.57798E+09-3.67573E+07-1.89986E+09-9.35464E-04 2.44494E-04 9.01842E+08
 -1       854-1.19294E+10 1.26374E+08 1.48674E+07-1.33307E-02-2.59712E-03 1.11029E+07
 -1       856-1.19294E+10 1.26374E+08 1.48674E+07-1.33307E-02-2.59712E-03 1.11029E+07
 -1       857-9.51024E+09-3.51354E+07-1.80917E+09-9.94383E-04-2.32695E-03-8.10447E+08
 -1       859-9.51024E+09-3.51354E+07-1.80917E+09-9.94383E-04-2.32695E-03-8.10447E+08
 -1       868-1.13302E+10 1.11146E+08 1.31814E+07-6.25357E-03-3.62051E-03 2.12878E+07
 -1       870-1.13302E+10 1.11146E+08 1.31814E+07-6.25357E-03-3.62051E-03 2.12878E+07
 -1       871-8.99051E+09-3.12213E+07-1.58539E+09-8.90270E-04-3.66884E-03-2.37721E+09
 -1       873-8.99051E+09-3.12213E+07-1.58539E+09-8.90270E-04-3.66884E-03-2.37721E+09
 -1       882-1.02482E+10 8.71266E+07 1.01018E+07 3.20521E-03-4.27508E-03 2.97220E+07
 -1       884-1.02482E+10 8.71266E+07 1.01018E+07 3.20521E-03-4.27508E-03 2.97220E+07
 -1       885-8.07053E+09-2.48393E+07-1.24048E+09-9.18532E-04-3.97542E-03-3.68187E+09
 -1       887-8.07053E+09-2.48393E+07-1.24048E+09-9.18532E-04-3.97542E-03-3.68187E+09
 -1       896-8.78241E+09 5.64923E+07 6.66952E+06 7.99587E-03-4.84199E-03 3.56691E+07
 -1       898-8.78241E+09 5.64923E+07 6.66952E+06 7.99587E-03-4.84199E-03 3.56691E+07
 -1       899-6.83149E+09-1.69594E+07-7.94729E+08-6.04387E-04-3.37035E-03-4.62214E+09
 -1       901-6.83149E+09-1.69594E+07-7.94729E+08-6.04387E-04-3.37035E-03-4.62214E+09
 -1       910-7.06237E+09 2.09990E+07 1.98088E+06 4.58252E-03-5.56225E-03 3.88089E+07
 -1       912-7.06237E+09 2.09990E+07 1.98088E+06 4.58252E-03-5.56225E-03 3.88089E+07
 -1       913-5.37858E+09-7.14189E+06-2.72070E+08-8.64809E-04-3.29501E-03-5.11696E+09
 -1       915-5.37858E+09-7.14189E+06-2.72070E+08-8.64809E-04-3.29501E-03-5.11696E+09
 -1       924-5.24020E+09-1.85235E+07-2.19557E+06 1.78269E-03-5.74131E-03 3.79571E+07
 -1       926-5.24020E+09-1.85235E+07-2.19557E+06 1.78269E-03-5.74131E-03 3.79571E+07
 -1       927-3.83523E+09 2.50353E+06 2.94297E+08-6.45699E-04-2.91375E-03-5.10746E+09
 -1       929-3.83523E+09 2.50353E+06 2.94297E+08-6.45699E-04-2.91375E-03-5.10746E+09
 -1       938-3.47099E+09-6.73192E+07-7.85618E+06 2.80118E-03-4.89329E-03 3.47565E+07
 -1       940-3.47099E+09-6.73192E+07-7.85618E+06 2.80118E-03-4.89329E-03 3.47565E+07
 -1       941-2.33616E+09 1.41096E+07 8.83636E+08-5.06766E-04-7.47271E-04-4.57776E+09
 -1       943-2.33616E+09 1.41096E+07 8.83636E+08-5.06766E-04-7.47271E-04-4.57776E+09
 -1       952-1.93869E+09-5.48362E+07-1.14262E+07 3.87672E-03-4.41635E-03 2.40083E+07
 -1       954-1.93869E+09-5.48362E+07-1.14262E+07 3.87672E-03-4.41635E-03 2.40083E+07
 -1       955-1.04393E+09 2.26418E+07 1.43846E+09-5.75091E-04 1.42160E-03-3.51067E+09
 -1       957-1.04393E+09 2.26418E+07 1.43846E+09-5.75091E-04 1.42160E-03-3.51067E+09
 -1       966-8.54298E+08-1.17143E+08-1.52114E+07-2.02575E-03-6.02594E-03 1.72387E+07
 -1       968-8.54298E+08-1.17143E+08-1.52114E+07-2.02575E-03-6.02594E-03 1.72387E+07
 -1       969-1.60003E+08 3.12999E+07 1.89215E+09 1.13896E-04-4.77954E-04-1.96722E+09
 -1       971-1.60003E+08 3.12999E+07 1.89215E+09 1.13896E-04-4.77954E-04-1.96722E+09
 -1       980-7.22023E+09-8.33595E+08 1.52527E+06 1.16087E+09 1.24792E+08-6.25724E+08
 -1       982-7.22023E+09-8.33595E+08 1.52527E+06 1.16087E+09 1.24792E+08-6.25724E+08
 -1       983-4.23934E+08-1.30083E+08-6.29697E+06-2.21443E+08 2.41710E+08 2.14559E+07
 -1       985-4.23934E+08-1.30083E+08-6.29697E+06-2.21443E+08 2.41710E+08 2.14559E+07
 -1       986-5.20432E+09-1.93587E+08-6.91944E+05-5.67954E+08 5.70287E+07-2.78276E+08
 -1       988-5.20432E+09-1.93587E+08-6.91944E+05-5.67954E+08 5.70287E+07-2.78276E+08
 -1       989-2.64024E+09 1.26400E+08 2.09870E+06-5.32029E+08 3.62780E+07 3.07385E+07
 -1       991-2.64024E+09 1.26400E+08 2.09870E+06-5.32029E+08 3.62780E+07 3.07385E+07
 -1       992 1.74427E+08-4.96957E+07 4.05816E+06-6.68385E+08 4.15669E+07-8.41475E+07
 -1       994 1.74427E+08-4.96957E+07 4.05816E+06-6.68385E+08 4.15669E+07-8.41475E+07
 -1       995 2.79825E+09-1.87247E+07 5.34903E+06-5.12068E+08 5.73102E+07-3.39370E+07
 -1       997 2.79825E+09-1.87247E+07 5.34903E+06-5.12068E+08 5.73102E+07-3.39370E+07
 -1       998 4.88858E+09-2.55188E+07 5.70517E+06-4.05504E+08 6.06234E+07-3.33991E+07
 -1      1000 4.88858E+09-2.55188E+07 5.70517E+06-4.05504E+08 6.06234E+07-3.33991E+07
 -1      1001 6.41635E+09-2.91225E+07 6.93113E+06-2.76291E+08 6.93026E+07-1.97417E+07
 -1      1003 6.41635E+09-2.91225E+07 6.93113E+06-2.76291E+08 6.93026E+07-1.97417E+07
 -1      1004 7.31737E+09-3.05058E+07 6.61964E+06-1.35504E+08 7.03886E+07-2.97115E+06
 -1      1006 7.31737E+09-3.05058E+07 6.61964E+06-1.35504E+08 7.03886E+07-2.97115E+06
 -1      1007 7.55793E+09-2.97492E+07 7.06457E+06 5.94050E+06 7.11508E+07 8.72849E+06
 -1      1009 7.55793E+09-2.97492E+07 7.06457E+06 5.94050E+06 7.11508E+07 8.72849E+06
 -1      1010 7.14817E+09-2.80359E+07 6.10379E+06 1.41692E+08 6.83053E+07 2.48102E+07
 -1      1012 7.14817E+09-2.80359E+07 6.10379E+06 1.41692E+08 6.83053E+07 2.48102E+07
 -1      1013 6.13217E+09-2.41830E+07 5.74597E+06 2.64190E+08 6.33269E+07 3.55171E+07
 -1      1015 6.13217E+09-2.41830E+07 5.74597E+06 2.64190E+08 6.33269E+07 3.55171E+07
 -1      1016 4.58834E+09-1.94101E+07 4.25255E+06 3.66715E+08 5.66195E+07 4.67930E+07
 -1      1018 4.58834E+09-1.94101E+07 4.25255E+06 3.66715E+08 5.66195E+07 4.67930E+07
 -1      1019 2.62440E+09-1.32743E+07 3.26361E+06 4.43875E+08 4.80491E+07 5.33236E+07
 -1      1021 2.62440E+09-1.32743E+07 3.26361E+06 4.43875E+08 4.80491E+07 5.33236E+07
 -1      1022 3.70831E+08-6.69622E+06 1.49485E+06 4.91667E+08 3.89545E+07 5.78410E+07
 -1      1024 3.70831E+08-6.69622E+06 1.49485E+06 4.91667E+08 3.89545E+07 5.78410E+07
 -1      1025-2.02698E+09 3.37431E+05 2.04024E+05 5.07982E+08 2.90457E+07 5.79861E+07
 -1      1027-2.02698E+09 3.37431E+05 2.04024E+05 5.07982E+08 2.90457E+07 5.79861E+07
 -1      1028-4.41781E+09 7.06591E+06-1.49812E+06 4.92582E+08 1.96870E+07 5.51167E+07
 -1      1030-4.41781E+09 7.06591E+06-1.49812E+06 4.92582E+08 1.96870E+07 5.51167E+07
 -1      1031-6.65391E+09 1.33128E+07-2.69932E+06 4.47262E+08 1.06669E+07 4.85329E+07
 -1      1033-6.65391E+09 1.33128E+07-2.69932E+06 4.47262E+08 1.06669E+07 4.85329E+07
 -1      1034-8.60032E+09 1.85151E+07-3.98171E+06 3.75653E+08 3.11815E+06 3.92178E+07
 -1      1036-8.60032E+09 1.85151E+07-3.98171E+06 3.75653E+08 3.11815E+06 3.92178E+07
 -1      1037-1.01433E+10 2.24283E+07-4.74138E+06 2.83103E+08-3.24230E+06 2.74235E+07
 -1      1039-1.01433E+10 2.24283E+07-4.74138E+06 2.83103E+08-3.24230E+06 2.74235E+07
 -1      1040-1.11976E+10 2.48145E+07-5.32511E+06 1.76266E+08-7.57821E+06 1.41084E+07
 -1      1042-1.11976E+10 2.48145E+07-5.32511E+06 1.76266E+08-7.57821E+06 1.41084E+07
 -1      1043-1.17122E+10 2.53480E+07-5.41716E+06 6.28197E+07-1.04567E+07 6.04005E+04
 -1      1045-1.17122E+10 2.53480E+07-5.41716E+06 6.28197E+07-1.04567E+07 6.04005E+04
 -1      1046-1.16732E+10 2.43725E+07-5.16720E+06-4.91520E+07-1.13515E+07-1.37856E+07
 -1      1048-1.16732E+10 2.43725E+07-5.16720E+06-4.91520E+07-1.13515E+07-1.37856E+07
 -1      1049-1.11058E+10 2.11532E+07-4.54551E+06-1.51392E+08-1.12511E+07-2.64163E+07
 -1      1051-1.11058E+10 2.11532E+07-4.54551E+06-1.51392E+08-1.12511E+07-2.64163E+07
 -1      1052-1.00725E+10 1.73173E+07-3.50686E+06-2.36439E+08-9.98393E+06-3.70255E+07
 -1      1054-1.00725E+10 1.73173E+07-3.50686E+06-2.36439E+08-9.98393E+06-3.70255E+07
 -1      1055-8.67033E+09 1.03886E+07-2.31066E+06-2.97069E+08-8.88193E+06-4.47857E+07
 -1      1057-8.67033E+09 1.03886E+07-2.31066E+06-2.97069E+08-8.88193E+06-4.47857E+07
 -1      1058-7.02393E+09 5.72607E+06-7.07033E+05-3.28769E+08-8.37405E+06-4.86664E+07
 -1      1060-7.02393E+09 5.72607E+06-7.07033E+05-3.28769E+08-8.37405E+06-4.86664E+07
 -1      1061-5.27963E+09-4.57391E+06 7.66073E+05-3.28129E+08-9.54634E+06-4.96878E+07
 -1      1063-5.27963E+09-4.57391E+06 7.66073E+05-3.28129E+08-9.54634E+06-4.96878E+07
 -1      1064-3.60494E+09-1.12856E+07 2.66757E+06-2.83303E+08-1.39940E+07-4.28319E+07
 -1      1066-3.60494E+09-1.12856E+07 2.66757E+06-2.83303E+08-1.39940E+07-4.28319E+07
 -1      1067-2.13479E+09-6.57667E+06 3.85759E+06-2.36355E+08-2.07544E+07-4.09000E+07
 -1      1069-2.13479E+09-6.57667E+06 3.85759E+06-2.36355E+08-2.07544E+07-4.09000E+07
 -1      1070-9.30237E+08-2.31589E+07 5.27586E+06-1.65535E+08-3.04013E+07-1.13812E+07
 -1      1072-9.30237E+08-2.31589E+07 5.27586E+06-1.65535E+08-3.04013E+07-1.13812E+07
 -1      1073-7.22023E+09-8.33595E+08 1.52527E+06-1.16087E+09-1.24792E+08-6.25724E+08
 -1      1075-7.22023E+09-8.33595E+08 1.52527E+06-1.16087E+09-1.24792E+08-6.25724E+08
 -1      1076-3.88392E+09 1.52536E+06-1.29453E+09-8.00297E-03-1.73150E-04-1.10348E+10
 -1      1078-3.88392E+09 1.52536E+06-1.29453E+09-8.00297E-03-1.73150E-04-1.10348E+10
 -1      1079 1.30414E-02 7.57575E-05 8.83633E-03-5.72944E-03 4.90884E-04-1.15068E+10
 -1      1081 1.30414E-02 7.57575E-05 8.83633E-03-5.72944E-03 4.90884E-04-1.15068E+10
 -1      1082 3.88392E+09-1.52536E+06 1.29453E+09 1.48242E-03-2.62228E-04-1.10348E+10
 -1      1084 3.88392E+09-1.52536E+06 1.29453E+09 1.48242E-03-2.62228E-04-1.10348E+10
 -1      1085 4.78628E+09 2.11037E+07 9.97852E+08 1.19412E-04-4.25699E-04-1.09604E+10
 -1      1087 4.78628E+09 2.11037E+07 9.97852E+08 1.19412E-04-4.25699E-04-1.09604E+10
 -1      1088 6.20334E+09 2.05060E+08-8.96682E+06 1.37346E-02-3.14832E-04-7.12137E+07
 -1      1090 6.20334E+09 2.05060E+08-8.96682E+06 1.37346E-02-3.14832E-04-7.12137E+07
 -1      1099 1.77827E+09-2.03670E+07-7.59732E+08 2.65362E-05-1.47666E-03-1.04158E+10
 -1      1101 1.77827E+09-2.03670E+07-7.59732E+08 2.65362E-05-1.47666E-03-1.04158E+10
 -1      1102 2.62943E+09-2.14869E+08 7.74660E+06 1.43054E-02-7.03350E-04 1.19767E+08
 -1      1104 2.62943E+09-2.14869E+08 7.74660E+06 1.43054E-02-7.03350E-04 1.19767E+08
 -1      1113-7.24911E+08-2.45246E+07-1.47068E+09 3.56890E-04-2.12072E-03-9.10130E+09
 -1      1115-7.24911E+08-2.45246E+07-1.47068E+09 3.56890E-04-2.12072E-03-9.10130E+09
 -1      1116-4.51377E+08 1.27979E+08 1.34931E+07 9.52590E-03-1.07272E-03 6.81562E+06
 -1      1118-4.51377E+08 1.27979E+08 1.34931E+07 9.52590E-03-1.07272E-03 6.81562E+06
 -1      1127-2.82889E+09-2.97979E+07-1.76354E+09-1.29784E-04-5.22146E-04-7.84399E+09
 -1      1129-2.82889E+09-2.97979E+07-1.76354E+09-1.29784E-04-5.22146E-04-7.84399E+09
 -1      1130-3.01969E+09 1.30941E+08 1.35570E+07-7.60555E-04 1.23382E-05 5.52342E+07
 -1      1132-3.01969E+09 1.30941E+08 1.35570E+07-7.60555E-04 1.23382E-05 5.52342E+07
 -1      1141-4.53976E+09-3.85160E+07-2.12085E+09 6.39771E-05 2.19455E-03-6.06514E+09
 -1      1143-4.53976E+09-3.85160E+07-2.12085E+09 6.39771E-05 2.19455E-03-6.06514E+09
 -1      1144-5.17773E+09 1.30780E+08 1.82580E+07-7.08476E-03 1.69146E-03 1.45139E+07
 -1      1146-5.17773E+09 1.30780E+08 1.82580E+07-7.08476E-03 1.69146E-03 1.45139E+07
 -1      1155-5.78198E+09-4.08586E+07-2.31529E+09-1.65328E-04 4.44567E-03-4.11642E+09
 -1      1157-5.78198E+09-4.08586E+07-2.31529E+09-1.65328E-04 4.44567E-03-4.11642E+09
 -1      1158-6.73564E+09 1.57613E+08 1.87195E+07-9.83754E-03 3.03543E-03 2.14774E+07
 -1      1160-6.73564E+09 1.57613E+08 1.87195E+07-9.83754E-03 3.03543E-03 2.14774E+07
 -1      1169-6.49648E+09-4.42154E+07-2.41795E+09-1.72322E-04 6.20046E-03-1.99346E+09
 -1      1171-6.49648E+09-4.42154E+07-2.41795E+09-1.72322E-04 6.20046E-03-1.99346E+09
 -1      1172-7.64867E+09 1.61097E+08 2.04108E+07-9.47972E-03 4.30870E-03-8.03987E+05
 -1      1174-7.64867E+09 1.61097E+08 2.04108E+07-9.47972E-03 4.30870E-03-8.03987E+05
 -1      1183-6.66243E+09-4.27403E+07-2.38017E+09-7.01656E-06 7.18768E-03 1.42528E+08
 -1      1185-6.66243E+09-4.27403E+07-2.38017E+09-7.01656E-06 7.18768E-03 1.42528E+08
 -1      1186-7.88491E+09 1.59380E+08 1.94791E+07-3.65002E-03 4.77275E-03-6.11382E+06
 -1      1188-7.88491E+09 1.59380E+08 1.94791E+07-3.65002E-03 4.77275E-03-6.11382E+06
 -1      1197-6.28764E+09-4.05261E+07-2.22019E+09-6.80760E-05 7.80212E-03 2.19692E+09
 -1      1199-6.28764E+09-4.05261E+07-2.22019E+09-6.80760E-05 7.80212E-03 2.19692E+09
 -1      1200-7.45253E+09 1.48451E+08 1.85928E+07-3.83765E-04 4.94763E-03-2.14202E+07
 -1      1202-7.45253E+09 1.48451E+08 1.85928E+07-3.83765E-04 4.94763E-03-2.14202E+07
 -1      1211-5.40763E+09-3.49149E+07-1.93780E+09-1.44057E-04 8.00202E-03 4.04697E+09
 -1      1213-5.40763E+09-3.49149E+07-1.93780E+09-1.44057E-04 8.00202E-03 4.04697E+09
 -1      1214-6.39730E+09 1.29231E+08 1.59302E+07-2.97791E-03 5.51257E-03-2.88674E+07
 -1      1216-6.39730E+09 1.29231E+08 1.59302E+07-2.97791E-03 5.51257E-03-2.88674E+07
 -1      1225-4.08900E+09-2.81193E+07-1.55351E+09-1.55520E-04 8.80264E-03 5.59681E+09
 -1      1227-4.08900E+09-2.81193E+07-1.55351E+09-1.55520E-04 8.80264E-03 5.59681E+09
 -1      1228-4.79983E+09 1.03068E+08 1.29857E+07-1.00864E-02 6.27927E-03-3.87326E+07
 -1      1230-4.79983E+09 1.03068E+08 1.29857E+07-1.00864E-02 6.27927E-03-3.87326E+07
 -1      1239-2.42155E+09-1.92749E+07-1.08813E+09-3.72440E-04 1.11648E-02 6.76023E+09
 -1      1241-2.42155E+09-1.92749E+07-1.08813E+09-3.72440E-04 1.11648E-02 6.76023E+09
 -1      1242-2.77106E+09 7.12920E+07 8.94254E+06-4.75222E-03 7.86421E-03-4.35420E+07
 -1      1244-2.77106E+09 7.12920E+07 8.94254E+06-4.75222E-03 7.86421E-03-4.35420E+07
 -1      1253-5.15319E+08-9.81084E+06-5.71145E+08 2.21027E-04 1.07537E-02 7.47876E+09
 -1      1255-5.15319E+08-9.81084E+06-5.71145E+08 2.21027E-04 1.07537E-02 7.47876E+09
 -1      1256-4.45393E+08 3.60352E+07 4.81419E+06 1.36842E-02 8.04468E-03-4.74453E+07
 -1      1258-4.45393E+08 3.60352E+07 4.81419E+06 1.36842E-02 8.04468E-03-4.74453E+07
 -1      1267 1.50760E+09 3.25318E+05-3.36271E+07 1.77645E-04 7.63075E-03 7.71852E+09
 -1      1269 1.50760E+09 3.25318E+05-3.36271E+07 1.77645E-04 7.63075E-03 7.71852E+09
 -1      1270 2.02734E+09-7.04815E+05 2.31350E+05 1.66308E-02 6.72707E-03-4.73119E+07
 -1      1272 2.02734E+09-7.04815E+05 2.31350E+05 1.66308E-02 6.72707E-03-4.73119E+07
 -1      1281 3.51972E+09 1.00312E+07 4.90665E+08 1.05168E-04 5.01689E-03 7.47689E+09
 -1      1283 3.51972E+09 1.00312E+07 4.90665E+08 1.05168E-04 5.01689E-03 7.47689E+09
 -1      1284 4.49127E+09-3.64875E+07-3.99266E+06 5.86522E-03 5.01602E-03-4.50393E+07
 -1      1286 4.49127E+09-3.64875E+07-3.99266E+06 5.86522E-03 5.01602E-03-4.50393E+07
 -1      1295 5.39667E+09 1.90640E+07 9.69292E+08 4.20233E-04 2.66763E-03 6.78014E+09
 -1      1297 5.39667E+09 1.90640E+07 9.69292E+08 4.20233E-04 2.66763E-03 6.78014E+09
 -1      1298 6.79406E+09-6.92272E+07-8.06364E+06-2.04992E-03 2.94964E-03-3.95408E+07
 -1      1300 6.79406E+09-6.92272E+07-8.06364E+06-2.04992E-03 2.94964E-03-3.95408E+07
 -1      1309 7.02452E+09 2.65698E+07 1.37192E+09 4.30445E-04 3.72105E-04 5.68392E+09
 -1      1311 7.02452E+09 2.65698E+07 1.37192E+09 4.30445E-04 3.72105E-04 5.68392E+09
 -1      1312 8.79655E+09-9.67004E+07-1.12906E+07-5.76067E-03 1.17807E-03-3.19738E+07
 -1      1314 8.79655E+09-9.67004E+07-1.12906E+07-5.76067E-03 1.17807E-03-3.19738E+07
 -1      1323 8.30734E+09 3.23119E+07 1.67306E+09 6.24515E-04-2.45287E-03 4.26874E+09
 -1      1325 8.30734E+09 3.23119E+07 1.67306E+09 6.24515E-04-2.45287E-03 4.26874E+09
 -1      1326 1.03814E+10-1.17323E+08-1.38880E+07-6.89459E-03-1.32041E-03-2.23037E+07
 -1      1328 1.03814E+10-1.17323E+08-1.38880E+07-6.89459E-03-1.32041E-03-2.23037E+07
 -1      1337 9.17296E+09 3.57145E+07 1.85308E+09 3.69701E-04-3.90615E-03 2.63613E+09
 -1      1339 9.17296E+09 3.57145E+07 1.85308E+09 3.69701E-04-3.90615E-03 2.63613E+09
 -1      1340 1.14607E+10-1.29543E+08-1.52620E+07-4.67683E-03-2.45030E-03-1.14992E+07
 -1      1342 1.14607E+10-1.29543E+08-1.52620E+07-4.67683E-03-2.45030E-03-1.14992E+07
 -1      1351 9.57798E+09 3.67573E+07 1.89986E+09 3.49374E-04-2.91463E-03 9.01842E+08
 -1      1353 9.57798E+09 3.67573E+07 1.89986E+09 3.49374E-04-2.91463E-03 9.01842E+08
 -1      1354 1.19814E+10-1.32786E+08-1.57700E+07 8.49996E-04-2.34269E-03-6.13294E+04
 -1      1356 1.19814E+10-1.32786E+08-1.57700E+07 8.49996E-04-2.34269E-03-6.13294E+04
 -1      1365 9.51024E+09 3.51354E+07 1.80917E+09 3.07048E-04-2.58579E-03-8.10447E+08
 -1      1367 9.51024E+09 3.51354E+07 1.80917E+09 3.07048E-04-2.58579E-03-8.10447E+08
 -1      1368 1.19294E+10-1.26374E+08-1.48674E+07-1.21355E-04-2.65317E-03 1.11029E+07
 -1      1370 1.19294E+10-1.26374E+08-1.48674E+07-1.21355E-04-2.65317E-03 1.11029E+07
 -1      1379 8.99051E+09 3.12213E+07 1.58539E+09-1.17644E-04-3.06444E-03-2.37721E+09
 -1      1381 8.99051E+09 3.12213E+07 1.58539E+09-1.17644E-04-3.06444E-03-2.37721E+09
 -1      1382 1.13302E+10-1.11146E+08-1.31814E+07-5.86721E-03-2.99950E-03 2.12878E+07
 -1      1384 1.13302E+10-1.11146E+08-1.31814E+07-5.86721E-03-2.99950E-03 2.12878E+07
 -1      1393 8.07053E+09 2.48393E+07 1.24048E+09-1.69410E-04-4.22261E-03-3.68187E+09
 -1      1395 8.07053E+09 2.48393E+07 1.24048E+09-1.69410E-04-4.22261E-03-3.68187E+09
 -1      1396 1.02482E+10-8.71266E+07-1.01018E+07-4.42475E-04-4.30818E-03 2.97220E+07
 -1      1398 1.02482E+10-8.71266E+07-1.01018E+07-4.42475E-04-4.30818E-03 2.97220E+07
 -1      1407 6.83149E+09 1.69594E+07 7.94729E+08-1.33390E-04-5.96047E-03-4.62214E+09
 -1      1409 6.83149E+09 1.69594E+07 7.94729E+08-1.33390E-04-5.96047E-03-4.62214E+09
 -1      1410 8.78241E+09-5.64923E+07-6.66952E+06 9.25472E-03-5.26373E-03 3.56691E+07
 -1      1412 8.78241E+09-5.64923E+07-6.66952E+06 9.25472E-03-5.26373E-03 3.56691E+07
 -1      1421 5.37858E+09 7.14189E+06 2.72070E+08-1.89685E-04-5.72265E-03-5.11696E+09
 -1      1423 5.37858E+09 7.14189E+06 2.72070E+08-1.89685E-04-5.72265E-03-5.11696E+09
 -1      1424 7.06237E+09-2.09990E+07-1.98088E+06 7.64951E-03-4.66601E-03 3.88089E+07
 -1      1426 7.06237E+09-2.09990E+07-1.98088E+06 7.64951E-03-4.66601E-03 3.88089E+07
 -1      1435 3.83523E+09-2.50353E+06-2.94297E+08-3.40860E-04-4.61736E-03-5.10746E+09
 -1      1437 3.83523E+09-2.50353E+06-2.94297E+08-3.40860E-04-4.61736E-03-5.10746E+09
 -1      1438 5.24020E+09 1.85235E+07 2.19557E+06-2.95937E-05-3.60648E-03 3.79571E+07
 -1      1440 5.24020E+09 1.85235E+07 2.19557E+06-2.95937E-05-3.60648E-03 3.79571E+07
 -1      1449 2.33616E+09-1.41096E+07-8.83636E+08-2.81929E-04-5.62036E-03-4.57776E+09
 -1      1451 2.33616E+09-1.41096E+07-8.83636E+08-2.81929E-04-5.62036E-03-4.57776E+09
 -1      1452 3.47099E+09 6.73192E+07 7.85618E+06-5.37822E-03-4.49172E-03 3.47565E+07
 -1      1454 3.47099E+09 6.73192E+07 7.85618E+06-5.37822E-03-4.49172E-03 3.47565E+07
 -1      1463 1.04393E+09-2.26418E+07-1.43846E+09-5.08643E-04-5.55504E-03-3.51067E+09
 -1      1465 1.04393E+09-2.26418E+07-1.43846E+09-5.08643E-04-5.55504E-03-3.51067E+09
 -1      1466 1.93869E+09 5.48362E+07 1.14262E+07-6.75765E-03-4.68197E-03 2.40083E+07
 -1      1468 1.93869E+09 5.48362E+07 1.14262E+07-6.75765E-03-4.68197E-03 2.40083E+07
 -1      1477 1.60003E+08-3.12999E+07-1.89215E+09-1.38345E-04-4.01241E-03-1.96722E+09
 -1      1479 1.60003E+08-3.12999E+07-1.89215E+09-1.38345E-04-4.01241E-03-1.96722E+09
 -1      1480 8.54298E+08 1.17143E+08 1.52114E+07-2.08825E-03-3.59586E-03 1.72387E+07
 -1      1482 8.54298E+08 1.17143E+08 1.52114E+07-2.08825E-03-3.59586E-03 1.72387E+07
 -1      1491 3.22210E+07 6.47264E+05 1.41387E+09-1.17263E-03-4.18908E-03-1.13338E+09
 -1      1493 3.22210E+07 6.47264E+05 1.41387E+09-1.17263E-03-4.18908E-03-1.13338E+09
 -1      1494-2.69058E-03-5.81376E-03 1.86796E-02-1.22641E-03-5.68821E-03-1.16869E+09
 -1      1496-2.69058E-03-5.81376E-03 1.86796E-02-1.22641E-03-5.68821E-03-1.16869E+09
 -1      1497-3.22210E+07-6.47264E+05-1.41387E+09-2.87599E-04-5.03847E-03-1.13338E+09
 -1      1499-3.22210E+07-6.47264E+05-1.41387E+09-2.87599E-04-5.03847E-03-1.13338E+09
 -1      1500 5.20432E+09 1.93587E+08 6.91944E+05 5.67954E+08 5.70287E+07-2.78276E+08
 -1      1502 5.20432E+09 1.93587E+08 6.91944E+05 5.67954E+08 5.70287E+07-2.78276E+08
 -1      1503 2.64024E+09-1.26400E+08-2.09870E+06 5.32029E+08 3.62780E+07 3.07385E+07
 -1      1505 2.64024E+09-1.26400E+08-2.09870E+06 5.32029E+08 3.62780E+07 3.07385E+07
 -1      1506-1.74427E+08 4.96957E+07-4.05816E+06 6.68385E+08 4.15669E+07-8.41475E+07
 -1      1508-1.74427E+08 4.96957E+07-4.05816E+06 6.68385E+08 4.15669E+07-8.41475E+07
 -1      1509-2.79825E+09 1.87247E+07-5.34903E+06 5.12068E+08 5.73102E+07-3.39370E+07
 -1      1511-2.79825E+09 1.87247E+07-5.34903E+06 5.12068E+08 5.73102E+07-3.39370E+07
 -1      1512-4.88858E+09 2.55188E+07-5.70517E+06 4.05504E+08 6.06234E+07-3.33991E+07
 -1      1514-4.88858E+09 2.55188E+07-5.70517E+06 4.05504E+08 6.06234E+07-3.33991E+07
 -1      1515-6.41635E+09 2.91225E+07-6.93113E+06 2.76291E+08 6.93026E+07-1.97417E+07
 -1      1517-6.41635E+09 2.91225E+07-6.93113E+06 2.76291E+08 6.93026E+07-1.97417E+07
 -1      1518-7.31737E+09 3.05058E+07-6.61964E+06 1.35504E+08 7.03886E+07-2.97115E+06
 -1      1520-7.31737E+09 3.05058E+07-6.61964E+06 1.35504E+08 7.03886E+07-2.97115E+06
 -1      1521-7.55793E+09 2.97492E+07-7.06457E+06-5.94050E+06 7.11508E+07 8.72849E+06
 -1      1523-7.55793E+09 2.97492E+07-7.06457E+06-5.94050E+06 7.11508E+07 8.72849E+06
 -1      1524-7.14817E+09 2.80359E+07-6.10379E+06-1.41692E+08 6.83053E+07 2.48102E+07
 -1      1526-7.14817E+09 2.80359E+07-6.10379E+06-1.41692E+08 6.83053E+07 2.48102E+07
 -1      1527-6.13217E+09 2.41830E+07-5.74597E+06-2.64190E+08 6.33269E+07 3.55171E+07
 -1      1529-6.13217E+09 2.41830E+07-5.74597E+06-2.64190E+08 6.33269E+07 3.55171E+07
 -1      1530-4.58834E+09 1.94101E+07-4.25255E+06-3.66715E+08 5.66195E+07 4.67930E+07
 -1      1532-4.58834E+09 1.94101E+07-4.25255E+06-3.66715E+08 5.66195E+07 4.67930E+07
 -1      1533-2.62440E+09 1.32743E+07-3.26361E+06-4.43875E+08 4.80491E+07 5.33236E+07
 -1      1535-2.62440E+09 1.32743E+07-3.26361E+06-4.43875E+08 4.80491E+07 5.33236E+07
 -1      1536-3.70831E+08 6.69622E+06-1.49485E+06-4.91667E+08 3.89545E+07 5.78410E+07
 -1      1538-3.70831E+08 6.69622E+06-1.49485E+06-4.91667E+08 3.89545E+07 5.78410E+07
 -1      1539 2.02698E+09-3.37431E+05-2.04024E+05-5.07982E+08 2.90457E+07 5.79861E+07
 -1      1541 2.02698E+09-3.37431E+05-2.04024E+05-5.07982E+08 2.90457E+07 5.79861E+07
 -1      1542 4.41781E+09-7.06591E+06 1.49812E+06-4.92582E+08 1.96870E+07 5.51167E+07
 -1      1544 4.41781E+09-7.06591E+06 1.49812E+06-4.92582E+08 1.96870E+07 5.51167E+07
 -1      1545 6.65391E+09-1.33128E+07 2.69932E+06-4.47262E+08 1.06669E+07 4.85329E+07
 -1      1547 6.65391E+09-1.33128E+07 2.69932E+06-4.47262E+08 1.06669E+07 4.85329E+07
 -1      1548 8.60032E+09-1.85151E+07 3.98171E+06-3.75653E+08 3.11815E+06 3.92178E+07
 -1      1550 8.60032E+09-1.85151E+07 3.98171E+06-3.75653E+08 3.11815E+06 3.92178E+07
 -1      1551 1.01433E+10-2.24283E+07 4.74138E+06-2.83103E+08-3.24230E+06 2.74235E+07
 -1      1553 1.01433E+10-2.24283E+07 4.74138E+06-2.83103E+08-3.24230E+06 2.74235E+07
 -1      1554 1.11976E+10-2.48145E+07 5.32511E+06-1.76266E+08-7.57821E+06 1.41084E+07
 -1      1556 1.11976E+10-2.48145E+07 5.32511E+06-1.76266E+08-7.57821E+06 1.41084E+07
 -1      1557 1.17122E+10-2.53480E+07 5.41716E+06-6.28197E+07-1.04567E+07 6.04005E+04
 -1      1559 1.17122E+10-2.53480E+07 5.41716E+06-6.28197E+07-1.04567E+07 6.04005E+04
 -1      1560 1.16732E+10-2.43725E+07 5.16720E+06 4.91520E+07-1.13515E+07-1.37856E+07
 -1      1562 1.16732E+10-2.43725E+07 5.16720E+06 4.91520E+07-1.13515E+07-1.37856E+07
 -1      1563 1.11058E+10-2.11532E+07 4.54551E+06 1.51392E+08-1.12511E+07-2.64163E+07
 -1      1565 1.11058E+10-2.11532E+07 4.54551E+06 1.51392E+08-1.12511E+07-2.64163E+07
 -1      1566 1.00725E+10-1.73173E+07 3.50686E+06 2.36439E+08-9.98393E+06-3.70255E+07
 -1      1568 1.00725E+10-1.73173E+07 3.50686E+06 2.36439E+08-9.98393E+06-3.70255E+07
 -1      1569 8.67033E+09-1.03886E+07 2.31066E+06 2.97069E+08-8.88193E+06-4.47857E+07
 -1      1571 8.67033E+09-1.03886E+07 2.31066E+06 2.97069E+08-8.88193E+06-4.47857E+07
 -1      1572 7.02393E+09-5.72607E+06 7.07033E+05 3.28769E+08-8.37405E+06-4.86664E+07
 -1      1574 7.02393E+09-5.72607E+06 7.07033E+05 3.28769E+08-8.37405E+06-4.86664E+07
 -1      1575 5.27963E+09 4.57391E+06-7.66073E+05 3.28129E+08-9.54634E+06-4.96878E+07
 -1      1577 5.27963E+09 4.57391E+06-7.66073E+05 3.28129E+08-9.54634E+06-4.96878E+07
 -1      1578 3.60494E+09 1.12856E+07-2.66757E+06 2.83303E+08-1.39940E+07-4.28319E+07
 -1      1580 3.60494E+09 1.12856E+07-2.66757E+06 2.83303E+08-1.39940E+07-4.28319E+07
 -1      1581 2.13479E+09 6.57667E+06-3.85759E+06 2.36355E+08-2.07544E+07-4.09000E+07
 -1      1583 2.13479E+09 6.57667E+06-3.85759E+06 2.36355E+08-2.07544E+07-4.09000E+07
 -1      1584 9.30237E+08 2.31589E+07-5.27586E+06 1.65535E+08-3.04013E+07-1.13812E+07
 -1      1586 9.30237E+08 2.31589E+07-5.27586E+06 1.65535E+08-3.04013E+07-1.13812E+07
 -1      1587 4.23934E+08 1.30083E+08 6.29697E+06 2.21443E+08 2.41710E+08 2.14559E+07
 -1      1589 4.23934E+08 1.30083E+08 6.29697E+06 2.21443E+08 2.41710E+08 2.14559E+07
 -1      1590 7.22023E+09 8.33595E+08-1.52527E+06 1.16087E+09-1.24792E+08-6.25724E+08
 -1      1592 7.22023E+09 8.33595E+08-1.52527E+06 1.16087E+09-1.24792E+08-6.25724E+08
 -1      1593 4.23934E+08 1.30083E+08 6.29697E+06-2.21443E+08-2.41710E+08 2.14559E+07
 -1      1595 4.23934E+08 1.30083E+08 6.29697E+06-2.21443E+08-2.41710E+08 2.14559E+07
 -1      1596 5.20432E+09 1.93587E+08 6.91944E+05-5.67954E+08-5.70287E+07-2.78276E+08
 -1      1598 5.20432E+09 1.93587E+08 6.91944E+05-5.67954E+08-5.70287E+07-2.78276E+08
 -1      1599 2.64024E+09-1.26400E+08-2.09870E+06-5.32029E+08-3.62780E+07 3.07385E+07
 -1      1601 2.64024E+09-1.26400E+08-2.09870E+06-5.32029E+08-3.62780E+07 3.07385E+07
 -1      1602-1.74427E+08 4.96957E+07-4.05816E+06-6.68385E+08-4.15669E+07-8.41475E+07
 -1      1604-1.74427E+08 4.96957E+07-4.05816E+06-6.68385E+08-4.15669E+07-8.41475E+07
 -1      1605-2.79825E+09 1.87247E+07-5.34903E+06-5.12068E+08-5.73102E+07-3.39370E+07
 -1      1607-2.79825E+09 1.87247E+07-5.34903E+06-5.12068E+08-5.73102E+07-3.39370E+07
 -1      1608-4.88858E+09 2.55188E+07-5.70517E+06-4.05504E+08-6.06234E+07-3.33991E+07
 -1      1610-4.88858E+09 2.55188E+07-5.70517E+06-4.05504E+08-6.06234E+07-3.33991E+07
 -1      1611-6.41635E+09 2.91225E+07-6.93113E+06-2.76291E+08-6.93026E+07-1.97417E+07
 -1      1613-6.41635E+09 2.91225E+07-6.93113E+06-2.76291E+08-6.93026E+07-1.97417E+07
 -1      1614-7.31737E+09 3.05058E+07-6.61964E+06-1.35504E+08-7.03886E+07-2.97115E+06
 -1      1616-7.31737E+09 3.05058E+07-6.61964E+06-1.35504E+08-7.03886E+07-2.97115E+06
 -1      1617-7.55793E+09 2.97492E+07-7.06457E+06 5.94050E+06-7.11508E+07 8.72849E+06
 -1      1619-7.55793E+09 2.97492E+07-7.06457E+06 5.94050E+06-7.11508E+07 8.72849E+06
 -1      1620-7.14817E+09 2.80359E+07-6.10379E+06 1.41692E+08-6.83053E+07 2.48102E+07
 -1      1622-7.14817E+09 2.80359E+07-6.10379E+06 1.41692E+08-6.83053E+07 2.48102E+07
 -1      1623-6.13217E+09 2.41830E+07-5.74597E+06 2.64190E+08-6.33269E+07 3.55171E+07
 -1      1625-6.13217E+09 2.41830E+07-5.74597E+06 2.64190E+08-6.33269E+07 3.55171E+07
 -1      1626-4.58834E+09 1.94101E+07-4.25255E+06 3.66715E+08-5.66195E+07 4.67930E+07
 -1      1628-4.58834E+09 1.94101E+07-4.25255E+06 3.66715E+08-5.66195E+07 4.67930E+07
 -1      1629-2.62440E+09 1.32743E+07-3.26361E+06 4.43875E+08-4.80491E+07 5.33236E+07
 -1      1631-2.62440E+09 1.32743E+07-3.26361E+06 4.43875E+08-4.80491E+07 5.33236E+07
 -1      1632-3.70831E+08 6.69622E+06-1.49485E+06 4.91667E+08-3.89545E+07 5.78410E+07
 -1      1634-3.70831E+08 6.69622E+06-1.49485E+06 4.91667E+08-3.89545E+07 5.78410E+07
 -1      1635 2.02698E+09-3.37431E+05-2.04024E+05 5.07982E+08-2.90457E+07 5.79861E+07
 -1      1637 2.02698E+09-3.37431E+05-2.04024E+05 5.07982E+08-2.90457E+07 5.79861E+07
 -1      1638 4.41781E+09-7.06591E+06 1.49812E+06 4.92582E+08-1.96870E+07 5.51167E+07
 -1      1640 4.41781E+09-7.06591E+06 1.49812E+06 4.92582E+08-1.96870E+07 5.51167E+07
 -1      1641 6.65391E+09-1.33128E+07 2.69932E+06 4.47262E+08-1.06669E+07 4.85329E+07
 -1      1643 6.65391E+09-1.33128E+07 2.69932E+06 4.47262E+08-1.06669E+07 4.85329E+07
 -1      1644 8.60032E+09-1.85151E+07 3.98171E+06 3.75653E+08-3.11815E+06 3.92178E+07
 -1      1646 8.60032E+09-1.85151E+07 3.98171E+06 3.75653E+08-3.11815E+06 3.92178E+07
 -1      1647 1.01433E+10-2.24283E+07 4.74138E+06 2.83103E+08 3.24230E+06 2.74235E+07
 -1      1649 1.01433E+10-2.24283E+07 4.74138E+06 2.83103E+08 3.24230E+06 2.74235E+07
 -1      1650 1.11976E+10-2.48145E+07 5.32511E+06 1.76266E+08 7.57821E+06 1.41084E+07
 -1      1652 1.11976E+10-2.48145E+07 5.32511E+06 1.76266E+08 7.57821E+06 1.41084E+07
 -1      1653 1.17122E+10-2.53480E+07 5.41716E+06 6.28197E+07 1.04567E+07 6.04005E+04
 -1      1655 1.17122E+10-2.53480E+07 5.41716E+06 6.28197E+07 1.04567E+07 6.04005E+04
 -1      1656 1.16732E+10-2.43725E+07 5.16720E+06-4.91520E+07 1.13515E+07-1.37856E+07
 -1      1658 1.16732E+10-2.43725E+07 5.16720E+06-4.91520E+07 1.13515E+07-1.37856E+07
 -1      1659 1.11058E+10-2.11532E+07 4.54551E+06-1.51392E+08 1.12511E+07-2.64163E+07
 -1      1661 1.11058E+10-2.11532E+07 4.54551E+06-1.51392E+08 1.12511E+07-2.64163E+07
 -1      1662 1.00725E+10-1.73173E+07 3.50686E+06-2.36439E+08 9.98393E+06-3.70255E+07
 -1      1664 1.00725E+10-1.73173E+07 3.50686E+06-2.36439E+08 9.98393E+06-3.70255E+07
 -1      1665 8.67033E+09-1.03886E+07 2.31066E+06-2.97069E+08 8.88193E+06-4.47857E+07
 -1      1667 8.67033E+09-1.03886E+07 2.31066E+06-2.97069E+08 8.88193E+06-4.47857E+07
 -1      1668 7.02393E+09-5.72607E+06 7.07033E+05-3.28769E+08 8.37405E+06-4.86664E+07
 -1      1670 7.02393E+09-5.72607E+06 7.07033E+05-3.28769E+08 8.37405E+06-4.86664E+07
 -1      1671 5.27963E+09 4.57391E+06-7.66073E+05-3.28129E+08 9.54634E+06-4.96878E+07
 -1      1673 5.27963E+09 4.57391E+06-7.66073E+05-3.28129E+08 9.54634E+06-4.96878E+07
 -1      1674 3.60494E+09 1.12856E+07-2.66757E+06-2.83303E+08 1.39940E+07-4.28319E+07
 -1      1676 3.60494E+09 1.12856E+07-2.66757E+06-2.83303E+08 1.39940E+07-4.28319E+07
 -1      1677 2.13479E+09 6.57667E+06-3.85759E+06-2.36355E+08 2.07544E+07-4.09000E+07
 -1      1679 2.13479E+09 6.57667E+06-3.85759E+06-2.36355E+08 2.07544E+07-4.09000E+07
 -1      1680 9.30237E+08 2.31589E+07-5.27586E+06-1.65535E+08 3.04013E+07-1.13812E+07
 -1      1682 9.30237E+08 2.31589E+07-5.27586E+06-1.65535E+08 3.04013E+07-1.13812E+07
 -1      1683 7.22023E+09 8.33595E+08-1.52527E+06-1.16087E+09 1.24792E+08-6.25724E+08
 -1      1685 7.22023E+09 8.33595E+08-1.52527E+06-1.16087E+09 1.24792E+08-6.25724E+08
 -1      1686-5.70383E+09-1.99323E+08 4.13744E+06 1.16576E+09 1.39336E+07-1.74745E+08
 -1      1688-5.70383E+09-1.99323E+08 4.13744E+06 1.16576E+09 1.39336E+07-1.74745E+08
 -1      1689-2.63484E+09 1.70634E+08-2.82395E+06 1.26516E+09-1.54056E+08 7.52527E+07
 -1      1691-2.63484E+09 1.70634E+08-2.82395E+06 1.26516E+09-1.54056E+08 7.52527E+07
 -1      1692 3.12902E+08-8.88372E+07-4.71748E+06 1.26284E+09-2.12918E+08-3.86659E+07
 -1      1694 3.12902E+08-8.88372E+07-4.71748E+06 1.26284E+09-2.12918E+08-3.86659E+07
 -1      1695 2.90897E+09-7.48329E+07-4.10398E+06 1.04850E+09-2.72667E+08 1.06486E+07
 -1      1697 2.90897E+09-7.48329E+07-4.10398E+06 1.04850E+09-2.72667E+08 1.06486E+07
 -1      1698 5.03315E+09-7.81492E+07-6.27642E+06 8.12917E+08-3.28627E+08-9.44259E+06
 -1      1700 5.03315E+09-7.81492E+07-6.27642E+06 8.12917E+08-3.28627E+08-9.44259E+06
 -1      1701 6.57599E+09-9.33679E+07-5.89419E+06 5.54838E+08-3.54427E+08 8.67860E+05
 -1      1703 6.57599E+09-9.33679E+07-5.89419E+06 5.54838E+08-3.54427E+08 8.67860E+05
 -1      1704 7.48302E+09-9.58015E+07-6.89560E+06 2.71463E+08-3.74034E+08-1.88757E+06
 -1      1706 7.48302E+09-9.58015E+07-6.89560E+06 2.71463E+08-3.74034E+08-1.88757E+06
 -1      1707 7.72142E+09-9.45645E+07-6.20728E+06-1.35377E+07-3.65959E+08 1.30733E+06
 -1      1709 7.72142E+09-9.45645E+07-6.20728E+06-1.35377E+07-3.65959E+08 1.30733E+06
 -1      1710 7.30035E+09-8.82433E+07-6.24452E+06-2.87037E+08-3.45100E+08 1.69496E+06
 -1      1712 7.30035E+09-8.82433E+07-6.24452E+06-2.87037E+08-3.45100E+08 1.69496E+06
 -1      1713 6.26473E+09-7.67071E+07-5.09212E+06-5.33748E+08-3.02793E+08 3.32483E+06
 -1      1715 6.26473E+09-7.67071E+07-5.09212E+06-5.33748E+08-3.02793E+08 3.32483E+06
 -1      1716 4.69409E+09-6.12391E+07-4.36660E+06-7.40291E+08-2.48130E+08 4.03020E+06
 -1      1718 4.69409E+09-6.12391E+07-4.36660E+06-7.40291E+08-2.48130E+08 4.03020E+06
 -1      1719 2.69773E+09-4.22831E+07-2.83947E+06-8.95629E+08-1.80065E+08 4.89080E+06
 -1      1721 2.69773E+09-4.22831E+07-2.83947E+06-8.95629E+08-1.80065E+08 4.89080E+06
 -1      1722 4.08112E+08-2.13657E+07-1.65967E+06-9.91798E+08-1.05645E+08 5.19785E+06
 -1      1724 4.08112E+08-2.13657E+07-1.65967E+06-9.91798E+08-1.05645E+08 5.19785E+06
 -1      1725-2.02716E+09 5.21123E+05-1.36634E+04-1.02446E+09-2.74719E+07 5.33710E+06
 -1      1727-2.02716E+09 5.21123E+05-1.36634E+04-1.02446E+09-2.74719E+07 5.33710E+06
 -1      1728-4.45454E+09 2.17767E+07 1.24727E+06-9.93182E+08 4.82804E+07 5.03867E+06
 -1      1730-4.45454E+09 2.17767E+07 1.24727E+06-9.93182E+08 4.82804E+07 5.03867E+06
 -1      1731-6.72399E+09 4.12700E+07 2.68216E+06-9.01539E+08 1.17923E+08 4.49604E+06
 -1      1733-6.72399E+09 4.12700E+07 2.68216E+06-9.01539E+08 1.17923E+08 4.49604E+06
 -1      1734-8.69843E+09 5.76078E+07 3.65443E+06-7.56895E+08 1.76388E+08 3.62198E+06
 -1      1736-8.69843E+09 5.76078E+07 3.65443E+06-7.56895E+08 1.76388E+08 3.62198E+06
 -1      1737-1.02623E+10 6.98756E+07 4.57330E+06-5.69972E+08 2.20698E+08 2.55988E+06
 -1      1739-1.02623E+10 6.98756E+07 4.57330E+06-5.69972E+08 2.20698E+08 2.55988E+06
 -1      1740-1.13292E+10 7.71786E+07 4.96844E+06-3.54259E+08 2.47521E+08 1.30461E+06
 -1      1742-1.13292E+10 7.71786E+07 4.96844E+06-3.54259E+08 2.47521E+08 1.30461E+06
 -1      1743-1.18468E+10 7.90668E+07 5.17640E+06-1.25129E+08 2.55853E+08-4.64429E+02
 -1      1745-1.18468E+10 7.90668E+07 5.17640E+06-1.25129E+08 2.55853E+08-4.64429E+02
 -1      1746-1.18013E+10 7.53734E+07 4.85008E+06 1.00952E+08 2.44503E+08-1.34136E+06
 -1      1748-1.18013E+10 7.53734E+07 4.85008E+06 1.00952E+08 2.44503E+08-1.34136E+06
 -1      1749-1.12180E+10 6.61497E+07 4.31796E+06 3.07630E+08 2.15206E+08-2.56429E+06
 -1      1751-1.12180E+10 6.61497E+07 4.31796E+06 3.07630E+08 2.15206E+08-2.56429E+06
 -1      1752-1.01603E+10 5.22219E+07 3.29746E+06 4.79335E+08 1.68722E+08-3.65175E+06
 -1      1754-1.01603E+10 5.22219E+07 3.29746E+06 4.79335E+08 1.68722E+08-3.65175E+06
 -1      1755-8.72637E+09 3.34404E+07 2.17943E+06 6.02426E+08 1.09882E+08-4.55833E+06
 -1      1757-8.72637E+09 3.34404E+07 2.17943E+06 6.02426E+08 1.09882E+08-4.55833E+06
 -1      1758-7.04315E+09 1.33625E+07 6.36923E+05 6.66654E+08 4.04192E+07-4.92874E+06
 -1      1760-7.04315E+09 1.33625E+07 6.36923E+05 6.66654E+08 4.04192E+07-4.92874E+06
 -1      1761-5.25992E+09-1.15487E+07-7.14750E+05 6.63766E+08-3.16478E+07-5.86535E+06
 -1      1763-5.25992E+09-1.15487E+07-7.14750E+05 6.63766E+08-3.16478E+07-5.86535E+06
 -1      1764-3.53797E+09-3.93024E+07-2.59431E+06 5.85517E+08-1.04788E+08-4.03767E+06
 -1      1766-3.53797E+09-3.93024E+07-2.59431E+06 5.85517E+08-1.04788E+08-4.03767E+06
 -1      1767-2.03674E+09-3.07064E+07-3.78429E+06 4.61770E+08-1.68871E+08-8.44584E+06
 -1      1769-2.03674E+09-3.07064E+07-3.78429E+06 4.61770E+08-1.68871E+08-8.44584E+06
 -1      1770-8.92267E+08-7.01508E+07-4.96776E+06 3.09255E+08-2.17380E+08 2.92875E+06
 -1      1772-8.92267E+08-7.01508E+07-4.96776E+06 3.09255E+08-2.17380E+08 2.92875E+06
 -1      1773-5.70383E+09-1.99323E+08 4.13744E+06-1.16576E+09-1.39336E+07-1.74745E+08
 -1      1775-5.70383E+09-1.99323E+08 4.13744E+06-1.16576E+09-1.39336E+07-1.74745E+08
 -1      1776-2.63484E+09 1.70634E+08-2.82395E+06-1.26516E+09 1.54056E+08 7.52527E+07
 -1      1778-2.63484E+09 1.70634E+08-2.82395E+06-1.26516E+09 1.54056E+08 7.52527E+07
 -1      1779 3.12902E+08-8.88372E+07-4.71748E+06-1.26284E+09 2.12918E+08-3.86659E+07
 -1      1781 3.12902E+08-8.88372E+07-4.71748E+06-1.26284E+09 2.12918E+08-3.86659E+07
 -1      1782 2.90897E+09-7.48329E+07-4.10398E+06-1.04850E+09 2.72667E+08 1.06486E+07
 -1      1784 2.90897E+09-7.48329E+07-4.10398E+06-1.04850E+09 2.72667E+08 1.06486E+07
 -1      1785 5.03315E+09-7.81492E+07-6.27642E+06-8.12917E+08 3.28627E+08-9.44259E+06
 -1      1787 5.03315E+09-7.81492E+07-6.27642E+06-8.12917E+08 3.28627E+08-9.44259E+06
 -1      1788 6.57599E+09-9.33679E+07-5.89419E+06-5.54838E+08 3.54427E+08 8.67860E+05
 -1      1790 6.57599E+09-9.33679E+07-5.89419E+06-5.54838E+08 3.54427E+08 8.67860E+05
 -1      1791 7.48302E+09-9.58015E+07-6.89560E+06-2.71463E+08 3.74034E+08-1.88757E+06
 -1      1793 7.48302E+09-9.58015E+07-6.89560E+06-2.71463E+08 3.74034E+08-1.88757E+06
 -1      1794 7.72142E+09-9.45645E+07-6.20728E+06 1.35377E+07 3.65959E+08 1.30733E+06
 -1      1796 7.72142E+09-9.45645E+07-6.20728E+06 1.35377E+07 3.65959E+08 1.30733E+06
 -1      1797 7.30035E+09-8.82433E+07-6.24452E+06 2.87037E+08 3.45100E+08 1.69496E+06
 -1      1799 7.30035E+09-8.82433E+07-6.24452E+06 2.87037E+08 3.45100E+08 1.69496E+06
 -1      1800 6.26473E+09-7.67071E+07-5.09212E+06 5.33748E+08 3.02793E+08 3.32483E+06
 -1      1802 6.26473E+09-7.67071E+07-5.09212E+06 5.33748E+08 3.02793E+08 3.32483E+06
 -1      1803 4.69409E+09-6.12391E+07-4.36660E+06 7.40291E+08 2.48130E+08 4.03020E+06
 -1      1805 4.69409E+09-6.12391E+07-4.36660E+06 7.40291E+08 2.48130E+08 4.03020E+06
 -1      1806 2.69773E+09-4.22831E+07-2.83947E+06 8.95629E+08 1.80065E+08 4.89080E+06
 -1      1808 2.69773E+09-4.22831E+07-2.83947E+06 8.95629E+08 1.80065E+08 4.89080E+06
 -1      1809 4.08112E+08-2.13657E+07-1.65967E+06 9.91798E+08 1.05645E+08 5.19785E+06
 -1      1811 4.08112E+08-2.13657E+07-1.65967E+06 9.91798E+08 1.05645E+08 5.19785E+06
 -1      1812-2.02716E+09 5.21123E+05-1.36634E+04 1.02446E+09 2.74719E+07 5.33710E+06
 -1      1814-2.02716E+09 5.21123E+05-1.36634E+04 1.02446E+09 2.74719E+07 5.33710E+06
 -1      1815-4.45454E+09 2.17767E+07 1.24727E+06 9.93182E+08-4.82804E+07 5.03867E+06
 -1      1817-4.45454E+09 2.17767E+07 1.24727E+06 9.93182E+08-4.82804E+07 5.03867E+06
 -1      1818-6.72399E+09 4.12700E+07 2.68216E+06 9.01539E+08-1.17923E+08 4.49604E+06
 -1      1820-6.72399E+09 4.12700E+07 2.68216E+06 9.01539E+08-1.17923E+08 4.49604E+06
 -1      1821-8.69843E+09 5.76078E+07 3.65443E+06 7.56895E+08-1.76388E+08 3.62198E+06
 -1      1823-8.69843E+09 5.76078E+07 3.65443E+06 7.56895E+08-1.76388E+08 3.62198E+06
 -1      1824-1.02623E+10 6.98756E+07 4.57330E+06 5.69972E+08-2.20698E+08 2.55988E+06
 -1      1826-1.02623E+10 6.98756E+07 4.57330E+06 5.69972E+08-2.20698E+08 2.55988E+06
 -1      1827-1.13292E+10 7.71786E+07 4.96844E+06 3.54259E+08-2.47521E+08 1.30461E+06
 -1      1829-1.13292E+10 7.71786E+07 4.96844E+06 3.54259E+08-2.47521E+08 1.30461E+06
 -1      1830-1.18468E+10 7.90668E+07 5.17640E+06 1.25129E+08-2.55853E+08-4.64429E+02
 -1      1832-1.18468E+10 7.90668E+07 5.17640E+06 1.25129E+08-2.55853E+08-4.64429E+02
 -1      1833-1.18013E+10 7.53734E+07 4.85008E+06-1.00952E+08-2.44503E+08-1.34136E+06
 -1      1835-1.18013E+10 7.53734E+07 4.85008E+06-1.00952E+08-2.44503E+08-1.34136E+06
 -1      1836-1.12180E+10 6.61497E+07 4.31796E+06-3.07630E+08-2.15206E+08-2.56429E+06
 -1      1838-1.12180E+10 6.61497E+07 4.31796E+06-3.07630E+08-2.15206E+08-2.56429E+06
 -1      1839-1.01603E+10 5.22219E+07 3.29746E+06-4.79335E+08-1.68722E+08-3.65175E+06
 -1      1841-1.01603E+10 5.22219E+07 3.29746E+06-4.79335E+08-1.68722E+08-3.65175E+06
 -1      1842-8.72637E+09 3.34404E+07 2.17943E+06-6.02426E+08-1.09882E+08-4.55833E+06
 -1      1844-8.72637E+09 3.34404E+07 2.17943E+06-6.02426E+08-1.09882E+08-4.55833E+06
 -1      1845-7.04315E+09 1.33625E+07 6.36923E+05-6.66654E+08-4.04192E+07-4.92874E+06
 -1      1847-7.04315E+09 1.33625E+07 6.36923E+05-6.66654E+08-4.04192E+07-4.92874E+06
 -1      1848-5.25992E+09-1.15487E+07-7.14750E+05-6.63766E+08 3.16478E+07-5.86535E+06
 -1      1850-5.25992E+09-1.15487E+07-7.14750E+05-6.63766E+08 3.16478E+07-5.86535E+06
 -1      1851-3.53797E+09-3.93024E+07-2.59431E+06-5.85517E+08 1.04788E+08-4.03767E+06
 -1      1853-3.53797E+09-3.93024E+07-2.59431E+06-5.85517E+08 1.04788E+08-4.03767E+06
 -1      1854-2.03674E+09-3.07064E+07-3.78429E+06-4.61770E+08 1.68871E+08-8.44584E+06
 -1      1856-2.03674E+09-3.07064E+07-3.78429E+06-4.61770E+08 1.68871E+08-8.44584E+06
 -1      1857-8.92267E+08-7.01508E+07-4.96776E+06-3.09255E+08 2.17380E+08 2.92875E+06
 -1      1859-8.92267E+08-7.01508E+07-4.96776E+06-3.09255E+08 2.17380E+08 2.92875E+06
 -1      1860-2.99153E+09-3.31286E+05-6.57385E+08-2.09872E-03 4.39029E-04-1.14627E+10
 -1      1862-2.99153E+09-3.31286E+05-6.57385E+08-2.09872E-03 4.39029E-04-1.14627E+10
 -1      1863-1.23133E+09 1.13601E+05 4.60544E+08 4.56125E-04 1.72826E-03-1.11661E+10
 -1      1865-1.23133E+09 1.13601E+05 4.60544E+08 4.56125E-04 1.72826E-03-1.11661E+10
 -1      1866 4.19908E+08 3.17277E+05 9.94083E+08-8.48287E-04 2.71907E-03-9.90136E+09
 -1      1868 4.19908E+08 3.17277E+05 9.94083E+08-8.48287E-04 2.71907E-03-9.90136E+09
 -1      1869 1.83359E+09 2.41545E+05 1.20493E+09-2.48219E-04 3.50494E-03-8.45035E+09
 -1      1871 1.83359E+09 2.41545E+05 1.20493E+09-2.48219E-04 3.50494E-03-8.45035E+09
 -1      1872 2.96221E+09 4.66597E+05 1.43674E+09-5.49341E-04 4.35608E-03-6.55121E+09
 -1      1874 2.96221E+09 4.66597E+05 1.43674E+09-5.49341E-04 4.35608E-03-6.55121E+09
 -1      1875 3.78577E+09 3.19626E+05 1.57166E+09-9.86571E-05 4.97557E-03-4.43445E+09
 -1      1877 3.78577E+09 3.19626E+05 1.57166E+09-9.86571E-05 4.97557E-03-4.43445E+09
 -1      1878 4.25825E+09 5.45121E+05 1.63949E+09-2.88207E-04 5.07251E-03-2.14824E+09
 -1      1880 4.25825E+09 5.45121E+05 1.63949E+09-2.88207E-04 5.07251E-03-2.14824E+09
 -1      1881 4.37040E+09 3.37958E+05 1.61459E+09-9.23548E-05 5.05862E-03 1.59309E+08
 -1      1883 4.37040E+09 3.37958E+05 1.61459E+09-9.23548E-05 5.05862E-03 1.59309E+08
 -1      1884 4.12514E+09 4.97021E+05 1.50563E+09-4.56148E-05 5.05560E-03 2.37509E+09
 -1      1886 4.12514E+09 4.97021E+05 1.50563E+09-4.56148E-05 5.05560E-03 2.37509E+09
 -1      1887 3.54726E+09 2.76411E+05 1.31426E+09-9.60437E-05 4.59523E-03 4.37209E+09
 -1      1889 3.54726E+09 2.76411E+05 1.31426E+09-9.60437E-05 4.59523E-03 4.37209E+09
 -1      1890 2.67995E+09 3.51131E+05 1.05346E+09 2.87096E-04 4.60359E-03 6.04410E+09
 -1      1892 2.67995E+09 3.51131E+05 1.05346E+09 2.87096E-04 4.60359E-03 6.04410E+09
 -1      1893 1.58274E+09 1.36864E+05 7.37799E+08-3.93670E-04 4.94981E-03 7.29952E+09
 -1      1895 1.58274E+09 1.36864E+05 7.37799E+08-3.93670E-04 4.94981E-03 7.29952E+09
 -1      1896 3.27922E+08 1.47260E+05 3.87064E+08 4.44594E-04 4.76348E-03 8.07438E+09
 -1      1898 3.27922E+08 1.47260E+05 3.87064E+08 4.44594E-04 4.76348E-03 8.07438E+09
 -1      1899-1.00401E+09-4.75107E+04 2.24294E+07 6.99256E-04 4.23746E-03 8.33261E+09
 -1      1901-1.00401E+09-4.75107E+04 2.24294E+07 6.99256E-04 4.23746E-03 8.33261E+09
 -1      1902-2.32915E+09-6.72677E+04-3.33238E+08 1.06021E-04 3.40192E-03 8.07101E+09
 -1      1904-2.32915E+09-6.72677E+04-3.33238E+08 1.06021E-04 3.40192E-03 8.07101E+09
 -1      1905-3.56556E+09-2.28571E+05-6.57928E+08 1.17713E-03 2.35864E-03 7.31819E+09
 -1      1907-3.56556E+09-2.28571E+05-6.57928E+08 1.17713E-03 2.35864E-03 7.31819E+09
 -1      1908-4.63825E+09-2.43145E+05-9.31046E+08 3.56146E-04 1.14861E-03 6.13403E+09
 -1      1910-4.63825E+09-2.43145E+05-9.31046E+08 3.56146E-04 1.14861E-03 6.13403E+09
 -1      1911-5.48407E+09-3.58846E+05-1.13533E+09 4.76805E-04-2.10289E-04 4.60556E+09
 -1      1913-5.48407E+09-3.58846E+05-1.13533E+09 4.76805E-04-2.10289E-04 4.60556E+09
 -1      1914-6.05551E+09-3.39162E+05-1.25742E+09 4.36319E-04-1.02681E-03 2.84228E+09
 -1      1916-6.05551E+09-3.39162E+05-1.25742E+09 4.36319E-04-1.02681E-03 2.84228E+09
 -1      1917-6.32401E+09-4.04156E+05-1.28912E+09 6.76880E-04-1.60285E-03 9.69230E+08
 -1      1919-6.32401E+09-4.04156E+05-1.28912E+09 6.76880E-04-1.60285E-03 9.69230E+08
 -1      1920-6.28163E+09-3.32172E+05-1.22755E+09 6.55731E-04-2.22935E-03-8.80171E+08
 -1      1922-6.28163E+09-3.32172E+05-1.22755E+09 6.55731E-04-2.22935E-03-8.80171E+08
 -1      1923-5.94203E+09-3.51662E+05-1.07566E+09 3.88848E-04-2.55409E-03-2.57250E+09
 -1      1925-5.94203E+09-3.51662E+05-1.07566E+09 3.88848E-04-2.55409E-03-2.57250E+09
 -1      1926-5.33944E+09-2.23782E+05-8.41615E+08 3.49101E-04-3.00181E-03-3.98193E+09
 -1      1928-5.33944E+09-2.23782E+05-8.41615E+08 3.49101E-04-3.00181E-03-3.98193E+09
 -1      1929-4.52726E+09-2.11407E+05-5.38986E+08 7.19908E-04-3.31413E-03-4.99801E+09
 -1      1931-4.52726E+09-2.11407E+05-5.38986E+08 7.19908E-04-3.31413E-03-4.99801E+09
 -1      1932-3.57514E+09-4.26715E+04-1.84317E+08 2.36627E-04-3.51803E-03-5.53251E+09
 -1      1934-3.57514E+09-4.26715E+04-1.84317E+08 2.36627E-04-3.51803E-03-5.53251E+09
 -1      1935-2.56430E+09-1.00651E+04 2.01287E+08 5.60077E-04-3.45934E-03-5.52212E+09
 -1      1937-2.56430E+09-1.00651E+04 2.01287E+08 5.60077E-04-3.45934E-03-5.52212E+09
 -1      1938-1.58706E+09 1.56693E+05 6.02058E+08 3.75132E-04-3.33772E-03-4.94010E+09
 -1      1940-1.58706E+09 1.56693E+05 6.02058E+08 3.75132E-04-3.33772E-03-4.94010E+09
 -1      1941-7.49038E+08 2.41722E+05 9.79365E+08 9.98214E-05-3.07331E-03-3.77435E+09
 -1      1943-7.49038E+08 2.41722E+05 9.79365E+08 9.98214E-05-3.07331E-03-3.77435E+09
 -1      1944-1.73364E+08 2.40212E+05 1.28355E+09 3.21515E-04-3.43273E-03-2.08813E+09
 -1      1946-1.73364E+08 2.40212E+05 1.28355E+09 3.21515E-04-3.43273E-03-2.08813E+09
 -1      1947 1.15119E-02 3.04244E-04 1.10897E-02-1.58029E-03 6.56794E-04-1.19649E+10
 -1      1949 1.15119E-02 3.04244E-04 1.10897E-02-1.58029E-03 6.56794E-04-1.19649E+10
 -1      1950 1.02858E-02 5.32496E-04 1.01095E-02 5.46966E-04 9.83868E-04-1.19163E+10
 -1      1952 1.02858E-02 5.32496E-04 1.01095E-02 5.46966E-04 9.83868E-04-1.19163E+10
 -1      1953 1.10072E-02 4.73875E-04-4.63128E-05-4.25420E-04 1.34045E-03-1.07014E+10
 -1      1955 1.10072E-02 4.73875E-04-4.63128E-05-4.25420E-04 1.34045E-03-1.07014E+10
 -1      1956 1.22212E-02 7.22118E-04-1.08781E-02-3.02241E-04 1.50622E-03-9.05671E+09
 -1      1958 1.22212E-02 7.22118E-04-1.08781E-02-3.02241E-04 1.50622E-03-9.05671E+09
 -1      1959 1.41859E-02 9.63762E-04-1.34598E-02-4.19072E-04 1.42810E-03-7.03728E+09
 -1      1961 1.41859E-02 9.63762E-04-1.34598E-02-4.19072E-04 1.42810E-03-7.03728E+09
 -1      1962 1.38811E-02 3.63052E-04-6.50829E-03-6.31549E-06 1.39480E-03-4.75247E+09
 -1      1964 1.38811E-02 3.63052E-04-6.50829E-03-6.31549E-06 1.39480E-03-4.75247E+09
 -1      1965 1.06620E-02-7.44939E-04 4.32447E-03-3.38163E-04 1.49950E-03-2.30302E+09
 -1      1967 1.06620E-02-7.44939E-04 4.32447E-03-3.38163E-04 1.49950E-03-2.30302E+09
 -1      1968 9.88317E-03-1.90485E-03 8.44657E-03-7.50906E-05 1.80346E-03 1.76090E+08
 -1      1970 9.88317E-03-1.90485E-03 8.44657E-03-7.50906E-05 1.80346E-03 1.76090E+08
 -1      1971 1.37790E-02-6.38336E-04 4.08062E-03-2.70592E-04 1.78970E-03 2.55325E+09
 -1      1973 1.37790E-02-6.38336E-04 4.08062E-03-2.70592E-04 1.78970E-03 2.55325E+09
 -1      1974 1.79710E-02 7.25910E-04 1.92681E-03-1.69513E-04 1.57178E-03 4.69721E+09
 -1      1976 1.79710E-02 7.25910E-04 1.92681E-03-1.69513E-04 1.57178E-03 4.69721E+09
 -1      1977 1.92086E-02-7.36356E-04 9.38572E-03 3.32470E-04 1.42211E-03 6.49140E+09
 -1      1979 1.92086E-02-7.36356E-04 9.38572E-03 3.32470E-04 1.42211E-03 6.49140E+09
 -1      1980 1.79230E-02-1.59425E-03 2.14036E-02-8.59716E-04 9.90427E-04 7.83882E+09
 -1      1982 1.79230E-02-1.59425E-03 2.14036E-02-8.59716E-04 9.90427E-04 7.83882E+09
 -1      1983 1.63453E-02-1.33177E-03 2.92196E-02 6.92274E-04 8.70206E-04 8.67001E+09
 -1      1985 1.63453E-02-1.33177E-03 2.92196E-02 6.92274E-04 8.70206E-04 8.67001E+09
 -1      1986 1.58837E-02-1.00928E-03 3.10893E-02 6.46292E-04 7.53559E-04 8.94670E+09
 -1      1988 1.58837E-02-1.00928E-03 3.10893E-02 6.46292E-04 7.53559E-04 8.94670E+09
 -1      1989 1.41690E-02-1.32842E-03 3.05037E-02-2.66099E-04 7.15203E-04 8.66514E+09
 -1      1991 1.41690E-02-1.32842E-03 3.05037E-02-2.66099E-04 7.15203E-04 8.66514E+09
 -1      1992 1.13369E-02-1.11622E-03 3.07006E-02 1.04436E-03 7.80352E-04 7.85623E+09
 -1      1994 1.13369E-02-1.11622E-03 3.07006E-02 1.04436E-03 7.80352E-04 7.85623E+09
 -1      1995 1.05705E-02-2.38976E-03 2.77302E-02-4.08489E-04 2.60741E-04 6.58414E+09
 -1      1997 1.05705E-02-2.38976E-03 2.77302E-02-4.08489E-04 2.60741E-04 6.58414E+09
 -1      1998 1.30036E-02-2.96143E-03 1.99012E-02-2.06386E-05-8.56135E-05 4.94238E+09
 -1      2000 1.30036E-02-2.96143E-03 1.99012E-02-2.06386E-05-8.56135E-05 4.94238E+09
 -1      2001 1.31557E-02-1.43170E-03 1.15447E-02 1.84130E-04-3.28424E-04 3.04844E+09
 -1      2003 1.31557E-02-1.43170E-03 1.15447E-02 1.84130E-04-3.28424E-04 3.04844E+09
 -1      2004 8.45337E-03 8.81374E-04 5.88670E-03 4.56000E-04-9.29363E-04 1.03662E+09
 -1      2006 8.45337E-03 8.81374E-04 5.88670E-03 4.56000E-04-9.29363E-04 1.03662E+09
 -1      2007 3.35634E-03 1.38259E-03 4.81108E-03 5.93830E-04-1.21336E-03-9.49896E+08
 -1      2009 3.35634E-03 1.38259E-03 4.81108E-03 5.93830E-04-1.21336E-03-9.49896E+08
 -1      2010-1.31845E-03 1.38849E-04 1.06346E-02 1.47307E-04-1.42282E-03-2.76779E+09
 -1      2012-1.31845E-03 1.38849E-04 1.06346E-02 1.47307E-04-1.42282E-03-2.76779E+09
 -1      2013-6.42204E-03 2.36481E-04 2.16004E-02 3.24813E-04-1.78028E-03-4.28200E+09
 -1      2015-6.42204E-03 2.36481E-04 2.16004E-02 3.24813E-04-1.78028E-03-4.28200E+09
 -1      2016-8.65293E-03-1.61469E-04 3.04205E-02 9.68791E-04-2.05234E-03-5.37389E+09
 -1      2018-8.65293E-03-1.61469E-04 3.04205E-02 9.68791E-04-2.05234E-03-5.37389E+09
 -1      2019-5.56827E-03-5.33551E-04 3.41859E-02 4.60078E-04-2.65003E-03-5.94806E+09
 -1      2021-5.56827E-03-5.33551E-04 3.41859E-02 4.60078E-04-2.65003E-03-5.94806E+09
 -1      2022-1.15493E-03-7.19793E-04 3.42051E-02 6.40103E-04-3.56915E-03-5.93678E+09
 -1      2024-1.15493E-03-7.19793E-04 3.42051E-02 6.40103E-04-3.56915E-03-5.93678E+09
 -1      2025 1.67152E-03 1.92532E-04 3.29273E-02 4.22414E-04-4.39902E-03-5.30243E+09
 -1      2027 1.67152E-03 1.92532E-04 3.29273E-02 4.22414E-04-4.39902E-03-5.30243E+09
 -1      2028 1.82952E-03 1.21156E-03 3.02043E-02 6.96868E-05-5.47434E-03-4.03804E+09
 -1      2030 1.82952E-03 1.21156E-03 3.02043E-02 6.96868E-05-5.47434E-03-4.03804E+09
 -1      2031-9.11236E-04-2.17957E-03 2.34030E-02 3.06185E-04-5.95950E-03-2.20904E+09
 -1      2033-9.11236E-04-2.17957E-03 2.34030E-02 3.06185E-04-5.95950E-03-2.20904E+09
 -1      2034 2.99153E+09 3.31286E+05 6.57385E+08 4.61303E-04 3.99101E-05-1.14627E+10
 -1      2036 2.99153E+09 3.31286E+05 6.57385E+08 4.61303E-04 3.99101E-05-1.14627E+10
 -1      2037 1.23133E+09-1.13601E+05-4.60544E+08 5.52878E-04 5.90264E-04-1.11661E+10
 -1      2039 1.23133E+09-1.13601E+05-4.60544E+08 5.52878E-04 5.90264E-04-1.11661E+10
 -1      2040-4.19908E+08-3.17277E+05-9.94083E+08 6.30198E-04 8.70101E-04-9.90136E+09
 -1      2042-4.19908E+08-3.17277E+05-9.94083E+08 6.30198E-04 8.70101E-04-9.90136E+09
 -1      2043-1.83359E+09-2.41545E+05-1.20493E+09 1.59900E-04 1.33812E-03-8.45035E+09
 -1      2045-1.83359E+09-2.41545E+05-1.20493E+09 1.59900E-04 1.33812E-03-8.45035E+09
 -1      2046-2.96221E+09-4.66597E+05-1.43674E+09 3.30812E-04 2.24409E-03-6.55121E+09
 -1      2048-2.96221E+09-4.66597E+05-1.43674E+09 3.30812E-04 2.24409E-03-6.55121E+09
 -1      2049-3.78577E+09-3.19626E+05-1.57166E+09 3.44839E-04 3.11120E-03-4.43445E+09
 -1      2051-3.78577E+09-3.19626E+05-1.57166E+09 3.44839E-04 3.11120E-03-4.43445E+09
 -1      2052-4.25825E+09-5.45121E+05-1.63949E+09 1.61731E-04 4.12941E-03-2.14824E+09
 -1      2054-4.25825E+09-5.45121E+05-1.63949E+09 1.61731E-04 4.12941E-03-2.14824E+09
 -1      2055-4.37040E+09-3.37958E+05-1.61459E+09 3.10335E-04 4.86420E-03 1.59309E+08
 -1      2057-4.37040E+09-3.37958E+05-1.61459E+09 3.10335E-04 4.86420E-03 1.59309E+08
 -1      2058-4.12514E+09-4.97021E+05-1.50563E+09 4.47752E-05 4.95160E-03 2.37509E+09
 -1      2060-4.12514E+09-4.97021E+05-1.50563E+09 4.47752E-05 4.95160E-03 2.37509E+09
 -1      2061-3.54726E+09-2.76411E+05-1.31426E+09 4.82983E-05 4.92311E-03 4.37209E+09
 -1      2063-3.54726E+09-2.76411E+05-1.31426E+09 4.82983E-05 4.92311E-03 4.37209E+09
 -1      2064-2.67995E+09-3.51131E+05-1.05346E+09 1.13516E-04 5.17505E-03 6.04410E+09
 -1      2066-2.67995E+09-3.51131E+05-1.05346E+09 1.13516E-04 5.17505E-03 6.04410E+09
 -1      2067-1.58274E+09-1.36864E+05-7.37799E+08-7.47147E-04 5.93302E-03 7.29952E+09
 -1      2069-1.58274E+09-1.36864E+05-7.37799E+08-7.47147E-04 5.93302E-03 7.29952E+09
 -1      2070-3.27922E+08-1.47260E+05-3.87064E+08 2.82792E-04 6.30865E-03 8.07438E+09
 -1      2072-3.27922E+08-1.47260E+05-3.87064E+08 2.82792E-04 6.30865E-03 8.07438E+09
 -1      2073 1.00401E+09 4.75107E+04-2.24294E+07-1.09693E-04 5.80010E-03 8.33261E+09
 -1      2075 1.00401E+09 4.75107E+04-2.24294E+07-1.09693E-04 5.80010E-03 8.33261E+09
 -1      2076 2.32915E+09 6.72677E+04 3.33238E+08-7.73754E-04 4.99263E-03 8.07101E+09
 -1      2078 2.32915E+09 6.72677E+04 3.33238E+08-7.73754E-04 4.99263E-03 8.07101E+09
 -1      2079 3.56556E+09 2.28571E+05 6.57928E+08-1.97857E-04 3.65176E-03 7.31819E+09
 -1      2081 3.56556E+09 2.28571E+05 6.57928E+08-1.97857E-04 3.65176E-03 7.31819E+09
 -1      2082 4.63825E+09 2.43145E+05 9.31046E+08-1.02203E-03 2.29403E-03 6.13403E+09
 -1      2084 4.63825E+09 2.43145E+05 9.31046E+08-1.02203E-03 2.29403E-03 6.13403E+09
 -1      2085 5.48407E+09 3.58846E+05 1.13533E+09-5.71683E-04 1.23894E-03 4.60556E+09
 -1      2087 5.48407E+09 3.58846E+05 1.13533E+09-5.71683E-04 1.23894E-03 4.60556E+09
 -1      2088 6.05551E+09 3.39162E+05 1.25742E+09-5.54500E-04 1.26928E-04 2.84228E+09
 -1      2090 6.05551E+09 3.39162E+05 1.25742E+09-5.54500E-04 1.26928E-04 2.84228E+09
 -1      2091 6.32401E+09 4.04156E+05 1.28912E+09-5.13925E-04-6.61582E-04 9.69230E+08
 -1      2093 6.32401E+09 4.04156E+05 1.28912E+09-5.13925E-04-6.61582E-04 9.69230E+08
 -1      2094 6.28163E+09 3.32172E+05 1.22755E+09-4.05568E-04-1.44038E-03-8.80171E+08
 -1      2096 6.28163E+09 3.32172E+05 1.22755E+09-4.05568E-04-1.44038E-03-8.80171E+08
 -1      2097 5.94203E+09 3.51662E+05 1.07566E+09-7.45498E-04-2.23537E-03-2.57250E+09
 -1      2099 5.94203E+09 3.51662E+05 1.07566E+09-7.45498E-04-2.23537E-03-2.57250E+09
 -1      2100 5.33944E+09 2.23782E+05 8.41615E+08-5.68259E-04-2.87748E-03-3.98193E+09
 -1      2102 5.33944E+09 2.23782E+05 8.41615E+08-5.68259E-04-2.87748E-03-3.98193E+09
 -1      2103 4.52726E+09 2.11407E+05 5.38986E+08-1.20006E-04-3.40362E-03-4.99801E+09
 -1      2105 4.52726E+09 2.11407E+05 5.38986E+08-1.20006E-04-3.40362E-03-4.99801E+09
 -1      2106 3.57514E+09 4.26715E+04 1.84317E+08-3.03796E-04-3.64083E-03-5.53251E+09
 -1      2108 3.57514E+09 4.26715E+04 1.84317E+08-3.03796E-04-3.64083E-03-5.53251E+09
 -1      2109 2.56430E+09 1.00651E+04-2.01287E+08-4.13253E-04-3.87537E-03-5.52212E+09
 -1      2111 2.56430E+09 1.00651E+04-2.01287E+08-4.13253E-04-3.87537E-03-5.52212E+09
 -1      2112 1.58706E+09-1.56693E+05-6.02058E+08-3.47066E-04-4.24512E-03-4.94010E+09
 -1      2114 1.58706E+09-1.56693E+05-6.02058E+08-3.47066E-04-4.24512E-03-4.94010E+09
 -1      2115 7.49038E+08-2.41722E+05-9.79365E+08-5.72001E-04-4.46775E-03-3.77435E+09
 -1      2117 7.49038E+08-2.41722E+05-9.79365E+08-5.72001E-04-4.46775E-03-3.77435E+09
 -1      2118 1.73364E+08-2.40212E+05-1.28355E+09-2.75541E-05-4.77195E-03-2.08813E+09
 -1      2120 1.73364E+08-2.40212E+05-1.28355E+09-2.75541E-05-4.77195E-03-2.08813E+09
 -1      2121 5.70383E+09 1.99323E+08-4.13744E+06 1.16576E+09-1.39336E+07-1.74745E+08
 -1      2123 5.70383E+09 1.99323E+08-4.13744E+06 1.16576E+09-1.39336E+07-1.74745E+08
 -1      2124 2.63484E+09-1.70634E+08 2.82395E+06 1.26516E+09 1.54056E+08 7.52527E+07
 -1      2126 2.63484E+09-1.70634E+08 2.82395E+06 1.26516E+09 1.54056E+08 7.52527E+07
 -1      2127-3.12902E+08 8.88372E+07 4.71748E+06 1.26284E+09 2.12918E+08-3.86659E+07
 -1      2129-3.12902E+08 8.88372E+07 4.71748E+06 1.26284E+09 2.12918E+08-3.86659E+07
 -1      2130-2.90897E+09 7.48329E+07 4.10398E+06 1.04850E+09 2.72667E+08 1.06486E+07
 -1      2132-2.90897E+09 7.48329E+07 4.10398E+06 1.04850E+09 2.72667E+08 1.06486E+07
 -1      2133-5.03315E+09 7.81492E+07 6.27642E+06 8.12917E+08 3.28627E+08-9.44259E+06
 -1      2135-5.03315E+09 7.81492E+07 6.27642E+06 8.12917E+08 3.28627E+08-9.44259E+06
 -1      2136-6.57599E+09 9.33679E+07 5.89419E+06 5.54838E+08 3.54427E+08 8.67860E+05
 -1      2138-6.57599E+09 9.33679E+07 5.89419E+06 5.54838E+08 3.54427E+08 8.67860E+05
 -1      2139-7.48302E+09 9.58015E+07 6.89560E+06 2.71463E+08 3.74034E+08-1.88757E+06
 -1      2141-7.48302E+09 9.58015E+07 6.89560E+06 2.71463E+08 3.74034E+08-1.88757E+06
 -1      2142-7.72142E+09 9.45645E+07 6.20728E+06-1.35377E+07 3.65959E+08 1.30733E+06
 -1      2144-7.72142E+09 9.45645E+07 6.20728E+06-1.35377E+07 3.65959E+08 1.30733E+06
 -1      2145-7.30035E+09 8.82433E+07 6.24452E+06-2.87037E+08 3.45100E+08 1.69496E+06
 -1      2147-7.30035E+09 8.82433E+07 6.24452E+06-2.87037E+08 3.45100E+08 1.69496E+06
 -1      2148-6.26473E+09 7.67071E+07 5.09212E+06-5.33748E+08 3.02793E+08 3.32483E+06
 -1      2150-6.26473E+09 7.67071E+07 5.09212E+06-5.33748E+08 3.02793E+08 3.32483E+06
 -1      2151-4.69409E+09 6.12391E+07 4.36660E+06-7.40291E+08 2.48130E+08 4.03020E+06
 -1      2153-4.69409E+09 6.12391E+07 4.36660E+06-7.40291E+08 2.48130E+08 4.03020E+06
 -1      2154-2.69773E+09 4.22831E+07 2.83947E+06-8.95629E+08 1.80065E+08 4.89080E+06
 -1      2156-2.69773E+09 4.22831E+07 2.83947E+06-8.95629E+08 1.80065E+08 4.89080E+06
 -1      2157-4.08112E+08 2.13657E+07 1.65967E+06-9.91798E+08 1.05645E+08 5.19785E+06
 -1      2159-4.08112E+08 2.13657E+07 1.65967E+06-9.91798E+08 1.05645E+08 5.19785E+06
 -1      2160 2.02716E+09-5.21123E+05 1.36634E+04-1.02446E+09 2.74719E+07 5.33710E+06
 -1      2162 2.02716E+09-5.21123E+05 1.36634E+04-1.02446E+09 2.74719E+07 5.33710E+06
 -1      2163 4.45454E+09-2.17767E+07-1.24727E+06-9.93182E+08-4.82804E+07 5.03867E+06
 -1      2165 4.45454E+09-2.17767E+07-1.24727E+06-9.93182E+08-4.82804E+07 5.03867E+06
 -1      2166 6.72399E+09-4.12700E+07-2.68216E+06-9.01539E+08-1.17923E+08 4.49604E+06
 -1      2168 6.72399E+09-4.12700E+07-2.68216E+06-9.01539E+08-1.17923E+08 4.49604E+06
 -1      2169 8.69843E+09-5.76078E+07-3.65443E+06-7.56895E+08-1.76388E+08 3.62198E+06
 -1      2171 8.69843E+09-5.76078E+07-3.65443E+06-7.56895E+08-1.76388E+08 3.62198E+06
 -1      2172 1.02623E+10-6.98756E+07-4.57330E+06-5.69972E+08-2.20698E+08 2.55988E+06
 -1      2174 1.02623E+10-6.98756E+07-4.57330E+06-5.69972E+08-2.20698E+08 2.55988E+06
 -1      2175 1.13292E+10-7.71786E+07-4.96844E+06-3.54259E+08-2.47521E+08 1.30461E+06
 -1      2177 1.13292E+10-7.71786E+07-4.96844E+06-3.54259E+08-2.47521E+08 1.30461E+06
 -1      2178 1.18468E+10-7.90668E+07-5.17640E+06-1.25129E+08-2.55853E+08-4.64429E+02
 -1      2180 1.18468E+10-7.90668E+07-5.17640E+06-1.25129E+08-2.55853E+08-4.64429E+02
 -1      2181 1.18013E+10-7.53734E+07-4.85008E+06 1.00952E+08-2.44503E+08-1.34136E+06
 -1      2183 1.18013E+10-7.53734E+07-4.85008E+06 1.00952E+08-2.44503E+08-1.34136E+06
 -1      2184 1.12180E+10-6.61497E+07-4.31796E+06 3.07630E+08-2.15206E+08-2.56429E+06
 -1      2186 1.12180E+10-6.61497E+07-4.31796E+06 3.07630E+08-2.15206E+08-2.56429E+06
 -1      2187 1.01603E+10-5.22219E+07-3.29746E+06 4.79335E+08-1.68722E+08-3.65175E+06
 -1      2189 1.01603E+10-5.22219E+07-3.29746E+06 4.79335E+08-1.68722E+08-3.65175E+06
 -1      2190 8.72637E+09-3.34404E+07-2.17943E+06 6.02426E+08-1.09882E+08-4.55833E+06
 -1      2192 8.72637E+09-3.34404E+07-2.17943E+06 6.02426E+08-1.09882E+08-4.55833E+06
 -1      2193 7.04315E+09-1.33625E+07-6.36923E+05 6.66654E+08-4.04192E+07-4.92874E+06
 -1      2195 7.04315E+09-1.33625E+07-6.36923E+05 6.66654E+08-4.04192E+07-4.92874E+06
 -1      2196 5.25992E+09 1.15487E+07 7.14750E+05 6.63766E+08 3.16478E+07-5.86535E+06
 -1      2198 5.25992E+09 1.15487E+07 7.14750E+05 6.63766E+08 3.16478E+07-5.86535E+06
 -1      2199 3.53797E+09 3.93024E+07 2.59431E+06 5.85517E+08 1.04788E+08-4.03767E+06
 -1      2201 3.53797E+09 3.93024E+07 2.59431E+06 5.85517E+08 1.04788E+08-4.03767E+06
 -1      2202 2.03674E+09 3.07064E+07 3.78429E+06 4.61770E+08 1.68871E+08-8.44584E+06
 -1      2204 2.03674E+09 3.07064E+07 3.78429E+06 4.61770E+08 1.68871E+08-8.44584E+06
 -1      2205 8.92267E+08 7.01508E+07 4.96776E+06 3.09255E+08 2.17380E+08 2.92875E+06
 -1      2207 8.92267E+08 7.01508E+07 4.96776E+06 3.09255E+08 2.17380E+08 2.92875E+06
 -1      2208 5.70383E+09 1.99323E+08-4.13744E+06-1.16576E+09 1.39336E+07-1.74745E+08
 -1      2210 5.70383E+09 1.99323E+08-4.13744E+06-1.16576E+09 1.39336E+07-1.74745E+08
 -1      2211 2.63484E+09-1.70634E+08 2.82395E+06-1.26516E+09-1.54056E+08 7.52527E+07
 -1      2213 2.63484E+09-1.70634E+08 2.82395E+06-1.26516E+09-1.54056E+08 7.52527E+07
 -1      2214-3.12902E+08 8.88372E+07 4.71748E+06-1.26284E+09-2.12918E+08-3.86659E+07
 -1      2216-3.12902E+08 8.88372E+07 4.71748E+06-1.26284E+09-2.12918E+08-3.86659E+07
 -1      2217-2.90897E+09 7.48329E+07 4.10398E+06-1.04850E+09-2.72667E+08 1.06486E+07
 -1      2219-2.90897E+09 7.48329E+07 4.10398E+06-1.04850E+09-2.72667E+08 1.06486E+07
 -1      2220-5.03315E+09 7.81492E+07 6.27642E+06-8.12917E+08-3.28627E+08-9.44259E+06
 -1      2222-5.03315E+09 7.81492E+07 6.27642E+06-8.12917E+08-3.28627E+08-9.44259E+06
 -1      2223-6.57599E+09 9.33679E+07 5.89419E+06-5.54838E+08-3.54427E+08 8.67860E+05
 -1      2225-6.57599E+09 9.33679E+07 5.89419E+06-5.54838E+08-3.54427E+08 8.67860E+05
 -1      2226-7.48302E+09 9.58015E+07 6.89560E+06-2.71463E+08-3.74034E+08-1.88757E+06
 -1      2228-7.48302E+09 9.58015E+07 6.89560E+06-2.71463E+08-3.74034E+08-1.88757E+06
 -1      2229-7.72142E+09 9.45645E+07 6.20728E+06 1.35377E+07-3.65959E+08 1.30733E+06
 -1      2231-7.72142E+09 9.45645E+07 6.20728E+06 1.35377E+07-3.65959E+08 1.30733E+06
 -1      2232-7.30035E+09 8.82433E+07 6.24452E+06 2.87037E+08-3.45100E+08 1.69496E+06
 -1      2234-7.30035E+09 8.82433E+07 6.24452E+06 2.87037E+08-3.45100E+08 1.69496E+06
 -1      2235-6.26473E+09 7.67071E+07 5.09212E+06 5.33748E+08-3.02793E+08 3.32483E+06
 -1      2237-6.26473E+09 7.67071E+07 5.09212E+06 5.33748E+08-3.02793E+08 3.32483E+06
 -1      2238-4.69409E+09 6.12391E+07 4.36660E+06 7.40291E+08-2.48130E+08 4.03020E+06
 -1      2240-4.69409E+09 6.12391E+07 4.36660E+06 7.40291E+08-2.48130E+08 4.03020E+06
 -1      2241-2.69773E+09 4.22831E+07 2.83947E+06 8.95629E+08-1.80065E+08 4.89080E+06
 -1      2243-2.69773E+09 4.22831E+07 2.83947E+06 8.95629E+08-1.80065E+08 4.89080E+06
 -1      2244-4.08112E+08 2.13657E+07 1.65967E+06 9.91798E+08-1.05645E+08 5.19785E+06
 -1      2246-4.08112E+08 2.13657E+07 1.65967E+06 9.91798E+08-1.05645E+08 5.19785E+06
 -1      2247 2.02716E+09-5.21123E+05 1.36634E+04 1.02446E+09-2.74719E+07 5.33710E+06
 -1      2249 2.02716E+09-5.21123E+05 1.36634E+04 1.02446E+09-2.74719E+07 5.33710E+06
 -1      2250 4.45454E+09-2.17767E+07-1.24727E+06 9.93182E+08 4.82804E+07 5.03867E+06
 -1      2252 4.45454E+09-2.17767E+07-1.24727E+06 9.93182E+08 4.82804E+07 5.03867E+06
 -1      2253 6.72399E+09-4.12700E+07-2.68216E+06 9.01539E+08 1.17923E+08 4.49604E+06
 -1      2255 6.72399E+09-4.12700E+07-2.68216E+06 9.01539E+08 1.17923E+08 4.49604E+06
 -1      2256 8.69843E+09-5.76078E+07-3.65443E+06 7.56895E+08 1.76388E+08 3.62198E+06
 -1      2258 8.69843E+09-5.76078E+07-3.65443E+06 7.56895E+08 1.76388E+08 3.62198E+06
 -1      2259 1.02623E+10-6.98756E+07-4.57330E+06 5.69972E+08 2.20698E+08 2.55988E+06
 -1      2261 1.02623E+10-6.98756E+07-4.57330E+06 5.69972E+08 2.20698E+08 2.55988E+06
 -1      2262 1.13292E+10-7.71786E+07-4.96844E+06 3.54259E+08 2.47521E+08 1.30461E+06
 -1      2264 1.13292E+10-7.71786E+07-4.96844E+06 3.54259E+08 2.47521E+08 1.30461E+06
 -1      2265 1.18468E+10-7.90668E+07-5.17640E+06 1.25129E+08 2.55853E+08-4.64429E+02
 -1      2267 1.18468E+10-7.90668E+07-5.17640E+06 1.25129E+08 2.55853E+08-4.64429E+02
 -1      2268 1.18013E+10-7.53734E+07-4.85008E+06-1.00952E+08 2.44503E+08-1.34136E+06
 -1      2270 1.18013E+10-7.53734E+07-4.85008E+06-1.00952E+08 2.44503E+08-1.34136E+06
 -1      2271 1.12180E+10-6.61497E+07-4.31796E+06-3.07630E+08 2.15206E+08-2.56429E+06
 -1      2273 1.12180E+10-6.61497E+07-4.31796E+06-3.07630E+08 2.15206E+08-2.56429E+06
 -1      2274 1.01603E+10-5.22219E+07-3.29746E+06-4.79335E+08 1.68722E+08-3.65175E+06
 -1      2276 1.01603E+10-5.22219E+07-3.29746E+06-4.79335E+08 1.68722E+08-3.65175E+06
 -1      2277 8.72637E+09-3.34404E+07-2.17943E+06-6.02426E+08 1.09882E+08-4.55833E+06
 -1      2279 8.72637E+09-3.34404E+07-2.17943E+06-6.02426E+08 1.09882E+08-4.55833E+06
 -1      2280 7.04315E+09-1.33625E+07-6.36923E+05-6.66654E+08 4.04192E+07-4.92874E+06
 -1      2282 7.04315E+09-1.33625E+07-6.36923E+05-6.66654E+08 4.04192E+07-4.92874E+06
 -1      2283 5.25992E+09 1.15487E+07 7.14750E+05-6.63766E+08-3.16478E+07-5.86535E+06
 -1      2285 5.25992E+09 1.15487E+07 7.14750E+05-6.63766E+08-3.16478E+07-5.86535E+06
 -1      2286 3.53797E+09 3.93024E+07 2.59431E+06-5.85517E+08-1.04788E+08-4.03767E+06
 -1      2288 3.53797E+09 3.93024E+07 2.59431E+06-5.85517E+08-1.04788E+08-4.03767E+06
 -1      2289 2.03674E+09 3.07064E+07 3.78429E+06-4.61770E+08-1.68871E+08-8.44584E+06
 -1      2291 2.03674E+09 3.07064E+07 3.78429E+06-4.61770E+08-1.68871E+08-8.44584E+06
 -1      2292 8.92267E+08 7.01508E+07 4.96776E+06-3.09255E+08-2.17380E+08 2.92875E+06
 -1      2294 8.92267E+08 7.01508E+07 4.96776E+06-3.09255E+08-2.17380E+08 2.92875E+06
 -3
    1PSTEP                        55           1           1          
    1PGM                1.000000E+00                                  
    1PGK                1.163915E+07                                  
    1PHID                         -1                                  
    1PSUBC                         0                                  
    1PMODE                        14                                  
  100CL  114 542.9762473         930                     2   14MODAL      1
 -4  FORC        4    1
 -5  F1          1    2    1    0
 -5  F2          1    2    2    0
 -5  F3          1    2    3    0
 -5  ALL         1    2    0    0    1ALL
 -1       404 2.39669E+06-1.77934E+05 6.04507E+05
 -1       406 1.05224E+05-6.24376E+05 6.04507E+05
 -1       407-2.51477E+04-6.06387E+00-8.08635E+04
 -1       409-2.51477E+04-6.06387E+00-8.08635E+04
 -1       410-3.63934E+05 2.40822E-05 5.45354E+05
 -1       412-3.63934E+05-3.56114E-05 4.24769E+05
 -1       413 2.86500E+05-9.46455E+04-7.09454E+05
 -1       415 2.86500E+05 9.46455E+04-7.09454E+05
 -1       424 3.16676E+06 7.84808E-06-4.42673E+05
 -1       426 1.39031E+04 5.75088E-06-3.26080E+05
 -1       427 4.19296E+06 9.15121E+04 2.69670E+06
 -1       429 4.19296E+06-9.15121E+04 2.69670E+06
 -1       438-2.51477E+04 6.06387E+00-8.08635E+04
 -1       440-2.51477E+04 6.06387E+00-8.08635E+04
 -1       441 2.39669E+06 1.77934E+05 6.04507E+05
 -1       443 1.05224E+05 6.24376E+05 6.04507E+05
 -1       444-4.19296E+06-9.15121E+04 2.69670E+06
 -1       446-4.19296E+06 9.15121E+04 2.69670E+06
 -1       447-3.16676E+06-1.20413E-06-4.42673E+05
 -1       449-1.39031E+04-8.24672E-07-3.26080E+05
 -1       458-2.86500E+05 9.46455E+04-7.09454E+05
 -1       460-2.86500E+05-9.46455E+04-7.09454E+05
 -1       461 3.63934E+05-1.96098E-05 5.45354E+05
 -1       463 3.63934E+05 2.83061E-05 4.24769E+05
 -1       472-2.39669E+06-1.77934E+05 6.04507E+05
 -1       474-1.05224E+05-6.24376E+05 6.04507E+05
 -1       475 2.51477E+04-6.06387E+00-8.08635E+04
 -1       477 2.51477E+04-6.06387E+00-8.08635E+04
 -1       478 2.51477E+04 6.06387E+00-8.08635E+04
 -1       480 2.51477E+04 6.06387E+00-8.08635E+04
 -1       481-2.39669E+06 1.77934E+05 6.04507E+05
 -1       483-1.05224E+05 6.24376E+05 6.04507E+05
 -1       484-3.74185E+03 6.94974E+02-3.50192E+04
 -1       486-3.74185E+03 6.94974E+02-3.50192E+04
 -1       487-6.32711E+03 4.35604E+02-7.46228E+04
 -1       489-6.32711E+03 4.35604E+02-7.46228E+04
 -1       490-7.15000E+03-9.24658E+01-1.12338E+05
 -1       492-7.15000E+03-9.24658E+01-1.12338E+05
 -1       493-6.16201E+03-4.34931E+02-1.44734E+05
 -1       495-6.16201E+03-4.34931E+02-1.44734E+05
 -1       496-3.61906E+03-7.21233E+02-1.70667E+05
 -1       498-3.61906E+03-7.21233E+02-1.70667E+05
 -1       499 1.20151E+02-9.36879E+02-1.88017E+05
 -1       501 1.20151E+02-9.36879E+02-1.88017E+05
 -1       502 4.66221E+03-1.05959E+03-1.95730E+05
 -1       504 4.66221E+03-1.05959E+03-1.95730E+05
 -1       505 9.58150E+03-1.09088E+03-1.93124E+05
 -1       507 9.58150E+03-1.09088E+03-1.93124E+05
 -1       508 1.44447E+04-1.03056E+03-1.80270E+05
 -1       510 1.44447E+04-1.03056E+03-1.80270E+05
 -1       511 1.88364E+04-8.85044E+02-1.57853E+05
 -1       513 1.88364E+04-8.85044E+02-1.57853E+05
 -1       514 2.23817E+04-6.65389E+02-1.27187E+05
 -1       516 2.23817E+04-6.65389E+02-1.27187E+05
 -1       517 2.47672E+04-3.86769E+02-9.01109E+04
 -1       519 2.47672E+04-3.86769E+02-9.01109E+04
 -1       520 2.57583E+04-6.76195E+01-4.88811E+04
 -1       522 2.57583E+04-6.76195E+01-4.88811E+04
 -1       523 2.52116E+04 2.71530E+02-6.03072E+03
 -1       525 2.52116E+04 2.71530E+02-6.03072E+03
 -1       526 2.30817E+04 6.09303E+02 3.57894E+04
 -1       528 2.30817E+04 6.09303E+02 3.57894E+04
 -1       529 1.94221E+04 9.24816E+02 7.39766E+04
 -1       531 1.94221E+04 9.24816E+02 7.39766E+04
 -1       532 1.43797E+04 1.19898E+03 1.06139E+05
 -1       534 1.43797E+04 1.19898E+03 1.06139E+05
 -1       535 8.18381E+03 1.41569E+03 1.30247E+05
 -1       537 8.18381E+03 1.41569E+03 1.30247E+05
 -1       538 1.12927E+03 1.56289E+03 1.44758E+05
 -1       540 1.12927E+03 1.56289E+03 1.44758E+05
 -1       541-6.44383E+03 1.63329E+03 1.48719E+05
 -1       543-6.44383E+03 1.63329E+03 1.48719E+05
 -1       544-1.41740E+04 1.62494E+03 1.41825E+05
 -1       546-1.41740E+04 1.62494E+03 1.41825E+05
 -1       547-2.17036E+04 1.54128E+03 1.24440E+05
 -1       549-2.17036E+04 1.54128E+03 1.24440E+05
 -1       550-2.87037E+04 1.39119E+03 9.75824E+04
 -1       552-2.87037E+04 1.39119E+03 9.75824E+04
 -1       553-3.48983E+04 1.18801E+03 6.28617E+04
 -1       555-3.48983E+04 1.18801E+03 6.28617E+04
 -1       556-4.00848E+04 9.50240E+02 2.23830E+04
 -1       558-4.00848E+04 9.50240E+02 2.23830E+04
 -1       559-4.41499E+04 6.96915E+02-2.13625E+04
 -1       561-4.41499E+04 6.96915E+02-2.13625E+04
 -1       562-4.70841E+04 4.49309E+02-6.56766E+04
 -1       564-4.70841E+04 4.49309E+02-6.56766E+04
 -1       565-4.89793E+04 2.51723E+02-1.07708E+05
 -1       567-4.89793E+04 2.51723E+02-1.07708E+05
 -1       568-4.99899E+04 8.05451E+01-1.44755E+05
 -1       570-4.99899E+04 8.05451E+01-1.44755E+05
 -1       571-5.04251E+04-1.19770E+01-1.48633E+05
 -1       573-5.04251E+04-1.19770E+01-1.48633E+05
 -1       574-3.66070E+06-8.93818E-06-9.60807E+05
 -1       576-3.66070E+06 3.68098E-06-8.52092E+05
 -1       577 3.64671E+06 8.53289E+04 8.26688E+05
 -1       579 3.64671E+06-8.53289E+04 8.26688E+05
 -1       588-3.73247E+06-3.83326E-05 9.48411E+05
 -1       590-3.73247E+06 1.91161E-05 8.34020E+05
 -1       591 3.70960E+06-8.97839E+04-1.05857E+06
 -1       593 3.70960E+06 8.97839E+04-1.05857E+06
 -1       602-3.34512E+06-3.60716E-05 4.71546E+05
 -1       604-3.34512E+06 4.82589E-05 3.17938E+05
 -1       605 3.31999E+06-1.20564E+05-6.46484E+05
 -1       607 3.31999E+06 1.20564E+05-6.46484E+05
 -1       616-2.87947E+06-4.65183E-05 9.59906E+05
 -1       618-2.87947E+06 5.24424E-05 7.86870E+05
 -1       619 2.85788E+06-1.35813E+05-1.19902E+06
 -1       621 2.85788E+06 1.35813E+05-1.19902E+06
 -1       630-2.22039E+06-5.77952E-05 9.90582E+05
 -1       632-2.22039E+06 5.63367E-05 7.68065E+05
 -1       633 2.20718E+06-1.74650E+05-1.26442E+06
 -1       635 2.20718E+06 1.74650E+05-1.26442E+06
 -1       644-1.50534E+06-6.56575E-05 1.15048E+06
 -1       646-1.50534E+06 6.38333E-05 9.17936E+05
 -1       647 1.50425E+06-1.82523E+05-1.45929E+06
 -1       649 1.50425E+06 1.82523E+05-1.45929E+06
 -1       658-7.26002E+05-6.72008E-05 1.17235E+06
 -1       660-7.26002E+05 7.20803E-05 9.21534E+05
 -1       661 7.39559E+05-1.96862E+05-1.48962E+06
 -1       663 7.39559E+05 1.96862E+05-1.48962E+06
 -1       672 6.16585E+04-6.99715E-05 1.16763E+06
 -1       674 6.16585E+04 7.08362E-05 9.26459E+05
 -1       675-3.22963E+04-1.89293E+05-1.48318E+06
 -1       677-3.22963E+04 1.89293E+05-1.48318E+06
 -1       686 8.16855E+05-6.92297E-05 1.08339E+06
 -1       688 8.16855E+05 6.80817E-05 8.54570E+05
 -1       689-7.71890E+05-1.79601E+05-1.37444E+06
 -1       691-7.71890E+05 1.79601E+05-1.37444E+06
 -1       700 1.49856E+06-6.75326E-05 9.49714E+05
 -1       702 1.49856E+06 6.78206E-05 7.52628E+05
 -1       703-1.43950E+06-1.54690E+05-1.20335E+06
 -1       705-1.43950E+06 1.54690E+05-1.20335E+06
 -1       714 2.06857E+06-6.71632E-05 7.61017E+05
 -1       716 2.06857E+06 7.21559E-05 6.01246E+05
 -1       717-1.99812E+06-1.25402E+05-9.60471E+05
 -1       719-1.99812E+06 1.25402E+05-9.60471E+05
 -1       728 2.49682E+06-7.94573E-05 5.35965E+05
 -1       730 2.49682E+06 6.58189E-05 4.25278E+05
 -1       731-2.41866E+06-8.68764E+04-6.71902E+05
 -1       733-2.41866E+06 8.68764E+04-6.71902E+05
 -1       742 2.76048E+06-8.81981E-05 2.84055E+05
 -1       744 2.76048E+06 6.12338E-05 2.25114E+05
 -1       745-2.67904E+06-4.62618E+04-3.47936E+05
 -1       747-2.67904E+06 4.62618E+04-3.47936E+05
 -1       756 2.84788E+06-7.15230E-05 2.31259E+04
 -1       758 2.84788E+06 7.56928E-05 2.00608E+04
 -1       759-2.76802E+06-2.40574E+03-1.31728E+04
 -1       761-2.76802E+06 2.40574E+03-1.31728E+04
 -1       770 2.75737E+06-6.39575E-05-2.31880E+05
 -1       772 2.75737E+06 6.59720E-05-1.82088E+05
 -1       773-2.68411E+06 3.90806E+04 3.14690E+05
 -1       775-2.68411E+06-3.90806E+04 3.14690E+05
 -1       784 2.49906E+06-4.59527E-05-4.64580E+05
 -1       786 2.49906E+06 5.25102E-05-3.65201E+05
 -1       787-2.43725E+06 7.80007E+04 6.13163E+05
 -1       789-2.43725E+06-7.80007E+04 6.13163E+05
 -1       798 2.09315E+06-2.13793E-05-6.60316E+05
 -1       800 2.09315E+06 4.58999E-05-5.20380E+05
 -1       801-2.04715E+06 1.09833E+05 8.64720E+05
 -1       803-2.04715E+06-1.09833E+05 8.64720E+05
 -1       812 1.56947E+06-1.60045E-05-8.07089E+05
 -1       814 1.56947E+06 2.74954E-05-6.35817E+05
 -1       815-1.54292E+06 1.34429E+05 1.05255E+06
 -1       817-1.54292E+06-1.34429E+05 1.05255E+06
 -1       826 9.65405E+05-9.15898E-06-8.94659E+05
 -1       828 9.65405E+05 8.57345E-06-7.05609E+05
 -1       829-9.61019E+05 1.48382E+05 1.16481E+06
 -1       831-9.61019E+05-1.48382E+05 1.16481E+06
 -1       840 3.23505E+05 5.27745E-06-9.18283E+05
 -1       842 3.23505E+05-7.33578E-06-7.23854E+05
 -1       843-3.42901E+05 1.52605E+05 1.19380E+06
 -1       845-3.42901E+05-1.52605E+05 1.19380E+06
 -1       854-3.10323E+05 2.10735E-05-8.74391E+05
 -1       856-3.10323E+05-2.07087E-05-6.90087E+05
 -1       857 2.66673E+05 1.44658E+05 1.13662E+06
 -1       859 2.66673E+05-1.44658E+05 1.13662E+06
 -1       868-8.91190E+05 2.96571E-05-7.67316E+05
 -1       870-8.91190E+05-3.28266E-05-6.05000E+05
 -1       871 8.23950E+05 1.27399E+05 9.96469E+05
 -1       873 8.23950E+05-1.27399E+05 9.96469E+05
 -1       882-1.37508E+06 3.52755E-05-6.00139E+05
 -1       884-1.37508E+06-4.15540E-05-4.74502E+05
 -1       885 1.28597E+06 9.86111E+04 7.80033E+05
 -1       887 1.28597E+06-9.86111E+04 7.80033E+05
 -1       896-1.72589E+06 4.79583E-05-3.86240E+05
 -1       898-1.72589E+06-3.83049E-05-3.04551E+05
 -1       899 1.61749E+06 6.41170E+04 5.00536E+05
 -1       901 1.61749E+06-6.41170E+04 5.00536E+05
 -1       910-1.91218E+06 5.51539E-05-1.34259E+05
 -1       912-1.91218E+06-4.15109E-05-1.08647E+05
 -1       913 1.78774E+06 2.01018E+04 1.73714E+05
 -1       915 1.78774E+06-2.01018E+04 1.73714E+05
 -1       924-1.91330E+06 5.33340E-05 1.38516E+05
 -1       926-1.91330E+06-4.72813E-05 1.10284E+05
 -1       927 1.77641E+06-2.21591E+04-1.84829E+05
 -1       929 1.77641E+06 2.21591E+04-1.84829E+05
 -1       938-1.72141E+06 4.82507E-05 4.11173E+05
 -1       940-1.72141E+06-4.17491E-05 3.16079E+05
 -1       941 1.57573E+06-7.46374E+04-5.40650E+05
 -1       943 1.57573E+06 7.46374E+04-5.40650E+05
 -1       952-1.34833E+06 5.00697E-05 6.96199E+05
 -1       954-1.34833E+06-3.73590E-05 5.53832E+05
 -1       955 1.19719E+06-1.11741E+05-9.16461E+05
 -1       957 1.19719E+06 1.11741E+05-9.16461E+05
 -1       966-8.37520E+05 6.42336E-05 8.70270E+05
 -1       968-8.37520E+05-3.81836E-05 6.79305E+05
 -1       969 6.83536E+05-1.49886E+05-1.17285E+06
 -1       971 6.83536E+05 1.49886E+05-1.17285E+06
 -1       980 4.27412E+06-5.04324E+05-3.21912E+04
 -1       982 4.06219E+05-3.57041E+05-3.21912E+04
 -1       983-5.04251E+04 1.19770E+01-1.48633E+05
 -1       985-5.04251E+04 1.19770E+01-1.48633E+05
 -1       986-3.74185E+03-6.94974E+02-3.50192E+04
 -1       988-3.74185E+03-6.94974E+02-3.50192E+04
 -1       989-6.32711E+03-4.35604E+02-7.46228E+04
 -1       991-6.32711E+03-4.35604E+02-7.46228E+04
 -1       992-7.15000E+03 9.24658E+01-1.12338E+05
 -1       994-7.15000E+03 9.24658E+01-1.12338E+05
 -1       995-6.16201E+03 4.34931E+02-1.44734E+05
 -1       997-6.16201E+03 4.34931E+02-1.44734E+05
 -1       998-3.61906E+03 7.21233E+02-1.70667E+05
 -1      1000-3.61906E+03 7.21233E+02-1.70667E+05
 -1      1001 1.20151E+02 9.36879E+02-1.88017E+05
 -1      1003 1.20151E+02 9.36879E+02-1.88017E+05
 -1      1004 4.66221E+03 1.05959E+03-1.95730E+05
 -1      1006 4.66221E+03 1.05959E+03-1.95730E+05
 -1      1007 9.58150E+03 1.09088E+03-1.93124E+05
 -1      1009 9.58150E+03 1.09088E+03-1.93124E+05
 -1      1010 1.44447E+04 1.03056E+03-1.80270E+05
 -1      1012 1.44447E+04 1.03056E+03-1.80270E+05
 -1      1013 1.88364E+04 8.85044E+02-1.57853E+05
 -1      1015 1.88364E+04 8.85044E+02-1.57853E+05
 -1      1016 2.23817E+04 6.65389E+02-1.27187E+05
 -1      1018 2.23817E+04 6.65389E+02-1.27187E+05
 -1      1019 2.47672E+04 3.86769E+02-9.01109E+04
 -1      1021 2.47672E+04 3.86769E+02-9.01109E+04
 -1      1022 2.57583E+04 6.76195E+01-4.88811E+04
 -1      1024 2.57583E+04 6.76195E+01-4.88811E+04
 -1      1025 2.52116E+04-2.71530E+02-6.03072E+03
 -1      1027 2.52116E+04-2.71530E+02-6.03072E+03
 -1      1028 2.30817E+04-6.09303E+02 3.57894E+04
 -1      1030 2.30817E+04-6.09303E+02 3.57894E+04
 -1      1031 1.94221E+04-9.24816E+02 7.39766E+04
 -1      1033 1.94221E+04-9.24816E+02 7.39766E+04
 -1      1034 1.43797E+04-1.19898E+03 1.06139E+05
 -1      1036 1.43797E+04-1.19898E+03 1.06139E+05
 -1      1037 8.18381E+03-1.41569E+03 1.30247E+05
 -1      1039 8.18381E+03-1.41569E+03 1.30247E+05
 -1      1040 1.12927E+03-1.56289E+03 1.44758E+05
 -1      1042 1.12927E+03-1.56289E+03 1.44758E+05
 -1      1043-6.44383E+03-1.63329E+03 1.48719E+05
 -1      1045-6.44383E+03-1.63329E+03 1.48719E+05
 -1      1046-1.41740E+04-1.62494E+03 1.41825E+05
 -1      1048-1.41740E+04-1.62494E+03 1.41825E+05
 -1      1049-2.17036E+04-1.54128E+03 1.24440E+05
 -1      1051-2.17036E+04-1.54128E+03 1.24440E+05
 -1      1052-2.87037E+04-1.39119E+03 9.75824E+04
 -1      1054-2.87037E+04-1.39119E+03 9.75824E+04
 -1      1055-3.48983E+04-1.18801E+03 6.28617E+04
 -1      1057-3.48983E+04-1.18801E+03 6.28617E+04
 -1      1058-4.00848E+04-9.50240E+02 2.23830E+04
 -1      1060-4.00848E+04-9.50240E+02 2.23830E+04
 -1      1061-4.41499E+04-6.96915E+02-2.13625E+04
 -1      1063-4.41499E+04-6.96915E+02-2.13625E+04
 -1      1064-4.70841E+04-4.49309E+02-6.56766E+04
 -1      1066-4.70841E+04-4.49309E+02-6.56766E+04
 -1      1067-4.89793E+04-2.51723E+02-1.07708E+05
 -1      1069-4.89793E+04-2.51723E+02-1.07708E+05
 -1      1070-4.99899E+04-8.05451E+01-1.44755E+05
 -1      1072-4.99899E+04-8.05451E+01-1.44755E+05
 -1      1073 4.27412E+06 5.04324E+05-3.21912E+04
 -1      1075 4.06219E+05 3.57041E+05-3.21912E+04
 -1      1076 1.52443E+06 4.33891E-05 4.40899E+06
 -1      1078 1.52443E+06 4.52507E-05 4.40899E+06
 -1      1079 2.80772E-05 7.09050E-06 4.76848E+06
 -1      1081-4.12409E-05 7.85061E-06 4.76848E+06
 -1      1082-1.52443E+06-1.68586E-05 4.40899E+06
 -1      1084-1.52443E+06-1.66589E-05 4.40899E+06
 -1      1085-3.64671E+06-8.53289E+04 8.26688E+05
 -1      1087-3.64671E+06 8.53289E+04 8.26688E+05
 -1      1088 3.66070E+06 2.98636E-06-9.60807E+05
 -1      1090 3.66070E+06 2.10195E-06-8.52092E+05
 -1      1099-3.70960E+06 8.97839E+04-1.05857E+06
 -1      1101-3.70960E+06-8.97839E+04-1.05857E+06
 -1      1102 3.73247E+06 9.71282E-07 9.48411E+05
 -1      1104 3.73247E+06 6.58270E-07 8.34020E+05
 -1      1113-3.31999E+06 1.20564E+05-6.46484E+05
 -1      1115-3.31999E+06-1.20564E+05-6.46484E+05
 -1      1116 3.34512E+06 9.27405E-06 4.71546E+05
 -1      1118 3.34512E+06 6.40014E-06 3.17938E+05
 -1      1127-2.85788E+06 1.35813E+05-1.19902E+06
 -1      1129-2.85788E+06-1.35813E+05-1.19902E+06
 -1      1130 2.87947E+06 1.37650E-05 9.59906E+05
 -1      1132 2.87947E+06-7.68960E-06 7.86870E+05
 -1      1141-2.20718E+06 1.74650E+05-1.26442E+06
 -1      1143-2.20718E+06-1.74650E+05-1.26442E+06
 -1      1144 2.22039E+06 1.70384E-05 9.90582E+05
 -1      1146 2.22039E+06-2.96429E-05 7.68065E+05
 -1      1155-1.50425E+06 1.82523E+05-1.45929E+06
 -1      1157-1.50425E+06-1.82523E+05-1.45929E+06
 -1      1158 1.50534E+06 3.02797E-05 1.15048E+06
 -1      1160 1.50534E+06-3.70595E-05 9.17936E+05
 -1      1169-7.39559E+05 1.96862E+05-1.48962E+06
 -1      1171-7.39559E+05-1.96862E+05-1.48962E+06
 -1      1172 7.26002E+05 3.72725E-05 1.17235E+06
 -1      1174 7.26002E+05-4.82874E-05 9.21534E+05
 -1      1183 3.22963E+04 1.89293E+05-1.48318E+06
 -1      1185 3.22963E+04-1.89293E+05-1.48318E+06
 -1      1186-6.16585E+04 4.18739E-05 1.16763E+06
 -1      1188-6.16585E+04-5.43557E-05 9.26459E+05
 -1      1197 7.71890E+05 1.79601E+05-1.37444E+06
 -1      1199 7.71890E+05-1.79601E+05-1.37444E+06
 -1      1200-8.16855E+05 4.94152E-05 1.08339E+06
 -1      1202-8.16855E+05-5.49956E-05 8.54570E+05
 -1      1211 1.43950E+06 1.54690E+05-1.20335E+06
 -1      1213 1.43950E+06-1.54690E+05-1.20335E+06
 -1      1214-1.49856E+06 5.68580E-05 9.49714E+05
 -1      1216-1.49856E+06-5.59936E-05 7.52628E+05
 -1      1225 1.99812E+06 1.25402E+05-9.60471E+05
 -1      1227 1.99812E+06-1.25402E+05-9.60471E+05
 -1      1228-2.06857E+06 6.88141E-05 7.61017E+05
 -1      1230-2.06857E+06-5.55535E-05 6.01246E+05
 -1      1239 2.41866E+06 8.68764E+04-6.71902E+05
 -1      1241 2.41866E+06-8.68764E+04-6.71902E+05
 -1      1242-2.49682E+06 5.63163E-05 5.35965E+05
 -1      1244-2.49682E+06-8.16069E-05 4.25278E+05
 -1      1253 2.67904E+06 4.62618E+04-3.47936E+05
 -1      1255 2.67904E+06-4.62618E+04-3.47936E+05
 -1      1256-2.76048E+06 5.39721E-05 2.84055E+05
 -1      1258-2.76048E+06-8.32970E-05 2.25114E+05
 -1      1267 2.76802E+06 2.40574E+03-1.31728E+04
 -1      1269 2.76802E+06-2.40574E+03-1.31728E+04
 -1      1270-2.84788E+06 6.19232E-05 2.31259E+04
 -1      1272-2.84788E+06-5.01146E-05 2.00608E+04
 -1      1281 2.68411E+06-3.90806E+04 3.14690E+05
 -1      1283 2.68411E+06 3.90806E+04 3.14690E+05
 -1      1284-2.75737E+06 5.14354E-05-2.31880E+05
 -1      1286-2.75737E+06-3.39448E-05-1.82088E+05
 -1      1295 2.43725E+06-7.80007E+04 6.13163E+05
 -1      1297 2.43725E+06 7.80007E+04 6.13163E+05
 -1      1298-2.49906E+06 3.30257E-05-4.64580E+05
 -1      1300-2.49906E+06-2.10607E-05-3.65201E+05
 -1      1309 2.04715E+06-1.09833E+05 8.64720E+05
 -1      1311 2.04715E+06 1.09833E+05 8.64720E+05
 -1      1312-2.09315E+06 1.59443E-05-6.60316E+05
 -1      1314-2.09315E+06-8.81381E-06-5.20380E+05
 -1      1323 1.54292E+06-1.34429E+05 1.05255E+06
 -1      1325 1.54292E+06 1.34429E+05 1.05255E+06
 -1      1326-1.56947E+06-5.39317E-06-8.07089E+05
 -1      1328-1.56947E+06 2.38350E-06-6.35817E+05
 -1      1337 9.61019E+05-1.48382E+05 1.16481E+06
 -1      1339 9.61019E+05 1.48382E+05 1.16481E+06
 -1      1340-9.65405E+05-1.71098E-05-8.94659E+05
 -1      1342-9.65405E+05 1.07757E-05-7.05609E+05
 -1      1351 3.42901E+05-1.52605E+05 1.19380E+06
 -1      1353 3.42901E+05 1.52605E+05 1.19380E+06
 -1      1354-3.23505E+05-2.44344E-05-9.18283E+05
 -1      1356-3.23505E+05 1.16394E-05-7.23854E+05
 -1      1365-2.66673E+05-1.44658E+05 1.13662E+06
 -1      1367-2.66673E+05 1.44658E+05 1.13662E+06
 -1      1368 3.10323E+05-2.16493E-05-8.74391E+05
 -1      1370 3.10323E+05 2.45811E-05-6.90087E+05
 -1      1379-8.23950E+05-1.27399E+05 9.96469E+05
 -1      1381-8.23950E+05 1.27399E+05 9.96469E+05
 -1      1382 8.91190E+05-3.06410E-05-7.67316E+05
 -1      1384 8.91190E+05 2.72207E-05-6.05000E+05
 -1      1393-1.28597E+06-9.86111E+04 7.80033E+05
 -1      1395-1.28597E+06 9.86111E+04 7.80033E+05
 -1      1396 1.37508E+06-4.90512E-05-6.00139E+05
 -1      1398 1.37508E+06 2.77855E-05-4.74502E+05
 -1      1407-1.61749E+06-6.41170E+04 5.00536E+05
 -1      1409-1.61749E+06 6.41170E+04 5.00536E+05
 -1      1410 1.72589E+06-4.82788E-05-3.86240E+05
 -1      1412 1.72589E+06 4.50347E-05-3.04551E+05
 -1      1421-1.78774E+06-2.01018E+04 1.73714E+05
 -1      1423-1.78774E+06 2.01018E+04 1.73714E+05
 -1      1424 1.91218E+06-3.95798E-05-1.34259E+05
 -1      1426 1.91218E+06 5.64725E-05-1.08647E+05
 -1      1435-1.77641E+06 2.21591E+04-1.84829E+05
 -1      1437-1.77641E+06-2.21591E+04-1.84829E+05
 -1      1438 1.91330E+06-3.92519E-05 1.38516E+05
 -1      1440 1.91330E+06 5.04831E-05 1.10284E+05
 -1      1449-1.57573E+06 7.46374E+04-5.40650E+05
 -1      1451-1.57573E+06-7.46374E+04-5.40650E+05
 -1      1452 1.72141E+06-4.42070E-05 4.11173E+05
 -1      1454 1.72141E+06 5.61603E-05 3.16079E+05
 -1      1463-1.19719E+06 1.11741E+05-9.16461E+05
 -1      1465-1.19719E+06-1.11741E+05-9.16461E+05
 -1      1466 1.34833E+06-4.76311E-05 6.96199E+05
 -1      1468 1.34833E+06 5.59515E-05 5.53832E+05
 -1      1477-6.83536E+05 1.49886E+05-1.17285E+06
 -1      1479-6.83536E+05-1.49886E+05-1.17285E+06
 -1      1480 8.37520E+05-4.71777E-05 8.70270E+05
 -1      1482 8.37520E+05 4.79316E-05 6.79305E+05
 -1      1491-3.58098E+04 2.46596E-05-1.77052E+05
 -1      1493-3.58098E+04-2.02178E-05-1.77052E+05
 -1      1494-1.23557E-06 2.68902E-05-1.76395E+05
 -1      1496-2.96199E-06-3.42369E-05-1.76395E+05
 -1      1497 3.58098E+04 1.86817E-05-1.77052E+05
 -1      1499 3.58098E+04-1.71899E-05-1.77052E+05
 -1      1500 3.74185E+03 6.94974E+02-3.50192E+04
 -1      1502 3.74185E+03 6.94974E+02-3.50192E+04
 -1      1503 6.32711E+03 4.35604E+02-7.46228E+04
 -1      1505 6.32711E+03 4.35604E+02-7.46228E+04
 -1      1506 7.15000E+03-9.24658E+01-1.12338E+05
 -1      1508 7.15000E+03-9.24658E+01-1.12338E+05
 -1      1509 6.16201E+03-4.34931E+02-1.44734E+05
 -1      1511 6.16201E+03-4.34931E+02-1.44734E+05
 -1      1512 3.61906E+03-7.21233E+02-1.70667E+05
 -1      1514 3.61906E+03-7.21233E+02-1.70667E+05
 -1      1515-1.20151E+02-9.36879E+02-1.88017E+05
 -1      1517-1.20151E+02-9.36879E+02-1.88017E+05
 -1      1518-4.66221E+03-1.05959E+03-1.95730E+05
 -1      1520-4.66221E+03-1.05959E+03-1.95730E+05
 -1      1521-9.58150E+03-1.09088E+03-1.93124E+05
 -1      1523-9.58150E+03-1.09088E+03-1.93124E+05
 -1      1524-1.44447E+04-1.03056E+03-1.80270E+05
 -1      1526-1.44447E+04-1.03056E+03-1.80270E+05
 -1      1527-1.88364E+04-8.85044E+02-1.57853E+05
 -1      1529-1.88364E+04-8.85044E+02-1.57853E+05
 -1      1530-2.23817E+04-6.65389E+02-1.27187E+05
 -1      1532-2.23817E+04-6.65389E+02-1.27187E+05
 -1      1533-2.47672E+04-3.86769E+02-9.01109E+04
 -1      1535-2.47672E+04-3.86769E+02-9.01109E+04
 -1      1536-2.57583E+04-6.76195E+01-4.88811E+04
 -1      1538-2.57583E+04-6.76195E+01-4.88811E+04
 -1      1539-2.52116E+04 2.71530E+02-6.03072E+03
 -1      1541-2.52116E+04 2.71530E+02-6.03072E+03
 -1      1542-2.30817E+04 6.09303E+02 3.57894E+04
 -1      1544-2.30817E+04 6.09303E+02 3.57894E+04
 -1      1545-1.94221E+04 9.24816E+02 7.39766E+04
 -1      1547-1.94221E+04 9.24816E+02 7.39766E+04
 -1      1548-1.43797E+04 1.19898E+03 1.06139E+05
 -1      1550-1.43797E+04 1.19898E+03 1.06139E+05
 -1      1551-8.18381E+03 1.41569E+03 1.30247E+05
 -1      1553-8.18381E+03 1.41569E+03 1.30247E+05
 -1      1554-1.12927E+03 1.56289E+03 1.44758E+05
 -1      1556-1.12927E+03 1.56289E+03 1.44758E+05
 -1      1557 6.44383E+03 1.63329E+03 1.48719E+05
 -1      1559 6.44383E+03 1.63329E+03 1.48719E+05
 -1      1560 1.41740E+04 1.62494E+03 1.41825E+05
 -1      1562 1.41740E+04 1.62494E+03 1.41825E+05
 -1      1563 2.17036E+04 1.54128E+03 1.24440E+05
 -1      1565 2.17036E+04 1.54128E+03 1.24440E+05
 -1      1566 2.87037E+04 1.39119E+03 9.75824E+04
 -1      1568 2.87037E+04 1.39119E+03 9.75824E+04
 -1      1569 3.48983E+04 1.18801E+03 6.28617E+04
 -1      1571 3.48983E+04 1.18801E+03 6.28617E+04
 -1      1572 4.00848E+04 9.50240E+02 2.23830E+04
 -1      1574 4.00848E+04 9.50240E+02 2.23830E+04
 -1      1575 4.41499E+04 6.96915E+02-2.13625E+04
 -1      1577 4.41499E+04 6.96915E+02-2.13625E+04
 -1      1578 4.70841E+04 4.49309E+02-6.56766E+04
 -1      1580 4.70841E+04 4.49309E+02-6.56766E+04
 -1      1581 4.89793E+04 2.51723E+02-1.07708E+05
 -1      1583 4.89793E+04 2.51723E+02-1.07708E+05
 -1      1584 4.99899E+04 8.05451E+01-1.44755E+05
 -1      1586 4.99899E+04 8.05451E+01-1.44755E+05
 -1      1587 5.04251E+04-1.19770E+01-1.48633E+05
 -1      1589 5.04251E+04-1.19770E+01-1.48633E+05
 -1      1590-4.27412E+06-5.04324E+05-3.21912E+04
 -1      1592-4.06219E+05-3.57041E+05-3.21912E+04
 -1      1593 5.04251E+04 1.19770E+01-1.48633E+05
 -1      1595 5.04251E+04 1.19770E+01-1.48633E+05
 -1      1596 3.74185E+03-6.94974E+02-3.50192E+04
 -1      1598 3.74185E+03-6.94974E+02-3.50192E+04
 -1      1599 6.32711E+03-4.35604E+02-7.46228E+04
 -1      1601 6.32711E+03-4.35604E+02-7.46228E+04
 -1      1602 7.15000E+03 9.24658E+01-1.12338E+05
 -1      1604 7.15000E+03 9.24658E+01-1.12338E+05
 -1      1605 6.16201E+03 4.34931E+02-1.44734E+05
 -1      1607 6.16201E+03 4.34931E+02-1.44734E+05
 -1      1608 3.61906E+03 7.21233E+02-1.70667E+05
 -1      1610 3.61906E+03 7.21233E+02-1.70667E+05
 -1      1611-1.20151E+02 9.36879E+02-1.88017E+05
 -1      1613-1.20151E+02 9.36879E+02-1.88017E+05
 -1      1614-4.66221E+03 1.05959E+03-1.95730E+05
 -1      1616-4.66221E+03 1.05959E+03-1.95730E+05
 -1      1617-9.58150E+03 1.09088E+03-1.93124E+05
 -1      1619-9.58150E+03 1.09088E+03-1.93124E+05
 -1      1620-1.44447E+04 1.03056E+03-1.80270E+05
 -1      1622-1.44447E+04 1.03056E+03-1.80270E+05
 -1      1623-1.88364E+04 8.85044E+02-1.57853E+05
 -1      1625-1.88364E+04 8.85044E+02-1.57853E+05
 -1      1626-2.23817E+04 6.65389E+02-1.27187E+05
 -1      1628-2.23817E+04 6.65389E+02-1.27187E+05
 -1      1629-2.47672E+04 3.86769E+02-9.01109E+04
 -1      1631-2.47672E+04 3.86769E+02-9.01109E+04
 -1      1632-2.57583E+04 6.76195E+01-4.88811E+04
 -1      1634-2.57583E+04 6.76195E+01-4.88811E+04
 -1      1635-2.52116E+04-2.71530E+02-6.03072E+03
 -1      1637-2.52116E+04-2.71530E+02-6.03072E+03
 -1      1638-2.30817E+04-6.09303E+02 3.57894E+04
 -1      1640-2.30817E+04-6.09303E+02 3.57894E+04
 -1      1641-1.94221E+04-9.24816E+02 7.39766E+04
 -1      1643-1.94221E+04-9.24816E+02 7.39766E+04
 -1      1644-1.43797E+04-1.19898E+03 1.06139E+05
 -1      1646-1.43797E+04-1.19898E+03 1.06139E+05
 -1      1647-8.18381E+03-1.41569E+03 1.30247E+05
 -1      1649-8.18381E+03-1.41569E+03 1.30247E+05
 -1      1650-1.12927E+03-1.56289E+03 1.44758E+05
 -1      1652-1.12927E+03-1.56289E+03 1.44758E+05
 -1      1653 6.44383E+03-1.63329E+03 1.48719E+05
 -1      1655 6.44383E+03-1.63329E+03 1.48719E+05
 -1      1656 1.41740E+04-1.62494E+03 1.41825E+05
 -1      1658 1.41740E+04-1.62494E+03 1.41825E+05
 -1      1659 2.17036E+04-1.54128E+03 1.24440E+05
 -1      1661 2.17036E+04-1.54128E+03 1.24440E+05
 -1      1662 2.87037E+04-1.39119E+03 9.75824E+04
 -1      1664 2.87037E+04-1.39119E+03 9.75824E+04
 -1      1665 3.48983E+04-1.18801E+03 6.28617E+04
 -1      1667 3.48983E+04-1.18801E+03 6.28617E+04
 -1      1668 4.00848E+04-9.50240E+02 2.23830E+04
 -1      1670 4.00848E+04-9.50240E+02 2.23830E+04
 -1      1671 4.41499E+04-6.96915E+02-2.13625E+04
 -1      1673 4.41499E+04-6.96915E+02-2.13625E+04
 -1      1674 4.70841E+04-4.49309E+02-6.56766E+04
 -1      1676 4.70841E+04-4.49309E+02-6.56766E+04
 -1      1677 4.89793E+04-2.51723E+02-1.07708E+05
 -1      1679 4.89793E+04-2.51723E+02-1.07708E+05
 -1      1680 4.99899E+04-8.05451E+01-1.44755E+05
 -1      1682 4.99899E+04-8.05451E+01-1.44755E+05
 -1      1683-4.27412E+06 5.04324E+05-3.21912E+04
 -1      1685-4.06219E+05 3.57041E+05-3.21912E+04
 -1      1686-8.33635E+03 9.40773E+02-5.96961E+04
 -1      1688-8.33635E+03 9.40773E+02-5.96961E+04
 -1      1689-1.38410E+04 5.85175E+02-1.26792E+05
 -1      1691-1.38410E+04 5.85175E+02-1.26792E+05
 -1      1692-1.53900E+04-1.31024E+02-1.90815E+05
 -1      1694-1.53900E+04-1.31024E+02-1.90815E+05
 -1      1695-1.32268E+04-5.88481E+02-2.46095E+05
 -1      1697-1.32268E+04-5.88481E+02-2.46095E+05
 -1      1698-7.94644E+03-9.70804E+02-2.90449E+05
 -1      1700-7.94644E+03-9.70804E+02-2.90449E+05
 -1      1701-2.38908E+02-1.25991E+03-3.20160E+05
 -1      1703-2.38908E+02-1.25991E+03-3.20160E+05
 -1      1704 9.09107E+03-1.42378E+03-3.33320E+05
 -1      1706 9.09107E+03-1.42378E+03-3.33320E+05
 -1      1707 1.91782E+04-1.46539E+03-3.28702E+05
 -1      1709 1.91782E+04-1.46539E+03-3.28702E+05
 -1      1710 2.91430E+04-1.38420E+03-3.06390E+05
 -1      1712 2.91430E+04-1.38420E+03-3.06390E+05
 -1      1713 3.81415E+04-1.18888E+03-2.67544E+05
 -1      1715 3.81415E+04-1.18888E+03-2.67544E+05
 -1      1716 4.54122E+04-8.94219E+02-2.14423E+05
 -1      1718 4.54122E+04-8.94219E+02-2.14423E+05
 -1      1719 5.03185E+04-5.20566E+02-1.50200E+05
 -1      1721 5.03185E+04-5.20566E+02-1.50200E+05
 -1      1722 5.23843E+04-9.26281E+01-7.87834E+04
 -1      1724 5.23843E+04-9.26281E+01-7.87834E+04
 -1      1725 5.13189E+04 3.62070E+02-4.56267E+03
 -1      1727 5.13189E+04 3.62070E+02-4.56267E+03
 -1      1728 4.70312E+04 8.14873E+02 6.78618E+04
 -1      1730 4.70312E+04 8.14873E+02 6.78618E+04
 -1      1731 3.96314E+04 1.23778E+03 1.33968E+05
 -1      1733 3.96314E+04 1.23778E+03 1.33968E+05
 -1      1734 2.94197E+04 1.60520E+03 1.89597E+05
 -1      1736 2.94197E+04 1.60520E+03 1.89597E+05
 -1      1737 1.68639E+04 1.89555E+03 2.31208E+05
 -1      1739 1.68639E+04 1.89555E+03 2.31208E+05
 -1      1740 2.56554E+03 2.09264E+03 2.56106E+05
 -1      1742 2.56554E+03 2.09264E+03 2.56106E+05
 -1      1743-1.27817E+04 2.18673E+03 2.62604E+05
 -1      1745-1.27817E+04 2.18673E+03 2.62604E+05
 -1      1746-2.84405E+04 2.17515E+03 2.50135E+05
 -1      1748-2.84405E+04 2.17515E+03 2.50135E+05
 -1      1749-4.36812E+04 2.06258E+03 2.19284E+05
 -1      1751-4.36812E+04 2.06258E+03 2.19284E+05
 -1      1752-5.78325E+04 1.86079E+03 1.71753E+05
 -1      1754-5.78325E+04 1.86079E+03 1.71753E+05
 -1      1755-7.03306E+04 1.58783E+03 1.10262E+05
 -1      1757-7.03306E+04 1.58783E+03 1.10262E+05
 -1      1758-8.07606E+04 1.26827E+03 3.83677E+04
 -1      1760-8.07606E+04 1.26827E+03 3.83677E+04
 -1      1761-8.88906E+04 9.27986E+02-3.97237E+04
 -1      1763-8.88906E+04 9.27986E+02-3.97237E+04
 -1      1764-9.46934E+04 5.94466E+02-1.19471E+05
 -1      1766-9.46934E+04 5.94466E+02-1.19471E+05
 -1      1767-9.83619E+04 3.30551E+02-1.96109E+05
 -1      1769-9.83619E+04 3.30551E+02-1.96109E+05
 -1      1770-1.00276E+05 1.01911E+02-2.65150E+05
 -1      1772-1.00276E+05 1.01911E+02-2.65150E+05
 -1      1773-8.33635E+03-9.40773E+02-5.96961E+04
 -1      1775-8.33635E+03-9.40773E+02-5.96961E+04
 -1      1776-1.38410E+04-5.85175E+02-1.26792E+05
 -1      1778-1.38410E+04-5.85175E+02-1.26792E+05
 -1      1779-1.53900E+04 1.31024E+02-1.90815E+05
 -1      1781-1.53900E+04 1.31024E+02-1.90815E+05
 -1      1782-1.32268E+04 5.88481E+02-2.46095E+05
 -1      1784-1.32268E+04 5.88481E+02-2.46095E+05
 -1      1785-7.94644E+03 9.70804E+02-2.90449E+05
 -1      1787-7.94644E+03 9.70804E+02-2.90449E+05
 -1      1788-2.38908E+02 1.25991E+03-3.20160E+05
 -1      1790-2.38908E+02 1.25991E+03-3.20160E+05
 -1      1791 9.09107E+03 1.42378E+03-3.33320E+05
 -1      1793 9.09107E+03 1.42378E+03-3.33320E+05
 -1      1794 1.91782E+04 1.46539E+03-3.28702E+05
 -1      1796 1.91782E+04 1.46539E+03-3.28702E+05
 -1      1797 2.91430E+04 1.38420E+03-3.06390E+05
 -1      1799 2.91430E+04 1.38420E+03-3.06390E+05
 -1      1800 3.81415E+04 1.18888E+03-2.67544E+05
 -1      1802 3.81415E+04 1.18888E+03-2.67544E+05
 -1      1803 4.54122E+04 8.94219E+02-2.14423E+05
 -1      1805 4.54122E+04 8.94219E+02-2.14423E+05
 -1      1806 5.03185E+04 5.20566E+02-1.50200E+05
 -1      1808 5.03185E+04 5.20566E+02-1.50200E+05
 -1      1809 5.23843E+04 9.26281E+01-7.87834E+04
 -1      1811 5.23843E+04 9.26281E+01-7.87834E+04
 -1      1812 5.13189E+04-3.62070E+02-4.56267E+03
 -1      1814 5.13189E+04-3.62070E+02-4.56267E+03
 -1      1815 4.70312E+04-8.14873E+02 6.78618E+04
 -1      1817 4.70312E+04-8.14873E+02 6.78618E+04
 -1      1818 3.96314E+04-1.23778E+03 1.33968E+05
 -1      1820 3.96314E+04-1.23778E+03 1.33968E+05
 -1      1821 2.94197E+04-1.60520E+03 1.89597E+05
 -1      1823 2.94197E+04-1.60520E+03 1.89597E+05
 -1      1824 1.68639E+04-1.89555E+03 2.31208E+05
 -1      1826 1.68639E+04-1.89555E+03 2.31208E+05
 -1      1827 2.56554E+03-2.09264E+03 2.56106E+05
 -1      1829 2.56554E+03-2.09264E+03 2.56106E+05
 -1      1830-1.27817E+04-2.18673E+03 2.62604E+05
 -1      1832-1.27817E+04-2.18673E+03 2.62604E+05
 -1      1833-2.84405E+04-2.17515E+03 2.50135E+05
 -1      1835-2.84405E+04-2.17515E+03 2.50135E+05
 -1      1836-4.36812E+04-2.06258E+03 2.19284E+05
 -1      1838-4.36812E+04-2.06258E+03 2.19284E+05
 -1      1839-5.78325E+04-1.86079E+03 1.71753E+05
 -1      1841-5.78325E+04-1.86079E+03 1.71753E+05
 -1      1842-7.03306E+04-1.58783E+03 1.10262E+05
 -1      1844-7.03306E+04-1.58783E+03 1.10262E+05
 -1      1845-8.07606E+04-1.26827E+03 3.83677E+04
 -1      1847-8.07606E+04-1.26827E+03 3.83677E+04
 -1      1848-8.88906E+04-9.27986E+02-3.97237E+04
 -1      1850-8.88906E+04-9.27986E+02-3.97237E+04
 -1      1851-9.46934E+04-5.94466E+02-1.19471E+05
 -1      1853-9.46934E+04-5.94466E+02-1.19471E+05
 -1      1854-9.83619E+04-3.30551E+02-1.96109E+05
 -1      1856-9.83619E+04-3.30551E+02-1.96109E+05
 -1      1857-1.00276E+05-1.01911E+02-2.65150E+05
 -1      1859-1.00276E+05-1.01911E+02-2.65150E+05
 -1      1860-5.88406E+03-5.94839E-06-6.05906E+04
 -1      1862-5.88406E+03-1.09908E-06-6.05906E+04
 -1      1863-9.77894E+03-6.80514E-06-1.25257E+05
 -1      1865-9.77894E+03-5.80623E-07-1.25257E+05
 -1      1866-1.09463E+04-2.53459E-06-1.88761E+05
 -1      1868-1.09463E+04 2.51849E-06-1.88761E+05
 -1      1869-9.45557E+03-4.70491E-06-2.45206E+05
 -1      1871-9.45557E+03 3.57287E-06-2.45206E+05
 -1      1872-5.71097E+03-7.42012E-06-2.90553E+05
 -1      1874-5.71097E+03 5.70466E-06-2.90553E+05
 -1      1875-2.43188E+02-1.37785E-06-3.21174E+05
 -1      1877-2.43188E+02-2.64586E-06-3.21174E+05
 -1      1878 6.38003E+03 1.28902E-05-3.34655E+05
 -1      1880 6.38003E+03-1.46228E-05-3.34655E+05
 -1      1881 1.35381E+04 1.83368E-05-3.29674E+05
 -1      1883 1.35381E+04-1.96872E-05-3.29674E+05
 -1      1884 2.06092E+04 1.07856E-05-3.06183E+05
 -1      1886 2.06092E+04-1.40470E-05-3.06183E+05
 -1      1887 2.69946E+04-4.53629E-06-2.65351E+05
 -1      1889 2.69946E+04 4.35747E-06-2.65351E+05
 -1      1890 3.21551E+04-2.72191E-06-2.09503E+05
 -1      1892 3.21551E+04-8.29812E-06-2.09503E+05
 -1      1893 3.56397E+04 1.15226E-05-1.41959E+05
 -1      1895 3.56397E+04-1.96947E-05-1.41959E+05
 -1      1896 3.71112E+04-8.99836E-06-6.68243E+04
 -1      1898 3.71112E+04-1.17732E-05-6.68243E+04
 -1      1899 3.63639E+04 7.94204E-06 1.12716E+04
 -1      1901 3.63639E+04-2.62525E-06 1.12716E+04
 -1      1902 3.33332E+04-2.69690E-07 8.74652E+04
 -1      1904 3.33332E+04-6.90023E-06 8.74652E+04
 -1      1905 2.80973E+04 3.09869E-06 1.56964E+05
 -1      1907 2.80973E+04-9.26489E-06 1.56964E+05
 -1      1908 2.08693E+04 2.06969E-05 2.15343E+05
 -1      1910 2.08693E+04-3.53819E-06 2.15343E+05
 -1      1911 1.19807E+04 2.17518E-05 2.58822E+05
 -1      1913 1.19807E+04-2.61560E-06 2.58822E+05
 -1      1914 1.85788E+03 8.81778E-06 2.84492E+05
 -1      1916 1.85788E+03-5.04674E-06 2.84492E+05
 -1      1917-9.00742E+03-4.77979E-06 2.90498E+05
 -1      1919-9.00742E+03-2.10516E-06 2.90498E+05
 -1      1920-2.00926E+04 5.03258E-07 2.76138E+05
 -1      1922-2.00926E+04 2.94531E-06 2.76138E+05
 -1      1923-3.08804E+04-2.31479E-06 2.41909E+05
 -1      1925-3.08804E+04 2.53422E-06 2.41909E+05
 -1      1926-4.08952E+04-5.63825E-06 1.89453E+05
 -1      1928-4.08952E+04 4.52976E-06 1.89453E+05
 -1      1929-4.97372E+04-3.90181E-06 1.21447E+05
 -1      1931-4.97372E+04 6.22967E-06 1.21447E+05
 -1      1932-5.71134E+04 2.00174E-07 4.14153E+04
 -1      1934-5.71134E+04 8.22659E-06 4.14153E+04
 -1      1935-6.28612E+04-6.54224E-06-4.65062E+04
 -1      1937-6.28612E+04 1.84495E-06-4.65062E+04
 -1      1938-6.69700E+04 1.09595E-05-1.37862E+05
 -1      1940-6.69700E+04 1.61614E-05-1.37862E+05
 -1      1941-6.95991E+04 1.04469E-05-2.28161E+05
 -1      1943-6.95991E+04 9.55034E-06-2.28161E+05
 -1      1944-7.10971E+04 3.71430E-05-3.13297E+05
 -1      1946-7.10971E+04 6.31358E-06-3.13297E+05
 -1      1947 1.51136E-06-6.45749E-06-6.03659E+04
 -1      1949 1.63502E-06-4.23891E-07-6.03659E+04
 -1      1950 2.13070E-07-6.92490E-06-1.24480E+05
 -1      1952 6.62373E-07 4.45579E-06-1.24480E+05
 -1      1953-5.00139E-08-4.49728E-06-1.87949E+05
 -1      1955 5.37503E-07 4.99158E-06-1.87949E+05
 -1      1956-1.67558E-07-4.77402E-06-2.44593E+05
 -1      1958-4.54822E-08 9.46683E-06-2.44593E+05
 -1      1959-1.08776E-06-1.23760E-05-2.90040E+05
 -1      1961-1.44555E-06 5.61410E-06-2.90040E+05
 -1      1962-7.08865E-07-2.20795E-06-3.20766E+05
 -1      1964-6.96850E-07 6.71789E-06-3.20766E+05
 -1      1965-2.10608E-06 8.46762E-06-3.34317E+05
 -1      1967-1.04086E-06-7.34906E-06-3.34317E+05
 -1      1968-3.37835E-06 1.73722E-05-3.29390E+05
 -1      1970-2.70633E-06-1.91935E-05-3.29390E+05
 -1      1971-2.83563E-06 5.67344E-06-3.05932E+05
 -1      1973-2.30481E-06-6.91052E-06-3.05932E+05
 -1      1974-2.00535E-06-1.65222E-05-2.65117E+05
 -1      1976-2.10021E-06-2.41268E-06-2.65117E+05
 -1      1977-1.38490E-06 6.74604E-06-2.09270E+05
 -1      1979-2.31815E-06-7.81493E-06-2.09270E+05
 -1      1980-7.72445E-07 1.87178E-05-1.41713E+05
 -1      1982-1.21507E-06-1.11434E-05-1.41713E+05
 -1      1983-1.25662E-07 1.57243E-06-6.65543E+04
 -1      1985 1.47009E-06-2.58309E-05-6.65543E+04
 -1      1986 1.82127E-06 4.79842E-06 1.15743E+04
 -1      1988 2.18150E-06-8.03351E-06 1.15743E+04
 -1      1989 3.33354E-06 8.43702E-06 8.78071E+04
 -1      1991 3.96779E-06-2.63633E-05 8.78071E+04
 -1      1992 2.85898E-06 1.07993E-05 1.57349E+05
 -1      1994 4.87030E-06-5.41403E-06 1.57349E+05
 -1      1995 1.76732E-06 2.92669E-05 2.15774E+05
 -1      1997 3.03528E-06-2.06223E-05 2.15774E+05
 -1      1998-7.75755E-07 1.80020E-05 2.59299E+05
 -1      2000-3.11564E-07-4.31850E-05 2.59299E+05
 -1      2001 4.30356E-07 3.75172E-06 2.85016E+05
 -1      2003 1.54812E-06-2.37494E-05 2.85016E+05
 -1      2004 1.95511E-06-1.47012E-05 2.91066E+05
 -1      2006 2.84073E-06 2.10584E-06 2.91066E+05
 -1      2007 8.77525E-07-1.54373E-05 2.76753E+05
 -1      2009 1.21294E-06 1.70530E-05 2.76753E+05
 -1      2010 4.10956E-07 1.98627E-07 2.42570E+05
 -1      2012-7.30167E-07 4.92916E-07 2.42570E+05
 -1      2013 2.08223E-07-6.22287E-06 1.90164E+05
 -1      2015-7.17424E-07 7.37630E-07 1.90164E+05
 -1      2016-3.79194E-07-5.71786E-07 1.22213E+05
 -1      2018-1.90278E-06-5.96778E-06 1.22213E+05
 -1      2019-2.50859E-06 3.49582E-06 4.22462E+04
 -1      2021-1.72235E-06-2.35022E-06 4.22462E+04
 -1      2022-2.28702E-06 9.93824E-06-4.55983E+04
 -1      2024-8.85878E-07-6.16554E-06-4.55983E+04
 -1      2025-1.50063E-06-2.71232E-06-1.36854E+05
 -1      2027-2.08545E-06 7.28132E-06-1.36854E+05
 -1      2028 1.33309E-06-1.58811E-05-2.27035E+05
 -1      2030-1.63792E-06 1.46240E-05-2.27035E+05
 -1      2031 2.39552E-06 3.65504E-05-3.12048E+05
 -1      2033-1.74740E-06-8.85217E-06-3.12048E+05
 -1      2034 5.88406E+03-3.24100E-06-6.05906E+04
 -1      2036 5.88406E+03 3.42805E-06-6.05906E+04
 -1      2037 9.77894E+03-6.03090E-06-1.25257E+05
 -1      2039 9.77894E+03 8.28335E-06-1.25257E+05
 -1      2040 1.09463E+04-5.76279E-07-1.88761E+05
 -1      2042 1.09463E+04 1.25909E-05-1.88761E+05
 -1      2043 9.45557E+03-3.27748E-06-2.45206E+05
 -1      2045 9.45557E+03 6.76908E-06-2.45206E+05
 -1      2046 5.71097E+03-5.27355E-06-2.90553E+05
 -1      2048 5.71097E+03 6.35615E-06-2.90553E+05
 -1      2049 2.43187E+02 7.19534E-06-3.21174E+05
 -1      2051 2.43187E+02-8.06805E-06-3.21174E+05
 -1      2052-6.38003E+03 1.46800E-05-3.34655E+05
 -1      2054-6.38003E+03-1.11349E-05-3.34655E+05
 -1      2055-1.35381E+04 2.19890E-05-3.29674E+05
 -1      2057-1.35381E+04-2.02000E-05-3.29674E+05
 -1      2058-2.06092E+04 4.76268E-06-3.06183E+05
 -1      2060-2.06092E+04-4.39149E-06-3.06183E+05
 -1      2061-2.69946E+04-8.34673E-06-2.65351E+05
 -1      2063-2.69946E+04 7.39298E-06-2.65351E+05
 -1      2064-3.21551E+04 1.78115E-05-2.09503E+05
 -1      2066-3.21551E+04-5.02756E-06-2.09503E+05
 -1      2067-3.56397E+04 3.94519E-06-1.41959E+05
 -1      2069-3.56397E+04-1.95014E-05-1.41959E+05
 -1      2070-3.71112E+04 2.39430E-05-6.68243E+04
 -1      2072-3.71112E+04-3.13766E-05-6.68243E+04
 -1      2073-3.63639E+04 5.48473E-05 1.12716E+04
 -1      2075-3.63639E+04-2.87615E-05 1.12716E+04
 -1      2076-3.33332E+04 1.45212E-05 8.74652E+04
 -1      2078-3.33332E+04 4.36323E-06 8.74652E+04
 -1      2079-2.80973E+04 2.04363E-05 1.56964E+05
 -1      2081-2.80973E+04-3.81777E-06 1.56964E+05
 -1      2082-2.08693E+04 6.82392E-06 2.15343E+05
 -1      2084-2.08693E+04-9.42383E-07 2.15343E+05
 -1      2085-1.19807E+04 8.76585E-06 2.58822E+05
 -1      2087-1.19807E+04-1.60252E-05 2.58822E+05
 -1      2088-1.85788E+03 3.22254E-06 2.84492E+05
 -1      2090-1.85788E+03 2.59847E-06 2.84492E+05
 -1      2091 9.00742E+03-2.36737E-05 2.90498E+05
 -1      2093 9.00742E+03 1.70770E-05 2.90498E+05
 -1      2094 2.00926E+04-1.42118E-05 2.76138E+05
 -1      2096 2.00926E+04 1.15601E-05 2.76138E+05
 -1      2097 3.08804E+04-9.05623E-06 2.41909E+05
 -1      2099 3.08804E+04 6.44110E-07 2.41909E+05
 -1      2100 4.08952E+04-9.24244E-06 1.89453E+05
 -1      2102 4.08952E+04-2.28563E-06 1.89453E+05
 -1      2103 4.97372E+04-3.45219E-06 1.21447E+05
 -1      2105 4.97372E+04-2.55078E-06 1.21447E+05
 -1      2106 5.71134E+04 1.53461E-05 4.14153E+04
 -1      2108 5.71134E+04 8.36040E-07 4.14153E+04
 -1      2109 6.28612E+04 1.57980E-05-4.65062E+04
 -1      2111 6.28612E+04-1.73814E-05-4.65062E+04
 -1      2112 6.69700E+04 8.15423E-06-1.37862E+05
 -1      2114 6.69700E+04-2.17829E-06-1.37862E+05
 -1      2115 6.95991E+04-2.15266E-06-2.28161E+05
 -1      2117 6.95991E+04 1.16302E-09-2.28161E+05
 -1      2118 7.10971E+04-2.34132E-06-3.13297E+05
 -1      2120 7.10971E+04-2.19876E-05-3.13297E+05
 -1      2121 8.33635E+03 9.40773E+02-5.96961E+04
 -1      2123 8.33635E+03 9.40773E+02-5.96961E+04
 -1      2124 1.38410E+04 5.85175E+02-1.26792E+05
 -1      2126 1.38410E+04 5.85175E+02-1.26792E+05
 -1      2127 1.53900E+04-1.31024E+02-1.90815E+05
 -1      2129 1.53900E+04-1.31024E+02-1.90815E+05
 -1      2130 1.32268E+04-5.88481E+02-2.46095E+05
 -1      2132 1.32268E+04-5.88481E+02-2.46095E+05
 -1      2133 7.94644E+03-9.70804E+02-2.90449E+05
 -1      2135 7.94644E+03-9.70804E+02-2.90449E+05
 -1      2136 2.38908E+02-1.25991E+03-3.20160E+05
 -1      2138 2.38908E+02-1.25991E+03-3.20160E+05
 -1      2139-9.09107E+03-1.42378E+03-3.33320E+05
 -1      2141-9.09107E+03-1.42378E+03-3.33320E+05
 -1      2142-1.91782E+04-1.46539E+03-3.28702E+05
 -1      2144-1.91782E+04-1.46539E+03-3.28702E+05
 -1      2145-2.91430E+04-1.38420E+03-3.06390E+05
 -1      2147-2.91430E+04-1.38420E+03-3.06390E+05
 -1      2148-3.81415E+04-1.18888E+03-2.67544E+05
 -1      2150-3.81415E+04-1.18888E+03-2.67544E+05
 -1      2151-4.54122E+04-8.94219E+02-2.14423E+05
 -1      2153-4.54122E+04-8.94219E+02-2.14423E+05
 -1      2154-5.03185E+04-5.20566E+02-1.50200E+05
 -1      2156-5.03185E+04-5.20566E+02-1.50200E+05
 -1      2157-5.23843E+04-9.26281E+01-7.87834E+04
 -1      2159-5.23843E+04-9.26281E+01-7.87834E+04
 -1      2160-5.13189E+04 3.62070E+02-4.56267E+03
 -1      2162-5.13189E+04 3.62070E+02-4.56267E+03
 -1      2163-4.70312E+04 8.14873E+02 6.78618E+04
 -1      2165-4.70312E+04 8.14873E+02 6.78618E+04
 -1      2166-3.96314E+04 1.23778E+03 1.33968E+05
 -1      2168-3.96314E+04 1.23778E+03 1.33968E+05
 -1      2169-2.94197E+04 1.60520E+03 1.89597E+05
 -1      2171-2.94197E+04 1.60520E+03 1.89597E+05
 -1      2172-1.68639E+04 1.89555E+03 2.31208E+05
 -1      2174-1.68639E+04 1.89555E+03 2.31208E+05
 -1      2175-2.56554E+03 2.09264E+03 2.56106E+05
 -1      2177-2.56554E+03 2.09264E+03 2.56106E+05
 -1      2178 1.27817E+04 2.18673E+03 2.62604E+05
 -1      2180 1.27817E+04 2.18673E+03 2.62604E+05
 -1      2181 2.84405E+04 2.17515E+03 2.50135E+05
 -1      2183 2.84405E+04 2.17515E+03 2.50135E+05
 -1      2184 4.36812E+04 2.06258E+03 2.19284E+05
 -1      2186 4.36812E+04 2.06258E+03 2.19284E+05
 -1      2187 5.78325E+04 1.86079E+03 1.71753E+05
 -1      2189 5.78325E+04 1.86079E+03 1.71753E+05
 -1      2190 7.03306E+04 1.58783E+03 1.10262E+05
 -1      2192 7.03306E+04 1.58783E+03 1.10262E+05
 -1      2193 8.07606E+04 1.26827E+03 3.83677E+04
 -1      2195 8.07606E+04 1.26827E+03 3.83677E+04
 -1      2196 8.88906E+04 9.27986E+02-3.97237E+04
 -1      2198 8.88906E+04 9.27986E+02-3.97237E+04
 -1      2199 9.46934E+04 5.94466E+02-1.19471E+05
 -1      2201 9.46934E+04 5.94466E+02-1.19471E+05
 -1      2202 9.83619E+04 3.30551E+02-1.96109E+05
 -1      2204 9.83619E+04 3.30551E+02-1.96109E+05
 -1      2205 1.00276E+05 1.01911E+02-2.65150E+05
 -1      2207 1.00276E+05 1.01911E+02-2.65150E+05
 -1      2208 8.33635E+03-9.40773E+02-5.96961E+04
 -1      2210 8.33635E+03-9.40773E+02-5.96961E+04
 -1      2211 1.38410E+04-5.85175E+02-1.26792E+05
 -1      2213 1.38410E+04-5.85175E+02-1.26792E+05
 -1      2214 1.53900E+04 1.31024E+02-1.90815E+05
 -1      2216 1.53900E+04 1.31024E+02-1.90815E+05
 -1      2217 1.32268E+04 5.88481E+02-2.46095E+05
 -1      2219 1.32268E+04 5.88481E+02-2.46095E+05
 -1      2220 7.94644E+03 9.70804E+02-2.90449E+05
 -1      2222 7.94644E+03 9.70804E+02-2.90449E+05
 -1      2223 2.38908E+02 1.25991E+03-3.20160E+05
 -1      2225 2.38908E+02 1.25991E+03-3.20160E+05
 -1      2226-9.09107E+03 1.42378E+03-3.33320E+05
 -1      2228-9.09107E+03 1.42378E+03-3.33320E+05
 -1      2229-1.91782E+04 1.46539E+03-3.28702E+05
 -1      2231-1.91782E+04 1.46539E+03-3.28702E+05
 -1      2232-2.91430E+04 1.38420E+03-3.06390E+05
 -1      2234-2.91430E+04 1.38420E+03-3.06390E+05
 -1      2235-3.81415E+04 1.18888E+03-2.67544E+05
 -1      2237-3.81415E+04 1.18888E+03-2.67544E+05
 -1      2238-4.54122E+04 8.94219E+02-2.14423E+05
 -1      2240-4.54122E+04 8.94219E+02-2.14423E+05
 -1      2241-5.03185E+04 5.20566E+02-1.50200E+05
 -1      2243-5.03185E+04 5.20566E+02-1.50200E+05
 -1      2244-5.23843E+04 9.26281E+01-7.87834E+04
 -1      2246-5.23843E+04 9.26281E+01-7.87834E+04
 -1      2247-5.13189E+04-3.62070E+02-4.56267E+03
 -1      2249-5.13189E+04-3.62070E+02-4.56267E+03
 -1      2250-4.70312E+04-8.14873E+02 6.78618E+04
 -1      2252-4.70312E+04-8.14873E+02 6.78618E+04
 -1      2253-3.96314E+04-1.23778E+03 1.33968E+05
 -1      2255-3.96314E+04-1.23778E+03 1.33968E+05
 -1      2256-2.94197E+04-1.60520E+03 1.89597E+05
 -1      2258-2.94197E+04-1.60520E+03 1.89597E+05
 -1      2259-1.68639E+04-1.89555E+03 2.31208E+05
 -1      2261-1.68639E+04-1.89555E+03 2.31208E+05
 -1      2262-2.56554E+03-2.09264E+03 2.56106E+05
 -1      2264-2.56554E+03-2.09264E+03 2.56106E+05
 -1      2265 1.27817E+04-2.18673E+03 2.62604E+05
 -1      2267 1.27817E+04-2.18673E+03 2.62604E+05
 -1      2268 2.84405E+04-2.17515E+03 2.50135E+05
 -1      2270 2.84405E+04-2.17515E+03 2.50135E+05
 -1      2271 4.36812E+04-2.06258E+03 2.19284E+05
 -1      2273 4.36812E+04-2.06258E+03 2.19284E+05
 -1      2274 5.78325E+04-1.86079E+03 1.71753E+05
 -1      2276 5.78325E+04-1.86079E+03 1.71753E+05
 -1      2277 7.03306E+04-1.58783E+03 1.10262E+05
 -1      2279 7.03306E+04-1.58783E+03 1.10262E+05
 -1      2280 8.07606E+04-1.26827E+03 3.83677E+04
 -1      2282 8.07606E+04-1.26827E+03 3.83677E+04
 -1      2283 8.88906E+04-9.27986E+02-3.97237E+04
 -1      2285 8.88906E+04-9.27986E+02-3.97237E+04
 -1      2286 9.46934E+04-5.94466E+02-1.19471E+05
 -1      2288 9.46934E+04-5.94466E+02-1.19471E+05
 -1      2289 9.83619E+04-3.30551E+02-1.96109E+05
 -1      2291 9.83619E+04-3.30551E+02-1.96109E+05
 -1      2292 1.00276E+05-1.01911E+02-2.65150E+05
 -1      2294 1.00276E+05-1.01911E+02-2.65150E+05
 -3
    1PSTEP                        56           1           1          
    1PGM                1.000000E+00                                  
    1PGK                1.163915E+07                                  
    1PHID                         -1                                  
    1PSUBC                         0                                  
    1PMODE                        14                                  
  100CL  114 542.9762473         930                     2   14MODAL      1
 -4  ERROR       1    1
 -5  STR(%)      1    1    0    0
 -1       404 0.00000E+00
 -1       406 0.00000E+00
 -1       407 0.00000E+00
 -1       409 0.00000E+00
 -1       410 0.00000E+00
 -1       412 0.00000E+00
 -1       413 0.00000E+00
 -1       415 0.00000E+00
 -1       424 0.00000E+00
 -1       426 0.00000E+00
 -1       427 0.00000E+00
 -1       429 0.00000E+00
 -1       438 0.00000E+00
 -1       440 0.00000E+00
 -1       441 0.00000E+00
 -1       443 0.00000E+00
 -1       444 0.00000E+00
 -1       446 0.00000E+00
 -1       447 0.00000E+00
 -1       449 0.00000E+00
 -1       458 0.00000E+00
 -1       460 0.00000E+00
 -1       461 0.00000E+00
 -1       463 0.00000E+00
 -1       472 0.00000E+00
 -1       474 0.00000E+00
 -1       475 0.00000E+00
 -1       477 0.00000E+00
 -1       478 0.00000E+00
 -1       480 0.00000E+00
 -1       481 0.00000E+00
 -1       483 0.00000E+00
 -1       484 0.00000E+00
 -1       486 0.00000E+00
 -1       487 0.00000E+00
 -1       489 0.00000E+00
 -1       490 0.00000E+00
 -1       492 0.00000E+00
 -1       493 0.00000E+00
 -1       495 0.00000E+00
 -1       496 0.00000E+00
 -1       498 0.00000E+00
 -1       499 0.00000E+00
 -1       501 0.00000E+00
 -1       502 0.00000E+00
 -1       504 0.00000E+00
 -1       505 0.00000E+00
 -1       507 0.00000E+00
 -1       508 0.00000E+00
 -1       510 0.00000E+00
 -1       511 0.00000E+00
 -1       513 0.00000E+00
 -1       514 0.00000E+00
 -1       516 0.00000E+00
 -1       517 0.00000E+00
 -1       519 0.00000E+00
 -1       520 0.00000E+00
 -1       522 0.00000E+00
 -1       523 0.00000E+00
 -1       525 0.00000E+00
 -1       526 0.00000E+00
 -1       528 0.00000E+00
 -1       529 0.00000E+00
 -1       531 0.00000E+00
 -1       532 0.00000E+00
 -1       534 0.00000E+00
 -1       535 0.00000E+00
 -1       537 0.00000E+00
 -1       538 0.00000E+00
 -1       540 0.00000E+00
 -1       541 0.00000E+00
 -1       543 0.00000E+00
 -1       544 0.00000E+00
 -1       546 0.00000E+00
 -1       547 0.00000E+00
 -1       549 0.00000E+00
 -1       550 0.00000E+00
 -1       552 0.00000E+00
 -1       553 0.00000E+00
 -1       555 0.00000E+00
 -1       556 0.00000E+00
 -1       558 0.00000E+00
 -1       559 0.00000E+00
 -1       561 0.00000E+00
 -1       562 0.00000E+00
 -1       564 0.00000E+00
 -1       565 0.00000E+00
 -1       567 0.00000E+00
 -1       568 0.00000E+00
 -1       570 0.00000E+00
 -1       571 0.00000E+00
 -1       573 0.00000E+00
 -1       574 0.00000E+00
 -1       576 0.00000E+00
 -1       577 0.00000E+00
 -1       579 0.00000E+00
 -1       588 0.00000E+00
 -1       590 0.00000E+00
 -1       591 0.00000E+00
 -1       593 0.00000E+00
 -1       602 0.00000E+00
 -1       604 0.00000E+00
 -1       605 0.00000E+00
 -1       607 0.00000E+00
 -1       616 0.00000E+00
 -1       618 0.00000E+00
 -1       619 0.00000E+00
 -1       621 0.00000E+00
 -1       630 0.00000E+00
 -1       632 0.00000E+00
 -1       633 0.00000E+00
 -1       635 0.00000E+00
 -1       644 0.00000E+00
 -1       646 0.00000E+00
 -1       647 0.00000E+00
 -1       649 0.00000E+00
 -1       658 0.00000E+00
 -1       660 0.00000E+00
 -1       661 0.00000E+00
 -1       663 0.00000E+00
 -1       672 0.00000E+00
 -1       674 0.00000E+00
 -1       675 0.00000E+00
 -1       677 0.00000E+00
 -1       686 0.00000E+00
 -1       688 0.00000E+00
 -1       689 0.00000E+00
 -1       691 0.00000E+00
 -1       700 0.00000E+00
 -1       702 0.00000E+00
 -1       703 0.00000E+00
 -1       705 0.00000E+00
 -1       714 0.00000E+00
 -1       716 0.00000E+00
 -1       717 0.00000E+00
 -1       719 0.00000E+00
 -1       728 0.00000E+00
 -1       730 0.00000E+00
 -1       731 0.00000E+00
 -1       733 0.00000E+00
 -1       742 0.00000E+00
 -1       744 0.00000E+00
 -1       745 0.00000E+00
 -1       747 0.00000E+00
 -1       756 0.00000E+00
 -1       758 0.00000E+00
 -1       759 0.00000E+00
 -1       761 0.00000E+00
 -1       770 0.00000E+00
 -1       772 0.00000E+00
 -1       773 0.00000E+00
 -1       775 0.00000E+00
 -1       784 0.00000E+00
 -1       786 0.00000E+00
 -1       787 0.00000E+00
 -1       789 0.00000E+00
 -1       798 0.00000E+00
 -1       800 0.00000E+00
 -1       801 0.00000E+00
 -1       803 0.00000E+00
 -1       812 0.00000E+00
 -1       814 0.00000E+00
 -1       815 0.00000E+00
 -1       817 0.00000E+00
 -1       826 0.00000E+00
 -1       828 0.00000E+00
 -1       829 0.00000E+00
 -1       831 0.00000E+00
 -1       840 0.00000E+00
 -1       842 0.00000E+00
 -1       843 0.00000E+00
 -1       845 0.00000E+00
 -1       854 0.00000E+00
 -1       856 0.00000E+00
 -1       857 0.00000E+00
 -1       859 0.00000E+00
 -1       868 0.00000E+00
 -1       870 0.00000E+00
 -1       871 0.00000E+00
 -1       873 0.00000E+00
 -1       882 0.00000E+00
 -1       884 0.00000E+00
 -1       885 0.00000E+00
 -1       887 0.00000E+00
 -1       896 0.00000E+00
 -1       898 0.00000E+00
 -1       899 0.00000E+00
 -1       901 0.00000E+00
 -1       910 0.00000E+00
 -1       912 0.00000E+00
 -1       913 0.00000E+00
 -1       915 0.00000E+00
 -1       924 0.00000E+00
 -1       926 0.00000E+00
 -1       927 0.00000E+00
 -1       929 0.00000E+00
 -1       938 0.00000E+00
 -1       940 0.00000E+00
 -1       941 0.00000E+00
 -1       943 0.00000E+00
 -1       952 0.00000E+00
 -1       954 0.00000E+00
 -1       955 0.00000E+00
 -1       957 0.00000E+00
 -1       966 0.00000E+00
 -1       968 0.00000E+00
 -1       969 0.00000E+00
 -1       971 0.00000E+00
 -1       980 0.00000E+00
 -1       982 0.00000E+00
 -1       983 0.00000E+00
 -1       985 0.00000E+00
 -1       986 0.00000E+00
 -1       988 0.00000E+00
 -1       989 0.00000E+00
 -1       991 0.00000E+00
 -1       992 0.00000E+00
 -1       994 0.00000E+00
 -1       995 0.00000E+00
 -1       997 0.00000E+00
 -1       998 0.00000E+00
 -1      1000 0.00000E+00
 -1      1001 0.00000E+00
 -1      1003 0.00000E+00
 -1      1004 0.00000E+00
 -1      1006 0.00000E+00
 -1      1007 0.00000E+00
 -1      1009 0.00000E+00
 -1      1010 0.00000E+00
 -1      1012 0.00000E+00
 -1      1013 0.00000E+00
 -1      1015 0.00000E+00
 -1      1016 0.00000E+00
 -1      1018 0.00000E+00
 -1      1019 0.00000E+00
 -1      1021 0.00000E+00
 -1      1022 0.00000E+00
 -1      1024 0.00000E+00
 -1      1025 0.00000E+00
 -1      1027 0.00000E+00
 -1      1028 0.00000E+00
 -1      1030 0.00000E+00
 -1      1031 0.00000E+00
 -1      1033 0.00000E+00
 -1      1034 0.00000E+00
 -1      1036 0.00000E+00
 -1      1037 0.00000E+00
 -1      1039 0.00000E+00
 -1      1040 0.00000E+00
 -1      1042 0.00000E+00
 -1      1043 0.00000E+00
 -1      1045 0.00000E+00
 -1      1046 0.00000E+00
 -1      1048 0.00000E+00
 -1      1049 0.00000E+00
 -1      1051 0.00000E+00
 -1      1052 0.00000E+00
 -1      1054 0.00000E+00
 -1      1055 0.00000E+00
 -1      1057 0.00000E+00
 -1      1058 0.00000E+00
 -1      1060 0.00000E+00
 -1      1061 0.00000E+00
 -1      1063 0.00000E+00
 -1      1064 0.00000E+00
 -1      1066 0.00000E+00
 -1      1067 0.00000E+00
 -1      1069 0.00000E+00
 -1      1070 0.00000E+00
 -1      1072 0.00000E+00
 -1      1073 0.00000E+00
 -1      1075 0.00000E+00
 -1      1076 0.00000E+00
 -1      1078 0.00000E+00
 -1      1079 0.00000E+00
 -1      1081 0.00000E+00
 -1      1082 0.00000E+00
 -1      1084 0.00000E+00
 -1      1085 0.00000E+00
 -1      1087 0.00000E+00
 -1      1088 0.00000E+00
 -1      1090 0.00000E+00
 -1      1099 0.00000E+00
 -1      1101 0.00000E+00
 -1      1102 0.00000E+00
 -1      1104 0.00000E+00
 -1      1113 0.00000E+00
 -1      1115 0.00000E+00
 -1      1116 0.00000E+00
 -1      1118 0.00000E+00
 -1      1127 0.00000E+00
 -1      1129 0.00000E+00
 -1      1130 0.00000E+00
 -1      1132 0.00000E+00
 -1      1141 0.00000E+00
 -1      1143 0.00000E+00
 -1      1144 0.00000E+00
 -1      1146 0.00000E+00
 -1      1155 0.00000E+00
 -1      1157 0.00000E+00
 -1      1158 0.00000E+00
 -1      1160 0.00000E+00
 -1      1169 0.00000E+00
 -1      1171 0.00000E+00
 -1      1172 0.00000E+00
 -1      1174 0.00000E+00
 -1      1183 0.00000E+00
 -1      1185 0.00000E+00
 -1      1186 0.00000E+00
 -1      1188 0.00000E+00
 -1      1197 0.00000E+00
 -1      1199 0.00000E+00
 -1      1200 0.00000E+00
 -1      1202 0.00000E+00
 -1      1211 0.00000E+00
 -1      1213 0.00000E+00
 -1      1214 0.00000E+00
 -1      1216 0.00000E+00
 -1      1225 0.00000E+00
 -1      1227 0.00000E+00
 -1      1228 0.00000E+00
 -1      1230 0.00000E+00
 -1      1239 0.00000E+00
 -1      1241 0.00000E+00
 -1      1242 0.00000E+00
 -1      1244 0.00000E+00
 -1      1253 0.00000E+00
 -1      1255 0.00000E+00
 -1      1256 0.00000E+00
 -1      1258 0.00000E+00
 -1      1267 0.00000E+00
 -1      1269 0.00000E+00
 -1      1270 0.00000E+00
 -1      1272 0.00000E+00
 -1      1281 0.00000E+00
 -1      1283 0.00000E+00
 -1      1284 0.00000E+00
 -1      1286 0.00000E+00
 -1      1295 0.00000E+00
 -1      1297 0.00000E+00
 -1      1298 0.00000E+00
 -1      1300 0.00000E+00
 -1      1309 0.00000E+00
 -1      1311 0.00000E+00
 -1      1312 0.00000E+00
 -1      1314 0.00000E+00
 -1      1323 0.00000E+00
 -1      1325 0.00000E+00
 -1      1326 0.00000E+00
 -1      1328 0.00000E+00
 -1      1337 0.00000E+00
 -1      1339 0.00000E+00
 -1      1340 0.00000E+00
 -1      1342 0.00000E+00
 -1      1351 0.00000E+00
 -1      1353 0.00000E+00
 -1      1354 0.00000E+00
 -1      1356 0.00000E+00
 -1      1365 0.00000E+00
 -1      1367 0.00000E+00
 -1      1368 0.00000E+00
 -1      1370 0.00000E+00
 -1      1379 0.00000E+00
 -1      1381 0.00000E+00
 -1      1382 0.00000E+00
 -1      1384 0.00000E+00
 -1      1393 0.00000E+00
 -1      1395 0.00000E+00
 -1      1396 0.00000E+00
 -1      1398 0.00000E+00
 -1      1407 0.00000E+00
 -1      1409 0.00000E+00
 -1      1410 0.00000E+00
 -1      1412 0.00000E+00
 -1      1421 0.00000E+00
 -1      1423 0.00000E+00
 -1      1424 0.00000E+00
 -1      1426 0.00000E+00
 -1      1435 0.00000E+00
 -1      1437 0.00000E+00
 -1      1438 0.00000E+00
 -1      1440 0.00000E+00
 -1      1449 0.00000E+00
 -1      1451 0.00000E+00
 -1      1452 0.00000E+00
 -1      1454 0.00000E+00
 -1      1463 0.00000E+00
 -1      1465 0.00000E+00
 -1      1466 0.00000E+00
 -1      1468 0.00000E+00
 -1      1477 0.00000E+00
 -1      1479 0.00000E+00
 -1      1480 0.00000E+00
 -1      1482 0.00000E+00
 -1      1491 0.00000E+00
 -1      1493 0.00000E+00
 -1      1494 0.00000E+00
 -1      1496 0.00000E+00
 -1      1497 0.00000E+00
 -1      1499 0.00000E+00
 -1      1500 0.00000E+00
 -1      1502 0.00000E+00
 -1      1503 0.00000E+00
 -1      1505 0.00000E+00
 -1      1506 0.00000E+00
 -1      1508 0.00000E+00
 -1      1509 0.00000E+00
 -1      1511 0.00000E+00
 -1      1512 0.00000E+00
 -1      1514 0.00000E+00
 -1      1515 0.00000E+00
 -1      1517 0.00000E+00
 -1      1518 0.00000E+00
 -1      1520 0.00000E+00
 -1      1521 0.00000E+00
 -1      1523 0.00000E+00
 -1      1524 0.00000E+00
 -1      1526 0.00000E+00
 -1      1527 0.00000E+00
 -1      1529 0.00000E+00
 -1      1530 0.00000E+00
 -1      1532 0.00000E+00
 -1      1533 0.00000E+00
 -1      1535 0.00000E+00
 -1      1536 0.00000E+00
 -1      1538 0.00000E+00
 -1      1539 0.00000E+00
 -1      1541 0.00000E+00
 -1      1542 0.00000E+00
 -1      1544 0.00000E+00
 -1      1545 0.00000E+00
 -1      1547 0.00000E+00
 -1      1548 0.00000E+00
 -1      1550 0.00000E+00
 -1      1551 0.00000E+00
 -1      1553 0.00000E+00
 -1      1554 0.00000E+00
 -1      1556 0.00000E+00
 -1      1557 0.00000E+00
 -1      1559 0.00000E+00
 -1      1560 0.00000E+00
 -1      1562 0.00000E+00
 -1      1563 0.00000E+00
 -1      1565 0.00000E+00
 -1      1566 0.00000E+00
 -1      1568 0.00000E+00
 -1      1569 0.00000E+00
 -1      1571 0.00000E+00
 -1      1572 0.00000E+00
 -1      1574 0.00000E+00
 -1      1575 0.00000E+00
 -1      1577 0.00000E+00
 -1      1578 0.00000E+00
 -1      1580 0.00000E+00
 -1      1581 0.00000E+00
 -1      1583 0.00000E+00
 -1      1584 0.00000E+00
 -1      1586 0.00000E+00
 -1      1587 0.00000E+00
 -1      1589 0.00000E+00
 -1      1590 0.00000E+00
 -1      1592 0.00000E+00
 -1      1593 0.00000E+00
 -1      1595 0.00000E+00
 -1      1596 0.00000E+00
 -1      1598 0.00000E+00
 -1      1599 0.00000E+00
 -1      1601 0.00000E+00
 -1      1602 0.00000E+00
 -1      1604 0.00000E+00
 -1      1605 0.00000E+00
 -1      1607 0.00000E+00
 -1      1608 0.00000E+00
 -1      1610 0.00000E+00
 -1      1611 0.00000E+00
 -1      1613 0.00000E+00
 -1      1614 0.00000E+00
 -1      1616 0.00000E+00
 -1      1617 0.00000E+00
 -1      1619 0.00000E+00
 -1      1620 0.00000E+00
 -1      1622 0.00000E+00
 -1      1623 0.00000E+00
 -1      1625 0.00000E+00
 -1      1626 0.00000E+00
 -1      1628 0.00000E+00
 -1      1629 0.00000E+00
 -1      1631 0.00000E+00
 -1      1632 0.00000E+00
 -1      1634 0.00000E+00
 -1      1635 0.00000E+00
 -1      1637 0.00000E+00
 -1      1638 0.00000E+00
 -1      1640 0.00000E+00
 -1      1641 0.00000E+00
 -1      1643 0.00000E+00
 -1      1644 0.00000E+00
 -1      1646 0.00000E+00
 -1      1647 0.00000E+00
 -1      1649 0.00000E+00
 -1      1650 0.00000E+00
 -1      1652 0.00000E+00
 -1      1653 0.00000E+00
 -1      1655 0.00000E+00
 -1      1656 0.00000E+00
 -1      1658 0.00000E+00
 -1      1659 0.00000E+00
 -1      1661 0.00000E+00
 -1      1662 0.00000E+00
 -1      1664 0.00000E+00
 -1      1665 0.00000E+00
 -1      1667 0.00000E+00
 -1      1668 0.00000E+00
 -1      1670 0.00000E+00
 -1      1671 0.00000E+00
 -1      1673 0.00000E+00
 -1      1674 0.00000E+00
 -1      1676 0.00000E+00
 -1      1677 0.00000E+00
 -1      1679 0.00000E+00
 -1      1680 0.00000E+00
 -1      1682 0.00000E+00
 -1      1683 0.00000E+00
 -1      1685 0.00000E+00
 -1      1686 0.00000E+00
 -1      1688 0.00000E+00
 -1      1689 0.00000E+00
 -1      1691 0.00000E+00
 -1      1692 0.00000E+00
 -1      1694 0.00000E+00
 -1      1695 0.00000E+00
 -1      1697 0.00000E+00
 -1      1698 0.00000E+00
 -1      1700 0.00000E+00
 -1      1701 0.00000E+00
 -1      1703 0.00000E+00
 -1      1704 0.00000E+00
 -1      1706 0.00000E+00
 -1      1707 0.00000E+00
 -1      1709 0.00000E+00
 -1      1710 0.00000E+00
 -1      1712 0.00000E+00
 -1      1713 0.00000E+00
 -1      1715 0.00000E+00
 -1      1716 0.00000E+00
 -1      1718 0.00000E+00
 -1      1719 0.00000E+00
 -1      1721 0.00000E+00
 -1      1722 0.00000E+00
 -1      1724 0.00000E+00
 -1      1725 0.00000E+00
 -1      1727 0.00000E+00
 -1      1728 0.00000E+00
 -1      1730 0.00000E+00
 -1      1731 0.00000E+00
 -1      1733 0.00000E+00
 -1      1734 0.00000E+00
 -1      1736 0.00000E+00
 -1      1737 0.00000E+00
 -1      1739 0.00000E+00
 -1      1740 0.00000E+00
 -1      1742 0.00000E+00
 -1      1743 0.00000E+00
 -1      1745 0.00000E+00
 -1      1746 0.00000E+00
 -1      1748 0.00000E+00
 -1      1749 0.00000E+00
 -1      1751 0.00000E+00
 -1      1752 0.00000E+00
 -1      1754 0.00000E+00
 -1      1755 0.00000E+00
 -1      1757 0.00000E+00
 -1      1758 0.00000E+00
 -1      1760 0.00000E+00
 -1      1761 0.00000E+00
 -1      1763 0.00000E+00
 -1      1764 0.00000E+00
 -1      1766 0.00000E+00
 -1      1767 0.00000E+00
 -1      1769 0.00000E+00
 -1      1770 0.00000E+00
 -1      1772 0.00000E+00
 -1      1773 0.00000E+00
 -1      1775 0.00000E+00
 -1      1776 0.00000E+00
 -1      1778 0.00000E+00
 -1      1779 0.00000E+00
 -1      1781 0.00000E+00
 -1      1782 0.00000E+00
 -1      1784 0.00000E+00
 -1      1785 0.00000E+00
 -1      1787 0.00000E+00
 -1      1788 0.00000E+00
 -1      1790 0.00000E+00
 -1      1791 0.00000E+00
 -1      1793 0.00000E+00
 -1      1794 0.00000E+00
 -1      1796 0.00000E+00
 -1      1797 0.00000E+00
 -1      1799 0.00000E+00
 -1      1800 0.00000E+00
 -1      1802 0.00000E+00
 -1      1803 0.00000E+00
 -1      1805 0.00000E+00
 -1      1806 0.00000E+00
 -1      1808 0.00000E+00
 -1      1809 0.00000E+00
 -1      1811 0.00000E+00
 -1      1812 0.00000E+00
 -1      1814 0.00000E+00
 -1      1815 0.00000E+00
 -1      1817 0.00000E+00
 -1      1818 0.00000E+00
 -1      1820 0.00000E+00
 -1      1821 0.00000E+00
 -1      1823 0.00000E+00
 -1      1824 0.00000E+00
 -1      1826 0.00000E+00
 -1      1827 0.00000E+00
 -1      1829 0.00000E+00
 -1      1830 0.00000E+00
 -1      1832 0.00000E+00
 -1      1833 0.00000E+00
 -1      1835 0.00000E+00
 -1      1836 0.00000E+00
 -1      1838 0.00000E+00
 -1      1839 0.00000E+00
 -1      1841 0.00000E+00
 -1      1842 0.00000E+00
 -1      1844 0.00000E+00
 -1      1845 0.00000E+00
 -1      1847 0.00000E+00
 -1      1848 0.00000E+00
 -1      1850 0.00000E+00
 -1      1851 0.00000E+00
 -1      1853 0.00000E+00
 -1      1854 0.00000E+00
 -1      1856 0.00000E+00
 -1      1857 0.00000E+00
 -1      1859 0.00000E+00
 -1      1860 0.00000E+00
 -1      1862 0.00000E+00
 -1      1863 0.00000E+00
 -1      1865 0.00000E+00
 -1      1866 0.00000E+00
 -1      1868 0.00000E+00
 -1      1869 0.00000E+00
 -1      1871 0.00000E+00
 -1      1872 0.00000E+00
 -1      1874 0.00000E+00
 -1      1875 0.00000E+00
 -1      1877 0.00000E+00
 -1      1878 0.00000E+00
 -1      1880 0.00000E+00
 -1      1881 0.00000E+00
 -1      1883 0.00000E+00
 -1      1884 0.00000E+00
 -1      1886 0.00000E+00
 -1      1887 0.00000E+00
 -1      1889 0.00000E+00
 -1      1890 0.00000E+00
 -1      1892 0.00000E+00
 -1      1893 0.00000E+00
 -1      1895 0.00000E+00
 -1      1896 0.00000E+00
 -1      1898 0.00000E+00
 -1      1899 0.00000E+00
 -1      1901 0.00000E+00
 -1      1902 0.00000E+00
 -1      1904 0.00000E+00
 -1      1905 0.00000E+00
 -1      1907 0.00000E+00
 -1      1908 0.00000E+00
 -1      1910 0.00000E+00
 -1      1911 0.00000E+00
 -1      1913 0.00000E+00
 -1      1914 0.00000E+00
 -1      1916 0.00000E+00
 -1      1917 0.00000E+00
 -1      1919 0.00000E+00
 -1      1920 0.00000E+00
 -1      1922 0.00000E+00
 -1      1923 0.00000E+00
 -1      1925 0.00000E+00
 -1      1926 0.00000E+00
 -1      1928 0.00000E+00
 -1      1929 0.00000E+00
 -1      1931 0.00000E+00
 -1      1932 0.00000E+00
 -1      1934 0.00000E+00
 -1      1935 0.00000E+00
 -1      1937 0.00000E+00
 -1      1938 0.00000E+00
 -1      1940 0.00000E+00
 -1      1941 0.00000E+00
 -1      1943 0.00000E+00
 -1      1944 0.00000E+00
 -1      1946 0.00000E+00
 -1      1947 0.00000E+00
 -1      1949 0.00000E+00
 -1      1950 0.00000E+00
 -1      1952 0.00000E+00
 -1      1953 0.00000E+00
 -1      1955 0.00000E+00
 -1      1956 0.00000E+00
 -1      1958 0.00000E+00
 -1      1959 0.00000E+00
 -1      1961 0.00000E+00
 -1      1962 0.00000E+00
 -1      1964 0.00000E+00
 -1      1965 0.00000E+00
 -1      1967 0.00000E+00
 -1      1968 0.00000E+00
 -1      1970 0.00000E+00
 -1      1971 0.00000E+00
 -1      1973 0.00000E+00
 -1      1974 0.00000E+00
 -1      1976 0.00000E+00
 -1      1977 0.00000E+00
 -1      1979 0.00000E+00
 -1      1980 0.00000E+00
 -1      1982 0.00000E+00
 -1      1983 0.00000E+00
 -1      1985 0.00000E+00
 -1      1986 0.00000E+00
 -1      1988 0.00000E+00
 -1      1989 0.00000E+00
 -1      1991 0.00000E+00
 -1      1992 0.00000E+00
 -1      1994 0.00000E+00
 -1      1995 0.00000E+00
 -1      1997 0.00000E+00
 -1      1998 0.00000E+00
 -1      2000 0.00000E+00
 -1      2001 0.00000E+00
 -1      2003 0.00000E+00
 -1      2004 0.00000E+00
 -1      2006 0.00000E+00
 -1      2007 0.00000E+00
 -1      2009 0.00000E+00
 -1      2010 0.00000E+00
 -1      2012 0.00000E+00
 -1      2013 0.00000E+00
 -1      2015 0.00000E+00
 -1      2016 0.00000E+00
 -1      2018 0.00000E+00
 -1      2019 0.00000E+00
 -1      2021 0.00000E+00
 -1      2022 0.00000E+00
 -1      2024 0.00000E+00
 -1      2025 0.00000E+00
 -1      2027 0.00000E+00
 -1      2028 0.00000E+00
 -1      2030 0.00000E+00
 -1      2031 0.00000E+00
 -1      2033 0.00000E+00
 -1      2034 0.00000E+00
 -1      2036 0.00000E+00
 -1      2037 0.00000E+00
 -1      2039 0.00000E+00
 -1      2040 0.00000E+00
 -1      2042 0.00000E+00
 -1      2043 0.00000E+00
 -1      2045 0.00000E+00
 -1      2046 0.00000E+00
 -1      2048 0.00000E+00
 -1      2049 0.00000E+00
 -1      2051 0.00000E+00
 -1      2052 0.00000E+00
 -1      2054 0.00000E+00
 -1      2055 0.00000E+00
 -1      2057 0.00000E+00
 -1      2058 0.00000E+00
 -1      2060 0.00000E+00
 -1      2061 0.00000E+00
 -1      2063 0.00000E+00
 -1      2064 0.00000E+00
 -1      2066 0.00000E+00
 -1      2067 0.00000E+00
 -1      2069 0.00000E+00
 -1      2070 0.00000E+00
 -1      2072 0.00000E+00
 -1      2073 0.00000E+00
 -1      2075 0.00000E+00
 -1      2076 0.00000E+00
 -1      2078 0.00000E+00
 -1      2079 0.00000E+00
 -1      2081 0.00000E+00
 -1      2082 0.00000E+00
 -1      2084 0.00000E+00
 -1      2085 0.00000E+00
 -1      2087 0.00000E+00
 -1      2088 0.00000E+00
 -1      2090 0.00000E+00
 -1      2091 0.00000E+00
 -1      2093 0.00000E+00
 -1      2094 0.00000E+00
 -1      2096 0.00000E+00
 -1      2097 0.00000E+00
 -1      2099 0.00000E+00
 -1      2100 0.00000E+00
 -1      2102 0.00000E+00
 -1      2103 0.00000E+00
 -1      2105 0.00000E+00
 -1      2106 0.00000E+00
 -1      2108 0.00000E+00
 -1      2109 0.00000E+00
 -1      2111 0.00000E+00
 -1      2112 0.00000E+00
 -1      2114 0.00000E+00
 -1      2115 0.00000E+00
 -1      2117 0.00000E+00
 -1      2118 0.00000E+00
 -1      2120 0.00000E+00
 -1      2121 0.00000E+00
 -1      2123 0.00000E+00
 -1      2124 0.00000E+00
 -1      2126 0.00000E+00
 -1      2127 0.00000E+00
 -1      2129 0.00000E+00
 -1      2130 0.00000E+00
 -1      2132 0.00000E+00
 -1      2133 0.00000E+00
 -1      2135 0.00000E+00
 -1      2136 0.00000E+00
 -1      2138 0.00000E+00
 -1      2139 0.00000E+00
 -1      2141 0.00000E+00
 -1      2142 0.00000E+00
 -1      2144 0.00000E+00
 -1      2145 0.00000E+00
 -1      2147 0.00000E+00
 -1      2148 0.00000E+00
 -1      2150 0.00000E+00
 -1      2151 0.00000E+00
 -1      2153 0.00000E+00
 -1      2154 0.00000E+00
 -1      2156 0.00000E+00
 -1      2157 0.00000E+00
 -1      2159 0.00000E+00
 -1      2160 0.00000E+00
 -1      2162 0.00000E+00
 -1      2163 0.00000E+00
 -1      2165 0.00000E+00
 -1      2166 0.00000E+00
 -1      2168 0.00000E+00
 -1      2169 0.00000E+00
 -1      2171 0.00000E+00
 -1      2172 0.00000E+00
 -1      2174 0.00000E+00
 -1      2175 0.00000E+00
 -1      2177 0.00000E+00
 -1      2178 0.00000E+00
 -1      2180 0.00000E+00
 -1      2181 0.00000E+00
 -1      2183 0.00000E+00
 -1      2184 0.00000E+00
 -1      2186 0.00000E+00
 -1      2187 0.00000E+00
 -1      2189 0.00000E+00
 -1      2190 0.00000E+00
 -1      2192 0.00000E+00
 -1      2193 0.00000E+00
 -1      2195 0.00000E+00
 -1      2196 0.00000E+00
 -1      2198 0.00000E+00
 -1      2199 0.00000E+00
 -1      2201 0.00000E+00
 -1      2202 0.00000E+00
 -1      2204 0.00000E+00
 -1      2205 0.00000E+00
 -1      2207 0.00000E+00
 -1      2208 0.00000E+00
 -1      2210 0.00000E+00
 -1      2211 0.00000E+00
 -1      2213 0.00000E+00
 -1      2214 0.00000E+00
 -1      2216 0.00000E+00
 -1      2217 0.00000E+00
 -1      2219 0.00000E+00
 -1      2220 0.00000E+00
 -1      2222 0.00000E+00
 -1      2223 0.00000E+00
 -1      2225 0.00000E+00
 -1      2226 0.00000E+00
 -1      2228 0.00000E+00
 -1      2229 0.00000E+00
 -1      2231 0.00000E+00
 -1      2232 0.00000E+00
 -1      2234 0.00000E+00
 -1      2235 0.00000E+00
 -1      2237 0.00000E+00
 -1      2238 0.00000E+00
 -1      2240 0.00000E+00
 -1      2241 0.00000E+00
 -1      2243 0.00000E+00
 -1      2244 0.00000E+00
 -1      2246 0.00000E+00
 -1      2247 0.00000E+00
 -1      2249 0.00000E+00
 -1      2250 0.00000E+00
 -1      2252 0.00000E+00
 -1      2253 0.00000E+00
 -1      2255 0.00000E+00
 -1      2256 0.00000E+00
 -1      2258 0.00000E+00
 -1      2259 0.00000E+00
 -1      2261 0.00000E+00
 -1      2262 0.00000E+00
 -1      2264 0.00000E+00
 -1      2265 0.00000E+00
 -1      2267 0.00000E+00
 -1      2268 0.00000E+00
 -1      2270 0.00000E+00
 -1      2271 0.00000E+00
 -1      2273 0.00000E+00
 -1      2274 0.00000E+00
 -1      2276 0.00000E+00
 -1      2277 0.00000E+00
 -1      2279 0.00000E+00
 -1      2280 0.00000E+00
 -1      2282 0.00000E+00
 -1      2283 0.00000E+00
 -1      2285 0.00000E+00
 -1      2286 0.00000E+00
 -1      2288 0.00000E+00
 -1      2289 0.00000E+00
 -1      2291 0.00000E+00
 -1      2292 0.00000E+00
 -1      2294 0.00000E+00
 -3
    1PSTEP                        57           1           1          
    1PGM                1.000000E+00                                  
    1PGK                1.277423E+07                                  
    1PHID                         -1                                  
    1PSUBC                         0                                  
    1PMODE                        15                                  
  100CL  115 568.8364825         930                     2   15MODAL      1
 -4  DISP        4    1
 -5  D1          1    2    1    0
 -5  D2          1    2    2    0
 -5  D3          1    2    3    0
 -5  ALL         1    2    0    0    1ALL
 -1       404 0.00000E+00 0.00000E+00-2.41520E-05
 -1       406 0.00000E+00-0.00000E+00 2.41520E-05
 -1       407 7.27599E-05 1.50538E-02 2.45748E-01
 -1       409-7.39210E-05-2.79466E-02 2.45746E-01
 -1       410-3.96103E-13 4.67358E-03-8.99994E-13
 -1       412-3.73060E-13-1.75466E-02-8.99532E-13
 -1       413 2.20533E-06-6.43650E-03-7.07753E-03
 -1       415-2.20533E-06-6.43650E-03 7.07753E-03
 -1       424 0.00000E+00 0.00000E+00-1.72822E-15
 -1       426 0.00000E+00 0.00000E+00 1.72822E-15
 -1       427 0.00000E+00-1.10094E-15 0.00000E+00
 -1       429 0.00000E+00 1.10094E-15 0.00000E+00
 -1       438-7.27599E-05 1.50538E-02-2.45748E-01
 -1       440 7.39210E-05-2.79466E-02-2.45746E-01
 -1       441 0.00000E+00 0.00000E+00 2.41520E-05
 -1       443 0.00000E+00-0.00000E+00-2.41520E-05
 -1       444 0.00000E+00 8.69517E-16 0.00000E+00
 -1       446 0.00000E+00-8.69517E-16 0.00000E+00
 -1       447 0.00000E+00 0.00000E+00-1.36494E-15
 -1       449 0.00000E+00 0.00000E+00 1.36494E-15
 -1       458-2.20533E-06 6.43650E-03-7.07753E-03
 -1       460 2.20533E-06 6.43650E-03 7.07753E-03
 -1       461 3.23269E-13-4.67358E-03-9.10562E-13
 -1       463 2.99393E-13 1.75466E-02-9.12230E-13
 -1       472 0.00000E+00 0.00000E+00 2.41520E-05
 -1       474 0.00000E+00 0.00000E+00-2.41520E-05
 -1       475 7.27599E-05-1.50538E-02-2.45748E-01
 -1       477-7.39210E-05 2.79466E-02-2.45746E-01
 -1       478-7.27599E-05-1.50538E-02 2.45748E-01
 -1       480 7.39210E-05 2.79466E-02 2.45746E-01
 -1       481 0.00000E+00 0.00000E+00-2.41520E-05
 -1       483 0.00000E+00 0.00000E+00 2.41520E-05
 -1       484-4.45829E-03-2.56174E-03-3.14686E-02
 -1       486 3.17730E-03 3.65036E-03-3.14499E-02
 -1       487-2.92694E-03-4.76724E-03-7.30038E-02
 -1       489 7.90054E-04 7.96306E-03-7.29948E-02
 -1       490-3.89908E-03-6.37936E-03-1.07197E-01
 -1       492 1.28045E-03 1.24715E-02-1.07185E-01
 -1       493-3.37708E-03-7.71580E-03-1.41223E-01
 -1       495 5.41063E-04 1.69842E-02-1.41224E-01
 -1       496-3.29973E-03-8.64021E-03-1.70471E-01
 -1       498 4.93435E-04 2.12206E-02-1.70471E-01
 -1       499-2.77263E-03-9.32481E-03-1.96043E-01
 -1       501 2.29152E-04 2.50045E-02-1.96049E-01
 -1       502-2.25488E-03-9.77664E-03-2.16474E-01
 -1       504 1.48089E-04 2.81579E-02-2.16482E-01
 -1       505-1.56552E-03-1.00602E-02-2.31667E-01
 -1       507 6.16528E-05 3.05341E-02-2.31679E-01
 -1       508-8.33915E-04-1.02252E-02-2.41075E-01
 -1       510 2.99287E-05 3.20366E-02-2.41088E-01
 -1       511-4.71360E-05-1.02817E-02-2.44556E-01
 -1       513 1.19471E-05 3.25840E-02-2.44569E-01
 -1       514 7.37617E-04-1.02623E-02-2.41988E-01
 -1       516-2.14219E-06 3.21630E-02-2.42001E-01
 -1       517 1.49561E-03-1.01425E-02-2.33453E-01
 -1       519-2.62903E-05 3.07766E-02-2.33465E-01
 -1       520 2.18987E-03-9.92056E-03-2.19150E-01
 -1       522-7.80077E-05 2.84929E-02-2.19161E-01
 -1       523 2.79423E-03-9.54968E-03-1.99433E-01
 -1       525-1.62930E-04 2.53953E-02-1.99440E-01
 -1       526 3.28605E-03-9.00354E-03-1.74777E-01
 -1       528-2.90004E-04 2.16158E-02-1.74781E-01
 -1       529 3.65049E-03-8.23207E-03-1.45785E-01
 -1       531-4.55742E-04 1.72945E-02-1.45786E-01
 -1       532 3.88072E-03-7.20782E-03-1.13166E-01
 -1       534-6.56493E-04 1.25969E-02-1.13164E-01
 -1       535 3.97695E-03-5.90134E-03-7.77183E-02
 -1       537-8.78834E-04 7.68385E-03-7.77139E-02
 -1       538 3.94728E-03-4.30974E-03-4.03138E-02
 -1       540-1.10842E-03 2.71854E-03-4.03073E-02
 -1       541 3.80478E-03-2.44443E-03-1.87496E-03
 -1       543-1.32515E-03-2.15261E-03-1.86717E-03
 -1       544 3.56755E-03-3.43812E-04 3.66462E-02
 -1       546-1.50992E-03-6.79888E-03 3.66546E-02
 -1       547 3.25569E-03 1.93220E-03 7.42934E-02
 -1       549-1.64277E-03-1.11129E-02 7.43016E-02
 -1       550 2.88934E-03 4.30325E-03 1.10126E-01
 -1       552-1.70709E-03-1.50125E-02 1.10133E-01
 -1       553 2.48973E-03 6.67067E-03 1.43252E-01
 -1       555-1.69186E-03-1.84373E-02 1.43257E-01
 -1       556 2.06867E-03 8.92854E-03 1.72828E-01
 -1       558-1.58666E-03-2.13518E-02 1.72833E-01
 -1       559 1.64996E-03 1.09653E-02 1.98135E-01
 -1       561-1.40162E-03-2.37353E-02 1.98137E-01
 -1       562 1.21753E-03 1.26761E-02 2.18483E-01
 -1       564-1.12051E-03-2.55831E-02 2.18484E-01
 -1       565 8.27754E-04 1.39722E-02 2.33463E-01
 -1       567-8.08320E-04-2.68972E-02 2.33462E-01
 -1       568 3.70130E-04 1.47750E-02 2.42473E-01
 -1       570-3.71474E-04-2.76829E-02 2.42471E-01
 -1       571 3.68497E-05 1.40382E-02 1.05728E-01
 -1       573-3.06492E-05-2.69260E-02 1.05730E-01
 -1       574-6.33846E-14-9.81178E-04-1.52032E-13
 -1       576-2.80145E-14 1.71993E-03-1.50415E-13
 -1       577 1.27640E-04 3.69376E-04 8.60352E-04
 -1       579-1.27640E-04 3.69376E-04-8.60352E-04
 -1       588-7.37563E-14-1.67209E-03-3.38787E-13
 -1       590-5.91999E-14 4.98135E-03-3.38970E-13
 -1       591 3.38693E-06 1.65463E-03 2.11924E-03
 -1       593-3.38693E-06 1.65463E-03-2.11924E-03
 -1       602-8.45302E-14-1.93355E-03-4.92867E-13
 -1       604-6.16862E-14 7.80894E-03-4.93122E-13
 -1       605 1.47452E-04 2.93770E-03 3.10316E-03
 -1       607-1.47452E-04 2.93770E-03-3.10316E-03
 -1       616-7.65075E-14-1.70475E-03-6.37708E-13
 -1       618-6.17291E-14 1.10673E-02-6.38723E-13
 -1       619 3.95989E-05 4.68128E-03 4.06814E-03
 -1       621-3.95989E-05 4.68128E-03-4.06814E-03
 -1       630-5.94371E-14-1.46729E-03-7.53388E-13
 -1       632-4.47287E-14 1.39639E-02-7.54906E-13
 -1       633 1.21292E-04 6.24832E-03 4.91513E-03
 -1       635-1.21292E-04 6.24832E-03-4.91513E-03
 -1       644-2.57114E-14-9.54860E-04-8.35940E-13
 -1       646-1.80938E-14 1.67152E-02-8.38232E-13
 -1       647 4.94748E-05 7.88018E-03 5.62825E-03
 -1       649-4.94748E-05 7.88018E-03-5.62825E-03
 -1       658 1.49079E-14-5.70565E-04-8.74103E-13
 -1       660 1.78575E-14 1.89550E-02-8.76497E-13
 -1       661 8.07570E-05 9.19224E-03 6.21927E-03
 -1       663-8.07570E-05 9.19224E-03-6.21927E-03
 -1       672 5.90112E-14-1.44447E-04-8.55313E-13
 -1       674 5.21984E-14 2.07009E-02-8.58021E-13
 -1       675 3.09473E-05 1.02782E-02 6.63964E-03
 -1       677-3.09473E-05 1.02782E-02-6.63964E-03
 -1       686 9.57366E-14 7.83066E-05-7.82229E-13
 -1       688 8.42618E-14 2.17819E-02-7.84220E-13
 -1       689 3.26036E-05 1.09301E-02 6.91300E-03
 -1       691-3.26036E-05 1.09301E-02-6.91300E-03
 -1       700 1.25474E-13 1.96234E-04-6.78214E-13
 -1       702 1.11689E-13 2.21875E-02-6.79818E-13
 -1       703-5.08711E-06 1.11918E-02 7.00461E-03
 -1       705 5.08711E-06 1.11918E-02-7.00461E-03
 -1       714 1.52606E-13 9.37066E-05-5.42611E-13
 -1       716 1.33339E-13 2.18674E-02-5.44221E-13
 -1       717-1.68693E-05 1.09806E-02 6.93533E-03
 -1       719 1.68693E-05 1.09806E-02-6.93533E-03
 -1       728 1.71737E-13-1.49680E-04-3.72032E-13
 -1       730 1.48951E-13 2.08498E-02-3.72657E-13
 -1       731-4.54311E-05 1.03501E-02 6.68872E-03
 -1       733 4.54311E-05 1.03501E-02-6.68872E-03
 -1       742 1.79256E-13-5.56048E-04-1.77977E-13
 -1       744 1.53950E-13 1.91742E-02-1.78606E-13
 -1       745-5.93897E-05 9.30908E-03 6.28445E-03
 -1       747 5.93897E-05 9.30908E-03-6.28445E-03
 -1       756 1.74791E-13-1.04038E-03 2.56929E-14
 -1       758 1.48985E-13 1.69221E-02 2.58527E-14
 -1       759-7.82939E-05 7.94087E-03 5.72139E-03
 -1       761 7.82939E-05 7.94087E-03-5.72139E-03
 -1       770 1.57068E-13-1.56767E-03 2.21060E-13
 -1       772 1.33824E-13 1.41951E-02 2.22738E-13
 -1       773-8.74085E-05 6.31373E-03 5.02074E-03
 -1       775 8.74085E-05 6.31373E-03-5.02074E-03
 -1       784 1.27550E-13-2.05120E-03 3.97872E-13
 -1       786 1.06755E-13 1.11134E-02 3.99414E-13
 -1       787-9.58185E-05 4.53111E-03 4.19318E-03
 -1       789 9.58185E-05 4.53111E-03-4.19318E-03
 -1       798 9.05621E-14-2.43644E-03 5.47772E-13
 -1       800 7.35705E-14 7.80701E-03 5.49704E-13
 -1       801-9.69862E-05 2.68529E-03 3.26273E-03
 -1       803 9.69862E-05 2.68529E-03-3.26273E-03
 -1       812 4.82728E-14-2.65459E-03 6.62946E-13
 -1       814 3.58890E-14 4.40533E-03 6.65239E-13
 -1       815-9.56205E-05 8.75367E-04 2.24872E-03
 -1       817 9.56205E-05 8.75367E-04-2.24872E-03
 -1       826-4.18841E-15-2.66574E-03 7.32357E-13
 -1       828-9.59917E-15 1.03165E-03 7.34924E-13
 -1       829-8.91820E-05-8.17042E-04 1.17769E-03
 -1       831 8.91820E-05-8.17042E-04-1.17769E-03
 -1       840-6.48489E-14-2.44020E-03 7.45436E-13
 -1       842-6.28128E-14-2.20553E-03 7.48447E-13
 -1       843-8.07465E-05-2.32286E-03 7.47478E-05
 -1       845 8.07465E-05-2.32286E-03-7.47478E-05
 -1       854-1.26735E-13-1.97534E-03 7.09959E-13
 -1       856-1.19960E-13-5.21726E-03 7.12497E-13
 -1       857-6.94736E-05-3.59630E-03-1.03261E-03
 -1       859 6.94736E-05-3.59630E-03 1.03261E-03
 -1       868-1.88043E-13-1.29164E-03 6.27847E-13
 -1       870-1.74372E-13-7.93589E-03 6.30841E-13
 -1       871-5.79543E-05-4.61377E-03-2.11632E-03
 -1       873 5.79543E-05-4.61377E-03 2.11632E-03
 -1       882-2.44534E-13-4.28490E-04 4.95378E-13
 -1       884-2.24053E-13-1.03193E-02 4.97523E-13
 -1       885-4.55519E-05-5.37391E-03-3.15042E-03
 -1       887 4.55519E-05-5.37391E-03 3.15042E-03
 -1       896-2.92150E-13 5.48592E-04 3.27094E-13
 -1       898-2.69432E-13-1.23443E-02 3.29200E-13
 -1       899-3.48888E-05-5.89786E-03-4.10663E-03
 -1       901 3.48888E-05-5.89786E-03 4.10663E-03
 -1       910-3.29999E-13 1.57240E-03 1.36127E-13
 -1       912-3.04050E-13-1.40104E-02 1.37057E-13
 -1       913-2.44384E-05-6.21901E-03-4.96342E-03
 -1       915 2.44384E-05-6.21901E-03 4.96342E-03
 -1       924-3.57363E-13 2.55260E-03-7.60812E-14
 -1       926-3.28951E-13-1.53275E-02-7.50341E-14
 -1       927-1.71522E-05-6.38745E-03-5.69514E-03
 -1       929 1.71522E-05-6.38745E-03 5.69514E-03
 -1       938-3.76214E-13 3.42120E-03-2.94316E-13
 -1       940-3.47964E-13-1.63165E-02-2.94144E-13
 -1       941-1.01492E-05-6.44764E-03-6.28682E-03
 -1       943 1.01492E-05-6.44764E-03 6.28682E-03
 -1       952-3.88529E-13 4.09291E-03-5.11838E-13
 -1       954-3.60202E-13-1.70041E-02-5.12246E-13
 -1       955-6.17966E-06-6.45561E-03-6.71980E-03
 -1       957 6.17966E-06-6.45561E-03 6.71980E-03
 -1       966-3.94247E-13 4.52278E-03-7.16584E-13
 -1       968-3.68744E-13-1.73996E-02-7.16915E-13
 -1       969-3.19689E-06-6.43839E-03-6.98267E-03
 -1       971 3.19689E-06-6.43839E-03 6.98267E-03
 -1       980 0.00000E+00 0.00000E+00-2.87223E-06
 -1       982 0.00000E+00-0.00000E+00 2.87223E-06
 -1       983-3.68497E-05 1.40382E-02-1.05728E-01
 -1       985 3.06492E-05-2.69260E-02-1.05730E-01
 -1       986 4.45829E-03-2.56174E-03 3.14686E-02
 -1       988-3.17730E-03 3.65036E-03 3.14499E-02
 -1       989 2.92694E-03-4.76724E-03 7.30038E-02
 -1       991-7.90054E-04 7.96306E-03 7.29948E-02
 -1       992 3.89908E-03-6.37936E-03 1.07197E-01
 -1       994-1.28045E-03 1.24715E-02 1.07185E-01
 -1       995 3.37708E-03-7.71580E-03 1.41223E-01
 -1       997-5.41063E-04 1.69842E-02 1.41224E-01
 -1       998 3.29973E-03-8.64021E-03 1.70471E-01
 -1      1000-4.93435E-04 2.12206E-02 1.70471E-01
 -1      1001 2.77263E-03-9.32481E-03 1.96043E-01
 -1      1003-2.29152E-04 2.50045E-02 1.96049E-01
 -1      1004 2.25488E-03-9.77664E-03 2.16474E-01
 -1      1006-1.48089E-04 2.81579E-02 2.16482E-01
 -1      1007 1.56552E-03-1.00602E-02 2.31667E-01
 -1      1009-6.16528E-05 3.05341E-02 2.31679E-01
 -1      1010 8.33915E-04-1.02252E-02 2.41075E-01
 -1      1012-2.99287E-05 3.20366E-02 2.41088E-01
 -1      1013 4.71360E-05-1.02817E-02 2.44556E-01
 -1      1015-1.19471E-05 3.25840E-02 2.44569E-01
 -1      1016-7.37617E-04-1.02623E-02 2.41988E-01
 -1      1018 2.14219E-06 3.21630E-02 2.42001E-01
 -1      1019-1.49561E-03-1.01425E-02 2.33453E-01
 -1      1021 2.62903E-05 3.07766E-02 2.33465E-01
 -1      1022-2.18987E-03-9.92056E-03 2.19150E-01
 -1      1024 7.80077E-05 2.84929E-02 2.19161E-01
 -1      1025-2.79423E-03-9.54968E-03 1.99433E-01
 -1      1027 1.62930E-04 2.53953E-02 1.99440E-01
 -1      1028-3.28605E-03-9.00354E-03 1.74777E-01
 -1      1030 2.90004E-04 2.16158E-02 1.74781E-01
 -1      1031-3.65049E-03-8.23207E-03 1.45785E-01
 -1      1033 4.55742E-04 1.72945E-02 1.45786E-01
 -1      1034-3.88072E-03-7.20782E-03 1.13166E-01
 -1      1036 6.56493E-04 1.25969E-02 1.13164E-01
 -1      1037-3.97695E-03-5.90134E-03 7.77183E-02
 -1      1039 8.78834E-04 7.68385E-03 7.77139E-02
 -1      1040-3.94728E-03-4.30974E-03 4.03138E-02
 -1      1042 1.10842E-03 2.71854E-03 4.03073E-02
 -1      1043-3.80478E-03-2.44443E-03 1.87496E-03
 -1      1045 1.32515E-03-2.15261E-03 1.86717E-03
 -1      1046-3.56755E-03-3.43812E-04-3.66462E-02
 -1      1048 1.50992E-03-6.79888E-03-3.66546E-02
 -1      1049-3.25569E-03 1.93220E-03-7.42934E-02
 -1      1051 1.64277E-03-1.11129E-02-7.43016E-02
 -1      1052-2.88934E-03 4.30325E-03-1.10126E-01
 -1      1054 1.70709E-03-1.50125E-02-1.10133E-01
 -1      1055-2.48973E-03 6.67067E-03-1.43252E-01
 -1      1057 1.69186E-03-1.84373E-02-1.43257E-01
 -1      1058-2.06867E-03 8.92854E-03-1.72828E-01
 -1      1060 1.58666E-03-2.13518E-02-1.72833E-01
 -1      1061-1.64996E-03 1.09653E-02-1.98135E-01
 -1      1063 1.40162E-03-2.37353E-02-1.98137E-01
 -1      1064-1.21753E-03 1.26761E-02-2.18483E-01
 -1      1066 1.12051E-03-2.55831E-02-2.18484E-01
 -1      1067-8.27754E-04 1.39722E-02-2.33463E-01
 -1      1069 8.08320E-04-2.68972E-02-2.33462E-01
 -1      1070-3.70130E-04 1.47750E-02-2.42473E-01
 -1      1072 3.71474E-04-2.76829E-02-2.42471E-01
 -1      1073 0.00000E+00 0.00000E+00 2.87223E-06
 -1      1075 0.00000E+00-0.00000E+00-2.87223E-06
 -1      1076 0.00000E+00-2.41614E-16 0.00000E+00
 -1      1078 0.00000E+00 2.41614E-16 0.00000E+00
 -1      1079 0.00000E+00-3.71610E-17 0.00000E+00
 -1      1081 0.00000E+00 3.71610E-17 0.00000E+00
 -1      1082 0.00000E+00 1.43467E-16 0.00000E+00
 -1      1084 0.00000E+00-1.43467E-16 0.00000E+00
 -1      1085-1.27640E-04-3.69376E-04 8.60352E-04
 -1      1087 1.27640E-04-3.69376E-04-8.60352E-04
 -1      1088 5.34046E-14 9.81178E-04-1.37934E-13
 -1      1090 2.23959E-14-1.71993E-03-1.36381E-13
 -1      1099-3.38693E-06-1.65463E-03 2.11924E-03
 -1      1101 3.38693E-06-1.65463E-03-2.11924E-03
 -1      1102 6.44068E-14 1.67209E-03-3.24088E-13
 -1      1104 4.74134E-14-4.98135E-03-3.24401E-13
 -1      1113-1.47452E-04-2.93770E-03 3.10316E-03
 -1      1115 1.47452E-04-2.93770E-03-3.10316E-03
 -1      1116 6.89883E-14 1.93355E-03-4.89135E-13
 -1      1118 4.62199E-14-7.80894E-03-4.89730E-13
 -1      1127-3.95989E-05-4.68128E-03 4.06814E-03
 -1      1129 3.95989E-05-4.68128E-03-4.06814E-03
 -1      1130 5.08724E-14 1.70475E-03-6.40905E-13
 -1      1132 3.56834E-14-1.10673E-02-6.42242E-13
 -1      1141-1.21292E-04-6.24832E-03 4.91513E-03
 -1      1143 1.21292E-04-6.24832E-03-4.91513E-03
 -1      1144 2.34687E-14 1.46729E-03-7.58550E-13
 -1      1146 1.03029E-14-1.39639E-02-7.60315E-13
 -1      1155-4.94748E-05-7.88018E-03 5.62825E-03
 -1      1157 4.94748E-05-7.88018E-03-5.62825E-03
 -1      1158-1.54861E-14 9.54860E-04-8.41164E-13
 -1      1160-2.22684E-14-1.67152E-02-8.43755E-13
 -1      1169-8.07570E-05-9.19224E-03 6.21927E-03
 -1      1171 8.07570E-05-9.19224E-03-6.21927E-03
 -1      1172-5.88559E-14 5.70565E-04-8.69741E-13
 -1      1174-5.74261E-14-1.89550E-02-8.71939E-13
 -1      1183-3.09473E-05-1.02782E-02 6.63964E-03
 -1      1185 3.09473E-05-1.02782E-02-6.63964E-03
 -1      1186-9.98227E-14 1.44447E-04-8.44373E-13
 -1      1188-9.28218E-14-2.07009E-02-8.46829E-13
 -1      1197-3.26036E-05-1.09301E-02 6.91300E-03
 -1      1199 3.26036E-05-1.09301E-02-6.91300E-03
 -1      1200-1.39453E-13-7.83066E-05-7.86836E-13
 -1      1202-1.30469E-13-2.17819E-02-7.88154E-13
 -1      1211 5.08711E-06-1.11918E-02 7.00461E-03
 -1      1213-5.08711E-06-1.11918E-02-7.00461E-03
 -1      1214-1.80600E-13-1.96234E-04-6.90616E-13
 -1      1216-1.64893E-13-2.21875E-02-6.93478E-13
 -1      1225 1.68693E-05-1.09806E-02 6.93533E-03
 -1      1227-1.68693E-05-1.09806E-02-6.93533E-03
 -1      1228-2.12199E-13-9.37066E-05-5.50760E-13
 -1      1230-1.91538E-13-2.18674E-02-5.51675E-13
 -1      1239 4.54311E-05-1.03501E-02 6.68872E-03
 -1      1241-4.54311E-05-1.03501E-02-6.68872E-03
 -1      1242-2.31962E-13 1.49680E-04-3.75679E-13
 -1      1244-2.07317E-13-2.08498E-02-3.77176E-13
 -1      1253 5.93897E-05-9.30908E-03 6.28445E-03
 -1      1255-5.93897E-05-9.30908E-03-6.28445E-03
 -1      1256-2.41877E-13 5.56048E-04-1.79917E-13
 -1      1258-2.15322E-13-1.91742E-02-1.79469E-13
 -1      1267 7.82939E-05-7.94087E-03 5.72139E-03
 -1      1269-7.82939E-05-7.94087E-03-5.72139E-03
 -1      1270-2.41532E-13 1.04038E-03 2.03194E-14
 -1      1272-2.16442E-13-1.69221E-02 2.04466E-14
 -1      1281 8.74085E-05-6.31373E-03 5.02074E-03
 -1      1283-8.74085E-05-6.31373E-03-5.02074E-03
 -1      1284-2.30671E-13 1.56767E-03 2.12739E-13
 -1      1286-2.06466E-13-1.41951E-02 2.13270E-13
 -1      1295 9.58185E-05-4.53111E-03 4.19318E-03
 -1      1297-9.58185E-05-4.53111E-03-4.19318E-03
 -1      1298-2.06351E-13 2.05120E-03 3.95690E-13
 -1      1300-1.83629E-13-1.11134E-02 3.96829E-13
 -1      1309 9.69862E-05-2.68529E-03 3.26273E-03
 -1      1311-9.69862E-05-2.68529E-03-3.26273E-03
 -1      1312-1.66168E-13 2.43644E-03 5.45954E-13
 -1      1314-1.50585E-13-7.80701E-03 5.48351E-13
 -1      1323 9.56205E-05-8.75367E-04 2.24872E-03
 -1      1325-9.56205E-05-8.75367E-04-2.24872E-03
 -1      1326-1.16198E-13 2.65459E-03 6.47330E-13
 -1      1328-1.06666E-13-4.40533E-03 6.49411E-13
 -1      1337 8.91820E-05 8.17042E-04 1.17769E-03
 -1      1339-8.91820E-05 8.17042E-04-1.17769E-03
 -1      1340-5.86178E-14 2.66574E-03 7.06090E-13
 -1      1342-5.34228E-14-1.03165E-03 7.09440E-13
 -1      1351 8.07465E-05 2.32286E-03 7.47478E-05
 -1      1353-8.07465E-05 2.32286E-03-7.47478E-05
 -1      1354 3.58862E-15 2.44020E-03 7.22563E-13
 -1      1356 2.35454E-15 2.20553E-03 7.24868E-13
 -1      1365 6.94736E-05 3.59630E-03-1.03261E-03
 -1      1367-6.94736E-05 3.59630E-03 1.03261E-03
 -1      1368 6.47263E-14 1.97534E-03 6.87588E-13
 -1      1370 5.67876E-14 5.21726E-03 6.90707E-13
 -1      1379 5.79543E-05 4.61377E-03-2.11632E-03
 -1      1381-5.79543E-05 4.61377E-03 2.11632E-03
 -1      1382 1.21939E-13 1.29164E-03 6.10192E-13
 -1      1384 1.09771E-13 7.93589E-03 6.12681E-13
 -1      1393 4.55519E-05 5.37391E-03-3.15042E-03
 -1      1395-4.55519E-05 5.37391E-03 3.15042E-03
 -1      1396 1.74205E-13 4.28490E-04 4.93701E-13
 -1      1398 1.56530E-13 1.03193E-02 4.95743E-13
 -1      1407 3.48888E-05 5.89786E-03-4.10663E-03
 -1      1409-3.48888E-05 5.89786E-03 4.10663E-03
 -1      1410 2.18760E-13-5.48592E-04 3.31533E-13
 -1      1412 1.94347E-13 1.23443E-02 3.33154E-13
 -1      1421 2.44384E-05 6.21901E-03-4.96342E-03
 -1      1423-2.44384E-05 6.21901E-03 4.96342E-03
 -1      1424 2.53847E-13-1.57240E-03 1.31949E-13
 -1      1426 2.26131E-13 1.40104E-02 1.33380E-13
 -1      1435 1.71522E-05 6.38745E-03-5.69514E-03
 -1      1437-1.71522E-05 6.38745E-03 5.69514E-03
 -1      1438 2.80649E-13-2.55260E-03-8.03693E-14
 -1      1440 2.53158E-13 1.53275E-02-7.99053E-14
 -1      1449 1.01492E-05 6.44764E-03-6.28682E-03
 -1      1451-1.01492E-05 6.44764E-03 6.28682E-03
 -1      1452 3.01012E-13-3.42120E-03-2.93163E-13
 -1      1454 2.73566E-13 1.63165E-02-2.92261E-13
 -1      1463 6.17966E-06 6.45561E-03-6.71980E-03
 -1      1465-6.17966E-06 6.45561E-03 6.71980E-03
 -1      1466 3.16055E-13-4.09291E-03-5.10982E-13
 -1      1468 2.86487E-13 1.70041E-02-5.10867E-13
 -1      1477 3.19689E-06 6.43839E-03-6.98267E-03
 -1      1479-3.19689E-06 6.43839E-03 6.98267E-03
 -1      1480 3.22084E-13-4.52278E-03-7.23159E-13
 -1      1482 2.95234E-13 1.73996E-02-7.23191E-13
 -1      1491-7.82205E-06-6.23982E-02 2.16147E-03
 -1      1493 7.82205E-06-6.23982E-02-2.16147E-03
 -1      1494-3.59435E-14-4.06758E-14 3.18968E-03
 -1      1496-3.67545E-14-4.02109E-14-3.18968E-03
 -1      1497 7.82205E-06 6.23982E-02 2.16147E-03
 -1      1499-7.82205E-06 6.23982E-02-2.16147E-03
 -1      1500-4.45829E-03 2.56174E-03 3.14686E-02
 -1      1502 3.17730E-03-3.65036E-03 3.14499E-02
 -1      1503-2.92694E-03 4.76724E-03 7.30038E-02
 -1      1505 7.90054E-04-7.96306E-03 7.29948E-02
 -1      1506-3.89908E-03 6.37936E-03 1.07197E-01
 -1      1508 1.28045E-03-1.24715E-02 1.07185E-01
 -1      1509-3.37708E-03 7.71580E-03 1.41223E-01
 -1      1511 5.41063E-04-1.69842E-02 1.41224E-01
 -1      1512-3.29973E-03 8.64021E-03 1.70471E-01
 -1      1514 4.93435E-04-2.12206E-02 1.70471E-01
 -1      1515-2.77263E-03 9.32481E-03 1.96043E-01
 -1      1517 2.29152E-04-2.50045E-02 1.96049E-01
 -1      1518-2.25488E-03 9.77664E-03 2.16474E-01
 -1      1520 1.48089E-04-2.81579E-02 2.16482E-01
 -1      1521-1.56552E-03 1.00602E-02 2.31667E-01
 -1      1523 6.16528E-05-3.05341E-02 2.31679E-01
 -1      1524-8.33915E-04 1.02252E-02 2.41075E-01
 -1      1526 2.99287E-05-3.20366E-02 2.41088E-01
 -1      1527-4.71360E-05 1.02817E-02 2.44556E-01
 -1      1529 1.19471E-05-3.25840E-02 2.44569E-01
 -1      1530 7.37617E-04 1.02623E-02 2.41988E-01
 -1      1532-2.14219E-06-3.21630E-02 2.42001E-01
 -1      1533 1.49561E-03 1.01425E-02 2.33453E-01
 -1      1535-2.62903E-05-3.07766E-02 2.33465E-01
 -1      1536 2.18987E-03 9.92056E-03 2.19150E-01
 -1      1538-7.80077E-05-2.84929E-02 2.19161E-01
 -1      1539 2.79423E-03 9.54968E-03 1.99433E-01
 -1      1541-1.62930E-04-2.53953E-02 1.99440E-01
 -1      1542 3.28605E-03 9.00354E-03 1.74777E-01
 -1      1544-2.90004E-04-2.16158E-02 1.74781E-01
 -1      1545 3.65049E-03 8.23207E-03 1.45785E-01
 -1      1547-4.55742E-04-1.72945E-02 1.45786E-01
 -1      1548 3.88072E-03 7.20782E-03 1.13166E-01
 -1      1550-6.56493E-04-1.25969E-02 1.13164E-01
 -1      1551 3.97695E-03 5.90134E-03 7.77183E-02
 -1      1553-8.78834E-04-7.68385E-03 7.77139E-02
 -1      1554 3.94728E-03 4.30974E-03 4.03138E-02
 -1      1556-1.10842E-03-2.71854E-03 4.03073E-02
 -1      1557 3.80478E-03 2.44443E-03 1.87496E-03
 -1      1559-1.32515E-03 2.15261E-03 1.86717E-03
 -1      1560 3.56755E-03 3.43812E-04-3.66462E-02
 -1      1562-1.50992E-03 6.79888E-03-3.66546E-02
 -1      1563 3.25569E-03-1.93220E-03-7.42934E-02
 -1      1565-1.64277E-03 1.11129E-02-7.43016E-02
 -1      1566 2.88934E-03-4.30325E-03-1.10126E-01
 -1      1568-1.70709E-03 1.50125E-02-1.10133E-01
 -1      1569 2.48973E-03-6.67067E-03-1.43252E-01
 -1      1571-1.69186E-03 1.84373E-02-1.43257E-01
 -1      1572 2.06867E-03-8.92854E-03-1.72828E-01
 -1      1574-1.58666E-03 2.13518E-02-1.72833E-01
 -1      1575 1.64996E-03-1.09653E-02-1.98135E-01
 -1      1577-1.40162E-03 2.37353E-02-1.98137E-01
 -1      1578 1.21753E-03-1.26761E-02-2.18483E-01
 -1      1580-1.12051E-03 2.55831E-02-2.18484E-01
 -1      1581 8.27754E-04-1.39722E-02-2.33463E-01
 -1      1583-8.08320E-04 2.68972E-02-2.33462E-01
 -1      1584 3.70130E-04-1.47750E-02-2.42473E-01
 -1      1586-3.71474E-04 2.76829E-02-2.42471E-01
 -1      1587 3.68497E-05-1.40382E-02-1.05728E-01
 -1      1589-3.06492E-05 2.69260E-02-1.05730E-01
 -1      1590 0.00000E+00 0.00000E+00 2.87223E-06
 -1      1592 0.00000E+00 0.00000E+00-2.87223E-06
 -1      1593-3.68497E-05-1.40382E-02 1.05728E-01
 -1      1595 3.06492E-05 2.69260E-02 1.05730E-01
 -1      1596 4.45829E-03 2.56174E-03-3.14686E-02
 -1      1598-3.17730E-03-3.65036E-03-3.14499E-02
 -1      1599 2.92694E-03 4.76724E-03-7.30038E-02
 -1      1601-7.90054E-04-7.96306E-03-7.29948E-02
 -1      1602 3.89908E-03 6.37936E-03-1.07197E-01
 -1      1604-1.28045E-03-1.24715E-02-1.07185E-01
 -1      1605 3.37708E-03 7.71580E-03-1.41223E-01
 -1      1607-5.41063E-04-1.69842E-02-1.41224E-01
 -1      1608 3.29973E-03 8.64021E-03-1.70471E-01
 -1      1610-4.93435E-04-2.12206E-02-1.70471E-01
 -1      1611 2.77263E-03 9.32481E-03-1.96043E-01
 -1      1613-2.29152E-04-2.50045E-02-1.96049E-01
 -1      1614 2.25488E-03 9.77664E-03-2.16474E-01
 -1      1616-1.48089E-04-2.81579E-02-2.16482E-01
 -1      1617 1.56552E-03 1.00602E-02-2.31667E-01
 -1      1619-6.16528E-05-3.05341E-02-2.31679E-01
 -1      1620 8.33915E-04 1.02252E-02-2.41075E-01
 -1      1622-2.99287E-05-3.20366E-02-2.41088E-01
 -1      1623 4.71360E-05 1.02817E-02-2.44556E-01
 -1      1625-1.19471E-05-3.25840E-02-2.44569E-01
 -1      1626-7.37617E-04 1.02623E-02-2.41988E-01
 -1      1628 2.14219E-06-3.21630E-02-2.42001E-01
 -1      1629-1.49561E-03 1.01425E-02-2.33453E-01
 -1      1631 2.62903E-05-3.07766E-02-2.33465E-01
 -1      1632-2.18987E-03 9.92056E-03-2.19150E-01
 -1      1634 7.80077E-05-2.84929E-02-2.19161E-01
 -1      1635-2.79423E-03 9.54968E-03-1.99433E-01
 -1      1637 1.62930E-04-2.53953E-02-1.99440E-01
 -1      1638-3.28605E-03 9.00354E-03-1.74777E-01
 -1      1640 2.90004E-04-2.16158E-02-1.74781E-01
 -1      1641-3.65049E-03 8.23207E-03-1.45785E-01
 -1      1643 4.55742E-04-1.72945E-02-1.45786E-01
 -1      1644-3.88072E-03 7.20782E-03-1.13166E-01
 -1      1646 6.56493E-04-1.25969E-02-1.13164E-01
 -1      1647-3.97695E-03 5.90134E-03-7.77183E-02
 -1      1649 8.78834E-04-7.68385E-03-7.77139E-02
 -1      1650-3.94728E-03 4.30974E-03-4.03138E-02
 -1      1652 1.10842E-03-2.71854E-03-4.03073E-02
 -1      1653-3.80478E-03 2.44443E-03-1.87496E-03
 -1      1655 1.32515E-03 2.15261E-03-1.86717E-03
 -1      1656-3.56755E-03 3.43812E-04 3.66462E-02
 -1      1658 1.50992E-03 6.79888E-03 3.66546E-02
 -1      1659-3.25569E-03-1.93220E-03 7.42934E-02
 -1      1661 1.64277E-03 1.11129E-02 7.43016E-02
 -1      1662-2.88934E-03-4.30325E-03 1.10126E-01
 -1      1664 1.70709E-03 1.50125E-02 1.10133E-01
 -1      1665-2.48973E-03-6.67067E-03 1.43252E-01
 -1      1667 1.69186E-03 1.84373E-02 1.43257E-01
 -1      1668-2.06867E-03-8.92854E-03 1.72828E-01
 -1      1670 1.58666E-03 2.13518E-02 1.72833E-01
 -1      1671-1.64996E-03-1.09653E-02 1.98135E-01
 -1      1673 1.40162E-03 2.37353E-02 1.98137E-01
 -1      1674-1.21753E-03-1.26761E-02 2.18483E-01
 -1      1676 1.12051E-03 2.55831E-02 2.18484E-01
 -1      1677-8.27754E-04-1.39722E-02 2.33463E-01
 -1      1679 8.08320E-04 2.68972E-02 2.33462E-01
 -1      1680-3.70130E-04-1.47750E-02 2.42473E-01
 -1      1682 3.71474E-04 2.76829E-02 2.42471E-01
 -1      1683 0.00000E+00 0.00000E+00-2.87223E-06
 -1      1685 0.00000E+00 0.00000E+00 2.87223E-06
 -1      1686-2.06460E-03-2.08172E-03-1.26927E-02
 -1      1688 1.47717E-03 2.97259E-03-1.26833E-02
 -1      1689-1.34117E-03-4.43998E-03-3.16030E-02
 -1      1691 3.10561E-04 7.62704E-03-3.15912E-02
 -1      1692-1.80328E-03-5.93530E-03-4.59806E-02
 -1      1694 5.34453E-04 1.19584E-02-4.59818E-02
 -1      1695-1.57706E-03-7.10284E-03-6.08296E-02
 -1      1697 1.76190E-04 1.63732E-02-6.08276E-02
 -1      1698-1.53064E-03-7.93704E-03-7.32786E-02
 -1      1700 1.64050E-04 2.05233E-02-7.32828E-02
 -1      1701-1.30229E-03-8.47452E-03-8.42939E-02
 -1      1703 4.22844E-05 2.41828E-02-8.42999E-02
 -1      1704-1.04948E-03-8.84867E-03-9.30211E-02
 -1      1706 2.10008E-05 2.72791E-02-9.30283E-02
 -1      1707-7.37011E-04-9.04785E-03-9.95371E-02
 -1      1709-8.34096E-06 2.95763E-02-9.95478E-02
 -1      1710-3.87336E-04-9.17287E-03-1.03558E-01
 -1      1712-3.66513E-06 3.10545E-02-1.03567E-01
 -1      1713-2.32792E-05-9.20878E-03-1.05045E-01
 -1      1715 3.66883E-06 3.15777E-02-1.05057E-01
 -1      1716 3.48513E-04-9.20187E-03-1.03941E-01
 -1      1718 1.67049E-05 3.11732E-02-1.03951E-01
 -1      1719 7.01636E-04-9.12171E-03-1.00280E-01
 -1      1721 2.16124E-05 2.98159E-02-1.00291E-01
 -1      1722 1.02860E-03-8.96662E-03-9.41490E-02
 -1      1724 1.42955E-05 2.75922E-02-9.41569E-02
 -1      1725 1.30990E-03-8.68833E-03-8.56943E-02
 -1      1727-1.22213E-05 2.45713E-02-8.57019E-02
 -1      1728 1.53968E-03-8.25613E-03-7.51223E-02
 -1      1730-5.98832E-05 2.08925E-02-7.51267E-02
 -1      1731 1.70757E-03-7.61811E-03-6.26859E-02
 -1      1733-1.29469E-04 1.66873E-02-6.26891E-02
 -1      1734 1.81285E-03-6.74130E-03-4.86894E-02
 -1      1736-2.17897E-04 1.21229E-02-4.86896E-02
 -1      1737 1.85409E-03-5.59336E-03-3.34720E-02
 -1      1739-3.20008E-04 7.35432E-03-3.34708E-02
 -1      1740 1.83662E-03-4.16580E-03-1.74078E-02
 -1      1742-4.28068E-04 2.54294E-03-1.74045E-02
 -1      1743 1.76588E-03-2.46671E-03-8.90887E-04
 -1      1745-5.32960E-04-2.16927E-03-8.86639E-04
 -1      1746 1.65161E-03-5.29206E-04 1.56690E-02
 -1      1748-6.24898E-04-6.65551E-03 1.56744E-02
 -1      1749 1.50264E-03 1.58951E-03 3.18615E-02
 -1      1751-6.94342E-04-1.08117E-02 3.18671E-02
 -1      1752 1.32977E-03 3.81444E-03 4.72801E-02
 -1      1754-7.32908E-04-1.45612E-02 4.72858E-02
 -1      1755 1.14184E-03 6.04749E-03 6.15412E-02
 -1      1757-7.34978E-04-1.78449E-02 6.15465E-02
 -1      1758 9.46281E-04 8.18948E-03 7.42775E-02
 -1      1760-6.95419E-04-2.06354E-02 7.42823E-02
 -1      1761 7.51876E-04 1.01250E-02 8.51827E-02
 -1      1763-6.18441E-04-2.29088E-02 8.51868E-02
 -1      1764 5.54068E-04 1.17597E-02 9.39452E-02
 -1      1766-4.96596E-04-2.46718E-02 9.39487E-02
 -1      1767 3.75569E-04 1.29955E-02 1.00413E-01
 -1      1769-3.59539E-04-2.59200E-02 1.00416E-01
 -1      1770 1.66733E-04 1.37633E-02 1.04273E-01
 -1      1772-1.65567E-04-2.66637E-02 1.04275E-01
 -1      1773 2.06460E-03-2.08172E-03 1.26927E-02
 -1      1775-1.47717E-03 2.97259E-03 1.26833E-02
 -1      1776 1.34117E-03-4.43998E-03 3.16030E-02
 -1      1778-3.10561E-04 7.62704E-03 3.15912E-02
 -1      1779 1.80328E-03-5.93530E-03 4.59806E-02
 -1      1781-5.34453E-04 1.19584E-02 4.59818E-02
 -1      1782 1.57706E-03-7.10284E-03 6.08296E-02
 -1      1784-1.76190E-04 1.63732E-02 6.08276E-02
 -1      1785 1.53064E-03-7.93704E-03 7.32786E-02
 -1      1787-1.64050E-04 2.05233E-02 7.32828E-02
 -1      1788 1.30229E-03-8.47452E-03 8.42939E-02
 -1      1790-4.22844E-05 2.41828E-02 8.42999E-02
 -1      1791 1.04948E-03-8.84867E-03 9.30211E-02
 -1      1793-2.10008E-05 2.72791E-02 9.30283E-02
 -1      1794 7.37011E-04-9.04785E-03 9.95371E-02
 -1      1796 8.34096E-06 2.95763E-02 9.95478E-02
 -1      1797 3.87336E-04-9.17287E-03 1.03558E-01
 -1      1799 3.66513E-06 3.10545E-02 1.03567E-01
 -1      1800 2.32792E-05-9.20878E-03 1.05045E-01
 -1      1802-3.66883E-06 3.15777E-02 1.05057E-01
 -1      1803-3.48513E-04-9.20187E-03 1.03941E-01
 -1      1805-1.67049E-05 3.11732E-02 1.03951E-01
 -1      1806-7.01636E-04-9.12171E-03 1.00280E-01
 -1      1808-2.16124E-05 2.98159E-02 1.00291E-01
 -1      1809-1.02860E-03-8.96662E-03 9.41490E-02
 -1      1811-1.42955E-05 2.75922E-02 9.41569E-02
 -1      1812-1.30990E-03-8.68833E-03 8.56943E-02
 -1      1814 1.22213E-05 2.45713E-02 8.57019E-02
 -1      1815-1.53968E-03-8.25613E-03 7.51223E-02
 -1      1817 5.98832E-05 2.08925E-02 7.51267E-02
 -1      1818-1.70757E-03-7.61811E-03 6.26859E-02
 -1      1820 1.29469E-04 1.66873E-02 6.26891E-02
 -1      1821-1.81285E-03-6.74130E-03 4.86894E-02
 -1      1823 2.17897E-04 1.21229E-02 4.86896E-02
 -1      1824-1.85409E-03-5.59336E-03 3.34720E-02
 -1      1826 3.20008E-04 7.35432E-03 3.34708E-02
 -1      1827-1.83662E-03-4.16580E-03 1.74078E-02
 -1      1829 4.28068E-04 2.54294E-03 1.74045E-02
 -1      1830-1.76588E-03-2.46671E-03 8.90887E-04
 -1      1832 5.32960E-04-2.16927E-03 8.86639E-04
 -1      1833-1.65161E-03-5.29206E-04-1.56690E-02
 -1      1835 6.24898E-04-6.65551E-03-1.56744E-02
 -1      1836-1.50264E-03 1.58951E-03-3.18615E-02
 -1      1838 6.94342E-04-1.08117E-02-3.18671E-02
 -1      1839-1.32977E-03 3.81444E-03-4.72801E-02
 -1      1841 7.32908E-04-1.45612E-02-4.72858E-02
 -1      1842-1.14184E-03 6.04749E-03-6.15412E-02
 -1      1844 7.34978E-04-1.78449E-02-6.15465E-02
 -1      1845-9.46281E-04 8.18948E-03-7.42775E-02
 -1      1847 6.95419E-04-2.06354E-02-7.42823E-02
 -1      1848-7.51876E-04 1.01250E-02-8.51827E-02
 -1      1850 6.18441E-04-2.29088E-02-8.51868E-02
 -1      1851-5.54068E-04 1.17597E-02-9.39452E-02
 -1      1853 4.96596E-04-2.46718E-02-9.39487E-02
 -1      1854-3.75569E-04 1.29955E-02-1.00413E-01
 -1      1856 3.59539E-04-2.59200E-02-1.00416E-01
 -1      1857-1.66733E-04 1.37633E-02-1.04273E-01
 -1      1859 1.65567E-04-2.66637E-02-1.04275E-01
 -1      1860 6.23399E-04 8.76788E-03-1.57181E-04
 -1      1862-6.23399E-04 8.76788E-03 1.57181E-04
 -1      1863 2.54078E-04 1.86832E-02-6.06126E-04
 -1      1865-2.54078E-04 1.86832E-02 6.06126E-04
 -1      1866 4.67705E-04 2.77668E-02-9.37876E-04
 -1      1868-4.67705E-04 2.77668E-02 9.37876E-04
 -1      1869 2.96008E-04 3.67524E-02-1.24641E-03
 -1      1871-2.96008E-04 3.67524E-02 1.24641E-03
 -1      1872 3.49345E-04 4.46486E-02-1.54394E-03
 -1      1874-3.49345E-04 4.46486E-02 1.54394E-03
 -1      1875 2.41035E-04 5.16803E-02-1.78116E-03
 -1      1877-2.41035E-04 5.16803E-02 1.78116E-03
 -1      1878 2.22698E-04 5.73033E-02-1.98971E-03
 -1      1880-2.22698E-04 5.73033E-02 1.98971E-03
 -1      1881 1.33487E-04 6.15607E-02-2.13529E-03
 -1      1883-1.33487E-04 6.15607E-02 2.13529E-03
 -1      1884 8.18936E-05 6.41669E-02-2.23185E-03
 -1      1886-8.18936E-05 6.41669E-02 2.23185E-03
 -1      1887-6.04743E-08 6.51409E-02-2.26500E-03
 -1      1889 6.04744E-08 6.51409E-02 2.26500E-03
 -1      1890-6.37922E-05 6.43796E-02-2.24035E-03
 -1      1892 6.37922E-05 6.43796E-02 2.24035E-03
 -1      1893-1.37813E-04 6.19517E-02-2.15493E-03
 -1      1895 1.37813E-04 6.19517E-02 2.15493E-03
 -1      1896-1.99585E-04 5.78969E-02-2.01342E-03
 -1      1898 1.99585E-04 5.78969E-02 2.01342E-03
 -1      1899-2.60756E-04 5.23584E-02-1.81918E-03
 -1      1901 2.60756E-04 5.23584E-02 1.81918E-03
 -1      1902-3.10597E-04 4.54852E-02-1.57861E-03
 -1      1904 3.10597E-04 4.54852E-02 1.57861E-03
 -1      1905-3.53802E-04 3.74879E-02-1.29874E-03
 -1      1907 3.53802E-04 3.74879E-02 1.29874E-03
 -1      1908-3.85317E-04 2.85885E-02-9.87801E-04
 -1      1910 3.85317E-04 2.85885E-02 9.87801E-04
 -1      1911-4.07292E-04 1.90399E-02-6.54662E-04
 -1      1913 4.07292E-04 1.90399E-02 6.54662E-04
 -1      1914-4.17555E-04 9.09795E-03-3.08427E-04
 -1      1916 4.17555E-04 9.09795E-03 3.08427E-04
 -1      1917-4.17656E-04-9.74678E-04 4.16438E-05
 -1      1919 4.17656E-04-9.74678E-04-4.16438E-05
 -1      1920-4.06830E-04-1.09239E-02 3.86776E-04
 -1      1922 4.06830E-04-1.09239E-02-3.86776E-04
 -1      1923-3.86921E-04-2.05076E-02 7.18387E-04
 -1      1925 3.86921E-04-2.05076E-02-7.18387E-04
 -1      1926-3.57464E-04-2.95012E-02 1.02918E-03
 -1      1928 3.57464E-04-2.95012E-02-1.02918E-03
 -1      1929-3.21293E-04-3.77053E-02 1.31165E-03
 -1      1931 3.21293E-04-3.77053E-02-1.31165E-03
 -1      1932-2.76862E-04-4.49412E-02 1.56106E-03
 -1      1934 2.76862E-04-4.49412E-02-1.56106E-03
 -1      1935-2.29421E-04-5.10646E-02 1.77061E-03
 -1      1937 2.29421E-04-5.10646E-02-1.77061E-03
 -1      1938-1.73572E-04-5.59477E-02 1.93902E-03
 -1      1940 1.73572E-04-5.59477E-02-1.93902E-03
 -1      1941-1.21156E-04-5.95078E-02 2.05988E-03
 -1      1943 1.21156E-04-5.95078E-02-2.05988E-03
 -1      1944-5.53899E-05-6.16618E-02 2.13367E-03
 -1      1946 5.53899E-05-6.16618E-02-2.13367E-03
 -1      1947 1.01481E-15 3.51386E-14-5.87242E-04
 -1      1949-5.24927E-15 3.50969E-14 5.87242E-04
 -1      1950-4.32968E-15 1.01336E-13-9.97043E-04
 -1      1952-1.03372E-14 1.01558E-13 9.97043E-04
 -1      1953-8.96592E-15 1.67574E-13-1.44350E-03
 -1      1955-1.48475E-14 1.67616E-13 1.44350E-03
 -1      1956-1.49186E-14 2.04496E-13-1.90213E-03
 -1      1958-1.57157E-14 2.04683E-13 1.90213E-03
 -1      1959-1.76985E-14 2.20240E-13-2.28828E-03
 -1      1961-1.95920E-14 2.20324E-13 2.28828E-03
 -1      1962-2.09685E-14 2.40211E-13-2.64708E-03
 -1      1964-2.25323E-14 2.40138E-13 2.64708E-03
 -1      1965-2.69958E-14 2.36937E-13-2.92774E-03
 -1      1967-2.47580E-14 2.36982E-13 2.92774E-03
 -1      1968-3.12216E-14 2.17930E-13-3.14131E-03
 -1      1970-3.00003E-14 2.17840E-13 3.14131E-03
 -1      1971-3.45141E-14 1.99091E-13-3.27335E-03
 -1      1973-3.22797E-14 1.98952E-13 3.27335E-03
 -1      1974-3.57596E-14 1.68435E-13-3.31974E-03
 -1      1976-3.25295E-14 1.68626E-13 3.31974E-03
 -1      1977-3.63598E-14 1.25610E-13-3.28226E-03
 -1      1979-3.17940E-14 1.25665E-13 3.28226E-03
 -1      1980-3.64847E-14 6.47624E-14-3.15705E-03
 -1      1982-3.02050E-14 6.47347E-14 3.15705E-03
 -1      1983-3.52600E-14-1.42941E-15-2.95262E-03
 -1      1985-2.95129E-14-1.48145E-15 2.95262E-03
 -1      1986-3.12834E-14-3.93921E-14-2.67049E-03
 -1      1988-3.03264E-14-3.97980E-14 2.67049E-03
 -1      1989-2.80349E-14-3.17602E-14-2.32256E-03
 -1      1991-3.04201E-14-3.11647E-14 2.32256E-03
 -1      1992-2.89872E-14-1.20043E-14-1.91582E-03
 -1      1994-3.03455E-14-1.21847E-14 1.91582E-03
 -1      1995-3.05047E-14 2.45498E-14-1.46401E-03
 -1      1997-3.56624E-14 2.47302E-14 1.46401E-03
 -1      1998-3.38870E-14 7.38160E-14-9.77896E-04
 -1      2000-3.73048E-14 7.37188E-14 9.77896E-04
 -1      2001-3.28409E-14 1.06942E-13-4.71701E-04
 -1      2003-3.52591E-14 1.06942E-13 4.71701E-04
 -1      2004-2.94105E-14 1.46549E-13 4.21554E-05
 -1      2006-3.40040E-14 1.46771E-13-4.21554E-05
 -1      2007-3.03854E-14 1.86171E-13 5.50246E-04
 -1      2009-3.27186E-14 1.85948E-13-5.50246E-04
 -1      2010-3.33067E-14 1.93054E-13 1.04041E-03
 -1      2012-3.20438E-14 1.93533E-13-1.04041E-03
 -1      2013-3.51767E-14 1.79648E-13 1.50105E-03
 -1      2015-3.36432E-14 1.79357E-13-1.50105E-03
 -1      2016-3.80737E-14 1.61204E-13 1.92183E-03
 -1      2018-3.60883E-14 1.61593E-13-1.92183E-03
 -1      2019-4.02659E-14 1.34920E-13 2.29326E-03
 -1      2021-3.73920E-14 1.34698E-13-2.29326E-03
 -1      2022-4.10089E-14 9.24157E-14 2.60840E-03
 -1      2024-3.62510E-14 9.22699E-14-2.60840E-03
 -1      2025-3.89775E-14 4.78072E-14 2.85910E-03
 -1      2027-3.57943E-14 4.77205E-14-2.85910E-03
 -1      2028-3.81587E-14 1.24935E-14 3.04319E-03
 -1      2030-3.49000E-14 1.19869E-14-3.04319E-03
 -1      2031-3.81197E-14-2.61180E-14 3.15423E-03
 -1      2033-3.47829E-14-2.61943E-14-3.15423E-03
 -1      2034-6.23399E-04-8.76788E-03-1.57181E-04
 -1      2036 6.23399E-04-8.76788E-03 1.57181E-04
 -1      2037-2.54078E-04-1.86832E-02-6.06126E-04
 -1      2039 2.54078E-04-1.86832E-02 6.06126E-04
 -1      2040-4.67705E-04-2.77668E-02-9.37876E-04
 -1      2042 4.67705E-04-2.77668E-02 9.37876E-04
 -1      2043-2.96008E-04-3.67524E-02-1.24641E-03
 -1      2045 2.96008E-04-3.67524E-02 1.24641E-03
 -1      2046-3.49345E-04-4.46486E-02-1.54394E-03
 -1      2048 3.49345E-04-4.46486E-02 1.54394E-03
 -1      2049-2.41035E-04-5.16803E-02-1.78116E-03
 -1      2051 2.41035E-04-5.16803E-02 1.78116E-03
 -1      2052-2.22698E-04-5.73033E-02-1.98971E-03
 -1      2054 2.22698E-04-5.73033E-02 1.98971E-03
 -1      2055-1.33487E-04-6.15607E-02-2.13529E-03
 -1      2057 1.33487E-04-6.15607E-02 2.13529E-03
 -1      2058-8.18936E-05-6.41669E-02-2.23185E-03
 -1      2060 8.18936E-05-6.41669E-02 2.23185E-03
 -1      2061 6.04742E-08-6.51409E-02-2.26500E-03
 -1      2063-6.04744E-08-6.51409E-02 2.26500E-03
 -1      2064 6.37922E-05-6.43796E-02-2.24035E-03
 -1      2066-6.37922E-05-6.43796E-02 2.24035E-03
 -1      2067 1.37813E-04-6.19517E-02-2.15493E-03
 -1      2069-1.37813E-04-6.19517E-02 2.15493E-03
 -1      2070 1.99585E-04-5.78969E-02-2.01342E-03
 -1      2072-1.99585E-04-5.78969E-02 2.01342E-03
 -1      2073 2.60756E-04-5.23584E-02-1.81918E-03
 -1      2075-2.60756E-04-5.23584E-02 1.81918E-03
 -1      2076 3.10597E-04-4.54852E-02-1.57861E-03
 -1      2078-3.10597E-04-4.54852E-02 1.57861E-03
 -1      2079 3.53802E-04-3.74879E-02-1.29874E-03
 -1      2081-3.53802E-04-3.74879E-02 1.29874E-03
 -1      2082 3.85317E-04-2.85885E-02-9.87801E-04
 -1      2084-3.85317E-04-2.85885E-02 9.87801E-04
 -1      2085 4.07292E-04-1.90399E-02-6.54662E-04
 -1      2087-4.07292E-04-1.90399E-02 6.54662E-04
 -1      2088 4.17555E-04-9.09795E-03-3.08427E-04
 -1      2090-4.17555E-04-9.09795E-03 3.08427E-04
 -1      2091 4.17656E-04 9.74678E-04 4.16438E-05
 -1      2093-4.17656E-04 9.74678E-04-4.16438E-05
 -1      2094 4.06830E-04 1.09239E-02 3.86776E-04
 -1      2096-4.06830E-04 1.09239E-02-3.86776E-04
 -1      2097 3.86921E-04 2.05076E-02 7.18387E-04
 -1      2099-3.86921E-04 2.05076E-02-7.18387E-04
 -1      2100 3.57464E-04 2.95012E-02 1.02918E-03
 -1      2102-3.57464E-04 2.95012E-02-1.02918E-03
 -1      2103 3.21293E-04 3.77053E-02 1.31165E-03
 -1      2105-3.21293E-04 3.77053E-02-1.31165E-03
 -1      2106 2.76862E-04 4.49412E-02 1.56106E-03
 -1      2108-2.76862E-04 4.49412E-02-1.56106E-03
 -1      2109 2.29421E-04 5.10646E-02 1.77061E-03
 -1      2111-2.29421E-04 5.10646E-02-1.77061E-03
 -1      2112 1.73572E-04 5.59477E-02 1.93902E-03
 -1      2114-1.73572E-04 5.59477E-02-1.93902E-03
 -1      2115 1.21156E-04 5.95078E-02 2.05988E-03
 -1      2117-1.21156E-04 5.95078E-02-2.05988E-03
 -1      2118 5.53899E-05 6.16618E-02 2.13367E-03
 -1      2120-5.53899E-05 6.16618E-02-2.13367E-03
 -1      2121-2.06460E-03 2.08172E-03 1.26927E-02
 -1      2123 1.47717E-03-2.97259E-03 1.26833E-02
 -1      2124-1.34117E-03 4.43998E-03 3.16030E-02
 -1      2126 3.10561E-04-7.62704E-03 3.15912E-02
 -1      2127-1.80328E-03 5.93530E-03 4.59806E-02
 -1      2129 5.34453E-04-1.19584E-02 4.59818E-02
 -1      2130-1.57706E-03 7.10284E-03 6.08296E-02
 -1      2132 1.76190E-04-1.63732E-02 6.08276E-02
 -1      2133-1.53064E-03 7.93704E-03 7.32786E-02
 -1      2135 1.64050E-04-2.05233E-02 7.32828E-02
 -1      2136-1.30229E-03 8.47452E-03 8.42939E-02
 -1      2138 4.22844E-05-2.41828E-02 8.42999E-02
 -1      2139-1.04948E-03 8.84867E-03 9.30211E-02
 -1      2141 2.10008E-05-2.72791E-02 9.30283E-02
 -1      2142-7.37011E-04 9.04785E-03 9.95371E-02
 -1      2144-8.34096E-06-2.95763E-02 9.95478E-02
 -1      2145-3.87336E-04 9.17287E-03 1.03558E-01
 -1      2147-3.66513E-06-3.10545E-02 1.03567E-01
 -1      2148-2.32792E-05 9.20878E-03 1.05045E-01
 -1      2150 3.66883E-06-3.15777E-02 1.05057E-01
 -1      2151 3.48513E-04 9.20187E-03 1.03941E-01
 -1      2153 1.67049E-05-3.11732E-02 1.03951E-01
 -1      2154 7.01636E-04 9.12171E-03 1.00280E-01
 -1      2156 2.16124E-05-2.98159E-02 1.00291E-01
 -1      2157 1.02860E-03 8.96662E-03 9.41490E-02
 -1      2159 1.42955E-05-2.75922E-02 9.41569E-02
 -1      2160 1.30990E-03 8.68833E-03 8.56943E-02
 -1      2162-1.22213E-05-2.45713E-02 8.57019E-02
 -1      2163 1.53968E-03 8.25613E-03 7.51223E-02
 -1      2165-5.98832E-05-2.08925E-02 7.51267E-02
 -1      2166 1.70757E-03 7.61811E-03 6.26859E-02
 -1      2168-1.29469E-04-1.66873E-02 6.26891E-02
 -1      2169 1.81285E-03 6.74130E-03 4.86894E-02
 -1      2171-2.17897E-04-1.21229E-02 4.86896E-02
 -1      2172 1.85409E-03 5.59336E-03 3.34720E-02
 -1      2174-3.20008E-04-7.35432E-03 3.34708E-02
 -1      2175 1.83662E-03 4.16580E-03 1.74078E-02
 -1      2177-4.28068E-04-2.54294E-03 1.74045E-02
 -1      2178 1.76588E-03 2.46671E-03 8.90887E-04
 -1      2180-5.32960E-04 2.16927E-03 8.86639E-04
 -1      2181 1.65161E-03 5.29206E-04-1.56690E-02
 -1      2183-6.24898E-04 6.65551E-03-1.56744E-02
 -1      2184 1.50264E-03-1.58951E-03-3.18615E-02
 -1      2186-6.94342E-04 1.08117E-02-3.18671E-02
 -1      2187 1.32977E-03-3.81444E-03-4.72801E-02
 -1      2189-7.32908E-04 1.45612E-02-4.72858E-02
 -1      2190 1.14184E-03-6.04749E-03-6.15412E-02
 -1      2192-7.34978E-04 1.78449E-02-6.15465E-02
 -1      2193 9.46281E-04-8.18948E-03-7.42775E-02
 -1      2195-6.95419E-04 2.06354E-02-7.42823E-02
 -1      2196 7.51876E-04-1.01250E-02-8.51827E-02
 -1      2198-6.18441E-04 2.29088E-02-8.51868E-02
 -1      2199 5.54068E-04-1.17597E-02-9.39452E-02
 -1      2201-4.96596E-04 2.46718E-02-9.39487E-02
 -1      2202 3.75569E-04-1.29955E-02-1.00413E-01
 -1      2204-3.59539E-04 2.59200E-02-1.00416E-01
 -1      2205 1.66733E-04-1.37633E-02-1.04273E-01
 -1      2207-1.65567E-04 2.66637E-02-1.04275E-01
 -1      2208 2.06460E-03 2.08172E-03-1.26927E-02
 -1      2210-1.47717E-03-2.97259E-03-1.26833E-02
 -1      2211 1.34117E-03 4.43998E-03-3.16030E-02
 -1      2213-3.10561E-04-7.62704E-03-3.15912E-02
 -1      2214 1.80328E-03 5.93530E-03-4.59806E-02
 -1      2216-5.34453E-04-1.19584E-02-4.59818E-02
 -1      2217 1.57706E-03 7.10284E-03-6.08296E-02
 -1      2219-1.76190E-04-1.63732E-02-6.08276E-02
 -1      2220 1.53064E-03 7.93704E-03-7.32786E-02
 -1      2222-1.64050E-04-2.05233E-02-7.32828E-02
 -1      2223 1.30229E-03 8.47452E-03-8.42939E-02
 -1      2225-4.22844E-05-2.41828E-02-8.42999E-02
 -1      2226 1.04948E-03 8.84867E-03-9.30211E-02
 -1      2228-2.10008E-05-2.72791E-02-9.30283E-02
 -1      2229 7.37011E-04 9.04785E-03-9.95371E-02
 -1      2231 8.34096E-06-2.95763E-02-9.95478E-02
 -1      2232 3.87336E-04 9.17287E-03-1.03558E-01
 -1      2234 3.66513E-06-3.10545E-02-1.03567E-01
 -1      2235 2.32792E-05 9.20878E-03-1.05045E-01
 -1      2237-3.66883E-06-3.15777E-02-1.05057E-01
 -1      2238-3.48513E-04 9.20187E-03-1.03941E-01
 -1      2240-1.67049E-05-3.11732E-02-1.03951E-01
 -1      2241-7.01636E-04 9.12171E-03-1.00280E-01
 -1      2243-2.16124E-05-2.98159E-02-1.00291E-01
 -1      2244-1.02860E-03 8.96662E-03-9.41490E-02
 -1      2246-1.42955E-05-2.75922E-02-9.41569E-02
 -1      2247-1.30990E-03 8.68833E-03-8.56943E-02
 -1      2249 1.22213E-05-2.45713E-02-8.57019E-02
 -1      2250-1.53968E-03 8.25613E-03-7.51223E-02
 -1      2252 5.98832E-05-2.08925E-02-7.51267E-02
 -1      2253-1.70757E-03 7.61811E-03-6.26859E-02
 -1      2255 1.29469E-04-1.66873E-02-6.26891E-02
 -1      2256-1.81285E-03 6.74130E-03-4.86894E-02
 -1      2258 2.17897E-04-1.21229E-02-4.86896E-02
 -1      2259-1.85409E-03 5.59336E-03-3.34720E-02
 -1      2261 3.20008E-04-7.35432E-03-3.34708E-02
 -1      2262-1.83662E-03 4.16580E-03-1.74078E-02
 -1      2264 4.28068E-04-2.54294E-03-1.74045E-02
 -1      2265-1.76588E-03 2.46671E-03-8.90887E-04
 -1      2267 5.32960E-04 2.16927E-03-8.86639E-04
 -1      2268-1.65161E-03 5.29206E-04 1.56690E-02
 -1      2270 6.24898E-04 6.65551E-03 1.56744E-02
 -1      2271-1.50264E-03-1.58951E-03 3.18615E-02
 -1      2273 6.94342E-04 1.08117E-02 3.18671E-02
 -1      2274-1.32977E-03-3.81444E-03 4.72801E-02
 -1      2276 7.32908E-04 1.45612E-02 4.72858E-02
 -1      2277-1.14184E-03-6.04749E-03 6.15412E-02
 -1      2279 7.34978E-04 1.78449E-02 6.15465E-02
 -1      2280-9.46281E-04-8.18948E-03 7.42775E-02
 -1      2282 6.95419E-04 2.06354E-02 7.42823E-02
 -1      2283-7.51876E-04-1.01250E-02 8.51827E-02
 -1      2285 6.18441E-04 2.29088E-02 8.51868E-02
 -1      2286-5.54068E-04-1.17597E-02 9.39452E-02
 -1      2288 4.96596E-04 2.46718E-02 9.39487E-02
 -1      2289-3.75569E-04-1.29955E-02 1.00413E-01
 -1      2291 3.59539E-04 2.59200E-02 1.00416E-01
 -1      2292-1.66733E-04-1.37633E-02 1.04273E-01
 -1      2294 1.65567E-04 2.66637E-02 1.04275E-01
 -3
    1PSTEP                        58           1           1          
    1PGM                1.000000E+00                                  
    1PGK                1.277423E+07                                  
    1PHID                         -1                                  
    1PSUBC                         0                                  
    1PMODE                        15                                  
  100CL  115 568.8364825         930                     2   15MODAL      1
 -4  STRESS      6    1
 -5  SXX         1    4    1    1
 -5  SYY         1    4    2    2
 -5  SZZ         1    4    3    3
 -5  SXY         1    4    1    2
 -5  SYZ         1    4    2    3
 -5  SZX         1    4    3    1
 -1       404-1.00298E+09-7.09667E+07-2.57663E+06 8.84909E+07 5.45489E+06-1.11044E+09
 -1       406-1.00298E+09-7.09667E+07-2.57663E+06 8.84909E+07 5.45489E+06-1.11044E+09
 -1       407-1.79067E+06-1.52769E+07 1.79296E+05 1.18250E+06 1.19559E+08-1.62761E+07
 -1       409-1.79067E+06-1.52769E+07 1.79296E+05 1.18250E+06 1.19559E+08-1.62761E+07
 -1       410-8.09343E-03-3.60649E-03-8.04998E-04 6.61857E+06 7.00333E+08 2.43200E-04
 -1       412-8.09343E-03-3.60649E-03-8.04998E-04 6.61857E+06 7.00333E+08 2.43200E-04
 -1       413-1.18581E-03 1.37346E-03 1.52648E-02 4.87184E+06 9.53894E+08-7.60585E-03
 -1       415-1.18581E-03 1.37346E-03 1.52648E-02 4.87184E+06 9.53894E+08-7.60585E-03
 -1       424-8.38738E-02-1.09814E-02 1.22420E-04 6.54690E+07 2.13332E+08-5.37413E-03
 -1       426-8.38738E-02-1.09814E-02 1.22420E-04 6.54690E+07 2.13332E+08-5.37413E-03
 -1       427-6.70718E-02-4.27504E-04-1.86188E-02 1.63254E+08 8.96912E+07-1.08199E-01
 -1       429-6.70718E-02-4.27504E-04-1.86188E-02 1.63254E+08 8.96912E+07-1.08199E-01
 -1       438 1.79067E+06 1.52769E+07-1.79296E+05 1.18250E+06 1.19559E+08 1.62761E+07
 -1       440 1.79067E+06 1.52769E+07-1.79296E+05 1.18250E+06 1.19559E+08 1.62761E+07
 -1       441 1.00298E+09 7.09667E+07 2.57663E+06 8.84909E+07 5.45489E+06 1.11044E+09
 -1       443 1.00298E+09 7.09667E+07 2.57663E+06 8.84909E+07 5.45489E+06 1.11044E+09
 -1       444 5.14541E-02 5.05170E-04 2.02127E-02-1.63254E+08 8.96912E+07-9.93440E-02
 -1       446 5.14541E-02 5.05170E-04 2.02127E-02-1.63254E+08 8.96912E+07-9.93440E-02
 -1       447 6.94777E-02 7.58942E-03-1.63399E-04-6.54690E+07 2.13332E+08-3.83179E-03
 -1       449 6.94777E-02 7.58942E-03-1.63399E-04-6.54690E+07 2.13332E+08-3.83179E-03
 -1       458-2.50866E-03-8.86126E-04-2.91999E-02-4.87184E+06 9.53894E+08-1.33764E-02
 -1       460-2.50866E-03-8.86126E-04-2.91999E-02-4.87184E+06 9.53894E+08-1.33764E-02
 -1       461 7.22688E-03 6.63018E-03 7.05195E-04-6.61857E+06 7.00333E+08 2.59173E-04
 -1       463 7.22688E-03 6.63018E-03 7.05195E-04-6.61857E+06 7.00333E+08 2.59173E-04
 -1       472-1.00298E+09-7.09667E+07-2.57663E+06-8.84909E+07 5.45489E+06 1.11044E+09
 -1       474-1.00298E+09-7.09667E+07-2.57663E+06-8.84909E+07 5.45489E+06 1.11044E+09
 -1       475-1.79067E+06-1.52769E+07 1.79296E+05-1.18250E+06 1.19559E+08 1.62761E+07
 -1       477-1.79067E+06-1.52769E+07 1.79296E+05-1.18250E+06 1.19559E+08 1.62761E+07
 -1       478 1.79067E+06 1.52769E+07-1.79296E+05-1.18250E+06 1.19559E+08-1.62761E+07
 -1       480 1.79067E+06 1.52769E+07-1.79296E+05-1.18250E+06 1.19559E+08-1.62761E+07
 -1       481 1.00298E+09 7.09667E+07 2.57663E+06-8.84909E+07 5.45489E+06-1.11044E+09
 -1       483 1.00298E+09 7.09667E+07 2.57663E+06-8.84909E+07 5.45489E+06-1.11044E+09
 -1       484-8.36052E+08-1.50663E+07-2.16493E+05 8.50082E+07-2.74604E+07-3.87098E+08
 -1       486-8.36052E+08-1.50663E+07-2.16493E+05 8.50082E+07-2.74604E+07-3.87098E+08
 -1       487-5.27703E+08 7.55524E+06 9.14178E+04 6.84761E+07-4.91594E+07-3.52581E+06
 -1       489-5.27703E+08 7.55524E+06 9.14178E+04 6.84761E+07-4.91594E+07-3.52581E+06
 -1       490-2.80875E+08 4.82087E+04-5.72195E+05 5.14125E+07-5.04091E+07-1.78244E+08
 -1       492-2.80875E+08 4.82087E+04-5.72195E+05 5.14125E+07-5.04091E+07-1.78244E+08
 -1       493-7.08890E+07 1.32839E+07 1.63421E+05 4.78520E+07-7.17326E+07-8.11907E+07
 -1       495-7.08890E+07 1.32839E+07 1.63421E+05 4.78520E+07-7.17326E+07-8.11907E+07
 -1       496 1.16781E+08 1.02635E+07-2.32845E+05 4.13010E+07-8.21647E+07-1.08512E+08
 -1       498 1.16781E+08 1.02635E+07-2.32845E+05 4.13010E+07-8.21647E+07-1.08512E+08
 -1       499 2.77774E+08 1.79133E+07 9.87941E+04 3.48431E+07-9.60525E+07-7.37992E+07
 -1       501 2.77774E+08 1.79133E+07 9.87941E+04 3.48431E+07-9.60525E+07-7.37992E+07
 -1       502 4.13453E+08 1.81730E+07 2.39257E+04 2.86976E+07-1.06126E+08-6.46842E+07
 -1       504 4.13453E+08 1.81730E+07 2.39257E+04 2.86976E+07-1.06126E+08-6.46842E+07
 -1       505 5.15816E+08 2.15308E+07 1.00375E+05 1.98119E+07-1.13317E+08-4.15942E+07
 -1       507 5.15816E+08 2.15308E+07 1.00375E+05 1.98119E+07-1.13317E+08-4.15942E+07
 -1       508 5.82785E+08 2.23535E+07 1.46425E+05 1.14189E+07-1.18883E+08-2.29030E+07
 -1       510 5.82785E+08 2.23535E+07 1.46425E+05 1.14189E+07-1.18883E+08-2.29030E+07
 -1       511 6.09543E+08 2.29771E+07 1.12286E+05 1.49067E+06-1.19875E+08-1.44640E+06
 -1       513 6.09543E+08 2.29771E+07 1.12286E+05 1.49067E+06-1.19875E+08-1.44640E+06
 -1       514 5.96796E+08 2.27116E+07 1.59524E+05-7.47891E+06-1.19433E+08 1.92503E+07
 -1       516 5.96796E+08 2.27116E+07 1.59524E+05-7.47891E+06-1.19433E+08 1.92503E+07
 -1       517 5.45638E+08 2.13957E+07 8.64250E+04-1.61462E+07-1.14488E+08 3.96552E+07
 -1       519 5.45638E+08 2.13957E+07 8.64250E+04-1.61462E+07-1.14488E+08 3.96552E+07
 -1       520 4.61723E+08 1.96279E+07 9.45547E+04-2.29430E+07-1.07932E+08 5.91467E+07
 -1       522 4.61723E+08 1.96279E+07 9.45547E+04-2.29430E+07-1.07932E+08 5.91467E+07
 -1       523 3.51861E+08 1.69051E+07 1.53546E+04-2.79832E+07-9.75858E+07 7.70560E+07
 -1       525 3.51861E+08 1.69051E+07 1.53546E+04-2.79832E+07-9.75858E+07 7.70560E+07
 -1       526 2.25695E+08 1.39349E+07-1.05246E+04-3.04712E+07-8.56608E+07 9.32276E+07
 -1       528 2.25695E+08 1.39349E+07-1.05246E+04-3.04712E+07-8.56608E+07 9.32276E+07
 -1       529 9.32243E+07 1.04015E+07-7.59539E+04-3.05693E+07-7.09163E+07 1.06978E+08
 -1       531 9.32243E+07 1.04015E+07-7.59539E+04-3.05693E+07-7.09163E+07 1.06978E+08
 -1       532-3.48995E+07 6.85045E+06-1.12399E+05-2.81505E+07-5.49419E+07 1.18221E+08
 -1       534-3.48995E+07 6.85045E+06-1.12399E+05-2.81505E+07-5.49419E+07 1.18221E+08
 -1       535-1.49187E+08 3.16493E+06-1.48604E+05-2.36692E+07-3.72440E+07 1.26454E+08
 -1       537-1.49187E+08 3.16493E+06-1.48604E+05-2.36692E+07-3.72440E+07 1.26454E+08
 -1       538-2.41549E+08-2.99588E+05-1.71764E+05-1.75126E+07-1.89139E+07 1.31652E+08
 -1       540-2.41549E+08-2.99588E+05-1.71764E+05-1.75126E+07-1.89139E+07 1.31652E+08
 -1       541-3.06423E+08-3.55774E+06-1.69272E+05-1.03985E+07-4.14075E+03 1.33525E+08
 -1       543-3.06423E+08-3.55774E+06-1.69272E+05-1.03985E+07-4.14075E+03 1.33525E+08
 -1       544-3.40950E+08-6.42220E+06-1.65530E+05-2.97439E+06 1.88057E+07 1.32133E+08
 -1       546-3.40950E+08-6.42220E+06-1.65530E+05-2.97439E+06 1.88057E+07 1.32133E+08
 -1       547-3.45329E+08-8.89428E+06-1.24851E+05 3.97382E+06 3.70806E+07 1.27446E+08
 -1       549-3.45329E+08-8.89428E+06-1.24851E+05 3.97382E+06 3.70806E+07 1.27446E+08
 -1       550-3.22630E+08-1.09024E+07-9.50170E+04 9.85669E+06 5.44937E+07 1.19506E+08
 -1       552-3.22630E+08-1.09024E+07-9.50170E+04 9.85669E+06 5.44937E+07 1.19506E+08
 -1       553-2.78404E+08-1.25236E+07-2.80701E+04 1.40487E+07 7.03894E+07 1.08835E+08
 -1       555-2.78404E+08-1.25236E+07-2.80701E+04 1.40487E+07 7.03894E+07 1.08835E+08
 -1       556-2.20116E+08-1.36512E+07 1.43233E+04 1.63275E+07 8.46770E+07 9.47786E+07
 -1       558-2.20116E+08-1.36512E+07 1.43233E+04 1.63275E+07 8.46770E+07 9.47786E+07
 -1       559-1.56191E+08-1.46466E+07 8.72019E+04 1.63709E+07 9.67648E+07 7.98661E+07
 -1       561-1.56191E+08-1.46466E+07 8.72019E+04 1.63709E+07 9.67648E+07 7.98661E+07
 -1       562-9.53627E+07-1.49816E+07 1.22871E+05 1.44347E+07 1.06435E+08 5.95690E+07
 -1       564-9.53627E+07-1.49816E+07 1.22871E+05 1.44347E+07 1.06435E+08 5.95690E+07
 -1       565-4.52375E+07-1.56281E+07 1.76117E+05 1.09413E+07 1.13820E+08 4.50624E+07
 -1       567-4.52375E+07-1.56281E+07 1.76117E+05 1.09413E+07 1.13820E+08 4.50624E+07
 -1       568-1.26916E+07-1.58844E+07 2.01119E+05 4.95218E+06 1.17700E+08 1.39199E+07
 -1       570-1.26916E+07-1.58844E+07 2.01119E+05 4.95218E+06 1.17700E+08 1.39199E+07
 -1       571-6.88596E+06-3.18198E+07-1.02678E+05 3.90053E+06 4.09946E+08-1.33192E+07
 -1       573-6.88596E+06-3.18198E+07-1.02678E+05 3.90053E+06 4.09946E+08-1.33192E+07
 -1       574-6.44170E-02-3.36547E-03 8.56221E-05 1.61061E+08 3.54945E+07-8.33385E-04
 -1       576-6.44170E-02-3.36547E-03 8.56221E-05 1.61061E+08 3.54945E+07-8.33385E-04
 -1       577-5.00129E-02 1.08604E-04-4.63437E-03-2.46320E+07-2.45650E+07-1.12053E-01
 -1       579-5.00129E-02 1.08604E-04-4.63437E-03-2.46320E+07-2.45650E+07-1.12053E-01
 -1       588-2.98780E-02 1.43816E-03-4.45545E-05 1.57844E+08-2.13469E+08 1.18002E-03
 -1       590-2.98780E-02 1.43816E-03-4.45545E-05 1.57844E+08-2.13469E+08 1.18002E-03
 -1       591-2.14567E-02 5.99728E-04 1.55094E-02-6.18457E+07-2.54062E+08-1.06436E-01
 -1       593-2.14567E-02 5.99728E-04 1.55094E-02-6.18457E+07-2.54062E+08-1.06436E-01
 -1       602-4.36006E-03-1.49774E-03-8.23369E-05 1.10464E+08-2.93001E+08-8.12858E-06
 -1       604-4.36006E-03-1.49774E-03-8.23369E-05 1.10464E+08-2.93001E+08-8.12858E-06
 -1       605-1.60854E-03 2.43001E-04 1.79762E-02-2.14745E+07-4.04407E+08-9.33917E-02
 -1       607-1.60854E-03 2.43001E-04 1.79762E-02-2.14745E+07-4.04407E+08-9.33917E-02
 -1       616 1.98087E-02-1.59561E-03-1.15148E-04 1.11238E+08-3.94431E+08 4.45418E-04
 -1       618 1.98087E-02-1.59561E-03-1.15148E-04 1.11238E+08-3.94431E+08 4.45418E-04
 -1       619 1.75619E-02 8.48820E-05 1.51964E-02-4.80419E+07-5.30565E+08-8.16905E-02
 -1       621 1.75619E-02 8.48820E-05 1.51964E-02-4.80419E+07-5.30565E+08-8.16905E-02
 -1       630 4.66788E-02-2.26340E-03 5.12254E-05 8.57053E+07-4.88735E+08-2.70419E-05
 -1       632 4.66788E-02-2.26340E-03 5.12254E-05 8.57053E+07-4.88735E+08-2.70419E-05
 -1       633 3.94249E-02 2.72945E-04 1.84213E-02-1.99163E+07-6.60742E+08-6.55751E-02
 -1       635 3.94249E-02 2.72945E-04 1.84213E-02-1.99163E+07-6.60742E+08-6.55751E-02
 -1       644 6.81316E-02-2.24410E-03 2.95043E-06 8.17423E+07-5.53268E+08 7.79070E-05
 -1       646 6.81316E-02-2.24410E-03 2.95043E-06 8.17423E+07-5.53268E+08 7.79070E-05
 -1       647 5.78319E-02 7.40877E-04 2.50733E-02-3.20002E+07-7.54442E+08-4.74776E-02
 -1       649 5.78319E-02 7.40877E-04 2.50733E-02-3.20002E+07-7.54442E+08-4.74776E-02
 -1       658 7.76240E-02-5.88477E-04-2.59813E-04 5.94661E+07-6.20361E+08-2.06247E-04
 -1       660 7.76240E-02-5.88477E-04-2.59813E-04 5.94661E+07-6.20361E+08-2.06247E-04
 -1       661 6.58420E-02 9.49991E-04 3.04279E-02-1.38699E+07-8.41408E+08-2.48702E-02
 -1       663 6.58420E-02 9.49991E-04 3.04279E-02-1.38699E+07-8.41408E+08-2.48702E-02
 -1       672 7.47276E-02 8.34519E-04-3.01003E-06 4.64236E+07-6.58009E+08-9.65353E-05
 -1       674 7.47276E-02 8.34519E-04-3.01003E-06 4.64236E+07-6.58009E+08-9.65353E-05
 -1       675 6.20996E-02 6.32544E-04 2.65452E-02-1.66535E+07-8.99099E+08-6.55638E-05
 -1       677 6.20996E-02 6.32544E-04 2.65452E-02-1.66535E+07-8.99099E+08-6.55638E-05
 -1       686 6.51982E-02 1.51844E-03 1.77924E-04 2.32166E+07-6.89620E+08-2.61377E-04
 -1       688 6.51982E-02 1.51844E-03 1.77924E-04 2.32166E+07-6.89620E+08-2.61377E-04
 -1       689 5.31637E-02 5.55809E-04 1.78364E-02-4.25148E+06-9.38312E+08 1.88691E-02
 -1       691 5.31637E-02 5.55809E-04 1.78364E-02-4.25148E+06-9.38312E+08 1.88691E-02
 -1       700 5.40501E-02 1.51359E-05 8.79820E-05 4.66401E+06-6.96471E+08-5.12023E-04
 -1       702 5.40501E-02 1.51359E-05 8.79820E-05 4.66401E+06-6.96471E+08-5.12023E-04
 -1       703 4.54445E-02 2.14785E-04 1.48599E-02-2.14280E+06-9.51934E+08 3.27994E-02
 -1       705 4.54445E-02 2.14785E-04 1.48599E-02-2.14280E+06-9.51934E+08 3.27994E-02
 -1       714 4.06805E-02-2.87903E-03-1.72563E-04-1.73195E+07-6.91393E+08-5.13775E-04
 -1       716 4.06805E-02-2.87903E-03-1.72563E-04-1.73195E+07-6.91393E+08-5.13775E-04
 -1       717 3.63478E-02 4.11449E-04 1.55971E-02 7.16386E+06-9.42375E+08 4.93090E-02
 -1       719 3.63478E-02 4.11449E-04 1.55971E-02 7.16386E+06-9.42375E+08 4.93090E-02
 -1       728 2.30673E-02-2.43712E-03-3.92571E-05-3.48454E+07-6.65282E+08-6.07459E-04
 -1       730 2.30673E-02-2.43712E-03-3.92571E-05-3.48454E+07-6.65282E+08-6.07459E-04
 -1       731 2.11781E-02 5.92029E-04 1.21342E-02 1.14308E+07-9.09195E+08 6.45487E-02
 -1       733 2.11781E-02 5.92029E-04 1.21342E-02 1.14308E+07-9.09195E+08 6.45487E-02
 -1       742 1.67955E-03 1.99849E-04-4.92316E-05-5.08377E+07-6.25367E+08-5.79011E-04
 -1       744 1.67955E-03 1.99849E-04-4.92316E-05-5.08377E+07-6.25367E+08-5.79011E-04
 -1       745 3.21130E-03 1.52813E-04 3.72904E-03 1.88512E+07-8.53009E+08 7.44295E-02
 -1       747 3.21130E-03 1.52813E-04 3.72904E-03 1.88512E+07-8.53009E+08 7.44295E-02
 -1       756-2.28350E-02 2.01192E-04-9.32142E-05-6.12327E+07-5.67971E+08-5.41534E-04
 -1       758-2.28350E-02 2.01192E-04-9.32142E-05-6.12327E+07-5.67971E+08-5.41534E-04
 -1       759-1.53364E-02 1.07111E-04-5.32869E-03 2.36414E+07-7.75913E+08 7.91886E-02
 -1       761-1.53364E-02 1.07111E-04-5.32869E-03 2.36414E+07-7.75913E+08 7.91886E-02
 -1       770-4.81841E-02-2.79029E-03 2.29292E-04-6.72106E+07-4.97862E+08-5.57505E-04
 -1       772-4.81841E-02-2.79029E-03 2.29292E-04-6.72106E+07-4.97862E+08-5.57505E-04
 -1       773-3.59351E-02-1.53888E-04-1.07312E-02 2.95351E+07-6.79097E+08 7.80603E-02
 -1       775-3.59351E-02-1.53888E-04-1.07312E-02 2.95351E+07-6.79097E+08 7.80603E-02
 -1       784-6.71948E-02-5.19486E-03 9.92860E-05-6.71418E+07-4.14411E+08-4.43313E-04
 -1       786-6.71948E-02-5.19486E-03 9.92860E-05-6.71418E+07-4.14411E+08-4.43313E-04
 -1       787-5.35670E-02-1.29174E-04-1.30093E-02 3.37911E+07-5.65717E+08 7.11504E-02
 -1       789-5.35670E-02-1.29174E-04-1.30093E-02 3.37911E+07-5.65717E+08 7.11504E-02
 -1       798-7.84511E-02-3.46658E-03 1.24171E-04-6.21022E+07-3.21369E+08-3.31499E-04
 -1       800-7.84511E-02-3.46658E-03 1.24171E-04-6.21022E+07-3.21369E+08-3.31499E-04
 -1       801-6.50054E-02-3.42788E-05-1.65682E-02 3.80692E+07-4.38018E+08 5.92125E-02
 -1       803-6.50054E-02-3.42788E-05-1.65682E-02 3.80692E+07-4.38018E+08 5.92125E-02
 -1       812-9.12453E-02 1.24868E-03 2.57595E-04-5.21507E+07-2.19908E+08-1.35072E-04
 -1       814-9.12453E-02 1.24868E-03 2.57595E-04-5.21507E+07-2.19908E+08-1.35072E-04
 -1       815-7.60560E-02-3.04171E-04-2.22494E-02 4.10263E+07-2.99674E+08 4.32569E-02
 -1       817-7.60560E-02-3.04171E-04-2.22494E-02 4.10263E+07-2.99674E+08 4.32569E-02
 -1       826-1.07084E-01 5.17041E-03 2.40463E-04-3.87983E+07-1.13266E+08-2.94223E-05
 -1       828-1.07084E-01 5.17041E-03 2.40463E-04-3.87983E+07-1.13266E+08-2.94223E-05
 -1       829-8.86364E-02-2.53782E-04-2.56719E-02 4.34091E+07-1.53784E+08 2.39337E-02
 -1       831-8.86364E-02-2.53782E-04-2.56719E-02 4.34091E+07-1.53784E+08 2.39337E-02
 -1       840-1.18016E-01 5.95375E-03 1.51874E-04-2.31228E+07-3.74149E+06 5.04404E-06
 -1       842-1.18016E-01 5.95375E-03 1.51874E-04-2.31228E+07-3.74149E+06 5.04404E-06
 -1       843-9.77207E-02-2.95392E-04-2.54037E-02 4.44946E+07-4.24152E+06 5.59113E-03
 -1       845-9.77207E-02-2.95392E-04-2.54037E-02 4.44946E+07-4.24152E+06 5.59113E-03
 -1       854-1.20267E-01 4.12339E-03 1.04466E-04-6.94641E+06 1.05944E+08 2.02335E-04
 -1       856-1.20267E-01 4.12339E-03 1.04466E-04-6.94641E+06 1.05944E+08 2.02335E-04
 -1       857-9.95633E-02-2.49916E-04-2.51096E-02 4.47022E+07 1.45427E+08-9.32469E-03
 -1       859-9.95633E-02-2.49916E-04-2.51096E-02 4.47022E+07 1.45427E+08-9.32469E-03
 -1       868-1.14385E-01 1.75695E-03 9.96869E-05 8.38894E+06 2.12713E+08 2.76864E-04
 -1       870-1.14385E-01 1.75695E-03 9.96869E-05 8.38894E+06 2.12713E+08 2.76864E-04
 -1       871-9.39326E-02-3.69894E-04-2.27469E-02 4.35460E+07 2.91337E+08-2.43188E-02
 -1       873-9.39326E-02-3.69894E-04-2.27469E-02 4.35460E+07 2.91337E+08-2.43188E-02
 -1       882-1.03011E-01-7.65448E-04 2.33249E-04 2.11694E+07 3.14690E+08 2.64816E-04
 -1       884-1.03011E-01-7.65448E-04 2.33249E-04 2.11694E+07 3.14690E+08 2.64816E-04
 -1       885-8.27833E-02-3.27079E-04-1.38583E-02 4.14524E+07 4.30105E+08-3.68789E-02
 -1       887-8.27833E-02-3.27079E-04-1.38583E-02 4.14524E+07 4.30105E+08-3.68789E-02
 -1       896-8.64649E-02-2.93631E-03 1.31559E-05 3.05670E+07 4.08077E+08 4.32100E-04
 -1       898-8.64649E-02-2.93631E-03 1.31559E-05 3.05670E+07 4.08077E+08 4.32100E-04
 -1       899-6.71485E-02-7.04464E-05-4.56525E-03 3.79464E+07 5.57914E+08-4.38035E-02
 -1       901-6.71485E-02-7.04464E-05-4.56525E-03 3.79464E+07 5.57914E+08-4.38035E-02
 -1       910-6.59447E-02-2.27971E-03-1.40229E-04 3.53383E+07 4.92444E+08 4.16972E-04
 -1       912-6.59447E-02-2.27971E-03-1.40229E-04 3.53383E+07 4.92444E+08 4.16972E-04
 -1       913-4.95224E-02-3.32647E-04 5.01861E-04 3.36859E+07 6.72321E+08-4.77006E-02
 -1       915-4.95224E-02-3.32647E-04 5.01861E-04 3.36859E+07 6.72321E+08-4.77006E-02
 -1       924-4.75645E-02 2.85821E-04-1.88638E-04 3.58160E+07 5.63131E+08 3.62188E-04
 -1       926-4.75645E-02 2.85821E-04-1.88638E-04 3.58160E+07 5.63131E+08 3.62188E-04
 -1       927-3.40146E-02 7.08107E-06 5.85663E-03 2.80519E+07 7.69282E+08-4.73776E-02
 -1       929-3.40146E-02 7.08107E-06 5.85663E-03 2.80519E+07 7.69282E+08-4.73776E-02
 -1       938-3.38122E-02-1.35202E-04-1.58169E-04 3.13516E+07 6.21544E+08 3.64851E-04
 -1       940-3.38122E-02-1.35202E-04-1.58169E-04 3.13516E+07 6.21544E+08 3.64851E-04
 -1       941-2.13016E-02 2.84724E-04 1.18465E-02 2.20212E+07 8.48331E+08-4.23522E-02
 -1       943-2.13016E-02 2.84724E-04 1.18465E-02 2.20212E+07 8.48331E+08-4.23522E-02
 -1       952-2.34743E-02-3.49573E-03-1.75517E-04 2.34061E+07 6.63117E+08 2.23970E-04
 -1       954-2.34743E-02-3.49573E-03-1.75517E-04 2.34061E+07 6.63117E+08 2.23970E-04
 -1       955-1.13970E-02 4.63390E-04 1.53411E-02 1.49289E+07 9.04961E+08-3.25565E-02
 -1       957-1.13970E-02 4.63390E-04 1.53411E-02 1.49289E+07 9.04961E+08-3.25565E-02
 -1       966-1.35857E-02-4.44421E-03-6.72166E-04 1.30824E+07 6.87769E+08 2.00553E-04
 -1       968-1.35857E-02-4.44421E-03-6.72166E-04 1.30824E+07 6.87769E+08 2.00553E-04
 -1       969-4.26332E-03 1.11859E-03 1.57732E-02 7.49044E+06 9.39977E+08-1.67615E-02
 -1       971-4.26332E-03 1.11859E-03 1.57732E-02 7.49044E+06 9.39977E+08-1.67615E-02
 -1       980-6.40880E+08 1.20032E+07 5.96146E+05 7.69799E+07 1.09394E+08-4.68462E+08
 -1       982-6.40880E+08 1.20032E+07 5.96146E+05 7.69799E+07 1.09394E+08-4.68462E+08
 -1       983 6.88596E+06 3.18198E+07 1.02678E+05 3.90053E+06 4.09946E+08 1.33192E+07
 -1       985 6.88596E+06 3.18198E+07 1.02678E+05 3.90053E+06 4.09946E+08 1.33192E+07
 -1       986 8.36052E+08 1.50663E+07 2.16493E+05 8.50082E+07-2.74604E+07 3.87098E+08
 -1       988 8.36052E+08 1.50663E+07 2.16493E+05 8.50082E+07-2.74604E+07 3.87098E+08
 -1       989 5.27703E+08-7.55524E+06-9.14178E+04 6.84761E+07-4.91594E+07 3.52581E+06
 -1       991 5.27703E+08-7.55524E+06-9.14178E+04 6.84761E+07-4.91594E+07 3.52581E+06
 -1       992 2.80875E+08-4.82087E+04 5.72195E+05 5.14125E+07-5.04091E+07 1.78244E+08
 -1       994 2.80875E+08-4.82087E+04 5.72195E+05 5.14125E+07-5.04091E+07 1.78244E+08
 -1       995 7.08890E+07-1.32839E+07-1.63421E+05 4.78520E+07-7.17326E+07 8.11907E+07
 -1       997 7.08890E+07-1.32839E+07-1.63421E+05 4.78520E+07-7.17326E+07 8.11907E+07
 -1       998-1.16781E+08-1.02635E+07 2.32845E+05 4.13010E+07-8.21647E+07 1.08512E+08
 -1      1000-1.16781E+08-1.02635E+07 2.32845E+05 4.13010E+07-8.21647E+07 1.08512E+08
 -1      1001-2.77774E+08-1.79133E+07-9.87941E+04 3.48431E+07-9.60525E+07 7.37992E+07
 -1      1003-2.77774E+08-1.79133E+07-9.87941E+04 3.48431E+07-9.60525E+07 7.37992E+07
 -1      1004-4.13453E+08-1.81730E+07-2.39257E+04 2.86976E+07-1.06126E+08 6.46842E+07
 -1      1006-4.13453E+08-1.81730E+07-2.39257E+04 2.86976E+07-1.06126E+08 6.46842E+07
 -1      1007-5.15816E+08-2.15308E+07-1.00375E+05 1.98119E+07-1.13317E+08 4.15942E+07
 -1      1009-5.15816E+08-2.15308E+07-1.00375E+05 1.98119E+07-1.13317E+08 4.15942E+07
 -1      1010-5.82785E+08-2.23535E+07-1.46425E+05 1.14189E+07-1.18883E+08 2.29030E+07
 -1      1012-5.82785E+08-2.23535E+07-1.46425E+05 1.14189E+07-1.18883E+08 2.29030E+07
 -1      1013-6.09543E+08-2.29771E+07-1.12286E+05 1.49067E+06-1.19875E+08 1.44640E+06
 -1      1015-6.09543E+08-2.29771E+07-1.12286E+05 1.49067E+06-1.19875E+08 1.44640E+06
 -1      1016-5.96796E+08-2.27116E+07-1.59524E+05-7.47891E+06-1.19433E+08-1.92503E+07
 -1      1018-5.96796E+08-2.27116E+07-1.59524E+05-7.47891E+06-1.19433E+08-1.92503E+07
 -1      1019-5.45638E+08-2.13957E+07-8.64250E+04-1.61462E+07-1.14488E+08-3.96552E+07
 -1      1021-5.45638E+08-2.13957E+07-8.64250E+04-1.61462E+07-1.14488E+08-3.96552E+07
 -1      1022-4.61723E+08-1.96279E+07-9.45547E+04-2.29430E+07-1.07932E+08-5.91467E+07
 -1      1024-4.61723E+08-1.96279E+07-9.45547E+04-2.29430E+07-1.07932E+08-5.91467E+07
 -1      1025-3.51861E+08-1.69051E+07-1.53546E+04-2.79832E+07-9.75858E+07-7.70560E+07
 -1      1027-3.51861E+08-1.69051E+07-1.53546E+04-2.79832E+07-9.75858E+07-7.70560E+07
 -1      1028-2.25695E+08-1.39349E+07 1.05246E+04-3.04712E+07-8.56608E+07-9.32276E+07
 -1      1030-2.25695E+08-1.39349E+07 1.05246E+04-3.04712E+07-8.56608E+07-9.32276E+07
 -1      1031-9.32243E+07-1.04015E+07 7.59539E+04-3.05693E+07-7.09163E+07-1.06978E+08
 -1      1033-9.32243E+07-1.04015E+07 7.59539E+04-3.05693E+07-7.09163E+07-1.06978E+08
 -1      1034 3.48995E+07-6.85045E+06 1.12399E+05-2.81505E+07-5.49419E+07-1.18221E+08
 -1      1036 3.48995E+07-6.85045E+06 1.12399E+05-2.81505E+07-5.49419E+07-1.18221E+08
 -1      1037 1.49187E+08-3.16493E+06 1.48604E+05-2.36692E+07-3.72440E+07-1.26454E+08
 -1      1039 1.49187E+08-3.16493E+06 1.48604E+05-2.36692E+07-3.72440E+07-1.26454E+08
 -1      1040 2.41549E+08 2.99588E+05 1.71764E+05-1.75126E+07-1.89139E+07-1.31652E+08
 -1      1042 2.41549E+08 2.99588E+05 1.71764E+05-1.75126E+07-1.89139E+07-1.31652E+08
 -1      1043 3.06423E+08 3.55774E+06 1.69272E+05-1.03985E+07-4.14075E+03-1.33525E+08
 -1      1045 3.06423E+08 3.55774E+06 1.69272E+05-1.03985E+07-4.14075E+03-1.33525E+08
 -1      1046 3.40950E+08 6.42220E+06 1.65530E+05-2.97439E+06 1.88057E+07-1.32133E+08
 -1      1048 3.40950E+08 6.42220E+06 1.65530E+05-2.97439E+06 1.88057E+07-1.32133E+08
 -1      1049 3.45329E+08 8.89428E+06 1.24851E+05 3.97382E+06 3.70806E+07-1.27446E+08
 -1      1051 3.45329E+08 8.89428E+06 1.24851E+05 3.97382E+06 3.70806E+07-1.27446E+08
 -1      1052 3.22630E+08 1.09024E+07 9.50170E+04 9.85669E+06 5.44937E+07-1.19506E+08
 -1      1054 3.22630E+08 1.09024E+07 9.50170E+04 9.85669E+06 5.44937E+07-1.19506E+08
 -1      1055 2.78404E+08 1.25236E+07 2.80701E+04 1.40487E+07 7.03894E+07-1.08835E+08
 -1      1057 2.78404E+08 1.25236E+07 2.80701E+04 1.40487E+07 7.03894E+07-1.08835E+08
 -1      1058 2.20116E+08 1.36512E+07-1.43233E+04 1.63275E+07 8.46770E+07-9.47786E+07
 -1      1060 2.20116E+08 1.36512E+07-1.43233E+04 1.63275E+07 8.46770E+07-9.47786E+07
 -1      1061 1.56191E+08 1.46466E+07-8.72019E+04 1.63709E+07 9.67648E+07-7.98661E+07
 -1      1063 1.56191E+08 1.46466E+07-8.72019E+04 1.63709E+07 9.67648E+07-7.98661E+07
 -1      1064 9.53627E+07 1.49816E+07-1.22871E+05 1.44347E+07 1.06435E+08-5.95690E+07
 -1      1066 9.53627E+07 1.49816E+07-1.22871E+05 1.44347E+07 1.06435E+08-5.95690E+07
 -1      1067 4.52375E+07 1.56281E+07-1.76117E+05 1.09413E+07 1.13820E+08-4.50624E+07
 -1      1069 4.52375E+07 1.56281E+07-1.76117E+05 1.09413E+07 1.13820E+08-4.50624E+07
 -1      1070 1.26916E+07 1.58844E+07-2.01119E+05 4.95218E+06 1.17700E+08-1.39199E+07
 -1      1072 1.26916E+07 1.58844E+07-2.01119E+05 4.95218E+06 1.17700E+08-1.39199E+07
 -1      1073 6.40880E+08-1.20032E+07-5.96146E+05 7.69799E+07 1.09394E+08 4.68462E+08
 -1      1075 6.40880E+08-1.20032E+07-5.96146E+05 7.69799E+07 1.09394E+08 4.68462E+08
 -1      1076-4.14508E-02 8.52441E-05-9.99572E-03 3.88359E+08 2.22691E+07-1.11782E-01
 -1      1078-4.14508E-02 8.52441E-05-9.99572E-03 3.88359E+08 2.22691E+07-1.11782E-01
 -1      1079-5.41256E-03-3.66385E-05 2.62167E-03 1.03545E-03-4.51530E+07-1.14397E-01
 -1      1081-5.41256E-03-3.66385E-05 2.62167E-03 1.03545E-03-4.51530E+07-1.14397E-01
 -1      1082 2.82294E-02-8.30496E-05 1.34144E-02-3.88359E+08 2.22691E+07-1.06387E-01
 -1      1084 2.82294E-02-8.30496E-05 1.34144E-02-3.88359E+08 2.22691E+07-1.06387E-01
 -1      1085 3.79732E-02-2.92703E-05 1.04432E-02 2.46320E+07-2.45650E+07-1.06408E-01
 -1      1087 3.79732E-02-2.92703E-05 1.04432E-02 2.46320E+07-2.45650E+07-1.06408E-01
 -1      1088 5.37623E-02 1.97783E-03-6.04521E-05-1.61061E+08 3.54945E+07-4.40795E-04
 -1      1090 5.37623E-02 1.97783E-03-6.04521E-05-1.61061E+08 3.54945E+07-4.40795E-04
 -1      1099 1.21718E-02-5.23536E-04-7.73851E-03 6.18457E+07-2.54062E+08-1.06557E-01
 -1      1101 1.21718E-02-5.23536E-04-7.73851E-03 6.18457E+07-2.54062E+08-1.06557E-01
 -1      1102 2.02950E-02-8.88134E-04 5.19827E-05-1.57844E+08-2.13469E+08 1.09988E-03
 -1      1104 2.02950E-02-8.88134E-04 5.19827E-05-1.57844E+08-2.13469E+08 1.09988E-03
 -1      1113-1.34029E-02-2.45067E-04-1.70625E-02 2.14745E+07-4.04407E+08-9.50387E-02
 -1      1115-1.34029E-02-2.45067E-04-1.70625E-02 2.14745E+07-4.04407E+08-9.50387E-02
 -1      1116-1.28014E-02 6.13952E-04 2.02165E-04-1.10464E+08-2.93001E+08 2.29228E-04
 -1      1118-1.28014E-02 6.13952E-04 2.02165E-04-1.10464E+08-2.93001E+08 2.29228E-04
 -1      1127-3.79376E-02-4.48361E-04-2.16105E-02 4.80419E+07-5.30565E+08-8.10607E-02
 -1      1129-3.79376E-02-4.48361E-04-2.16105E-02 4.80419E+07-5.30565E+08-8.10607E-02
 -1      1130-4.06568E-02-3.53366E-04 2.08294E-04-1.11238E+08-3.94431E+08 6.34991E-04
 -1      1132-4.06568E-02-3.53366E-04 2.08294E-04-1.11238E+08-3.94431E+08 6.34991E-04
 -1      1141-5.73921E-02-6.39212E-04-2.92932E-02 1.99163E+07-6.60742E+08-6.34369E-02
 -1      1143-5.73921E-02-6.39212E-04-2.92932E-02 1.99163E+07-6.60742E+08-6.34369E-02
 -1      1144-6.20206E-02 1.97242E-03-5.67002E-05-8.57053E+07-4.88735E+08 3.33890E-04
 -1      1146-6.20206E-02 1.97242E-03-5.67002E-05-8.57053E+07-4.88735E+08 3.33890E-04
 -1      1155-6.93786E-02-2.59210E-04-3.52358E-02 3.20002E+07-7.54442E+08-4.18315E-02
 -1      1157-6.93786E-02-2.59210E-04-3.52358E-02 3.20002E+07-7.54442E+08-4.18315E-02
 -1      1158-7.42846E-02 3.69373E-03-4.37796E-05-8.17423E+07-5.53268E+08 2.82750E-04
 -1      1160-7.42846E-02 3.69373E-03-4.37796E-05-8.17423E+07-5.53268E+08 2.82750E-04
 -1      1169-7.21049E-02 8.63562E-05-3.27565E-02 1.38699E+07-8.41408E+08-1.49696E-02
 -1      1171-7.21049E-02 8.63562E-05-3.27565E-02 1.38699E+07-8.41408E+08-1.49696E-02
 -1      1172-7.74344E-02 2.46207E-03-1.36532E-06-5.94661E+07-6.20361E+08 2.79941E-04
 -1      1174-7.74344E-02 2.46207E-03-1.36532E-06-5.94661E+07-6.20361E+08 2.79941E-04
 -1      1183-7.00235E-02 1.84305E-04-2.54187E-02 1.66535E+07-8.99099E+08 6.13518E-03
 -1      1185-7.00235E-02 1.84305E-04-2.54187E-02 1.66535E+07-8.99099E+08 6.13518E-03
 -1      1186-7.78850E-02 1.82804E-03-6.61481E-05-4.64236E+07-6.58009E+08 1.79274E-04
 -1      1188-7.78850E-02 1.82804E-03-6.61481E-05-4.64236E+07-6.58009E+08 1.79274E-04
 -1      1197-6.78898E-02-1.51656E-04-2.45533E-02 4.25148E+06-9.38312E+08 2.18744E-02
 -1      1199-6.78898E-02-1.51656E-04-2.45533E-02 4.25148E+06-9.38312E+08 2.18744E-02
 -1      1200-7.70912E-02 2.37434E-03 1.66930E-04-2.32166E+07-6.89620E+08-1.77697E-04
 -1      1202-7.70912E-02 2.37434E-03 1.66930E-04-2.32166E+07-6.89620E+08-1.77697E-04
 -1      1211-5.92372E-02-4.38948E-04-2.68582E-02 2.14280E+06-9.51934E+08 4.02379E-02
 -1      1213-5.92372E-02-4.38948E-04-2.68582E-02 2.14280E+06-9.51934E+08 4.02379E-02
 -1      1214-6.68477E-02 3.12285E-03 2.89608E-04-4.66401E+06-6.96471E+08-1.69238E-04
 -1      1216-6.68477E-02 3.12285E-03 2.89608E-04-4.66401E+06-6.96471E+08-1.69238E-04
 -1      1225-4.13325E-02-4.06641E-04-2.38275E-02-7.16386E+06-9.42375E+08 5.81210E-02
 -1      1227-4.13325E-02-4.06641E-04-2.38275E-02-7.16386E+06-9.42375E+08 5.81210E-02
 -1      1228-4.69967E-02 3.44556E-03 1.56311E-04 1.73195E+07-6.91393E+08-2.77579E-04
 -1      1230-4.69967E-02 3.44556E-03 1.56311E-04 1.73195E+07-6.91393E+08-2.77579E-04
 -1      1239-2.33127E-02-3.31566E-04-1.61063E-02-1.14308E+07-9.09195E+08 7.03237E-02
 -1      1241-2.33127E-02-3.31566E-04-1.61063E-02-1.14308E+07-9.09195E+08 7.03237E-02
 -1      1242-2.73169E-02 2.33345E-03 8.41394E-05 3.48454E+07-6.65282E+08-3.13781E-04
 -1      1244-2.73169E-02 2.33345E-03 8.41394E-05 3.48454E+07-6.65282E+08-3.13781E-04
 -1      1253-8.12107E-03 7.08670E-04-6.45870E-03-1.88512E+07-8.53009E+08 7.53509E-02
 -1      1255-8.12107E-03 7.08670E-04-6.45870E-03-1.88512E+07-8.53009E+08 7.53509E-02
 -1      1256-9.40967E-03 1.74079E-03-1.38950E-04 5.08377E+07-6.25367E+08-3.03268E-04
 -1      1258-9.40967E-03 1.74079E-03-1.38950E-04 5.08377E+07-6.25367E+08-3.03268E-04
 -1      1267 7.85097E-03 9.91752E-04-1.15345E-04-2.36414E+07-7.75913E+08 7.49245E-02
 -1      1269 7.85097E-03 9.91752E-04-1.15345E-04-2.36414E+07-7.75913E+08 7.49245E-02
 -1      1270 1.21628E-02 2.74722E-03-3.29059E-04 6.12327E+07-5.67971E+08-3.96799E-04
 -1      1272 1.21628E-02 2.74722E-03-3.29059E-04 6.12327E+07-5.67971E+08-3.96799E-04
 -1      1281 2.63394E-02 1.78785E-04 2.15647E-03-2.95351E+07-6.79097E+08 7.34433E-02
 -1      1283 2.63394E-02 1.78785E-04 2.15647E-03-2.95351E+07-6.79097E+08 7.34433E-02
 -1      1284 3.72414E-02 1.93611E-03-1.75031E-04 6.72106E+07-4.97862E+08-3.59248E-04
 -1      1286 3.72414E-02 1.93611E-03-1.75031E-04 6.72106E+07-4.97862E+08-3.59248E-04
 -1      1295 4.63860E-02 2.70375E-04 5.69100E-03-3.37911E+07-5.65717E+08 6.71015E-02
 -1      1297 4.63860E-02 2.70375E-04 5.69100E-03-3.37911E+07-5.65717E+08 6.71015E-02
 -1      1298 6.20352E-02-8.52218E-04-2.50490E-04 6.71418E+07-4.14411E+08-2.47858E-04
 -1      1300 6.20352E-02-8.52218E-04-2.50490E-04 6.71418E+07-4.14411E+08-2.47858E-04
 -1      1309 6.45905E-02-2.59790E-04 6.62480E-03-3.80692E+07-4.38018E+08 5.19922E-02
 -1      1311 6.45905E-02-2.59790E-04 6.62480E-03-3.80692E+07-4.38018E+08 5.19922E-02
 -1      1312 8.49061E-02-1.61934E-03-4.02638E-05 6.21022E+07-3.21369E+08-3.55050E-04
 -1      1314 8.49061E-02-1.61934E-03-4.02638E-05 6.21022E+07-3.21369E+08-3.55050E-04
 -1      1323 8.06160E-02-5.01606E-04 3.33519E-03-4.10263E+07-2.99674E+08 3.55106E-02
 -1      1325 8.06160E-02-5.01606E-04 3.33519E-03-4.10263E+07-2.99674E+08 3.55106E-02
 -1      1326 1.04185E-01-2.38198E-03 2.47195E-04 5.21507E+07-2.19908E+08-2.85275E-04
 -1      1328 1.04185E-01-2.38198E-03 2.47195E-04 5.21507E+07-2.19908E+08-2.85275E-04
 -1      1337 9.13532E-02-3.27479E-04 2.45085E-03-4.34091E+07-1.53784E+08 2.13792E-02
 -1      1339 9.13532E-02-3.27479E-04 2.45085E-03-4.34091E+07-1.53784E+08 2.13792E-02
 -1      1340 1.15455E-01-6.08526E-03-1.00965E-04 3.87983E+07-1.13266E+08-9.22009E-05
 -1      1342 1.15455E-01-6.08526E-03-1.00965E-04 3.87983E+07-1.13266E+08-9.22009E-05
 -1      1351 9.33036E-02-3.23004E-04 3.50738E-03-4.44946E+07-4.24152E+06 6.26805E-03
 -1      1353 9.33036E-02-3.23004E-04 3.50738E-03-4.44946E+07-4.24152E+06 6.26805E-03
 -1      1354 1.17935E-01-7.16312E-03-1.54013E-04 2.31228E+07-3.74149E+06-1.67638E-06
 -1      1356 1.17935E-01-7.16312E-03-1.54013E-04 2.31228E+07-3.74149E+06-1.67638E-06
 -1      1365 8.97183E-02-1.88852E-04 2.77491E-03-4.47022E+07 1.45427E+08-8.35556E-03
 -1      1367 8.97183E-02-1.88852E-04 2.77491E-03-4.47022E+07 1.45427E+08-8.35556E-03
 -1      1368 1.15433E-01-3.94001E-03 1.36945E-04 6.94641E+06 1.05944E+08 4.90397E-05
 -1      1370 1.15433E-01-3.94001E-03 1.36945E-04 6.94641E+06 1.05944E+08 4.90397E-05
 -1      1379 8.21577E-02-4.19286E-05 3.96688E-03-4.35460E+07 2.91337E+08-2.04285E-02
 -1      1381 8.21577E-02-4.19286E-05 3.96688E-03-4.35460E+07 2.91337E+08-2.04285E-02
 -1      1382 1.07336E-01-3.08345E-03 1.96653E-04-8.38894E+06 2.12713E+08 1.84663E-04
 -1      1384 1.07336E-01-3.08345E-03 1.96653E-04-8.38894E+06 2.12713E+08 1.84663E-04
 -1      1393 7.00624E-02 2.46777E-04 6.76603E-03-4.14524E+07 4.30105E+08-3.27774E-02
 -1      1395 7.00624E-02 2.46777E-04 6.76603E-03-4.14524E+07 4.30105E+08-3.27774E-02
 -1      1396 9.31065E-02-3.68704E-03 7.57538E-06-2.11694E+07 3.14690E+08 2.28375E-04
 -1      1398 9.31065E-02-3.68704E-03 7.57538E-06-2.11694E+07 3.14690E+08 2.28375E-04
 -1      1407 5.66711E-02-1.17975E-04 2.93209E-03-3.79464E+07 5.57914E+08-4.50544E-02
 -1      1409 5.66711E-02-1.17975E-04 2.93209E-03-3.79464E+07 5.57914E+08-4.50544E-02
 -1      1410 7.76325E-02-1.14156E-03 1.79904E-05-3.05670E+07 4.08077E+08 2.14092E-04
 -1      1412 7.76325E-02-1.14156E-03 1.79904E-05-3.05670E+07 4.08077E+08 2.14092E-04
 -1      1421 4.51874E-02-5.67159E-04-6.51037E-03-3.36859E+07 6.72321E+08-5.02850E-02
 -1      1423 4.51874E-02-5.67159E-04-6.51037E-03-3.36859E+07 6.72321E+08-5.02850E-02
 -1      1424 6.37912E-02 1.28088E-03 9.11728E-05-3.53383E+07 4.92444E+08 2.93396E-04
 -1      1426 6.37912E-02 1.28088E-03 9.11728E-05-3.53383E+07 4.92444E+08 2.93396E-04
 -1      1435 3.48657E-02-5.33643E-04-1.24749E-02-2.80519E+07 7.69282E+08-4.65666E-02
 -1      1437 3.48657E-02-5.33643E-04-1.24749E-02-2.80519E+07 7.69282E+08-4.65666E-02
 -1      1438 5.05405E-02 1.72193E-03 2.52411E-04-3.58160E+07 5.63131E+08 4.00018E-04
 -1      1440 5.05405E-02 1.72193E-03 2.52411E-04-3.58160E+07 5.63131E+08 4.00018E-04
 -1      1449 2.46454E-02-2.26461E-04-1.41316E-02-2.20212E+07 8.48331E+08-4.19880E-02
 -1      1451 2.46454E-02-2.26461E-04-1.41316E-02-2.20212E+07 8.48331E+08-4.19880E-02
 -1      1452 3.68983E-02 1.83696E-03 1.02226E-04-3.13516E+07 6.21544E+08 3.84606E-04
 -1      1454 3.68983E-02 1.83696E-03 1.02226E-04-3.13516E+07 6.21544E+08 3.84606E-04
 -1      1463 1.32005E-02-1.23277E-04-1.85075E-02-1.49289E+07 9.04961E+08-3.66567E-02
 -1      1465 1.32005E-02-1.23277E-04-1.85075E-02-1.49289E+07 9.04961E+08-3.66567E-02
 -1      1466 2.34744E-02 1.04462E-03 7.52867E-05-2.34061E+07 6.63117E+08 1.45927E-04
 -1      1468 2.34744E-02 1.04462E-03 7.52867E-05-2.34061E+07 6.63117E+08 1.45927E-04
 -1      1477 2.17980E-03-5.66103E-04-2.57495E-02-7.49044E+06 9.39977E+08-2.29159E-02
 -1      1479 2.17980E-03-5.66103E-04-2.57495E-02-7.49044E+06 9.39977E+08-2.29159E-02
 -1      1480 1.21178E-02 3.42853E-03 5.61370E-04-1.30824E+07 6.87769E+08 1.48011E-04
 -1      1482 1.21178E-02 3.42853E-03 5.61370E-04-1.30824E+07 6.87769E+08 1.48011E-04
 -1      1491-1.21654E-03 7.74916E-04 1.01820E-02 2.16287E+06 5.47654E+08-9.28806E-03
 -1      1493-1.21654E-03 7.74916E-04 1.01820E-02 2.16287E+06 5.47654E+08-9.28806E-03
 -1      1494-4.37025E-05 9.32341E-04-2.72743E-03 2.66879E-04 1.41414E+08-1.02187E-02
 -1      1496-4.37025E-05 9.32341E-04-2.72743E-03 2.66879E-04 1.41414E+08-1.02187E-02
 -1      1497-6.74398E-04 4.01093E-04-1.98770E-02-2.16287E+06 5.47654E+08-1.14217E-02
 -1      1499-6.74398E-04 4.01093E-04-1.98770E-02-2.16287E+06 5.47654E+08-1.14217E-02
 -1      1500-8.36052E+08-1.50663E+07-2.16493E+05-8.50082E+07-2.74604E+07 3.87098E+08
 -1      1502-8.36052E+08-1.50663E+07-2.16493E+05-8.50082E+07-2.74604E+07 3.87098E+08
 -1      1503-5.27703E+08 7.55524E+06 9.14178E+04-6.84761E+07-4.91594E+07 3.52581E+06
 -1      1505-5.27703E+08 7.55524E+06 9.14178E+04-6.84761E+07-4.91594E+07 3.52581E+06
 -1      1506-2.80875E+08 4.82087E+04-5.72195E+05-5.14125E+07-5.04091E+07 1.78244E+08
 -1      1508-2.80875E+08 4.82087E+04-5.72195E+05-5.14125E+07-5.04091E+07 1.78244E+08
 -1      1509-7.08890E+07 1.32839E+07 1.63421E+05-4.78520E+07-7.17326E+07 8.11907E+07
 -1      1511-7.08890E+07 1.32839E+07 1.63421E+05-4.78520E+07-7.17326E+07 8.11907E+07
 -1      1512 1.16781E+08 1.02635E+07-2.32845E+05-4.13010E+07-8.21647E+07 1.08512E+08
 -1      1514 1.16781E+08 1.02635E+07-2.32845E+05-4.13010E+07-8.21647E+07 1.08512E+08
 -1      1515 2.77774E+08 1.79133E+07 9.87941E+04-3.48431E+07-9.60525E+07 7.37992E+07
 -1      1517 2.77774E+08 1.79133E+07 9.87941E+04-3.48431E+07-9.60525E+07 7.37992E+07
 -1      1518 4.13453E+08 1.81730E+07 2.39257E+04-2.86976E+07-1.06126E+08 6.46842E+07
 -1      1520 4.13453E+08 1.81730E+07 2.39257E+04-2.86976E+07-1.06126E+08 6.46842E+07
 -1      1521 5.15816E+08 2.15308E+07 1.00375E+05-1.98119E+07-1.13317E+08 4.15942E+07
 -1      1523 5.15816E+08 2.15308E+07 1.00375E+05-1.98119E+07-1.13317E+08 4.15942E+07
 -1      1524 5.82785E+08 2.23535E+07 1.46425E+05-1.14189E+07-1.18883E+08 2.29030E+07
 -1      1526 5.82785E+08 2.23535E+07 1.46425E+05-1.14189E+07-1.18883E+08 2.29030E+07
 -1      1527 6.09543E+08 2.29771E+07 1.12286E+05-1.49067E+06-1.19875E+08 1.44640E+06
 -1      1529 6.09543E+08 2.29771E+07 1.12286E+05-1.49067E+06-1.19875E+08 1.44640E+06
 -1      1530 5.96796E+08 2.27116E+07 1.59524E+05 7.47891E+06-1.19433E+08-1.92503E+07
 -1      1532 5.96796E+08 2.27116E+07 1.59524E+05 7.47891E+06-1.19433E+08-1.92503E+07
 -1      1533 5.45638E+08 2.13957E+07 8.64250E+04 1.61462E+07-1.14488E+08-3.96552E+07
 -1      1535 5.45638E+08 2.13957E+07 8.64250E+04 1.61462E+07-1.14488E+08-3.96552E+07
 -1      1536 4.61723E+08 1.96279E+07 9.45547E+04 2.29430E+07-1.07932E+08-5.91467E+07
 -1      1538 4.61723E+08 1.96279E+07 9.45547E+04 2.29430E+07-1.07932E+08-5.91467E+07
 -1      1539 3.51861E+08 1.69051E+07 1.53546E+04 2.79832E+07-9.75858E+07-7.70560E+07
 -1      1541 3.51861E+08 1.69051E+07 1.53546E+04 2.79832E+07-9.75858E+07-7.70560E+07
 -1      1542 2.25695E+08 1.39349E+07-1.05246E+04 3.04712E+07-8.56608E+07-9.32276E+07
 -1      1544 2.25695E+08 1.39349E+07-1.05246E+04 3.04712E+07-8.56608E+07-9.32276E+07
 -1      1545 9.32243E+07 1.04015E+07-7.59539E+04 3.05693E+07-7.09163E+07-1.06978E+08
 -1      1547 9.32243E+07 1.04015E+07-7.59539E+04 3.05693E+07-7.09163E+07-1.06978E+08
 -1      1548-3.48995E+07 6.85045E+06-1.12399E+05 2.81505E+07-5.49419E+07-1.18221E+08
 -1      1550-3.48995E+07 6.85045E+06-1.12399E+05 2.81505E+07-5.49419E+07-1.18221E+08
 -1      1551-1.49187E+08 3.16493E+06-1.48604E+05 2.36692E+07-3.72440E+07-1.26454E+08
 -1      1553-1.49187E+08 3.16493E+06-1.48604E+05 2.36692E+07-3.72440E+07-1.26454E+08
 -1      1554-2.41549E+08-2.99588E+05-1.71764E+05 1.75126E+07-1.89139E+07-1.31652E+08
 -1      1556-2.41549E+08-2.99588E+05-1.71764E+05 1.75126E+07-1.89139E+07-1.31652E+08
 -1      1557-3.06423E+08-3.55774E+06-1.69272E+05 1.03985E+07-4.14075E+03-1.33525E+08
 -1      1559-3.06423E+08-3.55774E+06-1.69272E+05 1.03985E+07-4.14075E+03-1.33525E+08
 -1      1560-3.40950E+08-6.42220E+06-1.65530E+05 2.97439E+06 1.88057E+07-1.32133E+08
 -1      1562-3.40950E+08-6.42220E+06-1.65530E+05 2.97439E+06 1.88057E+07-1.32133E+08
 -1      1563-3.45329E+08-8.89428E+06-1.24851E+05-3.97382E+06 3.70806E+07-1.27446E+08
 -1      1565-3.45329E+08-8.89428E+06-1.24851E+05-3.97382E+06 3.70806E+07-1.27446E+08
 -1      1566-3.22630E+08-1.09024E+07-9.50170E+04-9.85669E+06 5.44937E+07-1.19506E+08
 -1      1568-3.22630E+08-1.09024E+07-9.50170E+04-9.85669E+06 5.44937E+07-1.19506E+08
 -1      1569-2.78404E+08-1.25236E+07-2.80701E+04-1.40487E+07 7.03894E+07-1.08835E+08
 -1      1571-2.78404E+08-1.25236E+07-2.80701E+04-1.40487E+07 7.03894E+07-1.08835E+08
 -1      1572-2.20116E+08-1.36512E+07 1.43233E+04-1.63275E+07 8.46770E+07-9.47786E+07
 -1      1574-2.20116E+08-1.36512E+07 1.43233E+04-1.63275E+07 8.46770E+07-9.47786E+07
 -1      1575-1.56191E+08-1.46466E+07 8.72019E+04-1.63709E+07 9.67648E+07-7.98661E+07
 -1      1577-1.56191E+08-1.46466E+07 8.72019E+04-1.63709E+07 9.67648E+07-7.98661E+07
 -1      1578-9.53627E+07-1.49816E+07 1.22871E+05-1.44347E+07 1.06435E+08-5.95690E+07
 -1      1580-9.53627E+07-1.49816E+07 1.22871E+05-1.44347E+07 1.06435E+08-5.95690E+07
 -1      1581-4.52375E+07-1.56281E+07 1.76117E+05-1.09413E+07 1.13820E+08-4.50624E+07
 -1      1583-4.52375E+07-1.56281E+07 1.76117E+05-1.09413E+07 1.13820E+08-4.50624E+07
 -1      1584-1.26916E+07-1.58844E+07 2.01119E+05-4.95218E+06 1.17700E+08-1.39199E+07
 -1      1586-1.26916E+07-1.58844E+07 2.01119E+05-4.95218E+06 1.17700E+08-1.39199E+07
 -1      1587-6.88596E+06-3.18198E+07-1.02678E+05-3.90053E+06 4.09946E+08 1.33192E+07
 -1      1589-6.88596E+06-3.18198E+07-1.02678E+05-3.90053E+06 4.09946E+08 1.33192E+07
 -1      1590-6.40880E+08 1.20032E+07 5.96146E+05-7.69799E+07 1.09394E+08 4.68462E+08
 -1      1592-6.40880E+08 1.20032E+07 5.96146E+05-7.69799E+07 1.09394E+08 4.68462E+08
 -1      1593 6.88596E+06 3.18198E+07 1.02678E+05-3.90053E+06 4.09946E+08-1.33192E+07
 -1      1595 6.88596E+06 3.18198E+07 1.02678E+05-3.90053E+06 4.09946E+08-1.33192E+07
 -1      1596 8.36052E+08 1.50663E+07 2.16493E+05-8.50082E+07-2.74604E+07-3.87098E+08
 -1      1598 8.36052E+08 1.50663E+07 2.16493E+05-8.50082E+07-2.74604E+07-3.87098E+08
 -1      1599 5.27703E+08-7.55524E+06-9.14178E+04-6.84761E+07-4.91594E+07-3.52581E+06
 -1      1601 5.27703E+08-7.55524E+06-9.14178E+04-6.84761E+07-4.91594E+07-3.52581E+06
 -1      1602 2.80875E+08-4.82087E+04 5.72195E+05-5.14125E+07-5.04091E+07-1.78244E+08
 -1      1604 2.80875E+08-4.82087E+04 5.72195E+05-5.14125E+07-5.04091E+07-1.78244E+08
 -1      1605 7.08890E+07-1.32839E+07-1.63421E+05-4.78520E+07-7.17326E+07-8.11907E+07
 -1      1607 7.08890E+07-1.32839E+07-1.63421E+05-4.78520E+07-7.17326E+07-8.11907E+07
 -1      1608-1.16781E+08-1.02635E+07 2.32845E+05-4.13010E+07-8.21647E+07-1.08512E+08
 -1      1610-1.16781E+08-1.02635E+07 2.32845E+05-4.13010E+07-8.21647E+07-1.08512E+08
 -1      1611-2.77774E+08-1.79133E+07-9.87941E+04-3.48431E+07-9.60525E+07-7.37992E+07
 -1      1613-2.77774E+08-1.79133E+07-9.87941E+04-3.48431E+07-9.60525E+07-7.37992E+07
 -1      1614-4.13453E+08-1.81730E+07-2.39257E+04-2.86976E+07-1.06126E+08-6.46842E+07
 -1      1616-4.13453E+08-1.81730E+07-2.39257E+04-2.86976E+07-1.06126E+08-6.46842E+07
 -1      1617-5.15816E+08-2.15308E+07-1.00375E+05-1.98119E+07-1.13317E+08-4.15942E+07
 -1      1619-5.15816E+08-2.15308E+07-1.00375E+05-1.98119E+07-1.13317E+08-4.15942E+07
 -1      1620-5.82785E+08-2.23535E+07-1.46425E+05-1.14189E+07-1.18883E+08-2.29030E+07
 -1      1622-5.82785E+08-2.23535E+07-1.46425E+05-1.14189E+07-1.18883E+08-2.29030E+07
 -1      1623-6.09543E+08-2.29771E+07-1.12286E+05-1.49067E+06-1.19875E+08-1.44640E+06
 -1      1625-6.09543E+08-2.29771E+07-1.12286E+05-1.49067E+06-1.19875E+08-1.44640E+06
 -1      1626-5.96796E+08-2.27116E+07-1.59524E+05 7.47891E+06-1.19433E+08 1.92503E+07
 -1      1628-5.96796E+08-2.27116E+07-1.59524E+05 7.47891E+06-1.19433E+08 1.92503E+07
 -1      1629-5.45638E+08-2.13957E+07-8.64250E+04 1.61462E+07-1.14488E+08 3.96552E+07
 -1      1631-5.45638E+08-2.13957E+07-8.64250E+04 1.61462E+07-1.14488E+08 3.96552E+07
 -1      1632-4.61723E+08-1.96279E+07-9.45547E+04 2.29430E+07-1.07932E+08 5.91467E+07
 -1      1634-4.61723E+08-1.96279E+07-9.45547E+04 2.29430E+07-1.07932E+08 5.91467E+07
 -1      1635-3.51861E+08-1.69051E+07-1.53546E+04 2.79832E+07-9.75858E+07 7.70560E+07
 -1      1637-3.51861E+08-1.69051E+07-1.53546E+04 2.79832E+07-9.75858E+07 7.70560E+07
 -1      1638-2.25695E+08-1.39349E+07 1.05246E+04 3.04712E+07-8.56608E+07 9.32276E+07
 -1      1640-2.25695E+08-1.39349E+07 1.05246E+04 3.04712E+07-8.56608E+07 9.32276E+07
 -1      1641-9.32243E+07-1.04015E+07 7.59539E+04 3.05693E+07-7.09163E+07 1.06978E+08
 -1      1643-9.32243E+07-1.04015E+07 7.59539E+04 3.05693E+07-7.09163E+07 1.06978E+08
 -1      1644 3.48995E+07-6.85045E+06 1.12399E+05 2.81505E+07-5.49419E+07 1.18221E+08
 -1      1646 3.48995E+07-6.85045E+06 1.12399E+05 2.81505E+07-5.49419E+07 1.18221E+08
 -1      1647 1.49187E+08-3.16493E+06 1.48604E+05 2.36692E+07-3.72440E+07 1.26454E+08
 -1      1649 1.49187E+08-3.16493E+06 1.48604E+05 2.36692E+07-3.72440E+07 1.26454E+08
 -1      1650 2.41549E+08 2.99588E+05 1.71764E+05 1.75126E+07-1.89139E+07 1.31652E+08
 -1      1652 2.41549E+08 2.99588E+05 1.71764E+05 1.75126E+07-1.89139E+07 1.31652E+08
 -1      1653 3.06423E+08 3.55774E+06 1.69272E+05 1.03985E+07-4.14075E+03 1.33525E+08
 -1      1655 3.06423E+08 3.55774E+06 1.69272E+05 1.03985E+07-4.14075E+03 1.33525E+08
 -1      1656 3.40950E+08 6.42220E+06 1.65530E+05 2.97439E+06 1.88057E+07 1.32133E+08
 -1      1658 3.40950E+08 6.42220E+06 1.65530E+05 2.97439E+06 1.88057E+07 1.32133E+08
 -1      1659 3.45329E+08 8.89428E+06 1.24851E+05-3.97382E+06 3.70806E+07 1.27446E+08
 -1      1661 3.45329E+08 8.89428E+06 1.24851E+05-3.97382E+06 3.70806E+07 1.27446E+08
 -1      1662 3.22630E+08 1.09024E+07 9.50170E+04-9.85669E+06 5.44937E+07 1.19506E+08
 -1      1664 3.22630E+08 1.09024E+07 9.50170E+04-9.85669E+06 5.44937E+07 1.19506E+08
 -1      1665 2.78404E+08 1.25236E+07 2.80701E+04-1.40487E+07 7.03894E+07 1.08835E+08
 -1      1667 2.78404E+08 1.25236E+07 2.80701E+04-1.40487E+07 7.03894E+07 1.08835E+08
 -1      1668 2.20116E+08 1.36512E+07-1.43233E+04-1.63275E+07 8.46770E+07 9.47786E+07
 -1      1670 2.20116E+08 1.36512E+07-1.43233E+04-1.63275E+07 8.46770E+07 9.47786E+07
 -1      1671 1.56191E+08 1.46466E+07-8.72019E+04-1.63709E+07 9.67648E+07 7.98661E+07
 -1      1673 1.56191E+08 1.46466E+07-8.72019E+04-1.63709E+07 9.67648E+07 7.98661E+07
 -1      1674 9.53627E+07 1.49816E+07-1.22871E+05-1.44347E+07 1.06435E+08 5.95690E+07
 -1      1676 9.53627E+07 1.49816E+07-1.22871E+05-1.44347E+07 1.06435E+08 5.95690E+07
 -1      1677 4.52375E+07 1.56281E+07-1.76117E+05-1.09413E+07 1.13820E+08 4.50624E+07
 -1      1679 4.52375E+07 1.56281E+07-1.76117E+05-1.09413E+07 1.13820E+08 4.50624E+07
 -1      1680 1.26916E+07 1.58844E+07-2.01119E+05-4.95218E+06 1.17700E+08 1.39199E+07
 -1      1682 1.26916E+07 1.58844E+07-2.01119E+05-4.95218E+06 1.17700E+08 1.39199E+07
 -1      1683 6.40880E+08-1.20032E+07-5.96146E+05-7.69799E+07 1.09394E+08-4.68462E+08
 -1      1685 6.40880E+08-1.20032E+07-5.96146E+05-7.69799E+07 1.09394E+08-4.68462E+08
 -1      1686-5.49079E+08 6.30710E+06 9.93474E+04 1.23035E+08 4.01701E+06-1.17248E+08
 -1      1688-5.49079E+08 6.30710E+06 9.93474E+04 1.23035E+08 4.01701E+06-1.17248E+08
 -1      1689-3.57009E+08-8.14328E+06-4.47086E+05 1.13160E+08-1.31314E+08 7.07059E+07
 -1      1691-3.57009E+08-8.14328E+06-4.47086E+05 1.13160E+08-1.31314E+08 7.07059E+07
 -1      1692-1.85736E+08 1.03100E+07 4.22979E+05 8.09381E+07-1.71705E+08-1.88473E+07
 -1      1694-1.85736E+08 1.03100E+07 4.22979E+05 8.09381E+07-1.71705E+08-1.88473E+07
 -1      1695-4.45373E+07 1.93248E+07-1.40978E+05 7.95448E+07-2.33082E+08 2.22479E+07
 -1      1697-4.45373E+07 1.93248E+07-1.40978E+05 7.95448E+07-2.33082E+08 2.22479E+07
 -1      1698 8.22110E+07 2.25833E+07 2.01834E+05 6.35031E+07-2.85450E+08 2.12151E+06
 -1      1700 8.22110E+07 2.25833E+07 2.01834E+05 6.35031E+07-2.85450E+08 2.12151E+06
 -1      1701 1.90716E+08 3.36899E+07 1.59806E+05 5.82927E+07-3.24660E+08 9.25467E+06
 -1      1703 1.90716E+08 3.36899E+07 1.59806E+05 5.82927E+07-3.24660E+08 9.25467E+06
 -1      1704 2.82130E+08 3.51780E+07 1.05636E+05 4.40819E+07-3.63244E+08 4.26741E+06
 -1      1706 2.82130E+08 3.51780E+07 1.05636E+05 4.40819E+07-3.63244E+08 4.26741E+06
 -1      1707 3.51046E+08 4.20866E+07 2.89455E+05 3.31178E+07-3.85663E+08 3.97663E+06
 -1      1709 3.51046E+08 4.20866E+07 2.89455E+05 3.31178E+07-3.85663E+08 3.97663E+06
 -1      1710 3.96082E+08 4.26033E+07 1.01253E+05 1.73177E+07-4.04251E+08 1.86305E+06
 -1      1712 3.96082E+08 4.26033E+07 1.01253E+05 1.73177E+07-4.04251E+08 1.86305E+06
 -1      1713 4.14159E+08 4.50119E+07 3.12512E+05 3.07734E+06-4.08173E+08 1.31112E+05
 -1      1715 4.14159E+08 4.50119E+07 3.12512E+05 3.07734E+06-4.08173E+08 1.31112E+05
 -1      1716 4.05535E+08 4.34438E+07 1.14582E+05-1.23992E+07-4.05413E+08-1.54781E+06
 -1      1718 4.05535E+08 4.34438E+07 1.14582E+05-1.23992E+07-4.05413E+08-1.54781E+06
 -1      1719 3.71214E+08 4.19609E+07 2.78552E+05-2.54958E+07-3.89885E+08-3.38461E+06
 -1      1721 3.71214E+08 4.19609E+07 2.78552E+05-2.54958E+07-3.89885E+08-3.38461E+06
 -1      1722 3.14712E+08 3.79395E+07 1.09932E+05-3.68903E+07-3.66650E+08-4.91624E+06
 -1      1724 3.14712E+08 3.79395E+07 1.09932E+05-3.68903E+07-3.66650E+08-4.91624E+06
 -1      1725 2.40836E+08 3.34530E+07 2.13864E+05-4.46080E+07-3.32778E+08-6.50123E+06
 -1      1727 2.40836E+08 3.34530E+07 2.13864E+05-4.46080E+07-3.32778E+08-6.50123E+06
 -1      1728 1.55827E+08 2.74601E+07 8.00337E+04-4.88409E+07-2.91762E+08-7.76836E+06
 -1      1730 1.55827E+08 2.74601E+07 8.00337E+04-4.88409E+07-2.91762E+08-7.76836E+06
 -1      1731 6.65574E+07 2.11314E+07 1.34753E+05-4.88555E+07-2.42664E+08-8.94550E+06
 -1      1733 6.65574E+07 2.11314E+07 1.34753E+05-4.88555E+07-2.42664E+08-8.94550E+06
 -1      1734-1.99798E+07 1.41630E+07 3.21824E+04-4.51263E+07-1.88155E+08-9.80298E+06
 -1      1736-1.99798E+07 1.41630E+07 3.21824E+04-4.51263E+07-1.88155E+08-9.80298E+06
 -1      1737-9.73155E+07 7.26650E+06 5.41024E+04-3.79100E+07-1.28576E+08-1.04790E+07
 -1      1739-9.73155E+07 7.26650E+06 5.41024E+04-3.79100E+07-1.28576E+08-1.04790E+07
 -1      1740-1.60105E+08 4.41903E+05-2.13077E+04-2.81554E+07-6.60901E+07-1.08302E+07
 -1      1742-1.60105E+08 4.41903E+05-2.13077E+04-2.81554E+07-6.60901E+07-1.08302E+07
 -1      1743-2.04546E+08-5.90204E+06-1.76750E+04-1.67606E+07-1.87282E+06-1.09611E+07
 -1      1745-2.04546E+08-5.90204E+06-1.76750E+04-1.67606E+07-1.87282E+06-1.09611E+07
 -1      1746-2.28743E+08-1.16779E+07-6.92394E+04-4.96040E+06 6.23748E+07-1.07733E+07
 -1      1748-2.28743E+08-1.16779E+07-6.92394E+04-4.96040E+06 6.23748E+07-1.07733E+07
 -1      1749-2.32772E+08-1.67383E+07-7.37848E+04 6.18138E+06 1.24897E+08-1.03582E+07
 -1      1751-2.32772E+08-1.67383E+07-7.37848E+04 6.18138E+06 1.24897E+08-1.03582E+07
 -1      1752-2.18678E+08-2.09729E+07-1.05003E+05 1.55131E+07 1.84592E+08-9.67936E+06
 -1      1754-2.18678E+08-2.09729E+07-1.05003E+05 1.55131E+07 1.84592E+08-9.67936E+06
 -1      1755-1.90120E+08-2.45159E+07-1.11762E+05 2.23079E+07 2.39233E+08-8.71361E+06
 -1      1757-1.90120E+08-2.45159E+07-1.11762E+05 2.23079E+07 2.39233E+08-8.71361E+06
 -1      1758-1.52077E+08-2.71296E+07-1.27854E+05 2.58329E+07 2.88560E+08-7.76084E+06
 -1      1760-1.52077E+08-2.71296E+07-1.27854E+05 2.58329E+07 2.88560E+08-7.76084E+06
 -1      1761-1.10146E+08-2.93744E+07-1.32103E+05 2.60935E+07 3.29948E+08-6.01892E+06
 -1      1763-1.10146E+08-2.93744E+07-1.32103E+05 2.60935E+07 3.29948E+08-6.01892E+06
 -1      1764-7.00710E+07-3.05532E+07-1.43515E+05 2.28931E+07 3.63990E+08-5.60792E+06
 -1      1766-7.00710E+07-3.05532E+07-1.43515E+05 2.28931E+07 3.63990E+08-5.60792E+06
 -1      1767-3.72712E+07-3.18008E+07-1.32789E+05 1.71737E+07 3.88468E+08-1.71972E+06
 -1      1769-3.72712E+07-3.18008E+07-1.32789E+05 1.71737E+07 3.88468E+08-1.71972E+06
 -1      1770-1.51000E+07-3.25545E+07-1.67262E+05 9.01728E+06 4.02735E+08-5.12613E+06
 -1      1772-1.51000E+07-3.25545E+07-1.67262E+05 9.01728E+06 4.02735E+08-5.12613E+06
 -1      1773 5.49079E+08-6.30710E+06-9.93474E+04 1.23035E+08 4.01701E+06 1.17248E+08
 -1      1775 5.49079E+08-6.30710E+06-9.93474E+04 1.23035E+08 4.01701E+06 1.17248E+08
 -1      1776 3.57009E+08 8.14328E+06 4.47086E+05 1.13160E+08-1.31314E+08-7.07059E+07
 -1      1778 3.57009E+08 8.14328E+06 4.47086E+05 1.13160E+08-1.31314E+08-7.07059E+07
 -1      1779 1.85736E+08-1.03100E+07-4.22979E+05 8.09381E+07-1.71705E+08 1.88473E+07
 -1      1781 1.85736E+08-1.03100E+07-4.22979E+05 8.09381E+07-1.71705E+08 1.88473E+07
 -1      1782 4.45373E+07-1.93248E+07 1.40978E+05 7.95448E+07-2.33082E+08-2.22479E+07
 -1      1784 4.45373E+07-1.93248E+07 1.40978E+05 7.95448E+07-2.33082E+08-2.22479E+07
 -1      1785-8.22110E+07-2.25833E+07-2.01834E+05 6.35031E+07-2.85450E+08-2.12151E+06
 -1      1787-8.22110E+07-2.25833E+07-2.01834E+05 6.35031E+07-2.85450E+08-2.12151E+06
 -1      1788-1.90716E+08-3.36899E+07-1.59806E+05 5.82927E+07-3.24660E+08-9.25467E+06
 -1      1790-1.90716E+08-3.36899E+07-1.59806E+05 5.82927E+07-3.24660E+08-9.25467E+06
 -1      1791-2.82130E+08-3.51780E+07-1.05636E+05 4.40819E+07-3.63244E+08-4.26741E+06
 -1      1793-2.82130E+08-3.51780E+07-1.05636E+05 4.40819E+07-3.63244E+08-4.26741E+06
 -1      1794-3.51046E+08-4.20866E+07-2.89455E+05 3.31178E+07-3.85663E+08-3.97663E+06
 -1      1796-3.51046E+08-4.20866E+07-2.89455E+05 3.31178E+07-3.85663E+08-3.97663E+06
 -1      1797-3.96082E+08-4.26033E+07-1.01253E+05 1.73177E+07-4.04251E+08-1.86305E+06
 -1      1799-3.96082E+08-4.26033E+07-1.01253E+05 1.73177E+07-4.04251E+08-1.86305E+06
 -1      1800-4.14159E+08-4.50119E+07-3.12512E+05 3.07734E+06-4.08173E+08-1.31112E+05
 -1      1802-4.14159E+08-4.50119E+07-3.12512E+05 3.07734E+06-4.08173E+08-1.31112E+05
 -1      1803-4.05535E+08-4.34438E+07-1.14582E+05-1.23992E+07-4.05413E+08 1.54781E+06
 -1      1805-4.05535E+08-4.34438E+07-1.14582E+05-1.23992E+07-4.05413E+08 1.54781E+06
 -1      1806-3.71214E+08-4.19609E+07-2.78552E+05-2.54958E+07-3.89885E+08 3.38461E+06
 -1      1808-3.71214E+08-4.19609E+07-2.78552E+05-2.54958E+07-3.89885E+08 3.38461E+06
 -1      1809-3.14712E+08-3.79395E+07-1.09932E+05-3.68903E+07-3.66650E+08 4.91624E+06
 -1      1811-3.14712E+08-3.79395E+07-1.09932E+05-3.68903E+07-3.66650E+08 4.91624E+06
 -1      1812-2.40836E+08-3.34530E+07-2.13864E+05-4.46080E+07-3.32778E+08 6.50123E+06
 -1      1814-2.40836E+08-3.34530E+07-2.13864E+05-4.46080E+07-3.32778E+08 6.50123E+06
 -1      1815-1.55827E+08-2.74601E+07-8.00337E+04-4.88409E+07-2.91762E+08 7.76836E+06
 -1      1817-1.55827E+08-2.74601E+07-8.00337E+04-4.88409E+07-2.91762E+08 7.76836E+06
 -1      1818-6.65574E+07-2.11314E+07-1.34753E+05-4.88555E+07-2.42664E+08 8.94550E+06
 -1      1820-6.65574E+07-2.11314E+07-1.34753E+05-4.88555E+07-2.42664E+08 8.94550E+06
 -1      1821 1.99798E+07-1.41630E+07-3.21824E+04-4.51263E+07-1.88155E+08 9.80298E+06
 -1      1823 1.99798E+07-1.41630E+07-3.21824E+04-4.51263E+07-1.88155E+08 9.80298E+06
 -1      1824 9.73155E+07-7.26650E+06-5.41024E+04-3.79100E+07-1.28576E+08 1.04790E+07
 -1      1826 9.73155E+07-7.26650E+06-5.41024E+04-3.79100E+07-1.28576E+08 1.04790E+07
 -1      1827 1.60105E+08-4.41903E+05 2.13077E+04-2.81554E+07-6.60901E+07 1.08302E+07
 -1      1829 1.60105E+08-4.41903E+05 2.13077E+04-2.81554E+07-6.60901E+07 1.08302E+07
 -1      1830 2.04546E+08 5.90204E+06 1.76750E+04-1.67606E+07-1.87282E+06 1.09611E+07
 -1      1832 2.04546E+08 5.90204E+06 1.76750E+04-1.67606E+07-1.87282E+06 1.09611E+07
 -1      1833 2.28743E+08 1.16779E+07 6.92394E+04-4.96040E+06 6.23748E+07 1.07733E+07
 -1      1835 2.28743E+08 1.16779E+07 6.92394E+04-4.96040E+06 6.23748E+07 1.07733E+07
 -1      1836 2.32772E+08 1.67383E+07 7.37848E+04 6.18138E+06 1.24897E+08 1.03582E+07
 -1      1838 2.32772E+08 1.67383E+07 7.37848E+04 6.18138E+06 1.24897E+08 1.03582E+07
 -1      1839 2.18678E+08 2.09729E+07 1.05003E+05 1.55131E+07 1.84592E+08 9.67936E+06
 -1      1841 2.18678E+08 2.09729E+07 1.05003E+05 1.55131E+07 1.84592E+08 9.67936E+06
 -1      1842 1.90120E+08 2.45159E+07 1.11762E+05 2.23079E+07 2.39233E+08 8.71361E+06
 -1      1844 1.90120E+08 2.45159E+07 1.11762E+05 2.23079E+07 2.39233E+08 8.71361E+06
 -1      1845 1.52077E+08 2.71296E+07 1.27854E+05 2.58329E+07 2.88560E+08 7.76084E+06
 -1      1847 1.52077E+08 2.71296E+07 1.27854E+05 2.58329E+07 2.88560E+08 7.76084E+06
 -1      1848 1.10146E+08 2.93744E+07 1.32103E+05 2.60935E+07 3.29948E+08 6.01892E+06
 -1      1850 1.10146E+08 2.93744E+07 1.32103E+05 2.60935E+07 3.29948E+08 6.01892E+06
 -1      1851 7.00710E+07 3.05532E+07 1.43515E+05 2.28931E+07 3.63990E+08 5.60792E+06
 -1      1853 7.00710E+07 3.05532E+07 1.43515E+05 2.28931E+07 3.63990E+08 5.60792E+06
 -1      1854 3.72712E+07 3.18008E+07 1.32789E+05 1.71737E+07 3.88468E+08 1.71972E+06
 -1      1856 3.72712E+07 3.18008E+07 1.32789E+05 1.71737E+07 3.88468E+08 1.71972E+06
 -1      1857 1.51000E+07 3.25545E+07 1.67262E+05 9.01728E+06 4.02735E+08 5.12613E+06
 -1      1859 1.51000E+07 3.25545E+07 1.67262E+05 9.01728E+06 4.02735E+08 5.12613E+06
 -1      1860-3.32494E-02 3.26300E-04-7.25385E-04 1.11980E+08-3.90672E+07-1.16134E-01
 -1      1862-3.32494E-02 3.26300E-04-7.25385E-04 1.11980E+08-3.90672E+07-1.16134E-01
 -1      1863-1.78406E-02 4.45114E-04 1.23008E-02 9.75468E+06-1.54454E+08-1.13826E-01
 -1      1865-1.78406E-02 4.45114E-04 1.23008E-02 9.75468E+06-1.54454E+08-1.13826E-01
 -1      1866-4.74697E-03 2.80303E-05 1.24055E-02 6.96237E+07-2.36120E+08-1.01520E-01
 -1      1868-4.74697E-03 2.80303E-05 1.24055E-02 6.96237E+07-2.36120E+08-1.01520E-01
 -1      1869 8.30517E-03-1.68325E-04 8.88690E-03 2.61864E+07-3.10422E+08-8.67417E-02
 -1      1871 8.30517E-03-1.68325E-04 8.88690E-03 2.61864E+07-3.10422E+08-8.67417E-02
 -1      1872 2.31549E-02-6.51555E-05 1.14688E-02 4.64735E+07-3.81492E+08-6.84445E-02
 -1      1874 2.31549E-02-6.51555E-05 1.14688E-02 4.64735E+07-3.81492E+08-6.84445E-02
 -1      1875 3.55609E-02 1.30511E-04 1.76819E-02 2.41398E+07-4.36772E+08-4.81335E-02
 -1      1877 3.55609E-02 1.30511E-04 1.76819E-02 2.41398E+07-4.36772E+08-4.81335E-02
 -1      1878 4.05971E-02 3.63275E-04 2.24366E-02 2.80434E+07-4.85454E+08-2.44463E-02
 -1      1880 4.05971E-02 3.63275E-04 2.24366E-02 2.80434E+07-4.85454E+08-2.44463E-02
 -1      1881 3.84853E-02 4.27251E-04 1.90301E-02 1.36333E+07-5.18844E+08 2.71287E-04
 -1      1883 3.84853E-02 4.27251E-04 1.90301E-02 1.36333E+07-5.18844E+08 2.71287E-04
 -1      1884 3.34314E-02 2.59164E-04 1.05549E-02 1.04209E+07-5.41126E+08 2.05811E-02
 -1      1886 3.34314E-02 2.59164E-04 1.05549E-02 1.04209E+07-5.41126E+08 2.05811E-02
 -1      1887 2.90180E-02 5.39133E-05 7.21204E-03-7.08656E+05-5.48697E+08 3.68292E-02
 -1      1889 2.90180E-02 5.39133E-05 7.21204E-03-7.08656E+05-5.48697E+08 3.68292E-02
 -1      1890 2.34855E-02 2.21032E-04 8.75527E-03-6.76325E+06-5.43175E+08 5.44271E-02
 -1      1892 2.34855E-02 2.21032E-04 8.75527E-03-6.76325E+06-5.43175E+08 5.44271E-02
 -1      1893 1.40272E-02 4.20180E-04 7.66693E-03-1.60096E+07-5.23711E+08 7.01198E-02
 -1      1895 1.40272E-02 4.20180E-04 7.66693E-03-1.60096E+07-5.23711E+08 7.01198E-02
 -1      1896 3.01384E-03 4.06543E-04 1.94536E-03-2.26060E+07-4.91338E+08 7.98050E-02
 -1      1898 3.01384E-03 4.06543E-04 1.94536E-03-2.26060E+07-4.91338E+08 7.98050E-02
 -1      1899-8.74495E-03 4.47998E-04-4.97456E-03-3.01104E+07-4.46622E+08 8.41100E-02
 -1      1901-8.74495E-03 4.47998E-04-4.97456E-03-3.01104E+07-4.46622E+08 8.41100E-02
 -1      1902-2.31724E-02 2.89129E-04-8.77153E-03-3.58445E+07-3.90817E+08 8.24492E-02
 -1      1904-2.31724E-02 2.89129E-04-8.77153E-03-3.58445E+07-3.90817E+08 8.24492E-02
 -1      1905-3.67490E-02 2.74509E-04-9.43645E-03-4.13260E+07-3.25297E+08 7.41304E-02
 -1      1907-3.67490E-02 2.74509E-04-9.43645E-03-4.13260E+07-3.25297E+08 7.41304E-02
 -1      1908-4.50363E-02 4.16611E-04-1.09552E-02-4.53028E+07-2.51722E+08 6.05261E-02
 -1      1910-4.50363E-02 4.16611E-04-1.09552E-02-4.53028E+07-2.51722E+08 6.05261E-02
 -1      1911-5.07522E-02 2.89813E-04-1.54918E-02-4.84408E+07-1.71955E+08 4.34179E-02
 -1      1913-5.07522E-02 2.89813E-04-1.54918E-02-4.84408E+07-1.71955E+08 4.34179E-02
 -1      1914-5.80195E-02 4.11729E-04-2.03565E-02-5.01367E+07-8.79767E+07 2.36496E-02
 -1      1916-5.80195E-02 4.11729E-04-2.03565E-02-5.01367E+07-8.79767E+07 2.36496E-02
 -1      1917-6.54610E-02 1.41252E-04-2.23907E-02-5.07525E+07-1.90811E+06 4.93982E-03
 -1      1919-6.54610E-02 1.41252E-04-2.23907E-02-5.07525E+07-1.90811E+06 4.93982E-03
 -1      1920-6.80233E-02-1.98572E-04-2.18852E-02-4.99554E+07 8.41438E+07-1.08560E-02
 -1      1922-6.80233E-02-1.98572E-04-2.18852E-02-4.99554E+07 8.41438E+07-1.08560E-02
 -1      1923-6.42576E-02-2.23136E-04-1.85539E-02-4.80936E+07 1.67993E+08-2.60455E-02
 -1      1925-6.42576E-02-2.23136E-04-1.85539E-02-4.80936E+07 1.67993E+08-2.60455E-02
 -1      1926-5.69366E-02-1.64213E-04-1.11457E-02-4.48524E+07 2.47670E+08-3.88118E-02
 -1      1928-5.69366E-02-1.64213E-04-1.11457E-02-4.48524E+07 2.47670E+08-3.88118E-02
 -1      1929-4.62613E-02-1.23060E-04-3.41088E-03-4.08143E+07 3.21040E+08-4.72417E-02
 -1      1931-4.62613E-02-1.23060E-04-3.41088E-03-4.08143E+07 3.21040E+08-4.72417E-02
 -1      1932-3.33040E-02-4.43290E-04 1.45898E-03-3.53589E+07 3.86613E+08-5.17656E-02
 -1      1934-3.33040E-02-4.43290E-04 1.45898E-03-3.53589E+07 3.86613E+08-5.17656E-02
 -1      1935-2.18916E-02-3.33217E-04 5.91292E-03-2.97429E+07 4.42295E+08-5.07627E-02
 -1      1937-2.18916E-02-3.33217E-04 5.91292E-03-2.97429E+07 4.42295E+08-5.07627E-02
 -1      1938-1.30722E-02-4.01383E-06 1.04213E-02-2.23175E+07 4.87453E+08-4.52382E-02
 -1      1940-1.30722E-02-4.01383E-06 1.04213E-02-2.23175E+07 4.87453E+08-4.52382E-02
 -1      1941-7.06579E-03 9.42314E-05 1.23488E-02-1.61824E+07 5.20085E+08-3.52003E-02
 -1      1943-7.06579E-03 9.42314E-05 1.23488E-02-1.61824E+07 5.20085E+08-3.52003E-02
 -1      1944-3.08331E-03 4.60546E-04 1.12680E-02-6.61069E+06 5.40102E+08-1.88897E-02
 -1      1946-3.08331E-03 4.60546E-04 1.12680E-02-6.61069E+06 5.40102E+08-1.88897E-02
 -1      1947-6.58417E-03 7.47658E-05 4.57478E-03 3.14698E-04-5.35694E+07-1.20118E-01
 -1      1949-6.58417E-03 7.47658E-05 4.57478E-03 3.14698E-04-5.35694E+07-1.20118E-01
 -1      1950-7.43263E-03 1.52899E-04 4.85988E-03 1.14605E-04-5.48467E+07-1.22258E-01
 -1      1952-7.43263E-03 1.52899E-04 4.85988E-03 1.14605E-04-5.48467E+07-1.22258E-01
 -1      1953-7.87415E-03 5.87174E-05-2.22993E-04 2.50798E-04-6.78329E+07-1.10505E-01
 -1      1955-7.87415E-03 5.87174E-05-2.22993E-04 2.50798E-04-6.78329E+07-1.10505E-01
 -1      1956-9.02248E-03-9.01703E-05-4.85313E-03-1.73181E-04-9.02782E+07-9.18049E-02
 -1      1958-9.02248E-03-9.01703E-05-4.85313E-03-1.73181E-04-9.02782E+07-9.18049E-02
 -1      1959-8.29334E-03-2.02009E-04-4.93016E-03 8.05631E-05-1.02241E+08-7.07807E-02
 -1      1961-8.29334E-03-2.02009E-04-4.93016E-03 8.05631E-05-1.02241E+08-7.07807E-02
 -1      1962-6.95641E-03-1.27757E-04-1.74188E-03 1.65820E-04-1.19102E+08-4.73563E-02
 -1      1964-6.95641E-03-1.27757E-04-1.74188E-03 1.65820E-04-1.19102E+08-4.73563E-02
 -1      1965-6.88061E-03 2.04321E-04 2.21293E-03-1.25960E-04-1.29499E+08-2.15038E-02
 -1      1967-6.88061E-03 2.04321E-04 2.21293E-03-1.25960E-04-1.29499E+08-2.15038E-02
 -1      1968-6.46093E-03 5.44079E-04 2.45478E-03 6.30170E-05-1.38589E+08 2.54543E-03
 -1      1970-6.46093E-03 5.44079E-04 2.45478E-03 6.30170E-05-1.38589E+08 2.54543E-03
 -1      1971-5.64980E-03 1.64949E-04-3.19342E-03-7.68690E-05-1.43940E+08 2.32520E-02
 -1      1973-5.64980E-03 1.64949E-04-3.19342E-03-7.68690E-05-1.43940E+08 2.32520E-02
 -1      1974-3.96794E-03-3.79116E-05-7.31512E-03-2.85741E-05-1.45459E+08 4.22725E-02
 -1      1976-3.96794E-03-3.79116E-05-7.31512E-03-2.85741E-05-1.45459E+08 4.22725E-02
 -1      1977-1.06395E-03 2.29907E-04-5.46997E-03 1.76448E-05-1.43976E+08 6.12736E-02
 -1      1979-1.06395E-03 2.29907E-04-5.46997E-03 1.76448E-05-1.43976E+08 6.12736E-02
 -1      1980 5.21105E-04 3.58657E-04-2.59053E-03-1.03965E-04-1.38226E+08 7.67875E-02
 -1      1982 5.21105E-04 3.58657E-04-2.59053E-03-1.03965E-04-1.38226E+08 7.67875E-02
 -1      1983 7.46233E-04 5.41638E-04-2.07848E-03-1.90619E-04-1.29668E+08 8.50108E-02
 -1      1985 7.46233E-04 5.41638E-04-2.07848E-03-1.90619E-04-1.29668E+08 8.50108E-02
 -1      1986 6.07019E-04 4.99483E-04-3.43615E-03 6.76103E-05-1.17331E+08 8.74258E-02
 -1      1988 6.07019E-04 4.99483E-04-3.43615E-03 6.76103E-05-1.17331E+08 8.74258E-02
 -1      1989-1.22405E-03 3.65285E-04-4.11569E-03 1.89152E-04-1.02537E+08 8.46689E-02
 -1      1991-1.22405E-03 3.65285E-04-4.11569E-03 1.89152E-04-1.02537E+08 8.46689E-02
 -1      1992-4.35792E-03 3.98828E-04-2.58711E-03-1.37869E-04-8.48770E+07 7.49196E-02
 -1      1994-4.35792E-03 3.98828E-04-2.58711E-03-1.37869E-04-8.48770E+07 7.49196E-02
 -1      1995-4.46288E-03 4.28785E-04-1.93023E-03 2.20817E-04-6.54258E+07 5.96069E-02
 -1      1997-4.46288E-03 4.28785E-04-1.93023E-03 2.20817E-04-6.54258E+07 5.96069E-02
 -1      1998-3.04112E-04 3.63890E-04-5.42446E-03 3.64333E-06-4.42356E+07 4.20042E-02
 -1      2000-3.04112E-04 3.63890E-04-5.42446E-03 3.64333E-06-4.42356E+07 4.20042E-02
 -1      2001 1.48171E-03 4.36743E-04-1.13019E-02-9.80645E-05-2.21690E+07 2.32931E-02
 -1      2003 1.48171E-03 4.36743E-04-1.13019E-02-9.80645E-05-2.21690E+07 2.32931E-02
 -1      2004-2.24461E-03-1.56518E-04-1.53094E-02 1.67295E-04 4.25292E+05 5.42184E-03
 -1      2006-2.24461E-03-1.56518E-04-1.53094E-02 1.67295E-04 4.25292E+05 5.42184E-03
 -1      2007-5.39746E-03-6.33273E-04-1.45741E-02 4.44129E-05 2.28607E+07-1.05677E-02
 -1      2009-5.39746E-03-6.33273E-04-1.45741E-02 4.44129E-05 2.28607E+07-1.05677E-02
 -1      2010-5.99867E-03-4.76916E-04-1.00319E-02-1.46978E-04 4.46478E+07-2.54307E-02
 -1      2012-5.99867E-03-4.76916E-04-1.00319E-02-1.46978E-04 4.46478E+07-2.54307E-02
 -1      2013-6.88581E-03-3.50593E-04-5.05142E-03-5.71646E-05 6.52349E+07-3.87770E-02
 -1      2015-6.88581E-03-3.50593E-04-5.05142E-03-5.71646E-05 6.52349E+07-3.87770E-02
 -1      2016-5.82233E-03-3.13538E-04-1.90522E-03-4.69387E-05 8.41664E+07-4.98899E-02
 -1      2018-5.82233E-03-3.13538E-04-1.90522E-03-4.69387E-05 8.41664E+07-4.98899E-02
 -1      2019-1.71558E-03-4.18023E-04-5.83161E-04-3.07523E-05 1.00904E+08-5.54612E-02
 -1      2021-1.71558E-03-4.18023E-04-5.83161E-04-3.07523E-05 1.00904E+08-5.54612E-02
 -1      2022 1.80743E-03-3.06327E-04 7.71546E-04-1.72898E-04 1.15308E+08-5.32805E-02
 -1      2024 1.80743E-03-3.06327E-04 7.71546E-04-1.72898E-04 1.15308E+08-5.32805E-02
 -1      2025 2.92041E-03-2.15615E-04 2.35217E-03 1.14888E-05 1.26574E+08-4.71606E-02
 -1      2027 2.92041E-03-2.15615E-04 2.35217E-03 1.14888E-05 1.26574E+08-4.71606E-02
 -1      2028 1.72544E-03-2.34912E-04 1.64973E-03-3.33469E-05 1.35210E+08-3.73372E-02
 -1      2030 1.72544E-03-2.34912E-04 1.64973E-03-3.33469E-05 1.35210E+08-3.73372E-02
 -1      2031 2.48268E-04 3.36040E-04-1.20014E-03-1.60725E-04 1.40228E+08-2.05195E-02
 -1      2033 2.48268E-04 3.36040E-04-1.20014E-03-1.60725E-04 1.40228E+08-2.05195E-02
 -1      2034 2.06454E-02-2.11867E-04 8.20456E-03-1.11980E+08-3.90672E+07-1.13215E-01
 -1      2036 2.06454E-02-2.11867E-04 8.20456E-03-1.11980E+08-3.90672E+07-1.13215E-01
 -1      2037 5.76554E-03-2.54119E-04-3.55549E-03-9.75468E+06-1.54454E+08-1.14929E-01
 -1      2039 5.76554E-03-2.54119E-04-3.55549E-03-9.75468E+06-1.54454E+08-1.14929E-01
 -1      2040-1.06329E-02 2.96539E-05-1.21717E-02-6.96237E+07-2.36120E+08-1.03201E-01
 -1      2042-1.06329E-02 2.96539E-05-1.21717E-02-6.96237E+07-2.36120E+08-1.03201E-01
 -1      2043-2.75155E-02-1.03585E-04-1.69471E-02-2.61864E+07-3.10422E+08-8.64388E-02
 -1      2045-2.75155E-02-1.03585E-04-1.69471E-02-2.61864E+07-3.10422E+08-8.64388E-02
 -1      2046-4.04318E-02-3.19987E-04-2.18349E-02-4.64735E+07-3.81492E+08-6.68423E-02
 -1      2048-4.04318E-02-3.19987E-04-2.18349E-02-4.64735E+07-3.81492E+08-6.68423E-02
 -1      2049-4.82907E-02-1.74346E-05-2.45050E-02-2.41398E+07-4.36772E+08-4.38773E-02
 -1      2051-4.82907E-02-1.74346E-05-2.45050E-02-2.41398E+07-4.36772E+08-4.38773E-02
 -1      2052-5.06091E-02 3.59220E-04-2.13880E-02-2.80434E+07-4.85454E+08-1.69774E-02
 -1      2054-5.06091E-02 3.59220E-04-2.13880E-02-2.80434E+07-4.85454E+08-1.69774E-02
 -1      2055-4.89081E-02 5.25252E-04-1.60121E-02-1.36333E+07-5.18844E+08 5.30895E-03
 -1      2057-4.89081E-02 5.25252E-04-1.60121E-02-1.36333E+07-5.18844E+08 5.30895E-03
 -1      2058-4.64442E-02 1.07861E-04-1.71068E-02-1.04209E+07-5.41126E+08 2.30427E-02
 -1      2060-4.64442E-02 1.07861E-04-1.71068E-02-1.04209E+07-5.41126E+08 2.30427E-02
 -1      2061-3.98823E-02-2.03906E-04-2.05263E-02 7.08656E+05-5.48697E+08 4.19619E-02
 -1      2063-3.98823E-02-2.03906E-04-2.05263E-02 7.08656E+05-5.48697E+08 4.19619E-02
 -1      2064-2.70418E-02 1.12789E-05-1.83404E-02 6.76325E+06-5.43175E+08 6.05615E-02
 -1      2066-2.70418E-02 1.12789E-05-1.83404E-02 6.76325E+06-5.43175E+08 6.05615E-02
 -1      2067-1.45734E-02 6.87083E-05-1.22435E-02 1.60096E+07-5.23711E+08 7.41040E-02
 -1      2069-1.45734E-02 6.87083E-05-1.22435E-02 1.60096E+07-5.23711E+08 7.41040E-02
 -1      2070-4.72249E-03 5.65837E-04-5.38868E-03 2.26060E+07-4.91338E+08 8.00960E-02
 -1      2072-4.72249E-03 5.65837E-04-5.38868E-03 2.26060E+07-4.91338E+08 8.00960E-02
 -1      2073 5.60928E-03 6.00917E-04-1.18361E-03 3.01104E+07-4.46622E+08 8.03724E-02
 -1      2075 5.60928E-03 6.00917E-04-1.18361E-03 3.01104E+07-4.46622E+08 8.03724E-02
 -1      2076 1.71505E-02 8.86048E-05 3.68457E-04 3.58445E+07-3.90817E+08 7.79715E-02
 -1      2078 1.71505E-02 8.86048E-05 3.68457E-04 3.58445E+07-3.90817E+08 7.79715E-02
 -1      2079 2.88006E-02 1.94920E-04 3.19020E-03 4.13260E+07-3.25297E+08 6.99152E-02
 -1      2081 2.88006E-02 1.94920E-04 3.19020E-03 4.13260E+07-3.25297E+08 6.99152E-02
 -1      2082 4.03660E-02-1.34861E-04 4.05327E-03 4.53028E+07-2.51722E+08 5.46832E-02
 -1      2084 4.03660E-02-1.34861E-04 4.05327E-03 4.53028E+07-2.51722E+08 5.46832E-02
 -1      2085 5.27281E-02-3.28812E-04 6.10256E-04 4.84408E+07-1.71955E+08 3.79700E-02
 -1      2087 5.27281E-02-3.28812E-04 6.10256E-04 4.84408E+07-1.71955E+08 3.79700E-02
 -1      2088 6.08596E-02-2.65616E-04-2.55601E-03 5.01367E+07-8.79767E+07 2.22999E-02
 -1      2090 6.08596E-02-2.65616E-04-2.55601E-03 5.01367E+07-8.79767E+07 2.22999E-02
 -1      2091 6.10079E-02-6.06969E-04-3.86687E-03 5.07525E+07-1.90811E+06 6.41161E-03
 -1      2093 6.10079E-02-6.06969E-04-3.86687E-03 5.07525E+07-1.90811E+06 6.41161E-03
 -1      2094 5.77034E-02-6.54085E-04-3.85620E-03 4.99554E+07 8.41438E+07-8.55180E-03
 -1      2096 5.77034E-02-6.54085E-04-3.85620E-03 4.99554E+07 8.41438E+07-8.55180E-03
 -1      2097 5.23714E-02-4.59691E-04-8.67947E-04 4.80936E+07 1.67993E+08-2.17589E-02
 -1      2099 5.23714E-02-4.59691E-04-8.67947E-04 4.80936E+07 1.67993E+08-2.17589E-02
 -1      2100 4.36903E-02-2.26532E-04 2.54814E-03 4.48524E+07 2.47670E+08-3.47933E-02
 -1      2102 4.36903E-02-2.26532E-04 2.54814E-03 4.48524E+07 2.47670E+08-3.47933E-02
 -1      2103 3.52003E-02-2.84688E-04 6.89090E-04 4.08143E+07 3.21040E+08-4.70772E-02
 -1      2105 3.52003E-02-2.84688E-04 6.89090E-04 4.08143E+07 3.21040E+08-4.70772E-02
 -1      2106 2.94209E-02-4.24636E-04-5.04640E-03 3.53589E+07 3.86613E+08-5.26884E-02
 -1      2108 2.94209E-02-4.24636E-04-5.04640E-03 3.53589E+07 3.86613E+08-5.26884E-02
 -1      2109 2.41245E-02-2.36391E-04-8.45052E-03 2.97429E+07 4.42295E+08-4.94899E-02
 -1      2111 2.41245E-02-2.36391E-04-8.45052E-03 2.97429E+07 4.42295E+08-4.94899E-02
 -1      2112 1.76645E-02-1.82469E-04-9.21168E-03 2.23175E+07 4.87453E+08-4.40925E-02
 -1      2114 1.76645E-02-1.82469E-04-9.21168E-03 2.23175E+07 4.87453E+08-4.40925E-02
 -1      2115 9.69298E-03-1.59087E-04-1.22823E-02 1.61824E+07 5.20085E+08-3.67435E-02
 -1      2117 9.69298E-03-1.59087E-04-1.22823E-02 1.61824E+07 5.20085E+08-3.67435E-02
 -1      2118 2.28982E-03 1.51735E-04-1.74563E-02 6.61069E+06 5.40102E+08-2.14685E-02
 -1      2120 2.28982E-03 1.51735E-04-1.74563E-02 6.61069E+06 5.40102E+08-2.14685E-02
 -1      2121-5.49079E+08 6.30710E+06 9.93474E+04-1.23035E+08 4.01701E+06 1.17248E+08
 -1      2123-5.49079E+08 6.30710E+06 9.93474E+04-1.23035E+08 4.01701E+06 1.17248E+08
 -1      2124-3.57009E+08-8.14328E+06-4.47086E+05-1.13160E+08-1.31314E+08-7.07059E+07
 -1      2126-3.57009E+08-8.14328E+06-4.47086E+05-1.13160E+08-1.31314E+08-7.07059E+07
 -1      2127-1.85736E+08 1.03100E+07 4.22979E+05-8.09381E+07-1.71705E+08 1.88473E+07
 -1      2129-1.85736E+08 1.03100E+07 4.22979E+05-8.09381E+07-1.71705E+08 1.88473E+07
 -1      2130-4.45373E+07 1.93248E+07-1.40978E+05-7.95448E+07-2.33082E+08-2.22479E+07
 -1      2132-4.45373E+07 1.93248E+07-1.40978E+05-7.95448E+07-2.33082E+08-2.22479E+07
 -1      2133 8.22110E+07 2.25833E+07 2.01834E+05-6.35031E+07-2.85450E+08-2.12151E+06
 -1      2135 8.22110E+07 2.25833E+07 2.01834E+05-6.35031E+07-2.85450E+08-2.12151E+06
 -1      2136 1.90716E+08 3.36899E+07 1.59806E+05-5.82927E+07-3.24660E+08-9.25467E+06
 -1      2138 1.90716E+08 3.36899E+07 1.59806E+05-5.82927E+07-3.24660E+08-9.25467E+06
 -1      2139 2.82130E+08 3.51780E+07 1.05636E+05-4.40819E+07-3.63244E+08-4.26741E+06
 -1      2141 2.82130E+08 3.51780E+07 1.05636E+05-4.40819E+07-3.63244E+08-4.26741E+06
 -1      2142 3.51046E+08 4.20866E+07 2.89455E+05-3.31178E+07-3.85663E+08-3.97663E+06
 -1      2144 3.51046E+08 4.20866E+07 2.89455E+05-3.31178E+07-3.85663E+08-3.97663E+06
 -1      2145 3.96082E+08 4.26033E+07 1.01253E+05-1.73177E+07-4.04251E+08-1.86305E+06
 -1      2147 3.96082E+08 4.26033E+07 1.01253E+05-1.73177E+07-4.04251E+08-1.86305E+06
 -1      2148 4.14159E+08 4.50119E+07 3.12512E+05-3.07734E+06-4.08173E+08-1.31112E+05
 -1      2150 4.14159E+08 4.50119E+07 3.12512E+05-3.07734E+06-4.08173E+08-1.31112E+05
 -1      2151 4.05535E+08 4.34438E+07 1.14582E+05 1.23992E+07-4.05413E+08 1.54781E+06
 -1      2153 4.05535E+08 4.34438E+07 1.14582E+05 1.23992E+07-4.05413E+08 1.54781E+06
 -1      2154 3.71214E+08 4.19609E+07 2.78552E+05 2.54958E+07-3.89885E+08 3.38461E+06
 -1      2156 3.71214E+08 4.19609E+07 2.78552E+05 2.54958E+07-3.89885E+08 3.38461E+06
 -1      2157 3.14712E+08 3.79395E+07 1.09932E+05 3.68903E+07-3.66650E+08 4.91624E+06
 -1      2159 3.14712E+08 3.79395E+07 1.09932E+05 3.68903E+07-3.66650E+08 4.91624E+06
 -1      2160 2.40836E+08 3.34530E+07 2.13864E+05 4.46080E+07-3.32778E+08 6.50123E+06
 -1      2162 2.40836E+08 3.34530E+07 2.13864E+05 4.46080E+07-3.32778E+08 6.50123E+06
 -1      2163 1.55827E+08 2.74601E+07 8.00337E+04 4.88409E+07-2.91762E+08 7.76836E+06
 -1      2165 1.55827E+08 2.74601E+07 8.00337E+04 4.88409E+07-2.91762E+08 7.76836E+06
 -1      2166 6.65574E+07 2.11314E+07 1.34753E+05 4.88555E+07-2.42664E+08 8.94550E+06
 -1      2168 6.65574E+07 2.11314E+07 1.34753E+05 4.88555E+07-2.42664E+08 8.94550E+06
 -1      2169-1.99798E+07 1.41630E+07 3.21824E+04 4.51263E+07-1.88155E+08 9.80298E+06
 -1      2171-1.99798E+07 1.41630E+07 3.21824E+04 4.51263E+07-1.88155E+08 9.80298E+06
 -1      2172-9.73155E+07 7.26650E+06 5.41024E+04 3.79100E+07-1.28576E+08 1.04790E+07
 -1      2174-9.73155E+07 7.26650E+06 5.41024E+04 3.79100E+07-1.28576E+08 1.04790E+07
 -1      2175-1.60105E+08 4.41903E+05-2.13077E+04 2.81554E+07-6.60901E+07 1.08302E+07
 -1      2177-1.60105E+08 4.41903E+05-2.13077E+04 2.81554E+07-6.60901E+07 1.08302E+07
 -1      2178-2.04546E+08-5.90204E+06-1.76750E+04 1.67606E+07-1.87282E+06 1.09611E+07
 -1      2180-2.04546E+08-5.90204E+06-1.76750E+04 1.67606E+07-1.87282E+06 1.09611E+07
 -1      2181-2.28743E+08-1.16779E+07-6.92394E+04 4.96040E+06 6.23748E+07 1.07733E+07
 -1      2183-2.28743E+08-1.16779E+07-6.92394E+04 4.96040E+06 6.23748E+07 1.07733E+07
 -1      2184-2.32772E+08-1.67383E+07-7.37848E+04-6.18138E+06 1.24897E+08 1.03582E+07
 -1      2186-2.32772E+08-1.67383E+07-7.37848E+04-6.18138E+06 1.24897E+08 1.03582E+07
 -1      2187-2.18678E+08-2.09729E+07-1.05003E+05-1.55131E+07 1.84592E+08 9.67936E+06
 -1      2189-2.18678E+08-2.09729E+07-1.05003E+05-1.55131E+07 1.84592E+08 9.67936E+06
 -1      2190-1.90120E+08-2.45159E+07-1.11762E+05-2.23079E+07 2.39233E+08 8.71361E+06
 -1      2192-1.90120E+08-2.45159E+07-1.11762E+05-2.23079E+07 2.39233E+08 8.71361E+06
 -1      2193-1.52077E+08-2.71296E+07-1.27854E+05-2.58329E+07 2.88560E+08 7.76084E+06
 -1      2195-1.52077E+08-2.71296E+07-1.27854E+05-2.58329E+07 2.88560E+08 7.76084E+06
 -1      2196-1.10146E+08-2.93744E+07-1.32103E+05-2.60935E+07 3.29948E+08 6.01892E+06
 -1      2198-1.10146E+08-2.93744E+07-1.32103E+05-2.60935E+07 3.29948E+08 6.01892E+06
 -1      2199-7.00710E+07-3.05532E+07-1.43515E+05-2.28931E+07 3.63990E+08 5.60792E+06
 -1      2201-7.00710E+07-3.05532E+07-1.43515E+05-2.28931E+07 3.63990E+08 5.60792E+06
 -1      2202-3.72712E+07-3.18008E+07-1.32789E+05-1.71737E+07 3.88468E+08 1.71972E+06
 -1      2204-3.72712E+07-3.18008E+07-1.32789E+05-1.71737E+07 3.88468E+08 1.71972E+06
 -1      2205-1.51000E+07-3.25545E+07-1.67262E+05-9.01728E+06 4.02735E+08 5.12613E+06
 -1      2207-1.51000E+07-3.25545E+07-1.67262E+05-9.01728E+06 4.02735E+08 5.12613E+06
 -1      2208 5.49079E+08-6.30710E+06-9.93474E+04-1.23035E+08 4.01701E+06-1.17248E+08
 -1      2210 5.49079E+08-6.30710E+06-9.93474E+04-1.23035E+08 4.01701E+06-1.17248E+08
 -1      2211 3.57009E+08 8.14328E+06 4.47086E+05-1.13160E+08-1.31314E+08 7.07059E+07
 -1      2213 3.57009E+08 8.14328E+06 4.47086E+05-1.13160E+08-1.31314E+08 7.07059E+07
 -1      2214 1.85736E+08-1.03100E+07-4.22979E+05-8.09381E+07-1.71705E+08-1.88473E+07
 -1      2216 1.85736E+08-1.03100E+07-4.22979E+05-8.09381E+07-1.71705E+08-1.88473E+07
 -1      2217 4.45373E+07-1.93248E+07 1.40978E+05-7.95448E+07-2.33082E+08 2.22479E+07
 -1      2219 4.45373E+07-1.93248E+07 1.40978E+05-7.95448E+07-2.33082E+08 2.22479E+07
 -1      2220-8.22110E+07-2.25833E+07-2.01834E+05-6.35031E+07-2.85450E+08 2.12151E+06
 -1      2222-8.22110E+07-2.25833E+07-2.01834E+05-6.35031E+07-2.85450E+08 2.12151E+06
 -1      2223-1.90716E+08-3.36899E+07-1.59806E+05-5.82927E+07-3.24660E+08 9.25467E+06
 -1      2225-1.90716E+08-3.36899E+07-1.59806E+05-5.82927E+07-3.24660E+08 9.25467E+06
 -1      2226-2.82130E+08-3.51780E+07-1.05636E+05-4.40819E+07-3.63244E+08 4.26741E+06
 -1      2228-2.82130E+08-3.51780E+07-1.05636E+05-4.40819E+07-3.63244E+08 4.26741E+06
 -1      2229-3.51046E+08-4.20866E+07-2.89455E+05-3.31178E+07-3.85663E+08 3.97663E+06
 -1      2231-3.51046E+08-4.20866E+07-2.89455E+05-3.31178E+07-3.85663E+08 3.97663E+06
 -1      2232-3.96082E+08-4.26033E+07-1.01253E+05-1.73177E+07-4.04251E+08 1.86305E+06
 -1      2234-3.96082E+08-4.26033E+07-1.01253E+05-1.73177E+07-4.04251E+08 1.86305E+06
 -1      2235-4.14159E+08-4.50119E+07-3.12512E+05-3.07734E+06-4.08173E+08 1.31112E+05
 -1      2237-4.14159E+08-4.50119E+07-3.12512E+05-3.07734E+06-4.08173E+08 1.31112E+05
 -1      2238-4.05535E+08-4.34438E+07-1.14582E+05 1.23992E+07-4.05413E+08-1.54781E+06
 -1      2240-4.05535E+08-4.34438E+07-1.14582E+05 1.23992E+07-4.05413E+08-1.54781E+06
 -1      2241-3.71214E+08-4.19609E+07-2.78552E+05 2.54958E+07-3.89885E+08-3.38461E+06
 -1      2243-3.71214E+08-4.19609E+07-2.78552E+05 2.54958E+07-3.89885E+08-3.38461E+06
 -1      2244-3.14712E+08-3.79395E+07-1.09932E+05 3.68903E+07-3.66650E+08-4.91624E+06
 -1      2246-3.14712E+08-3.79395E+07-1.09932E+05 3.68903E+07-3.66650E+08-4.91624E+06
 -1      2247-2.40836E+08-3.34530E+07-2.13864E+05 4.46080E+07-3.32778E+08-6.50123E+06
 -1      2249-2.40836E+08-3.34530E+07-2.13864E+05 4.46080E+07-3.32778E+08-6.50123E+06
 -1      2250-1.55827E+08-2.74601E+07-8.00337E+04 4.88409E+07-2.91762E+08-7.76836E+06
 -1      2252-1.55827E+08-2.74601E+07-8.00337E+04 4.88409E+07-2.91762E+08-7.76836E+06
 -1      2253-6.65574E+07-2.11314E+07-1.34753E+05 4.88555E+07-2.42664E+08-8.94550E+06
 -1      2255-6.65574E+07-2.11314E+07-1.34753E+05 4.88555E+07-2.42664E+08-8.94550E+06
 -1      2256 1.99798E+07-1.41630E+07-3.21824E+04 4.51263E+07-1.88155E+08-9.80298E+06
 -1      2258 1.99798E+07-1.41630E+07-3.21824E+04 4.51263E+07-1.88155E+08-9.80298E+06
 -1      2259 9.73155E+07-7.26650E+06-5.41024E+04 3.79100E+07-1.28576E+08-1.04790E+07
 -1      2261 9.73155E+07-7.26650E+06-5.41024E+04 3.79100E+07-1.28576E+08-1.04790E+07
 -1      2262 1.60105E+08-4.41903E+05 2.13077E+04 2.81554E+07-6.60901E+07-1.08302E+07
 -1      2264 1.60105E+08-4.41903E+05 2.13077E+04 2.81554E+07-6.60901E+07-1.08302E+07
 -1      2265 2.04546E+08 5.90204E+06 1.76750E+04 1.67606E+07-1.87282E+06-1.09611E+07
 -1      2267 2.04546E+08 5.90204E+06 1.76750E+04 1.67606E+07-1.87282E+06-1.09611E+07
 -1      2268 2.28743E+08 1.16779E+07 6.92394E+04 4.96040E+06 6.23748E+07-1.07733E+07
 -1      2270 2.28743E+08 1.16779E+07 6.92394E+04 4.96040E+06 6.23748E+07-1.07733E+07
 -1      2271 2.32772E+08 1.67383E+07 7.37848E+04-6.18138E+06 1.24897E+08-1.03582E+07
 -1      2273 2.32772E+08 1.67383E+07 7.37848E+04-6.18138E+06 1.24897E+08-1.03582E+07
 -1      2274 2.18678E+08 2.09729E+07 1.05003E+05-1.55131E+07 1.84592E+08-9.67936E+06
 -1      2276 2.18678E+08 2.09729E+07 1.05003E+05-1.55131E+07 1.84592E+08-9.67936E+06
 -1      2277 1.90120E+08 2.45159E+07 1.11762E+05-2.23079E+07 2.39233E+08-8.71361E+06
 -1      2279 1.90120E+08 2.45159E+07 1.11762E+05-2.23079E+07 2.39233E+08-8.71361E+06
 -1      2280 1.52077E+08 2.71296E+07 1.27854E+05-2.58329E+07 2.88560E+08-7.76084E+06
 -1      2282 1.52077E+08 2.71296E+07 1.27854E+05-2.58329E+07 2.88560E+08-7.76084E+06
 -1      2283 1.10146E+08 2.93744E+07 1.32103E+05-2.60935E+07 3.29948E+08-6.01892E+06
 -1      2285 1.10146E+08 2.93744E+07 1.32103E+05-2.60935E+07 3.29948E+08-6.01892E+06
 -1      2286 7.00710E+07 3.05532E+07 1.43515E+05-2.28931E+07 3.63990E+08-5.60792E+06
 -1      2288 7.00710E+07 3.05532E+07 1.43515E+05-2.28931E+07 3.63990E+08-5.60792E+06
 -1      2289 3.72712E+07 3.18008E+07 1.32789E+05-1.71737E+07 3.88468E+08-1.71972E+06
 -1      2291 3.72712E+07 3.18008E+07 1.32789E+05-1.71737E+07 3.88468E+08-1.71972E+06
 -1      2292 1.51000E+07 3.25545E+07 1.67262E+05-9.01728E+06 4.02735E+08-5.12613E+06
 -1      2294 1.51000E+07 3.25545E+07 1.67262E+05-9.01728E+06 4.02735E+08-5.12613E+06
 -3
    1PSTEP                        59           1           1          
    1PGM                1.000000E+00                                  
    1PGK                1.277423E+07                                  
    1PHID                         -1                                  
    1PSUBC                         0                                  
    1PMODE                        15                                  
  100CL  115 568.8364825         930                     2   15MODAL      1
 -4  FORC        4    1
 -5  F1          1    2    1    0
 -5  F2          1    2    2    0
 -5  F3          1    2    3    0
 -5  ALL         1    2    0    0    1ALL
 -1       404 1.74136E+06 2.45445E+05 1.15062E+06
 -1       406-1.34076E+06-3.30551E+05 1.15062E+06
 -1       407 4.62825E-01-4.91050E+03 1.32921E+05
 -1       409 4.62825E-01-4.91050E+03 1.32921E+05
 -1       410-4.09087E-06-3.45538E+06 5.23395E-06
 -1       412-4.05545E-06 3.52376E+06 1.71481E-06
 -1       413 1.32853E-06-8.09072E+04-5.47781E+06
 -1       415 1.33610E-06-8.09072E+04 5.47781E+06
 -1       424 3.30785E-05-1.51103E+05-4.12843E-06
 -1       426-8.86503E-08-9.97580E+02-2.89968E-06
 -1       427-5.33399E+05 1.34638E+06-3.41508E+05
 -1       429 5.33399E+05 1.34638E+06 3.41508E+05
 -1       438-4.62826E-01-4.91050E+03-1.32921E+05
 -1       440-4.62826E-01-4.91050E+03-1.32921E+05
 -1       441-1.74136E+06 2.45445E+05-1.15062E+06
 -1       443 1.34076E+06-3.30551E+05-1.15062E+06
 -1       444 5.33399E+05-1.34638E+06-3.41508E+05
 -1       446-5.33399E+05-1.34638E+06 3.41508E+05
 -1       447-2.65955E-05 1.51103E+05-5.85759E-06
 -1       449-7.48696E-07 9.97580E+02-4.60663E-06
 -1       458-3.47069E-06 8.09072E+04-5.47781E+06
 -1       460-3.64780E-06 8.09072E+04 5.47781E+06
 -1       461 6.82143E-06 3.45538E+06 9.03001E-06
 -1       463 6.73085E-06-3.52376E+06 5.06125E-06
 -1       472 1.74136E+06-2.45445E+05-1.15062E+06
 -1       474-1.34076E+06 3.30551E+05-1.15062E+06
 -1       475 4.62826E-01 4.91050E+03-1.32921E+05
 -1       477 4.62826E-01 4.91050E+03-1.32921E+05
 -1       478-4.62827E-01 4.91050E+03 1.32921E+05
 -1       480-4.62826E-01 4.91050E+03 1.32921E+05
 -1       481-1.74136E+06-2.45445E+05 1.15062E+06
 -1       483 1.34076E+06 3.30551E+05 1.15062E+06
 -1       484-6.57192E+02 9.84394E+02-3.67208E+04
 -1       486-6.57192E+02 9.84394E+02-3.67208E+04
 -1       487-1.15087E+03 2.55673E+03-7.73881E+04
 -1       489-1.15087E+03 2.55673E+03-7.73881E+04
 -1       490-1.44485E+03 4.67858E+03-1.16696E+05
 -1       492-1.44485E+03 4.67858E+03-1.16696E+05
 -1       493-1.57381E+03 7.07795E+03-1.52492E+05
 -1       495-1.57381E+03 7.07795E+03-1.52492E+05
 -1       496-1.55972E+03 9.54330E+03-1.84640E+05
 -1       498-1.55972E+03 9.54330E+03-1.84640E+05
 -1       499-1.41970E+03 1.18748E+04-2.12062E+05
 -1       501-1.41970E+03 1.18748E+04-2.12062E+05
 -1       502-1.17299E+03 1.38984E+04-2.34263E+05
 -1       504-1.17299E+03 1.38984E+04-2.34263E+05
 -1       505-8.40364E+02 1.54686E+04-2.50638E+05
 -1       507-8.40364E+02 1.54686E+04-2.50638E+05
 -1       508-4.46800E+02 1.64728E+04-2.60831E+05
 -1       510-4.46800E+02 1.64728E+04-2.60831E+05
 -1       511-1.94076E+01 1.68390E+04-2.64580E+05
 -1       513-1.94076E+01 1.68390E+04-2.64580E+05
 -1       514 4.13025E+02 1.65379E+04-2.61805E+05
 -1       516 4.13025E+02 1.65379E+04-2.61805E+05
 -1       517 8.22459E+02 1.55844E+04-2.52572E+05
 -1       519 8.22459E+02 1.55844E+04-2.52572E+05
 -1       520 1.18326E+03 1.40354E+04-2.37106E+05
 -1       522 1.18326E+03 1.40354E+04-2.37106E+05
 -1       523 1.47429E+03 1.19842E+04-2.15782E+05
 -1       525 1.47429E+03 1.19842E+04-2.15782E+05
 -1       526 1.68036E+03 9.55258E+03-1.89117E+05
 -1       528 1.68036E+03 9.55258E+03-1.89117E+05
 -1       529 1.79336E+03 6.88027E+03-1.57761E+05
 -1       531 1.79336E+03 6.88027E+03-1.57761E+05
 -1       532 1.81266E+03 4.11359E+03-1.22479E+05
 -1       534 1.81266E+03 4.11359E+03-1.22479E+05
 -1       535 1.74484E+03 1.39386E+03-8.41337E+04
 -1       537 1.74484E+03 1.39386E+03-8.41337E+04
 -1       538 1.60288E+03-1.15343E+03-4.36674E+04
 -1       540 1.60288E+03-1.15343E+03-4.36674E+04
 -1       541 1.40464E+03-3.42739E+03-2.07775E+03
 -1       543 1.40464E+03-3.42739E+03-2.07775E+03
 -1       544 1.17101E+03-5.35806E+03 3.96060E+04
 -1       546 1.17101E+03-5.35806E+03 3.96060E+04
 -1       547 9.23860E+02-6.90943E+03 8.03476E+04
 -1       549 9.23860E+02-6.90943E+03 8.03476E+04
 -1       550 6.83828E+02-8.07923E+03 1.19131E+05
 -1       552 6.83828E+02-8.07923E+03 1.19131E+05
 -1       553 4.68448E+02-8.89537E+03 1.54985E+05
 -1       555 4.68448E+02-8.89537E+03 1.54985E+05
 -1       556 2.90528E+02-9.40966E+03 1.87009E+05
 -1       558 2.90528E+02-9.40966E+03 1.87009E+05
 -1       559 1.57142E+02-9.68949E+03 2.14392E+05
 -1       561 1.57142E+02-9.68949E+03 2.14392E+05
 -1       562 6.91264E+01-9.80807E+03 2.36452E+05
 -1       564 6.91264E+01-9.80807E+03 2.36452E+05
 -1       565 2.14404E+01-9.83518E+03 2.52609E+05
 -1       567 2.14404E+01-9.83518E+03 2.52609E+05
 -1       568 3.82168E+00-9.82757E+03 2.62492E+05
 -1       570 3.82168E+00-9.82757E+03 2.62492E+05
 -1       571 1.16404E+00-9.81615E+03 1.72900E+05
 -1       573 1.16404E+00-9.81615E+03 1.72900E+05
 -1       574-3.90733E-05 3.81641E+05-9.23042E-06
 -1       576-3.90935E-05-6.17057E+05-8.19602E-06
 -1       577 3.65727E-05 1.29971E+05 7.83862E+05
 -1       579 3.65684E-05 1.29971E+05-7.83862E+05
 -1       588-3.79093E-05 2.10491E+06 1.08765E-05
 -1       590-3.78855E-05-1.86364E+06 9.87758E-06
 -1       591 3.91961E-05-9.38847E+04 3.11485E+06
 -1       593 3.91505E-05-9.38847E+04-3.11485E+06
 -1       602-3.33432E-05 2.91946E+06 5.56849E-06
 -1       604-3.33287E-05-3.09073E+06 4.53217E-06
 -1       605 3.60876E-05 1.28148E+05 4.71730E+06
 -1       607 3.60325E-05 1.28148E+05-4.71730E+06
 -1       616-3.16778E-05 3.97854E+06 9.54200E-06
 -1       618-3.17108E-05-3.94144E+06 7.96372E-06
 -1       619 2.93872E-05 3.99101E+04 6.21626E+06
 -1       621 2.95290E-05 3.99101E+04-6.21626E+06
 -1       630-2.66746E-05 4.77822E+06 8.03652E-06
 -1       632-2.67448E-05-4.93677E+06 7.96383E-06
 -1       633 2.21546E-05 1.53013E+05 7.62513E+06
 -1       635 2.25437E-05 1.53013E+05-7.62513E+06
 -1       644-1.81879E-05 5.52536E+06 9.79067E-06
 -1       646-1.83889E-05-5.59854E+06 8.98043E-06
 -1       647 1.62110E-05 1.24094E+05 8.73097E+06
 -1       649 1.66479E-05 1.24094E+05-8.73097E+06
 -1       658-6.78985E-06 6.09672E+06 1.24502E-05
 -1       660-6.90793E-06-6.26385E+06 9.37795E-06
 -1       661 1.00276E-05 1.82646E+05 9.70161E+06
 -1       663 1.04403E-05 1.82646E+05-9.70161E+06
 -1       672 3.54892E-06 6.53747E+06 1.08528E-05
 -1       674 3.54814E-06-6.66961E+06 9.80265E-06
 -1       675 2.53104E-06 1.73925E+05 1.03660E+07
 -1       677 2.68302E-06 1.73925E+05-1.03660E+07
 -1       686 9.17311E-06 6.80054E+06 7.23498E-06
 -1       688 9.29172E-06-6.97509E+06 8.26315E-06
 -1       689-5.25730E-06 2.00681E+05 1.08123E+07
 -1       691-5.34774E-06 2.00681E+05-1.08123E+07
 -1       700 1.29787E-05 6.90452E+06 7.45916E-06
 -1       702 1.30691E-05-7.06070E+06 7.79110E-06
 -1       703-1.23545E-05 1.93511E+05 1.09611E+07
 -1       705-1.24353E-05 1.93511E+05-1.09611E+07
 -1       714 1.85733E-05 6.82900E+06 6.49699E-06
 -1       716 1.85858E-05-6.99833E+06 4.22934E-06
 -1       717-1.82171E-05 1.98467E+05 1.08529E+07
 -1       719-1.82616E-05 1.98467E+05-1.08529E+07
 -1       728 2.31730E-05 6.58895E+06 2.94037E-06
 -1       730 2.30897E-05-6.74163E+06 2.41276E-06
 -1       731-2.27003E-05 1.84945E+05 1.04629E+07
 -1       733-2.26086E-05 1.84945E+05-1.04629E+07
 -1       742 2.48928E-05 6.18107E+06 4.51869E-07
 -1       744 2.49701E-05-6.32861E+06-4.79110E-07
 -1       745-2.68915E-05 1.73839E+05 9.81864E+06
 -1       747-2.68646E-05 1.73839E+05-9.81864E+06
 -1       756 2.70158E-05 5.62220E+06-3.44531E-06
 -1       758 2.69157E-05-5.74950E+06-4.50865E-06
 -1       759-2.85767E-05 1.52219E+05 8.92546E+06
 -1       761-2.87327E-05 1.52219E+05-8.92546E+06
 -1       770 2.83429E-05 4.92175E+06-7.25376E-06
 -1       772 2.82151E-05-5.03239E+06-4.61035E-06
 -1       773-2.81113E-05 1.29931E+05 7.81285E+06
 -1       775-2.83766E-05 1.29931E+05-7.81285E+06
 -1       784 2.44026E-05 4.10035E+06-7.63272E-06
 -1       786 2.43410E-05-4.18686E+06-6.59859E-06
 -1       787-2.73322E-05 1.02050E+05 6.50449E+06
 -1       789-2.76719E-05 1.02050E+05-6.50449E+06
 -1       798 1.98539E-05 3.17640E+06-1.05786E-05
 -1       800 1.99125E-05-3.23992E+06-9.14693E-06
 -1       801-2.29959E-05 7.35188E+04 5.03606E+06
 -1       803-2.30823E-05 7.35188E+04-5.03606E+06
 -1       812 1.82673E-05 2.17433E+06-1.34306E-05
 -1       814 1.83618E-05-2.21190E+06-1.06830E-05
 -1       815-1.45683E-05 4.29441E+04 3.44268E+06
 -1       817-1.45962E-05 4.29441E+04-3.44268E+06
 -1       826 1.33404E-05 1.11811E+06-1.28518E-05
 -1       828 1.33897E-05-1.13072E+06-1.02195E-05
 -1       829-6.87337E-06 1.29078E+04 1.76506E+06
 -1       831-6.96821E-06 1.29078E+04-1.76506E+06
 -1       840 5.66502E-06 3.47412E+04-1.07177E-05
 -1       842 5.71296E-06-2.24051E+04-8.58982E-06
 -1       843-1.17642E-06-1.65178E+04 4.48532E+04
 -1       845-1.34157E-06-1.65178E+04-4.48532E+04
 -1       854-1.24299E-06-1.04958E+06-1.07800E-05
 -1       856-1.26494E-06 1.08547E+06-9.59842E-06
 -1       857 3.46725E-06-4.41818E+04-1.67577E+06
 -1       859 3.22532E-06-4.41818E+04 1.67577E+06
 -1       868-6.99369E-06-2.10711E+06-1.17096E-05
 -1       870-6.94329E-06 2.16443E+06-1.01821E-05
 -1       871 8.19951E-06-6.93644E+04-3.35266E+06
 -1       873 8.05812E-06-6.93644E+04 3.35266E+06
 -1       882-1.16316E-05-3.11289E+06-8.33142E-06
 -1       884-1.16277E-05 3.19021E+06-6.06776E-06
 -1       885 1.23675E-05-9.21670E+04-4.94720E+06
 -1       887 1.22193E-05-9.21670E+04 4.94720E+06
 -1       896-1.71487E-05-4.04014E+06-4.31916E-06
 -1       898-1.71803E-05 4.13359E+06-3.88696E-06
 -1       899 1.41332E-05-1.11226E+05-6.41543E+06
 -1       901 1.40902E-05-1.11226E+05 6.41543E+06
 -1       910-1.97443E-05-4.86884E+06-2.94221E-06
 -1       912-1.97866E-05 4.97799E+06-4.53398E-06
 -1       913 1.60675E-05-1.28212E+05-7.72862E+06
 -1       915 1.59414E-05-1.28212E+05 7.72862E+06
 -1       924-1.81003E-05-5.57434E+06 9.26552E-08
 -1       926-1.81549E-05 5.69315E+06-1.49040E-06
 -1       927 1.68305E-05-1.40355E+05-8.84368E+06
 -1       929 1.68168E-05-1.40355E+05 8.84368E+06
 -1       938-1.51254E-05-6.14451E+06 2.95538E-06
 -1       940-1.51979E-05 6.27522E+06 1.11549E-06
 -1       941 1.51490E-05-1.51855E+05-9.74805E+06
 -1       943 1.50762E-05-1.51855E+05 9.74805E+06
 -1       952-1.08390E-05-6.56051E+06 4.10423E-06
 -1       954-1.08830E-05 6.69328E+06 1.78610E-06
 -1       955 1.15604E-05-1.56763E+05-1.04027E+07
 -1       957 1.18383E-05-1.56763E+05 1.04027E+07
 -1       966-7.94054E-06-6.81001E+06 8.88404E-06
 -1       968-7.93172E-06 6.95277E+06 2.29458E-06
 -1       969 5.43683E-06-1.64051E+05-1.08022E+07
 -1       971 5.63648E-06-1.64051E+05 1.08022E+07
 -1       980 1.62244E+06 2.84285E+05-1.05181E+05
 -1       982-1.25419E+06-2.16659E+05-1.05181E+05
 -1       983-1.16404E+00-9.81615E+03-1.72900E+05
 -1       985-1.16404E+00-9.81615E+03-1.72900E+05
 -1       986 6.57192E+02 9.84394E+02 3.67208E+04
 -1       988 6.57192E+02 9.84394E+02 3.67208E+04
 -1       989 1.15087E+03 2.55673E+03 7.73881E+04
 -1       991 1.15087E+03 2.55673E+03 7.73881E+04
 -1       992 1.44485E+03 4.67858E+03 1.16696E+05
 -1       994 1.44485E+03 4.67858E+03 1.16696E+05
 -1       995 1.57381E+03 7.07795E+03 1.52492E+05
 -1       997 1.57381E+03 7.07795E+03 1.52492E+05
 -1       998 1.55972E+03 9.54330E+03 1.84640E+05
 -1      1000 1.55972E+03 9.54330E+03 1.84640E+05
 -1      1001 1.41970E+03 1.18748E+04 2.12062E+05
 -1      1003 1.41970E+03 1.18748E+04 2.12062E+05
 -1      1004 1.17299E+03 1.38984E+04 2.34263E+05
 -1      1006 1.17299E+03 1.38984E+04 2.34263E+05
 -1      1007 8.40364E+02 1.54686E+04 2.50638E+05
 -1      1009 8.40364E+02 1.54686E+04 2.50638E+05
 -1      1010 4.46800E+02 1.64728E+04 2.60831E+05
 -1      1012 4.46800E+02 1.64728E+04 2.60831E+05
 -1      1013 1.94076E+01 1.68390E+04 2.64580E+05
 -1      1015 1.94076E+01 1.68390E+04 2.64580E+05
 -1      1016-4.13025E+02 1.65379E+04 2.61805E+05
 -1      1018-4.13025E+02 1.65379E+04 2.61805E+05
 -1      1019-8.22459E+02 1.55844E+04 2.52572E+05
 -1      1021-8.22459E+02 1.55844E+04 2.52572E+05
 -1      1022-1.18326E+03 1.40354E+04 2.37106E+05
 -1      1024-1.18326E+03 1.40354E+04 2.37106E+05
 -1      1025-1.47429E+03 1.19842E+04 2.15782E+05
 -1      1027-1.47429E+03 1.19842E+04 2.15782E+05
 -1      1028-1.68036E+03 9.55258E+03 1.89117E+05
 -1      1030-1.68036E+03 9.55258E+03 1.89117E+05
 -1      1031-1.79336E+03 6.88027E+03 1.57761E+05
 -1      1033-1.79336E+03 6.88027E+03 1.57761E+05
 -1      1034-1.81266E+03 4.11359E+03 1.22479E+05
 -1      1036-1.81266E+03 4.11359E+03 1.22479E+05
 -1      1037-1.74484E+03 1.39386E+03 8.41337E+04
 -1      1039-1.74484E+03 1.39386E+03 8.41337E+04
 -1      1040-1.60288E+03-1.15343E+03 4.36674E+04
 -1      1042-1.60288E+03-1.15343E+03 4.36674E+04
 -1      1043-1.40464E+03-3.42739E+03 2.07775E+03
 -1      1045-1.40464E+03-3.42739E+03 2.07775E+03
 -1      1046-1.17101E+03-5.35806E+03-3.96060E+04
 -1      1048-1.17101E+03-5.35806E+03-3.96060E+04
 -1      1049-9.23860E+02-6.90943E+03-8.03476E+04
 -1      1051-9.23860E+02-6.90943E+03-8.03476E+04
 -1      1052-6.83828E+02-8.07923E+03-1.19131E+05
 -1      1054-6.83828E+02-8.07923E+03-1.19131E+05
 -1      1055-4.68448E+02-8.89537E+03-1.54985E+05
 -1      1057-4.68448E+02-8.89537E+03-1.54985E+05
 -1      1058-2.90528E+02-9.40966E+03-1.87009E+05
 -1      1060-2.90528E+02-9.40966E+03-1.87009E+05
 -1      1061-1.57142E+02-9.68949E+03-2.14392E+05
 -1      1063-1.57142E+02-9.68949E+03-2.14392E+05
 -1      1064-6.91264E+01-9.80807E+03-2.36452E+05
 -1      1066-6.91264E+01-9.80807E+03-2.36452E+05
 -1      1067-2.14404E+01-9.83518E+03-2.52609E+05
 -1      1069-2.14404E+01-9.83518E+03-2.52609E+05
 -1      1070-3.82169E+00-9.82757E+03-2.62492E+05
 -1      1072-3.82169E+00-9.82757E+03-2.62492E+05
 -1      1073-1.62244E+06 2.84285E+05 1.05181E+05
 -1      1075 1.25419E+06-2.16659E+05 1.05181E+05
 -1      1076-2.17103E+06-3.00114E+06-1.04465E+05
 -1      1078 2.17103E+06-3.00114E+06 1.04465E+05
 -1      1079-5.55921E-06-2.62006E-06 4.74085E+05
 -1      1081 8.27346E-06-2.93039E-06-4.74085E+05
 -1      1082 2.17103E+06 3.00114E+06-1.04465E+05
 -1      1084-2.17103E+06 3.00114E+06 1.04465E+05
 -1      1085-3.67008E-05-1.29971E+05 7.83862E+05
 -1      1087-3.65493E-05-1.29971E+05-7.83862E+05
 -1      1088 3.16973E-05-3.81641E+05-9.05625E-06
 -1      1090 3.17058E-05 6.17057E+05-8.11385E-06
 -1      1099-3.82881E-05 9.38847E+04 3.11485E+06
 -1      1101-3.81013E-05 9.38847E+04-3.11485E+06
 -1      1102 3.57091E-05-2.10491E+06 9.85405E-06
 -1      1104 3.56656E-05 1.86364E+06 8.82222E-06
 -1      1113-3.40640E-05-1.28148E+05 4.71730E+06
 -1      1115-3.38774E-05-1.28148E+05-4.71730E+06
 -1      1116 3.59020E-05-2.91946E+06 5.02411E-06
 -1      1118 3.58398E-05 3.09073E+06 2.91588E-06
 -1      1127-2.92506E-05-3.99101E+04 6.21626E+06
 -1      1129-2.90996E-05-3.99101E+04-6.21626E+06
 -1      1130 3.08134E-05-3.97854E+06 8.74050E-06
 -1      1132 3.08976E-05 3.94144E+06 6.42609E-06
 -1      1141-2.28840E-05-1.53013E+05 7.62513E+06
 -1      1143-2.28602E-05-1.53013E+05-7.62513E+06
 -1      1144 2.28508E-05-4.77822E+06 9.72640E-06
 -1      1146 2.30806E-05 4.93677E+06 9.74743E-06
 -1      1155-1.62157E-05-1.24094E+05 8.73097E+06
 -1      1157-1.62313E-05-1.24094E+05-8.73097E+06
 -1      1158 1.34413E-05-5.52536E+06 1.32789E-05
 -1      1160 1.36994E-05 5.59854E+06 1.26586E-05
 -1      1169-7.38359E-06-1.82646E+05 9.70161E+06
 -1      1171-7.33212E-06-1.82646E+05-9.70161E+06
 -1      1172 3.92451E-06-6.09672E+06 1.32648E-05
 -1      1174 4.00049E-06 6.26385E+06 1.26556E-05
 -1      1183 2.29544E-06-1.73925E+05 1.03660E+07
 -1      1185 2.52031E-06-1.73925E+05-1.03660E+07
 -1      1186-1.96559E-06-6.53747E+06 1.24903E-05
 -1      1188-1.97679E-06 6.66961E+06 1.22805E-05
 -1      1197 9.13264E-06-2.00681E+05 1.08123E+07
 -1      1199 9.29561E-06-2.00681E+05-1.08123E+07
 -1      1200-8.36557E-06-6.80054E+06 1.36254E-05
 -1      1202-8.35662E-06 6.97509E+06 1.22447E-05
 -1      1211 1.35938E-05-1.93511E+05 1.09611E+07
 -1      1213 1.35966E-05-1.93511E+05-1.09611E+07
 -1      1214-1.79911E-05-6.90452E+06 1.41251E-05
 -1      1216-1.80511E-05 7.06070E+06 1.01894E-05
 -1      1225 1.97449E-05-1.98467E+05 1.08529E+07
 -1      1227 1.96950E-05-1.98467E+05-1.08529E+07
 -1      1228-2.32514E-05-6.82900E+06 1.04627E-05
 -1      1230-2.33310E-05 6.99833E+06 9.02242E-06
 -1      1239 2.59528E-05-1.84945E+05 1.04629E+07
 -1      1241 2.60846E-05-1.84945E+05-1.04629E+07
 -1      1242-2.30336E-05-6.58895E+06 8.20353E-06
 -1      1244-2.30059E-05 6.74163E+06 6.63197E-06
 -1      1253 2.78419E-05-1.73839E+05 9.81864E+06
 -1      1255 2.83539E-05-1.73839E+05-9.81864E+06
 -1      1256-2.35452E-05-6.18107E+06 3.45476E-06
 -1      1258-2.35628E-05 6.32861E+06 5.18914E-06
 -1      1267 2.75736E-05-1.52219E+05 8.92546E+06
 -1      1269 2.76884E-05-1.52219E+05-8.92546E+06
 -1      1270-2.60166E-05-5.62220E+06 7.76975E-07
 -1      1272-2.60073E-05 5.74950E+06 3.58324E-06
 -1      1281 2.60273E-05-1.29931E+05 7.81285E+06
 -1      1283 2.58877E-05-1.29931E+05-7.81285E+06
 -1      1284-2.82860E-05-4.92175E+06 1.19086E-06
 -1      1286-2.82975E-05 5.03239E+06 2.58961E-06
 -1      1295 2.32029E-05-1.02050E+05 6.50449E+06
 -1      1297 2.30821E-05-1.02050E+05-6.50449E+06
 -1      1298-2.82366E-05-4.10035E+06-7.12527E-07
 -1      1300-2.81070E-05 4.18686E+06 1.53174E-06
 -1      1309 1.82069E-05-7.35188E+04 5.03606E+06
 -1      1311 1.81736E-05-7.35188E+04-5.03606E+06
 -1      1312-2.41553E-05-3.17640E+06-1.98078E-06
 -1      1314-2.41046E-05 3.23992E+06-9.26115E-07
 -1      1323 1.17044E-05-4.29441E+04 3.44268E+06
 -1      1325 1.16976E-05-4.29441E+04-3.44268E+06
 -1      1326-1.65372E-05-2.17433E+06-9.68809E-07
 -1      1328-1.65221E-05 2.21190E+06-3.10468E-06
 -1      1337 7.69062E-06-1.29078E+04 1.76506E+06
 -1      1339 7.51904E-06-1.29078E+04-1.76506E+06
 -1      1340-7.02881E-06-1.11811E+06-4.02810E-06
 -1      1342-7.00809E-06 1.13072E+06-2.11467E-06
 -1      1351 3.12270E-06 1.65178E+04 4.48532E+04
 -1      1353 3.22340E-06 1.65178E+04-4.48532E+04
 -1      1354 2.25435E-07-3.47412E+04-5.28647E-06
 -1      1356 1.98741E-07 2.24051E+04-3.71068E-06
 -1      1365-2.40709E-06 4.41818E+04-1.67577E+06
 -1      1367-2.21974E-06 4.41818E+04 1.67577E+06
 -1      1368 6.00545E-06 1.04958E+06-2.81255E-06
 -1      1370 6.05765E-06-1.08547E+06-3.22556E-06
 -1      1379-6.78637E-06 6.93644E+04-3.35266E+06
 -1      1381-6.38114E-06 6.93644E+04 3.35266E+06
 -1      1382 1.29607E-05 2.10711E+06 1.58447E-07
 -1      1384 1.31640E-05-2.16443E+06-1.24635E-06
 -1      1393-1.08218E-05 9.21670E+04-4.94720E+06
 -1      1395-1.03533E-05 9.21670E+04 4.94720E+06
 -1      1396 1.69433E-05 3.11289E+06-1.61166E-06
 -1      1398 1.71027E-05-3.19021E+06-1.36788E-06
 -1      1407-1.56809E-05 1.11226E+05-6.41543E+06
 -1      1409-1.55468E-05 1.11226E+05 6.41543E+06
 -1      1410 1.77466E-05 4.04014E+06-1.74447E-06
 -1      1412 1.77963E-05-4.13359E+06-1.78454E-06
 -1      1421-1.83623E-05 1.28212E+05-7.72862E+06
 -1      1423-1.84166E-05 1.28212E+05 7.72862E+06
 -1      1424 1.82249E-05 4.86884E+06 2.18661E-06
 -1      1426 1.82763E-05-4.97799E+06 1.49794E-06
 -1      1435-1.71764E-05 1.40355E+05-8.84368E+06
 -1      1437-1.71818E-05 1.40355E+05 8.84368E+06
 -1      1438 1.80649E-05 5.57434E+06 6.69378E-06
 -1      1440 1.80352E-05-5.69315E+06 3.97161E-06
 -1      1449-1.53022E-05 1.51855E+05-9.74805E+06
 -1      1451-1.53171E-05 1.51855E+05 9.74805E+06
 -1      1452 1.75050E-05 6.14451E+06 7.04068E-06
 -1      1454 1.76383E-05-6.27522E+06 6.24760E-06
 -1      1463-1.23706E-05 1.56763E+05-1.04027E+07
 -1      1465-1.25862E-05 1.56763E+05 1.04027E+07
 -1      1466 1.65560E-05 6.56051E+06 8.90343E-06
 -1      1468 1.66961E-05-6.69328E+06 7.94501E-06
 -1      1477-7.28499E-06 1.64051E+05-1.08022E+07
 -1      1479-7.50490E-06 1.64051E+05 1.08022E+07
 -1      1480 1.32738E-05 6.81001E+06 1.38194E-05
 -1      1482 1.33621E-05-6.95277E+06 8.51185E-06
 -1      1491-3.17267E-07-7.03372E+04-2.08743E-06
 -1      1493-1.53631E-07-7.03372E+04-1.53114E-06
 -1      1494-4.23138E-07-5.03330E-06-1.41005E-06
 -1      1496-4.38654E-07 4.81668E-06-1.07232E-06
 -1      1497 1.41334E-06 7.03372E+04-8.43185E-07
 -1      1499 1.12081E-06 7.03372E+04-7.91159E-07
 -1      1500-6.57192E+02-9.84394E+02 3.67208E+04
 -1      1502-6.57192E+02-9.84394E+02 3.67208E+04
 -1      1503-1.15087E+03-2.55673E+03 7.73881E+04
 -1      1505-1.15087E+03-2.55673E+03 7.73881E+04
 -1      1506-1.44485E+03-4.67858E+03 1.16696E+05
 -1      1508-1.44485E+03-4.67858E+03 1.16696E+05
 -1      1509-1.57381E+03-7.07795E+03 1.52492E+05
 -1      1511-1.57381E+03-7.07795E+03 1.52492E+05
 -1      1512-1.55972E+03-9.54330E+03 1.84640E+05
 -1      1514-1.55972E+03-9.54330E+03 1.84640E+05
 -1      1515-1.41970E+03-1.18748E+04 2.12062E+05
 -1      1517-1.41970E+03-1.18748E+04 2.12062E+05
 -1      1518-1.17299E+03-1.38984E+04 2.34263E+05
 -1      1520-1.17299E+03-1.38984E+04 2.34263E+05
 -1      1521-8.40364E+02-1.54686E+04 2.50638E+05
 -1      1523-8.40364E+02-1.54686E+04 2.50638E+05
 -1      1524-4.46800E+02-1.64728E+04 2.60831E+05
 -1      1526-4.46800E+02-1.64728E+04 2.60831E+05
 -1      1527-1.94076E+01-1.68390E+04 2.64580E+05
 -1      1529-1.94076E+01-1.68390E+04 2.64580E+05
 -1      1530 4.13025E+02-1.65379E+04 2.61805E+05
 -1      1532 4.13025E+02-1.65379E+04 2.61805E+05
 -1      1533 8.22459E+02-1.55844E+04 2.52572E+05
 -1      1535 8.22459E+02-1.55844E+04 2.52572E+05
 -1      1536 1.18326E+03-1.40354E+04 2.37106E+05
 -1      1538 1.18326E+03-1.40354E+04 2.37106E+05
 -1      1539 1.47429E+03-1.19842E+04 2.15782E+05
 -1      1541 1.47429E+03-1.19842E+04 2.15782E+05
 -1      1542 1.68036E+03-9.55258E+03 1.89117E+05
 -1      1544 1.68036E+03-9.55258E+03 1.89117E+05
 -1      1545 1.79336E+03-6.88027E+03 1.57761E+05
 -1      1547 1.79336E+03-6.88027E+03 1.57761E+05
 -1      1548 1.81266E+03-4.11359E+03 1.22479E+05
 -1      1550 1.81266E+03-4.11359E+03 1.22479E+05
 -1      1551 1.74484E+03-1.39386E+03 8.41337E+04
 -1      1553 1.74484E+03-1.39386E+03 8.41337E+04
 -1      1554 1.60288E+03 1.15343E+03 4.36674E+04
 -1      1556 1.60288E+03 1.15343E+03 4.36674E+04
 -1      1557 1.40464E+03 3.42739E+03 2.07775E+03
 -1      1559 1.40464E+03 3.42739E+03 2.07775E+03
 -1      1560 1.17101E+03 5.35806E+03-3.96060E+04
 -1      1562 1.17101E+03 5.35806E+03-3.96060E+04
 -1      1563 9.23860E+02 6.90943E+03-8.03476E+04
 -1      1565 9.23860E+02 6.90943E+03-8.03476E+04
 -1      1566 6.83828E+02 8.07923E+03-1.19131E+05
 -1      1568 6.83828E+02 8.07923E+03-1.19131E+05
 -1      1569 4.68448E+02 8.89537E+03-1.54985E+05
 -1      1571 4.68448E+02 8.89537E+03-1.54985E+05
 -1      1572 2.90528E+02 9.40966E+03-1.87009E+05
 -1      1574 2.90528E+02 9.40966E+03-1.87009E+05
 -1      1575 1.57142E+02 9.68949E+03-2.14392E+05
 -1      1577 1.57142E+02 9.68949E+03-2.14392E+05
 -1      1578 6.91264E+01 9.80807E+03-2.36452E+05
 -1      1580 6.91264E+01 9.80807E+03-2.36452E+05
 -1      1581 2.14404E+01 9.83518E+03-2.52609E+05
 -1      1583 2.14404E+01 9.83518E+03-2.52609E+05
 -1      1584 3.82169E+00 9.82757E+03-2.62492E+05
 -1      1586 3.82169E+00 9.82757E+03-2.62492E+05
 -1      1587 1.16404E+00 9.81615E+03-1.72900E+05
 -1      1589 1.16404E+00 9.81615E+03-1.72900E+05
 -1      1590 1.62244E+06-2.84285E+05 1.05181E+05
 -1      1592-1.25419E+06 2.16659E+05 1.05181E+05
 -1      1593-1.16404E+00 9.81615E+03 1.72900E+05
 -1      1595-1.16404E+00 9.81615E+03 1.72900E+05
 -1      1596 6.57192E+02-9.84394E+02-3.67208E+04
 -1      1598 6.57192E+02-9.84394E+02-3.67208E+04
 -1      1599 1.15087E+03-2.55673E+03-7.73881E+04
 -1      1601 1.15087E+03-2.55673E+03-7.73881E+04
 -1      1602 1.44485E+03-4.67858E+03-1.16696E+05
 -1      1604 1.44485E+03-4.67858E+03-1.16696E+05
 -1      1605 1.57381E+03-7.07795E+03-1.52492E+05
 -1      1607 1.57381E+03-7.07795E+03-1.52492E+05
 -1      1608 1.55972E+03-9.54330E+03-1.84640E+05
 -1      1610 1.55972E+03-9.54330E+03-1.84640E+05
 -1      1611 1.41970E+03-1.18748E+04-2.12062E+05
 -1      1613 1.41970E+03-1.18748E+04-2.12062E+05
 -1      1614 1.17299E+03-1.38984E+04-2.34263E+05
 -1      1616 1.17299E+03-1.38984E+04-2.34263E+05
 -1      1617 8.40364E+02-1.54686E+04-2.50638E+05
 -1      1619 8.40364E+02-1.54686E+04-2.50638E+05
 -1      1620 4.46800E+02-1.64728E+04-2.60831E+05
 -1      1622 4.46800E+02-1.64728E+04-2.60831E+05
 -1      1623 1.94076E+01-1.68390E+04-2.64580E+05
 -1      1625 1.94076E+01-1.68390E+04-2.64580E+05
 -1      1626-4.13025E+02-1.65379E+04-2.61805E+05
 -1      1628-4.13025E+02-1.65379E+04-2.61805E+05
 -1      1629-8.22459E+02-1.55844E+04-2.52572E+05
 -1      1631-8.22459E+02-1.55844E+04-2.52572E+05
 -1      1632-1.18326E+03-1.40354E+04-2.37106E+05
 -1      1634-1.18326E+03-1.40354E+04-2.37106E+05
 -1      1635-1.47429E+03-1.19842E+04-2.15782E+05
 -1      1637-1.47429E+03-1.19842E+04-2.15782E+05
 -1      1638-1.68036E+03-9.55258E+03-1.89117E+05
 -1      1640-1.68036E+03-9.55258E+03-1.89117E+05
 -1      1641-1.79336E+03-6.88027E+03-1.57761E+05
 -1      1643-1.79336E+03-6.88027E+03-1.57761E+05
 -1      1644-1.81266E+03-4.11359E+03-1.22479E+05
 -1      1646-1.81266E+03-4.11359E+03-1.22479E+05
 -1      1647-1.74484E+03-1.39386E+03-8.41337E+04
 -1      1649-1.74484E+03-1.39386E+03-8.41337E+04
 -1      1650-1.60288E+03 1.15343E+03-4.36674E+04
 -1      1652-1.60288E+03 1.15343E+03-4.36674E+04
 -1      1653-1.40464E+03 3.42739E+03-2.07775E+03
 -1      1655-1.40464E+03 3.42739E+03-2.07775E+03
 -1      1656-1.17101E+03 5.35806E+03 3.96060E+04
 -1      1658-1.17101E+03 5.35806E+03 3.96060E+04
 -1      1659-9.23860E+02 6.90943E+03 8.03476E+04
 -1      1661-9.23860E+02 6.90943E+03 8.03476E+04
 -1      1662-6.83828E+02 8.07923E+03 1.19131E+05
 -1      1664-6.83828E+02 8.07923E+03 1.19131E+05
 -1      1665-4.68448E+02 8.89537E+03 1.54985E+05
 -1      1667-4.68448E+02 8.89537E+03 1.54985E+05
 -1      1668-2.90528E+02 9.40966E+03 1.87009E+05
 -1      1670-2.90528E+02 9.40966E+03 1.87009E+05
 -1      1671-1.57142E+02 9.68949E+03 2.14392E+05
 -1      1673-1.57142E+02 9.68949E+03 2.14392E+05
 -1      1674-6.91264E+01 9.80807E+03 2.36452E+05
 -1      1676-6.91264E+01 9.80807E+03 2.36452E+05
 -1      1677-2.14404E+01 9.83518E+03 2.52609E+05
 -1      1679-2.14404E+01 9.83518E+03 2.52609E+05
 -1      1680-3.82169E+00 9.82757E+03 2.62492E+05
 -1      1682-3.82169E+00 9.82757E+03 2.62492E+05
 -1      1683-1.62244E+06-2.84285E+05-1.05181E+05
 -1      1685 1.25419E+06 2.16659E+05-1.05181E+05
 -1      1686-8.67120E+02 1.91298E+03-4.75668E+04
 -1      1688-8.67120E+02 1.91298E+03-4.75668E+04
 -1      1689-1.52376E+03 5.08112E+03-1.00587E+05
 -1      1691-1.52376E+03 5.08112E+03-1.00587E+05
 -1      1692-1.91784E+03 9.33566E+03-1.51798E+05
 -1      1694-1.91784E+03 9.33566E+03-1.51798E+05
 -1      1695-2.09135E+03 1.41452E+04-1.98356E+05
 -1      1697-2.09135E+03 1.41452E+04-1.98356E+05
 -1      1698-2.07316E+03 1.90873E+04-2.40169E+05
 -1      1700-2.07316E+03 1.90873E+04-2.40169E+05
 -1      1701-1.88755E+03 2.37573E+04-2.75817E+05
 -1      1703-1.88755E+03 2.37573E+04-2.75817E+05
 -1      1704-1.55967E+03 2.78129E+04-3.04680E+05
 -1      1706-1.55967E+03 2.78129E+04-3.04680E+05
 -1      1707-1.11737E+03 3.09578E+04-3.25963E+05
 -1      1709-1.11737E+03 3.09578E+04-3.25963E+05
 -1      1710-5.94048E+02 3.29704E+04-3.39210E+05
 -1      1712-5.94048E+02 3.29704E+04-3.39210E+05
 -1      1713-2.55951E+01 3.37039E+04-3.44081E+05
 -1      1715-2.55951E+01 3.37039E+04-3.44081E+05
 -1      1716 5.49528E+02 3.31013E+04-3.40472E+05
 -1      1718 5.49528E+02 3.31013E+04-3.40472E+05
 -1      1719 1.09418E+03 3.11914E+04-3.28467E+05
 -1      1721 1.09418E+03 3.11914E+04-3.28467E+05
 -1      1722 1.57416E+03 2.80891E+04-3.08360E+05
 -1      1724 1.57416E+03 2.80891E+04-3.08360E+05
 -1      1725 1.96145E+03 2.39811E+04-2.80636E+05
 -1      1727 1.96145E+03 2.39811E+04-2.80636E+05
 -1      1728 2.23580E+03 1.91115E+04-2.45968E+05
 -1      1730 2.23580E+03 1.91115E+04-2.45968E+05
 -1      1731 2.38646E+03 1.37602E+04-2.05200E+05
 -1      1733 2.38646E+03 1.37602E+04-2.05200E+05
 -1      1734 2.41253E+03 8.22061E+03-1.59323E+05
 -1      1736 2.41253E+03 8.22061E+03-1.59323E+05
 -1      1737 2.32278E+03 2.77582E+03-1.09460E+05
 -1      1739 2.32278E+03 2.77582E+03-1.09460E+05
 -1      1740 2.13441E+03-2.32268E+03-5.68358E+04
 -1      1742 2.13441E+03-2.32268E+03-5.68358E+04
 -1      1743 1.87115E+03-6.87288E+03-2.74632E+03
 -1      1745 1.87115E+03-6.87288E+03-2.74632E+03
 -1      1746 1.56076E+03-1.07347E+04 5.14697E+04
 -1      1748 1.56076E+03-1.07347E+04 5.14697E+04
 -1      1749 1.23228E+03-1.38362E+04 1.04464E+05
 -1      1751 1.23228E+03-1.38362E+04 1.04464E+05
 -1      1752 9.13118E+02-1.61730E+04 1.54916E+05
 -1      1754 9.13118E+02-1.61730E+04 1.54916E+05
 -1      1755 6.26593E+02-1.78014E+04 2.01559E+05
 -1      1757 6.26593E+02-1.78014E+04 2.01559E+05
 -1      1758 3.89713E+02-1.88254E+04 2.43223E+05
 -1      1760 3.89713E+02-1.88254E+04 2.43223E+05
 -1      1761 2.11893E+02-1.93802E+04 2.78851E+05
 -1      1763 2.11893E+02-1.93802E+04 2.78851E+05
 -1      1764 9.42943E+01-1.96130E+04 3.07554E+05
 -1      1766 9.42943E+01-1.96130E+04 3.07554E+05
 -1      1767 3.00736E+01-1.96636E+04 3.28577E+05
 -1      1769 3.00736E+01-1.96636E+04 3.28577E+05
 -1      1770 6.15973E+00-1.96460E+04 3.41437E+05
 -1      1772 6.15973E+00-1.96460E+04 3.41437E+05
 -1      1773 8.67120E+02 1.91298E+03 4.75668E+04
 -1      1775 8.67120E+02 1.91298E+03 4.75668E+04
 -1      1776 1.52376E+03 5.08112E+03 1.00587E+05
 -1      1778 1.52376E+03 5.08112E+03 1.00587E+05
 -1      1779 1.91784E+03 9.33566E+03 1.51798E+05
 -1      1781 1.91784E+03 9.33566E+03 1.51798E+05
 -1      1782 2.09135E+03 1.41452E+04 1.98356E+05
 -1      1784 2.09135E+03 1.41452E+04 1.98356E+05
 -1      1785 2.07316E+03 1.90873E+04 2.40169E+05
 -1      1787 2.07316E+03 1.90873E+04 2.40169E+05
 -1      1788 1.88755E+03 2.37573E+04 2.75817E+05
 -1      1790 1.88755E+03 2.37573E+04 2.75817E+05
 -1      1791 1.55967E+03 2.78129E+04 3.04680E+05
 -1      1793 1.55967E+03 2.78129E+04 3.04680E+05
 -1      1794 1.11737E+03 3.09578E+04 3.25963E+05
 -1      1796 1.11737E+03 3.09578E+04 3.25963E+05
 -1      1797 5.94048E+02 3.29704E+04 3.39210E+05
 -1      1799 5.94048E+02 3.29704E+04 3.39210E+05
 -1      1800 2.55951E+01 3.37039E+04 3.44081E+05
 -1      1802 2.55951E+01 3.37039E+04 3.44081E+05
 -1      1803-5.49528E+02 3.31013E+04 3.40472E+05
 -1      1805-5.49528E+02 3.31013E+04 3.40472E+05
 -1      1806-1.09418E+03 3.11914E+04 3.28467E+05
 -1      1808-1.09418E+03 3.11914E+04 3.28467E+05
 -1      1809-1.57416E+03 2.80891E+04 3.08360E+05
 -1      1811-1.57416E+03 2.80891E+04 3.08360E+05
 -1      1812-1.96145E+03 2.39811E+04 2.80636E+05
 -1      1814-1.96145E+03 2.39811E+04 2.80636E+05
 -1      1815-2.23580E+03 1.91115E+04 2.45968E+05
 -1      1817-2.23580E+03 1.91115E+04 2.45968E+05
 -1      1818-2.38646E+03 1.37602E+04 2.05200E+05
 -1      1820-2.38646E+03 1.37602E+04 2.05200E+05
 -1      1821-2.41253E+03 8.22061E+03 1.59323E+05
 -1      1823-2.41253E+03 8.22061E+03 1.59323E+05
 -1      1824-2.32278E+03 2.77582E+03 1.09460E+05
 -1      1826-2.32278E+03 2.77582E+03 1.09460E+05
 -1      1827-2.13441E+03-2.32268E+03 5.68358E+04
 -1      1829-2.13441E+03-2.32268E+03 5.68358E+04
 -1      1830-1.87115E+03-6.87288E+03 2.74632E+03
 -1      1832-1.87115E+03-6.87288E+03 2.74632E+03
 -1      1833-1.56076E+03-1.07347E+04-5.14697E+04
 -1      1835-1.56076E+03-1.07347E+04-5.14697E+04
 -1      1836-1.23228E+03-1.38362E+04-1.04464E+05
 -1      1838-1.23228E+03-1.38362E+04-1.04464E+05
 -1      1839-9.13118E+02-1.61730E+04-1.54916E+05
 -1      1841-9.13118E+02-1.61730E+04-1.54916E+05
 -1      1842-6.26593E+02-1.78014E+04-2.01559E+05
 -1      1844-6.26593E+02-1.78014E+04-2.01559E+05
 -1      1845-3.89713E+02-1.88254E+04-2.43223E+05
 -1      1847-3.89713E+02-1.88254E+04-2.43223E+05
 -1      1848-2.11893E+02-1.93802E+04-2.78851E+05
 -1      1850-2.11893E+02-1.93802E+04-2.78851E+05
 -1      1851-9.42943E+01-1.96130E+04-3.07554E+05
 -1      1853-9.42943E+01-1.96130E+04-3.07554E+05
 -1      1854-3.00736E+01-1.96636E+04-3.28577E+05
 -1      1856-3.00736E+01-1.96636E+04-3.28577E+05
 -1      1857-6.15973E+00-1.96460E+04-3.41437E+05
 -1      1859-6.15973E+00-1.96460E+04-3.41437E+05
 -1      1860 3.84724E-07 2.01668E+04-1.35864E-06
 -1      1862 2.90551E-07 2.01668E+04-1.37969E-06
 -1      1863 1.27382E-06 4.16152E+04-6.88440E-07
 -1      1865 1.13527E-06 4.16152E+04-6.26602E-07
 -1      1866 1.39791E-06 6.31025E+04-1.24555E-06
 -1      1868 1.33460E-06 6.31025E+04-1.13445E-06
 -1      1869-2.00711E-06 8.36486E+04-1.52688E-06
 -1      1871-1.88956E-06 8.36486E+04-1.63810E-06
 -1      1872-4.39006E-06 1.02548E+05-1.99873E-06
 -1      1874-3.80279E-06 1.02548E+05-2.45765E-06
 -1      1875-3.80172E-06 1.19070E+05-3.25211E-06
 -1      1877-2.95700E-06 1.19070E+05-3.64991E-06
 -1      1878-9.89141E-07 1.32656E+05-3.65234E-06
 -1      1880-6.68006E-08 1.32656E+05-4.09327E-06
 -1      1881 1.47155E-06 1.42796E+05-3.70424E-06
 -1      1883 1.61464E-06 1.42796E+05-4.55037E-06
 -1      1884 9.17091E-07 1.49140E+05-5.25068E-07
 -1      1886-1.46014E-07 1.49140E+05-1.58966E-06
 -1      1887-1.47461E-06 1.51444E+05 5.58089E-07
 -1      1889-2.09506E-06 1.51444E+05-3.81748E-07
 -1      1890-9.53891E-07 1.49626E+05-2.31016E-06
 -1      1892-5.05135E-07 1.49626E+05-2.01343E-06
 -1      1893-4.26773E-07 1.43736E+05-1.88741E-06
 -1      1895-5.36911E-08 1.43736E+05-1.41958E-06
 -1      1896-9.58464E-07 1.33971E+05-1.21859E-06
 -1      1898-8.03810E-07 1.33971E+05-1.54837E-06
 -1      1899 1.01143E-06 1.20654E+05-1.27392E-06
 -1      1901 8.53855E-07 1.20654E+05-1.26331E-06
 -1      1902 3.33634E-06 1.04223E+05 5.90499E-07
 -1      1904 3.34620E-06 1.04223E+05 7.50228E-07
 -1      1905 2.88233E-06 8.52040E+04 2.22592E-06
 -1      1907 2.33269E-06 8.52040E+04 2.19246E-06
 -1      1908 1.19442E-06 6.41905E+04 1.55472E-06
 -1      1910 1.28233E-06 6.41905E+04 1.52438E-06
 -1      1911 2.10427E-06 4.18127E+04 1.56543E-06
 -1      1913 2.25017E-06 4.18127E+04 1.58951E-06
 -1      1914 3.89592E-06 1.87140E+04 4.30299E-06
 -1      1916 3.81761E-06 1.87140E+04 4.42952E-06
 -1      1917 3.75781E-06-4.47624E+03 5.24382E-06
 -1      1919 3.54584E-06-4.47624E+03 5.64977E-06
 -1      1920 7.37544E-07-2.71623E+04 3.45579E-06
 -1      1922 5.16951E-07-2.71623E+04 4.48305E-06
 -1      1923-1.15591E-06-4.87999E+04 2.09328E-06
 -1      1925-1.46211E-06-4.87999E+04 2.16709E-06
 -1      1926-1.55349E-06-6.89075E+04 2.70609E-06
 -1      1928-2.04506E-06-6.89075E+04 1.93328E-06
 -1      1929-2.26822E-06-8.70728E+04 3.05930E-06
 -1      1931-2.61862E-06-8.70728E+04 1.74604E-06
 -1      1932-1.84863E-06-1.02955E+05-4.07301E-07
 -1      1934-1.87502E-06-1.02955E+05-2.74740E-07
 -1      1935-1.13294E-06-1.16282E+05-2.11959E-06
 -1      1937-1.18371E-06-1.16282E+05-1.68735E-06
 -1      1938-7.79333E-07-1.26845E+05-1.77183E-06
 -1      1940-9.63881E-07-1.26845E+05-1.44790E-06
 -1      1941 2.45484E-07-1.34491E+05-3.49741E-06
 -1      1943 9.08760E-07-1.34491E+05-3.15278E-06
 -1      1944-1.36350E-07-1.39122E+05-4.80063E-06
 -1      1946 6.35757E-07-1.39122E+05-3.66430E-06
 -1      1947 1.86019E-06-2.05022E-06 1.67006E-06
 -1      1949 1.84650E-06-7.35835E-07 1.25366E-06
 -1      1950 6.84726E-07-2.02874E-06 2.96537E-06
 -1      1952 7.54808E-07 1.52233E-06 2.94628E-06
 -1      1953 7.30466E-07 7.56292E-07-1.04721E-06
 -1      1955 8.60997E-07 1.77504E-06-9.88333E-07
 -1      1956 3.37457E-07 1.08030E-06-3.08622E-06
 -1      1958 2.43270E-07-6.74007E-07-3.07215E-06
 -1      1959-1.08725E-06 1.72990E-06-1.24778E-06
 -1      1961-1.05030E-06-2.49894E-06-1.15627E-06
 -1      1962-1.26128E-06 2.52364E-06-7.35658E-07
 -1      1964-7.63691E-07-5.13850E-07-3.84105E-07
 -1      1965-2.46864E-06-8.69889E-07 3.05256E-07
 -1      1967-1.79938E-06 3.15093E-06 1.47185E-07
 -1      1968-2.80835E-06-5.01842E-06-1.62923E-06
 -1      1970-2.78373E-06 5.42914E-06-2.37396E-06
 -1      1971-6.79745E-07-1.47530E-06-3.10216E-06
 -1      1973-2.09545E-06 1.13470E-06-4.15123E-06
 -1      1974-1.77531E-06-1.74860E-07-2.24627E-06
 -1      1976-2.44537E-06-8.10217E-07-2.01913E-06
 -1      1977-2.84990E-06-9.47972E-07-1.85119E-06
 -1      1979-2.41649E-06 3.56609E-06-1.26905E-06
 -1      1980-1.48552E-06-2.09296E-06 4.07190E-07
 -1      1982-1.15458E-06 4.92162E-06 4.82427E-07
 -1      1983-2.20967E-07-5.01898E-06 1.36610E-07
 -1      1985-2.36956E-07 5.57637E-06-2.13593E-07
 -1      1986 1.51514E-06-7.08826E-06-1.93248E-06
 -1      1988 1.76636E-06 1.66331E-06-1.86269E-06
 -1      1989 3.57223E-06-3.13876E-06 2.60334E-07
 -1      1991 3.47038E-06 5.54646E-06 6.25587E-08
 -1      1992 4.24819E-06-3.77235E-06 3.42365E-06
 -1      1994 3.68987E-06 3.47782E-06 3.05632E-06
 -1      1995 1.23601E-06-3.51872E-06 4.07550E-06
 -1      1997 9.86627E-07 5.30593E-06 4.01668E-06
 -1      1998-1.50296E-06 1.16491E-07 5.47668E-06
 -1      2000-1.31375E-06 6.88286E-06 5.26395E-06
 -1      2001 1.73415E-07-4.11737E-06 5.15980E-06
 -1      2003 4.09500E-07 4.22447E-06 5.03684E-06
 -1      2004 1.35526E-06 2.19923E-07 2.93213E-06
 -1      2006 1.53689E-06-2.82739E-06 3.80165E-06
 -1      2007-1.04587E-06 8.24591E-06 3.56997E-06
 -1      2009-9.93570E-07-5.59699E-06 3.76644E-06
 -1      2010-2.12337E-06 5.17171E-06 2.39069E-06
 -1      2012-2.00445E-06-3.61011E-06 2.11678E-06
 -1      2013-1.32466E-06 3.79464E-06 1.88229E-06
 -1      2015-1.42206E-06-4.31269E-06 1.76636E-06
 -1      2016-1.78664E-06 2.38282E-06 4.03661E-06
 -1      2018-1.89200E-06-3.06641E-06 3.94142E-06
 -1      2019-2.15379E-06 4.77994E-06 3.23056E-06
 -1      2021-2.30241E-06-4.21427E-06 3.38539E-06
 -1      2022-1.85471E-06 2.59052E-06 2.36535E-06
 -1      2024-1.94737E-06-3.79868E-06 2.24203E-06
 -1      2025-6.75183E-07 1.94922E-06 2.41495E-06
 -1      2027-6.93653E-07-2.41151E-06 3.10517E-06
 -1      2028 4.81741E-07 5.02036E-06 2.87712E-07
 -1      2030 7.34366E-07-8.77605E-07 1.89091E-06
 -1      2031-3.16337E-07-5.44738E-06-2.55226E-06
 -1      2033-9.02764E-08 1.02011E-06-1.06820E-06
 -1      2034-3.34364E-06-2.01668E+04 2.85392E-06
 -1      2036-3.05264E-06-2.01668E+04 2.08418E-06
 -1      2037-2.93533E-06-4.16152E+04 2.35849E-06
 -1      2039-2.56655E-06-4.16152E+04 1.96000E-06
 -1      2040 1.13248E-06-6.31025E+04-2.74606E-06
 -1      2042 1.42872E-06-6.31025E+04-2.66463E-06
 -1      2043 2.42720E-06-8.36486E+04-5.09131E-06
 -1      2045 2.43619E-06-8.36486E+04-4.74765E-06
 -1      2046 1.33231E-06-1.02548E+05-2.38215E-06
 -1      2048 1.28050E-06-1.02548E+05-2.08564E-06
 -1      2049 7.11439E-07-1.19070E+05-2.14617E-06
 -1      2051 7.81547E-07-1.19070E+05-1.68168E-06
 -1      2052-1.63208E-06-1.32656E+05-1.22617E-06
 -1      2054-1.26647E-06-1.32656E+05-1.15714E-06
 -1      2055-2.01875E-06-1.42796E+05 6.85366E-07
 -1      2057-1.62157E-06-1.42796E+05 8.32515E-08
 -1      2058-2.62447E-07-1.49140E+05-1.40805E-06
 -1      2060-5.30556E-07-1.49140E+05-1.70233E-06
 -1      2061-3.44583E-06-1.51444E+05-3.73337E-06
 -1      2063-3.58135E-06-1.51444E+05-3.10756E-06
 -1      2064-4.44798E-06-1.49626E+05-2.94937E-06
 -1      2066-4.51031E-06-1.49626E+05-2.11177E-06
 -1      2067-7.12898E-07-1.43736E+05-7.04647E-07
 -1      2069-5.27090E-07-1.43736E+05-5.41957E-07
 -1      2070 4.62386E-07-1.33971E+05 4.75557E-08
 -1      2072 9.48855E-07-1.33971E+05-1.28639E-07
 -1      2073-7.60247E-08-1.20654E+05-7.44651E-07
 -1      2075 2.54542E-07-1.20654E+05-9.38482E-07
 -1      2076-1.52309E-06-1.04223E+05 4.83706E-08
 -1      2078-9.78450E-07-1.04223E+05 3.53903E-08
 -1      2079-2.05148E-06-8.52040E+04 3.21746E-06
 -1      2081-2.40561E-06-8.52040E+04 3.29406E-06
 -1      2082-2.95720E-06-6.41905E+04 5.26977E-06
 -1      2084-3.29796E-06-6.41905E+04 5.48590E-06
 -1      2085-3.66419E-06-4.18127E+04 5.39015E-06
 -1      2087-3.72006E-06-4.18127E+04 4.88886E-06
 -1      2088-5.51176E-07-1.87140E+04 2.32551E-06
 -1      2090-4.77004E-07-1.87140E+04 2.71009E-06
 -1      2091 1.11879E-06 4.47624E+03-4.29573E-07
 -1      2093 1.30965E-06 4.47624E+03 8.74570E-08
 -1      2094 9.32163E-07 2.71623E+04-5.62868E-08
 -1      2096 1.51655E-06 2.71623E+04 2.78989E-07
 -1      2097 2.35459E-06 4.87999E+04 1.89088E-06
 -1      2099 2.95938E-06 4.87999E+04 2.13081E-06
 -1      2100 2.61044E-06 6.89075E+04 1.56791E-06
 -1      2102 3.34321E-06 6.89075E+04 1.95004E-06
 -1      2103 4.54762E-07 8.70728E+04 2.29190E-06
 -1      2105 5.77445E-07 8.70728E+04 2.50389E-06
 -1      2106-5.38185E-07 1.02955E+05 1.65193E-06
 -1      2108-6.66442E-07 1.02955E+05 1.66130E-06
 -1      2109-4.30309E-08 1.16282E+05 1.07361E-06
 -1      2111-1.17607E-08 1.16282E+05 8.97970E-07
 -1      2112 1.15639E-06 1.26845E+05 1.76525E-06
 -1      2114 1.11777E-06 1.26845E+05 2.46584E-06
 -1      2115 3.68652E-06 1.34491E+05 4.14308E-07
 -1      2117 3.49329E-06 1.34491E+05 1.26522E-06
 -1      2118 3.95418E-06 1.39122E+05-1.56429E-06
 -1      2120 3.44487E-06 1.39122E+05-1.35600E-06
 -1      2121-8.67120E+02-1.91298E+03 4.75668E+04
 -1      2123-8.67120E+02-1.91298E+03 4.75668E+04
 -1      2124-1.52376E+03-5.08112E+03 1.00587E+05
 -1      2126-1.52376E+03-5.08112E+03 1.00587E+05
 -1      2127-1.91784E+03-9.33566E+03 1.51798E+05
 -1      2129-1.91784E+03-9.33566E+03 1.51798E+05
 -1      2130-2.09135E+03-1.41452E+04 1.98356E+05
 -1      2132-2.09135E+03-1.41452E+04 1.98356E+05
 -1      2133-2.07316E+03-1.90873E+04 2.40169E+05
 -1      2135-2.07316E+03-1.90873E+04 2.40169E+05
 -1      2136-1.88755E+03-2.37573E+04 2.75817E+05
 -1      2138-1.88755E+03-2.37573E+04 2.75817E+05
 -1      2139-1.55967E+03-2.78129E+04 3.04680E+05
 -1      2141-1.55967E+03-2.78129E+04 3.04680E+05
 -1      2142-1.11737E+03-3.09578E+04 3.25963E+05
 -1      2144-1.11737E+03-3.09578E+04 3.25963E+05
 -1      2145-5.94048E+02-3.29704E+04 3.39210E+05
 -1      2147-5.94048E+02-3.29704E+04 3.39210E+05
 -1      2148-2.55951E+01-3.37039E+04 3.44081E+05
 -1      2150-2.55951E+01-3.37039E+04 3.44081E+05
 -1      2151 5.49528E+02-3.31013E+04 3.40472E+05
 -1      2153 5.49528E+02-3.31013E+04 3.40472E+05
 -1      2154 1.09418E+03-3.11914E+04 3.28467E+05
 -1      2156 1.09418E+03-3.11914E+04 3.28467E+05
 -1      2157 1.57416E+03-2.80891E+04 3.08360E+05
 -1      2159 1.57416E+03-2.80891E+04 3.08360E+05
 -1      2160 1.96145E+03-2.39811E+04 2.80636E+05
 -1      2162 1.96145E+03-2.39811E+04 2.80636E+05
 -1      2163 2.23580E+03-1.91115E+04 2.45968E+05
 -1      2165 2.23580E+03-1.91115E+04 2.45968E+05
 -1      2166 2.38646E+03-1.37602E+04 2.05200E+05
 -1      2168 2.38646E+03-1.37602E+04 2.05200E+05
 -1      2169 2.41253E+03-8.22061E+03 1.59323E+05
 -1      2171 2.41253E+03-8.22061E+03 1.59323E+05
 -1      2172 2.32278E+03-2.77582E+03 1.09460E+05
 -1      2174 2.32278E+03-2.77582E+03 1.09460E+05
 -1      2175 2.13441E+03 2.32268E+03 5.68358E+04
 -1      2177 2.13441E+03 2.32268E+03 5.68358E+04
 -1      2178 1.87115E+03 6.87288E+03 2.74632E+03
 -1      2180 1.87115E+03 6.87288E+03 2.74632E+03
 -1      2181 1.56076E+03 1.07347E+04-5.14697E+04
 -1      2183 1.56076E+03 1.07347E+04-5.14697E+04
 -1      2184 1.23228E+03 1.38362E+04-1.04464E+05
 -1      2186 1.23228E+03 1.38362E+04-1.04464E+05
 -1      2187 9.13118E+02 1.61730E+04-1.54916E+05
 -1      2189 9.13118E+02 1.61730E+04-1.54916E+05
 -1      2190 6.26593E+02 1.78014E+04-2.01559E+05
 -1      2192 6.26593E+02 1.78014E+04-2.01559E+05
 -1      2193 3.89713E+02 1.88254E+04-2.43223E+05
 -1      2195 3.89713E+02 1.88254E+04-2.43223E+05
 -1      2196 2.11893E+02 1.93802E+04-2.78851E+05
 -1      2198 2.11893E+02 1.93802E+04-2.78851E+05
 -1      2199 9.42943E+01 1.96130E+04-3.07554E+05
 -1      2201 9.42943E+01 1.96130E+04-3.07554E+05
 -1      2202 3.00736E+01 1.96636E+04-3.28577E+05
 -1      2204 3.00736E+01 1.96636E+04-3.28577E+05
 -1      2205 6.15973E+00 1.96460E+04-3.41437E+05
 -1      2207 6.15973E+00 1.96460E+04-3.41437E+05
 -1      2208 8.67120E+02-1.91298E+03-4.75668E+04
 -1      2210 8.67120E+02-1.91298E+03-4.75668E+04
 -1      2211 1.52376E+03-5.08112E+03-1.00587E+05
 -1      2213 1.52376E+03-5.08112E+03-1.00587E+05
 -1      2214 1.91784E+03-9.33566E+03-1.51798E+05
 -1      2216 1.91784E+03-9.33566E+03-1.51798E+05
 -1      2217 2.09135E+03-1.41452E+04-1.98356E+05
 -1      2219 2.09135E+03-1.41452E+04-1.98356E+05
 -1      2220 2.07316E+03-1.90873E+04-2.40169E+05
 -1      2222 2.07316E+03-1.90873E+04-2.40169E+05
 -1      2223 1.88755E+03-2.37573E+04-2.75817E+05
 -1      2225 1.88755E+03-2.37573E+04-2.75817E+05
 -1      2226 1.55967E+03-2.78129E+04-3.04680E+05
 -1      2228 1.55967E+03-2.78129E+04-3.04680E+05
 -1      2229 1.11737E+03-3.09578E+04-3.25963E+05
 -1      2231 1.11737E+03-3.09578E+04-3.25963E+05
 -1      2232 5.94048E+02-3.29704E+04-3.39210E+05
 -1      2234 5.94048E+02-3.29704E+04-3.39210E+05
 -1      2235 2.55951E+01-3.37039E+04-3.44081E+05
 -1      2237 2.55951E+01-3.37039E+04-3.44081E+05
 -1      2238-5.49528E+02-3.31013E+04-3.40472E+05
 -1      2240-5.49528E+02-3.31013E+04-3.40472E+05
 -1      2241-1.09418E+03-3.11914E+04-3.28467E+05
 -1      2243-1.09418E+03-3.11914E+04-3.28467E+05
 -1      2244-1.57416E+03-2.80891E+04-3.08360E+05
 -1      2246-1.57416E+03-2.80891E+04-3.08360E+05
 -1      2247-1.96145E+03-2.39811E+04-2.80636E+05
 -1      2249-1.96145E+03-2.39811E+04-2.80636E+05
 -1      2250-2.23580E+03-1.91115E+04-2.45968E+05
 -1      2252-2.23580E+03-1.91115E+04-2.45968E+05
 -1      2253-2.38646E+03-1.37602E+04-2.05200E+05
 -1      2255-2.38646E+03-1.37602E+04-2.05200E+05
 -1      2256-2.41253E+03-8.22061E+03-1.59323E+05
 -1      2258-2.41253E+03-8.22061E+03-1.59323E+05
 -1      2259-2.32278E+03-2.77582E+03-1.09460E+05
 -1      2261-2.32278E+03-2.77582E+03-1.09460E+05
 -1      2262-2.13441E+03 2.32268E+03-5.68358E+04
 -1      2264-2.13441E+03 2.32268E+03-5.68358E+04
 -1      2265-1.87115E+03 6.87288E+03-2.74632E+03
 -1      2267-1.87115E+03 6.87288E+03-2.74632E+03
 -1      2268-1.56076E+03 1.07347E+04 5.14697E+04
 -1      2270-1.56076E+03 1.07347E+04 5.14697E+04
 -1      2271-1.23228E+03 1.38362E+04 1.04464E+05
 -1      2273-1.23228E+03 1.38362E+04 1.04464E+05
 -1      2274-9.13118E+02 1.61730E+04 1.54916E+05
 -1      2276-9.13118E+02 1.61730E+04 1.54916E+05
 -1      2277-6.26593E+02 1.78014E+04 2.01559E+05
 -1      2279-6.26593E+02 1.78014E+04 2.01559E+05
 -1      2280-3.89713E+02 1.88254E+04 2.43223E+05
 -1      2282-3.89713E+02 1.88254E+04 2.43223E+05
 -1      2283-2.11893E+02 1.93802E+04 2.78851E+05
 -1      2285-2.11893E+02 1.93802E+04 2.78851E+05
 -1      2286-9.42943E+01 1.96130E+04 3.07554E+05
 -1      2288-9.42943E+01 1.96130E+04 3.07554E+05
 -1      2289-3.00736E+01 1.96636E+04 3.28577E+05
 -1      2291-3.00736E+01 1.96636E+04 3.28577E+05
 -1      2292-6.15973E+00 1.96460E+04 3.41437E+05
 -1      2294-6.15973E+00 1.96460E+04 3.41437E+05
 -3
    1PSTEP                        60           1           1          
    1PGM                1.000000E+00                                  
    1PGK                1.277423E+07                                  
    1PHID                         -1                                  
    1PSUBC                         0                                  
    1PMODE                        15                                  
  100CL  115 568.8364825         930                     2   15MODAL      1
 -4  ERROR       1    1
 -5  STR(%)      1    1    0    0
 -1       404 0.00000E+00
 -1       406 0.00000E+00
 -1       407 0.00000E+00
 -1       409 0.00000E+00
 -1       410 0.00000E+00
 -1       412 0.00000E+00
 -1       413 0.00000E+00
 -1       415 0.00000E+00
 -1       424 0.00000E+00
 -1       426 0.00000E+00
 -1       427 0.00000E+00
 -1       429 0.00000E+00
 -1       438 0.00000E+00
 -1       440 0.00000E+00
 -1       441 0.00000E+00
 -1       443 0.00000E+00
 -1       444 0.00000E+00
 -1       446 0.00000E+00
 -1       447 0.00000E+00
 -1       449 0.00000E+00
 -1       458 0.00000E+00
 -1       460 0.00000E+00
 -1       461 0.00000E+00
 -1       463 0.00000E+00
 -1       472 0.00000E+00
 -1       474 0.00000E+00
 -1       475 0.00000E+00
 -1       477 0.00000E+00
 -1       478 0.00000E+00
 -1       480 0.00000E+00
 -1       481 0.00000E+00
 -1       483 0.00000E+00
 -1       484 0.00000E+00
 -1       486 0.00000E+00
 -1       487 0.00000E+00
 -1       489 0.00000E+00
 -1       490 0.00000E+00
 -1       492 0.00000E+00
 -1       493 0.00000E+00
 -1       495 0.00000E+00
 -1       496 0.00000E+00
 -1       498 0.00000E+00
 -1       499 0.00000E+00
 -1       501 0.00000E+00
 -1       502 0.00000E+00
 -1       504 0.00000E+00
 -1       505 0.00000E+00
 -1       507 0.00000E+00
 -1       508 0.00000E+00
 -1       510 0.00000E+00
 -1       511 0.00000E+00
 -1       513 0.00000E+00
 -1       514 0.00000E+00
 -1       516 0.00000E+00
 -1       517 0.00000E+00
 -1       519 0.00000E+00
 -1       520 0.00000E+00
 -1       522 0.00000E+00
 -1       523 0.00000E+00
 -1       525 0.00000E+00
 -1       526 0.00000E+00
 -1       528 0.00000E+00
 -1       529 0.00000E+00
 -1       531 0.00000E+00
 -1       532 0.00000E+00
 -1       534 0.00000E+00
 -1       535 0.00000E+00
 -1       537 0.00000E+00
 -1       538 0.00000E+00
 -1       540 0.00000E+00
 -1       541 0.00000E+00
 -1       543 0.00000E+00
 -1       544 0.00000E+00
 -1       546 0.00000E+00
 -1       547 0.00000E+00
 -1       549 0.00000E+00
 -1       550 0.00000E+00
 -1       552 0.00000E+00
 -1       553 0.00000E+00
 -1       555 0.00000E+00
 -1       556 0.00000E+00
 -1       558 0.00000E+00
 -1       559 0.00000E+00
 -1       561 0.00000E+00
 -1       562 0.00000E+00
 -1       564 0.00000E+00
 -1       565 0.00000E+00
 -1       567 0.00000E+00
 -1       568 0.00000E+00
 -1       570 0.00000E+00
 -1       571 0.00000E+00
 -1       573 0.00000E+00
 -1       574 0.00000E+00
 -1       576 0.00000E+00
 -1       577 0.00000E+00
 -1       579 0.00000E+00
 -1       588 0.00000E+00
 -1       590 0.00000E+00
 -1       591 0.00000E+00
 -1       593 0.00000E+00
 -1       602 0.00000E+00
 -1       604 0.00000E+00
 -1       605 0.00000E+00
 -1       607 0.00000E+00
 -1       616 0.00000E+00
 -1       618 0.00000E+00
 -1       619 0.00000E+00
 -1       621 0.00000E+00
 -1       630 0.00000E+00
 -1       632 0.00000E+00
 -1       633 0.00000E+00
 -1       635 0.00000E+00
 -1       644 0.00000E+00
 -1       646 0.00000E+00
 -1       647 0.00000E+00
 -1       649 0.00000E+00
 -1       658 0.00000E+00
 -1       660 0.00000E+00
 -1       661 0.00000E+00
 -1       663 0.00000E+00
 -1       672 0.00000E+00
 -1       674 0.00000E+00
 -1       675 0.00000E+00
 -1       677 0.00000E+00
 -1       686 0.00000E+00
 -1       688 0.00000E+00
 -1       689 0.00000E+00
 -1       691 0.00000E+00
 -1       700 0.00000E+00
 -1       702 0.00000E+00
 -1       703 0.00000E+00
 -1       705 0.00000E+00
 -1       714 0.00000E+00
 -1       716 0.00000E+00
 -1       717 0.00000E+00
 -1       719 0.00000E+00
 -1       728 0.00000E+00
 -1       730 0.00000E+00
 -1       731 0.00000E+00
 -1       733 0.00000E+00
 -1       742 0.00000E+00
 -1       744 0.00000E+00
 -1       745 0.00000E+00
 -1       747 0.00000E+00
 -1       756 0.00000E+00
 -1       758 0.00000E+00
 -1       759 0.00000E+00
 -1       761 0.00000E+00
 -1       770 0.00000E+00
 -1       772 0.00000E+00
 -1       773 0.00000E+00
 -1       775 0.00000E+00
 -1       784 0.00000E+00
 -1       786 0.00000E+00
 -1       787 0.00000E+00
 -1       789 0.00000E+00
 -1       798 0.00000E+00
 -1       800 0.00000E+00
 -1       801 0.00000E+00
 -1       803 0.00000E+00
 -1       812 0.00000E+00
 -1       814 0.00000E+00
 -1       815 0.00000E+00
 -1       817 0.00000E+00
 -1       826 0.00000E+00
 -1       828 0.00000E+00
 -1       829 0.00000E+00
 -1       831 0.00000E+00
 -1       840 0.00000E+00
 -1       842 0.00000E+00
 -1       843 0.00000E+00
 -1       845 0.00000E+00
 -1       854 0.00000E+00
 -1       856 0.00000E+00
 -1       857 0.00000E+00
 -1       859 0.00000E+00
 -1       868 0.00000E+00
 -1       870 0.00000E+00
 -1       871 0.00000E+00
 -1       873 0.00000E+00
 -1       882 0.00000E+00
 -1       884 0.00000E+00
 -1       885 0.00000E+00
 -1       887 0.00000E+00
 -1       896 0.00000E+00
 -1       898 0.00000E+00
 -1       899 0.00000E+00
 -1       901 0.00000E+00
 -1       910 0.00000E+00
 -1       912 0.00000E+00
 -1       913 0.00000E+00
 -1       915 0.00000E+00
 -1       924 0.00000E+00
 -1       926 0.00000E+00
 -1       927 0.00000E+00
 -1       929 0.00000E+00
 -1       938 0.00000E+00
 -1       940 0.00000E+00
 -1       941 0.00000E+00
 -1       943 0.00000E+00
 -1       952 0.00000E+00
 -1       954 0.00000E+00
 -1       955 0.00000E+00
 -1       957 0.00000E+00
 -1       966 0.00000E+00
 -1       968 0.00000E+00
 -1       969 0.00000E+00
 -1       971 0.00000E+00
 -1       980 0.00000E+00
 -1       982 0.00000E+00
 -1       983 0.00000E+00
 -1       985 0.00000E+00
 -1       986 0.00000E+00
 -1       988 0.00000E+00
 -1       989 0.00000E+00
 -1       991 0.00000E+00
 -1       992 0.00000E+00
 -1       994 0.00000E+00
 -1       995 0.00000E+00
 -1       997 0.00000E+00
 -1       998 0.00000E+00
 -1      1000 0.00000E+00
 -1      1001 0.00000E+00
 -1      1003 0.00000E+00
 -1      1004 0.00000E+00
 -1      1006 0.00000E+00
 -1      1007 0.00000E+00
 -1      1009 0.00000E+00
 -1      1010 0.00000E+00
 -1      1012 0.00000E+00
 -1      1013 0.00000E+00
 -1      1015 0.00000E+00
 -1      1016 0.00000E+00
 -1      1018 0.00000E+00
 -1      1019 0.00000E+00
 -1      1021 0.00000E+00
 -1      1022 0.00000E+00
 -1      1024 0.00000E+00
 -1      1025 0.00000E+00
 -1      1027 0.00000E+00
 -1      1028 0.00000E+00
 -1      1030 0.00000E+00
 -1      1031 0.00000E+00
 -1      1033 0.00000E+00
 -1      1034 0.00000E+00
 -1      1036 0.00000E+00
 -1      1037 0.00000E+00
 -1      1039 0.00000E+00
 -1      1040 0.00000E+00
 -1      1042 0.00000E+00
 -1      1043 0.00000E+00
 -1      1045 0.00000E+00
 -1      1046 0.00000E+00
 -1      1048 0.00000E+00
 -1      1049 0.00000E+00
 -1      1051 0.00000E+00
 -1      1052 0.00000E+00
 -1      1054 0.00000E+00
 -1      1055 0.00000E+00
 -1      1057 0.00000E+00
 -1      1058 0.00000E+00
 -1      1060 0.00000E+00
 -1      1061 0.00000E+00
 -1      1063 0.00000E+00
 -1      1064 0.00000E+00
 -1      1066 0.00000E+00
 -1      1067 0.00000E+00
 -1      1069 0.00000E+00
 -1      1070 0.00000E+00
 -1      1072 0.00000E+00
 -1      1073 0.00000E+00
 -1      1075 0.00000E+00
 -1      1076 0.00000E+00
 -1      1078 0.00000E+00
 -1      1079 0.00000E+00
 -1      1081 0.00000E+00
 -1      1082 0.00000E+00
 -1      1084 0.00000E+00
 -1      1085 0.00000E+00
 -1      1087 0.00000E+00
 -1      1088 0.00000E+00
 -1      1090 0.00000E+00
 -1      1099 0.00000E+00
 -1      1101 0.00000E+00
 -1      1102 0.00000E+00
 -1      1104 0.00000E+00
 -1      1113 0.00000E+00
 -1      1115 0.00000E+00
 -1      1116 0.00000E+00
 -1      1118 0.00000E+00
 -1      1127 0.00000E+00
 -1      1129 0.00000E+00
 -1      1130 0.00000E+00
 -1      1132 0.00000E+00
 -1      1141 0.00000E+00
 -1      1143 0.00000E+00
 -1      1144 0.00000E+00
 -1      1146 0.00000E+00
 -1      1155 0.00000E+00
 -1      1157 0.00000E+00
 -1      1158 0.00000E+00
 -1      1160 0.00000E+00
 -1      1169 0.00000E+00
 -1      1171 0.00000E+00
 -1      1172 0.00000E+00
 -1      1174 0.00000E+00
 -1      1183 0.00000E+00
 -1      1185 0.00000E+00
 -1      1186 0.00000E+00
 -1      1188 0.00000E+00
 -1      1197 0.00000E+00
 -1      1199 0.00000E+00
 -1      1200 0.00000E+00
 -1      1202 0.00000E+00
 -1      1211 0.00000E+00
 -1      1213 0.00000E+00
 -1      1214 0.00000E+00
 -1      1216 0.00000E+00
 -1      1225 0.00000E+00
 -1      1227 0.00000E+00
 -1      1228 0.00000E+00
 -1      1230 0.00000E+00
 -1      1239 0.00000E+00
 -1      1241 0.00000E+00
 -1      1242 0.00000E+00
 -1      1244 0.00000E+00
 -1      1253 0.00000E+00
 -1      1255 0.00000E+00
 -1      1256 0.00000E+00
 -1      1258 0.00000E+00
 -1      1267 0.00000E+00
 -1      1269 0.00000E+00
 -1      1270 0.00000E+00
 -1      1272 0.00000E+00
 -1      1281 0.00000E+00
 -1      1283 0.00000E+00
 -1      1284 0.00000E+00
 -1      1286 0.00000E+00
 -1      1295 0.00000E+00
 -1      1297 0.00000E+00
 -1      1298 0.00000E+00
 -1      1300 0.00000E+00
 -1      1309 0.00000E+00
 -1      1311 0.00000E+00
 -1      1312 0.00000E+00
 -1      1314 0.00000E+00
 -1      1323 0.00000E+00
 -1      1325 0.00000E+00
 -1      1326 0.00000E+00
 -1      1328 0.00000E+00
 -1      1337 0.00000E+00
 -1      1339 0.00000E+00
 -1      1340 0.00000E+00
 -1      1342 0.00000E+00
 -1      1351 0.00000E+00
 -1      1353 0.00000E+00
 -1      1354 0.00000E+00
 -1      1356 0.00000E+00
 -1      1365 0.00000E+00
 -1      1367 0.00000E+00
 -1      1368 0.00000E+00
 -1      1370 0.00000E+00
 -1      1379 0.00000E+00
 -1      1381 0.00000E+00
 -1      1382 0.00000E+00
 -1      1384 0.00000E+00
 -1      1393 0.00000E+00
 -1      1395 0.00000E+00
 -1      1396 0.00000E+00
 -1      1398 0.00000E+00
 -1      1407 0.00000E+00
 -1      1409 0.00000E+00
 -1      1410 0.00000E+00
 -1      1412 0.00000E+00
 -1      1421 0.00000E+00
 -1      1423 0.00000E+00
 -1      1424 0.00000E+00
 -1      1426 0.00000E+00
 -1      1435 0.00000E+00
 -1      1437 0.00000E+00
 -1      1438 0.00000E+00
 -1      1440 0.00000E+00
 -1      1449 0.00000E+00
 -1      1451 0.00000E+00
 -1      1452 0.00000E+00
 -1      1454 0.00000E+00
 -1      1463 0.00000E+00
 -1      1465 0.00000E+00
 -1      1466 0.00000E+00
 -1      1468 0.00000E+00
 -1      1477 0.00000E+00
 -1      1479 0.00000E+00
 -1      1480 0.00000E+00
 -1      1482 0.00000E+00
 -1      1491 0.00000E+00
 -1      1493 0.00000E+00
 -1      1494 0.00000E+00
 -1      1496 0.00000E+00
 -1      1497 0.00000E+00
 -1      1499 0.00000E+00
 -1      1500 0.00000E+00
 -1      1502 0.00000E+00
 -1      1503 0.00000E+00
 -1      1505 0.00000E+00
 -1      1506 0.00000E+00
 -1      1508 0.00000E+00
 -1      1509 0.00000E+00
 -1      1511 0.00000E+00
 -1      1512 0.00000E+00
 -1      1514 0.00000E+00
 -1      1515 0.00000E+00
 -1      1517 0.00000E+00
 -1      1518 0.00000E+00
 -1      1520 0.00000E+00
 -1      1521 0.00000E+00
 -1      1523 0.00000E+00
 -1      1524 0.00000E+00
 -1      1526 0.00000E+00
 -1      1527 0.00000E+00
 -1      1529 0.00000E+00
 -1      1530 0.00000E+00
 -1      1532 0.00000E+00
 -1      1533 0.00000E+00
 -1      1535 0.00000E+00
 -1      1536 0.00000E+00
 -1      1538 0.00000E+00
 -1      1539 0.00000E+00
 -1      1541 0.00000E+00
 -1      1542 0.00000E+00
 -1      1544 0.00000E+00
 -1      1545 0.00000E+00
 -1      1547 0.00000E+00
 -1      1548 0.00000E+00
 -1      1550 0.00000E+00
 -1      1551 0.00000E+00
 -1      1553 0.00000E+00
 -1      1554 0.00000E+00
 -1      1556 0.00000E+00
 -1      1557 0.00000E+00
 -1      1559 0.00000E+00
 -1      1560 0.00000E+00
 -1      1562 0.00000E+00
 -1      1563 0.00000E+00
 -1      1565 0.00000E+00
 -1      1566 0.00000E+00
 -1      1568 0.00000E+00
 -1      1569 0.00000E+00
 -1      1571 0.00000E+00
 -1      1572 0.00000E+00
 -1      1574 0.00000E+00
 -1      1575 0.00000E+00
 -1      1577 0.00000E+00
 -1      1578 0.00000E+00
 -1      1580 0.00000E+00
 -1      1581 0.00000E+00
 -1      1583 0.00000E+00
 -1      1584 0.00000E+00
 -1      1586 0.00000E+00
 -1      1587 0.00000E+00
 -1      1589 0.00000E+00
 -1      1590 0.00000E+00
 -1      1592 0.00000E+00
 -1      1593 0.00000E+00
 -1      1595 0.00000E+00
 -1      1596 0.00000E+00
 -1      1598 0.00000E+00
 -1      1599 0.00000E+00
 -1      1601 0.00000E+00
 -1      1602 0.00000E+00
 -1      1604 0.00000E+00
 -1      1605 0.00000E+00
 -1      1607 0.00000E+00
 -1      1608 0.00000E+00
 -1      1610 0.00000E+00
 -1      1611 0.00000E+00
 -1      1613 0.00000E+00
 -1      1614 0.00000E+00
 -1      1616 0.00000E+00
 -1      1617 0.00000E+00
 -1      1619 0.00000E+00
 -1      1620 0.00000E+00
 -1      1622 0.00000E+00
 -1      1623 0.00000E+00
 -1      1625 0.00000E+00
 -1      1626 0.00000E+00
 -1      1628 0.00000E+00
 -1      1629 0.00000E+00
 -1      1631 0.00000E+00
 -1      1632 0.00000E+00
 -1      1634 0.00000E+00
 -1      1635 0.00000E+00
 -1      1637 0.00000E+00
 -1      1638 0.00000E+00
 -1      1640 0.00000E+00
 -1      1641 0.00000E+00
 -1      1643 0.00000E+00
 -1      1644 0.00000E+00
 -1      1646 0.00000E+00
 -1      1647 0.00000E+00
 -1      1649 0.00000E+00
 -1      1650 0.00000E+00
 -1      1652 0.00000E+00
 -1      1653 0.00000E+00
 -1      1655 0.00000E+00
 -1      1656 0.00000E+00
 -1      1658 0.00000E+00
 -1      1659 0.00000E+00
 -1      1661 0.00000E+00
 -1      1662 0.00000E+00
 -1      1664 0.00000E+00
 -1      1665 0.00000E+00
 -1      1667 0.00000E+00
 -1      1668 0.00000E+00
 -1      1670 0.00000E+00
 -1      1671 0.00000E+00
 -1      1673 0.00000E+00
 -1      1674 0.00000E+00
 -1      1676 0.00000E+00
 -1      1677 0.00000E+00
 -1      1679 0.00000E+00
 -1      1680 0.00000E+00
 -1      1682 0.00000E+00
 -1      1683 0.00000E+00
 -1      1685 0.00000E+00
 -1      1686 0.00000E+00
 -1      1688 0.00000E+00
 -1      1689 0.00000E+00
 -1      1691 0.00000E+00
 -1      1692 0.00000E+00
 -1      1694 0.00000E+00
 -1      1695 0.00000E+00
 -1      1697 0.00000E+00
 -1      1698 0.00000E+00
 -1      1700 0.00000E+00
 -1      1701 0.00000E+00
 -1      1703 0.00000E+00
 -1      1704 0.00000E+00
 -1      1706 0.00000E+00
 -1      1707 0.00000E+00
 -1      1709 0.00000E+00
 -1      1710 0.00000E+00
 -1      1712 0.00000E+00
 -1      1713 0.00000E+00
 -1      1715 0.00000E+00
 -1      1716 0.00000E+00
 -1      1718 0.00000E+00
 -1      1719 0.00000E+00
 -1      1721 0.00000E+00
 -1      1722 0.00000E+00
 -1      1724 0.00000E+00
 -1      1725 0.00000E+00
 -1      1727 0.00000E+00
 -1      1728 0.00000E+00
 -1      1730 0.00000E+00
 -1      1731 0.00000E+00
 -1      1733 0.00000E+00
 -1      1734 0.00000E+00
 -1      1736 0.00000E+00
 -1      1737 0.00000E+00
 -1      1739 0.00000E+00
 -1      1740 0.00000E+00
 -1      1742 0.00000E+00
 -1      1743 0.00000E+00
 -1      1745 0.00000E+00
 -1      1746 0.00000E+00
 -1      1748 0.00000E+00
 -1      1749 0.00000E+00
 -1      1751 0.00000E+00
 -1      1752 0.00000E+00
 -1      1754 0.00000E+00
 -1      1755 0.00000E+00
 -1      1757 0.00000E+00
 -1      1758 0.00000E+00
 -1      1760 0.00000E+00
 -1      1761 0.00000E+00
 -1      1763 0.00000E+00
 -1      1764 0.00000E+00
 -1      1766 0.00000E+00
 -1      1767 0.00000E+00
 -1      1769 0.00000E+00
 -1      1770 0.00000E+00
 -1      1772 0.00000E+00
 -1      1773 0.00000E+00
 -1      1775 0.00000E+00
 -1      1776 0.00000E+00
 -1      1778 0.00000E+00
 -1      1779 0.00000E+00
 -1      1781 0.00000E+00
 -1      1782 0.00000E+00
 -1      1784 0.00000E+00
 -1      1785 0.00000E+00
 -1      1787 0.00000E+00
 -1      1788 0.00000E+00
 -1      1790 0.00000E+00
 -1      1791 0.00000E+00
 -1      1793 0.00000E+00
 -1      1794 0.00000E+00
 -1      1796 0.00000E+00
 -1      1797 0.00000E+00
 -1      1799 0.00000E+00
 -1      1800 0.00000E+00
 -1      1802 0.00000E+00
 -1      1803 0.00000E+00
 -1      1805 0.00000E+00
 -1      1806 0.00000E+00
 -1      1808 0.00000E+00
 -1      1809 0.00000E+00
 -1      1811 0.00000E+00
 -1      1812 0.00000E+00
 -1      1814 0.00000E+00
 -1      1815 0.00000E+00
 -1      1817 0.00000E+00
 -1      1818 0.00000E+00
 -1      1820 0.00000E+00
 -1      1821 0.00000E+00
 -1      1823 0.00000E+00
 -1      1824 0.00000E+00
 -1      1826 0.00000E+00
 -1      1827 0.00000E+00
 -1      1829 0.00000E+00
 -1      1830 0.00000E+00
 -1      1832 0.00000E+00
 -1      1833 0.00000E+00
 -1      1835 0.00000E+00
 -1      1836 0.00000E+00
 -1      1838 0.00000E+00
 -1      1839 0.00000E+00
 -1      1841 0.00000E+00
 -1      1842 0.00000E+00
 -1      1844 0.00000E+00
 -1      1845 0.00000E+00
 -1      1847 0.00000E+00
 -1      1848 0.00000E+00
 -1      1850 0.00000E+00
 -1      1851 0.00000E+00
 -1      1853 0.00000E+00
 -1      1854 0.00000E+00
 -1      1856 0.00000E+00
 -1      1857 0.00000E+00
 -1      1859 0.00000E+00
 -1      1860 0.00000E+00
 -1      1862 0.00000E+00
 -1      1863 0.00000E+00
 -1      1865 0.00000E+00
 -1      1866 0.00000E+00
 -1      1868 0.00000E+00
 -1      1869 0.00000E+00
 -1      1871 0.00000E+00
 -1      1872 0.00000E+00
 -1      1874 0.00000E+00
 -1      1875 0.00000E+00
 -1      1877 0.00000E+00
 -1      1878 0.00000E+00
 -1      1880 0.00000E+00
 -1      1881 0.00000E+00
 -1      1883 0.00000E+00
 -1      1884 0.00000E+00
 -1      1886 0.00000E+00
 -1      1887 0.00000E+00
 -1      1889 0.00000E+00
 -1      1890 0.00000E+00
 -1      1892 0.00000E+00
 -1      1893 0.00000E+00
 -1      1895 0.00000E+00
 -1      1896 0.00000E+00
 -1      1898 0.00000E+00
 -1      1899 0.00000E+00
 -1      1901 0.00000E+00
 -1      1902 0.00000E+00
 -1      1904 0.00000E+00
 -1      1905 0.00000E+00
 -1      1907 0.00000E+00
 -1      1908 0.00000E+00
 -1      1910 0.00000E+00
 -1      1911 0.00000E+00
 -1      1913 0.00000E+00
 -1      1914 0.00000E+00
 -1      1916 0.00000E+00
 -1      1917 0.00000E+00
 -1      1919 0.00000E+00
 -1      1920 0.00000E+00
 -1      1922 0.00000E+00
 -1      1923 0.00000E+00
 -1      1925 0.00000E+00
 -1      1926 0.00000E+00
 -1      1928 0.00000E+00
 -1      1929 0.00000E+00
 -1      1931 0.00000E+00
 -1      1932 0.00000E+00
 -1      1934 0.00000E+00
 -1      1935 0.00000E+00
 -1      1937 0.00000E+00
 -1      1938 0.00000E+00
 -1      1940 0.00000E+00
 -1      1941 0.00000E+00
 -1      1943 0.00000E+00
 -1      1944 0.00000E+00
 -1      1946 0.00000E+00
 -1      1947 0.00000E+00
 -1      1949 0.00000E+00
 -1      1950 0.00000E+00
 -1      1952 0.00000E+00
 -1      1953 0.00000E+00
 -1      1955 0.00000E+00
 -1      1956 0.00000E+00
 -1      1958 0.00000E+00
 -1      1959 0.00000E+00
 -1      1961 0.00000E+00
 -1      1962 0.00000E+00
 -1      1964 0.00000E+00
 -1      1965 0.00000E+00
 -1      1967 0.00000E+00
 -1      1968 0.00000E+00
 -1      1970 0.00000E+00
 -1      1971 0.00000E+00
 -1      1973 0.00000E+00
 -1      1974 0.00000E+00
 -1      1976 0.00000E+00
 -1      1977 0.00000E+00
 -1      1979 0.00000E+00
 -1      1980 0.00000E+00
 -1      1982 0.00000E+00
 -1      1983 0.00000E+00
 -1      1985 0.00000E+00
 -1      1986 0.00000E+00
 -1      1988 0.00000E+00
 -1      1989 0.00000E+00
 -1      1991 0.00000E+00
 -1      1992 0.00000E+00
 -1      1994 0.00000E+00
 -1      1995 0.00000E+00
 -1      1997 0.00000E+00
 -1      1998 0.00000E+00
 -1      2000 0.00000E+00
 -1      2001 0.00000E+00
 -1      2003 0.00000E+00
 -1      2004 0.00000E+00
 -1      2006 0.00000E+00
 -1      2007 0.00000E+00
 -1      2009 0.00000E+00
 -1      2010 0.00000E+00
 -1      2012 0.00000E+00
 -1      2013 0.00000E+00
 -1      2015 0.00000E+00
 -1      2016 0.00000E+00
 -1      2018 0.00000E+00
 -1      2019 0.00000E+00
 -1      2021 0.00000E+00
 -1      2022 0.00000E+00
 -1      2024 0.00000E+00
 -1      2025 0.00000E+00
 -1      2027 0.00000E+00
 -1      2028 0.00000E+00
 -1      2030 0.00000E+00
 -1      2031 0.00000E+00
 -1      2033 0.00000E+00
 -1      2034 0.00000E+00
 -1      2036 0.00000E+00
 -1      2037 0.00000E+00
 -1      2039 0.00000E+00
 -1      2040 0.00000E+00
 -1      2042 0.00000E+00
 -1      2043 0.00000E+00
 -1      2045 0.00000E+00
 -1      2046 0.00000E+00
 -1      2048 0.00000E+00
 -1      2049 0.00000E+00
 -1      2051 0.00000E+00
 -1      2052 0.00000E+00
 -1      2054 0.00000E+00
 -1      2055 0.00000E+00
 -1      2057 0.00000E+00
 -1      2058 0.00000E+00
 -1      2060 0.00000E+00
 -1      2061 0.00000E+00
 -1      2063 0.00000E+00
 -1      2064 0.00000E+00
 -1      2066 0.00000E+00
 -1      2067 0.00000E+00
 -1      2069 0.00000E+00
 -1      2070 0.00000E+00
 -1      2072 0.00000E+00
 -1      2073 0.00000E+00
 -1      2075 0.00000E+00
 -1      2076 0.00000E+00
 -1      2078 0.00000E+00
 -1      2079 0.00000E+00
 -1      2081 0.00000E+00
 -1      2082 0.00000E+00
 -1      2084 0.00000E+00
 -1      2085 0.00000E+00
 -1      2087 0.00000E+00
 -1      2088 0.00000E+00
 -1      2090 0.00000E+00
 -1      2091 0.00000E+00
 -1      2093 0.00000E+00
 -1      2094 0.00000E+00
 -1      2096 0.00000E+00
 -1      2097 0.00000E+00
 -1      2099 0.00000E+00
 -1      2100 0.00000E+00
 -1      2102 0.00000E+00
 -1      2103 0.00000E+00
 -1      2105 0.00000E+00
 -1      2106 0.00000E+00
 -1      2108 0.00000E+00
 -1      2109 0.00000E+00
 -1      2111 0.00000E+00
 -1      2112 0.00000E+00
 -1      2114 0.00000E+00
 -1      2115 0.00000E+00
 -1      2117 0.00000E+00
 -1      2118 0.00000E+00
 -1      2120 0.00000E+00
 -1      2121 0.00000E+00
 -1      2123 0.00000E+00
 -1      2124 0.00000E+00
 -1      2126 0.00000E+00
 -1      2127 0.00000E+00
 -1      2129 0.00000E+00
 -1      2130 0.00000E+00
 -1      2132 0.00000E+00
 -1      2133 0.00000E+00
 -1      2135 0.00000E+00
 -1      2136 0.00000E+00
 -1      2138 0.00000E+00
 -1      2139 0.00000E+00
 -1      2141 0.00000E+00
 -1      2142 0.00000E+00
 -1      2144 0.00000E+00
 -1      2145 0.00000E+00
 -1      2147 0.00000E+00
 -1      2148 0.00000E+00
 -1      2150 0.00000E+00
 -1      2151 0.00000E+00
 -1      2153 0.00000E+00
 -1      2154 0.00000E+00
 -1      2156 0.00000E+00
 -1      2157 0.00000E+00
 -1      2159 0.00000E+00
 -1      2160 0.00000E+00
 -1      2162 0.00000E+00
 -1      2163 0.00000E+00
 -1      2165 0.00000E+00
 -1      2166 0.00000E+00
 -1      2168 0.00000E+00
 -1      2169 0.00000E+00
 -1      2171 0.00000E+00
 -1      2172 0.00000E+00
 -1      2174 0.00000E+00
 -1      2175 0.00000E+00
 -1      2177 0.00000E+00
 -1      2178 0.00000E+00
 -1      2180 0.00000E+00
 -1      2181 0.00000E+00
 -1      2183 0.00000E+00
 -1      2184 0.00000E+00
 -1      2186 0.00000E+00
 -1      2187 0.00000E+00
 -1      2189 0.00000E+00
 -1      2190 0.00000E+00
 -1      2192 0.00000E+00
 -1      2193 0.00000E+00
 -1      2195 0.00000E+00
 -1      2196 0.00000E+00
 -1      2198 0.00000E+00
 -1      2199 0.00000E+00
 -1      2201 0.00000E+00
 -1      2202 0.00000E+00
 -1      2204 0.00000E+00
 -1      2205 0.00000E+00
 -1      2207 0.00000E+00
 -1      2208 0.00000E+00
 -1      2210 0.00000E+00
 -1      2211 0.00000E+00
 -1      2213 0.00000E+00
 -1      2214 0.00000E+00
 -1      2216 0.00000E+00
 -1      2217 0.00000E+00
 -1      2219 0.00000E+00
 -1      2220 0.00000E+00
 -1      2222 0.00000E+00
 -1      2223 0.00000E+00
 -1      2225 0.00000E+00
 -1      2226 0.00000E+00
 -1      2228 0.00000E+00
 -1      2229 0.00000E+00
 -1      2231 0.00000E+00
 -1      2232 0.00000E+00
 -1      2234 0.00000E+00
 -1      2235 0.00000E+00
 -1      2237 0.00000E+00
 -1      2238 0.00000E+00
 -1      2240 0.00000E+00
 -1      2241 0.00000E+00
 -1      2243 0.00000E+00
 -1      2244 0.00000E+00
 -1      2246 0.00000E+00
 -1      2247 0.00000E+00
 -1      2249 0.00000E+00
 -1      2250 0.00000E+00
 -1      2252 0.00000E+00
 -1      2253 0.00000E+00
 -1      2255 0.00000E+00
 -1      2256 0.00000E+00
 -1      2258 0.00000E+00
 -1      2259 0.00000E+00
 -1      2261 0.00000E+00
 -1      2262 0.00000E+00
 -1      2264 0.00000E+00
 -1      2265 0.00000E+00
 -1      2267 0.00000E+00
 -1      2268 0.00000E+00
 -1      2270 0.00000E+00
 -1      2271 0.00000E+00
 -1      2273 0.00000E+00
 -1      2274 0.00000E+00
 -1      2276 0.00000E+00
 -1      2277 0.00000E+00
 -1      2279 0.00000E+00
 -1      2280 0.00000E+00
 -1      2282 0.00000E+00
 -1      2283 0.00000E+00
 -1      2285 0.00000E+00
 -1      2286 0.00000E+00
 -1      2288 0.00000E+00
 -1      2289 0.00000E+00
 -1      2291 0.00000E+00
 -1      2292 0.00000E+00
 -1      2294 0.00000E+00
 -3
    1PSTEP                        61           1           1          
    1PGM                1.000000E+00                                  
    1PGK                1.666060E+07                                  
    1PHID                         -1                                  
    1PSUBC                         0                                  
    1PMODE                        16                                  
  100CL  116 649.6290092         930                     2   16MODAL      1
 -4  DISP        4    1
 -5  D1          1    2    1    0
 -5  D2          1    2    2    0
 -5  D3          1    2    3    0
 -5  ALL         1    2    0    0    1ALL
 -1       404 0.00000E+00 0.00000E+00 6.07474E-04
 -1       406 0.00000E+00-0.00000E+00-6.07474E-04
 -1       407 5.14820E-02-1.25410E-01 1.51439E-02
 -1       409 5.14322E-02-1.27301E-01 1.51773E-02
 -1       410 1.83767E-14-1.24854E-01 2.49236E-14
 -1       412 1.85104E-14-1.28020E-01 2.38082E-14
 -1       413-2.48050E-03-1.26437E-01-1.00840E-03
 -1       415 2.48050E-03-1.26437E-01 1.00840E-03
 -1       424 0.00000E+00 0.00000E+00-2.13404E-16
 -1       426 0.00000E+00 0.00000E+00 2.13404E-16
 -1       427 0.00000E+00-1.35946E-16 0.00000E+00
 -1       429 0.00000E+00 1.35946E-16 0.00000E+00
 -1       438-5.14820E-02-1.25410E-01-1.51439E-02
 -1       440-5.14322E-02-1.27301E-01-1.51773E-02
 -1       441 0.00000E+00 0.00000E+00-6.07474E-04
 -1       443 0.00000E+00-0.00000E+00 6.07474E-04
 -1       444 0.00000E+00 7.56076E-17 0.00000E+00
 -1       446 0.00000E+00-7.56076E-17 0.00000E+00
 -1       447 0.00000E+00 0.00000E+00-1.18686E-16
 -1       449 0.00000E+00 0.00000E+00 1.18686E-16
 -1       458-2.48050E-03-1.26437E-01 1.00840E-03
 -1       460 2.48050E-03-1.26437E-01-1.00840E-03
 -1       461-6.87661E-15-1.24854E-01-1.13669E-15
 -1       463-5.34278E-15-1.28020E-01 5.59574E-17
 -1       472 0.00000E+00 0.00000E+00 6.07474E-04
 -1       474 0.00000E+00 0.00000E+00-6.07474E-04
 -1       475-5.14820E-02-1.25410E-01 1.51439E-02
 -1       477-5.14322E-02-1.27301E-01 1.51773E-02
 -1       478 5.14820E-02-1.25410E-01-1.51439E-02
 -1       480 5.14322E-02-1.27301E-01-1.51773E-02
 -1       481 0.00000E+00 0.00000E+00-6.07474E-04
 -1       483 0.00000E+00 0.00000E+00 6.07474E-04
 -1       484 1.68512E-02-1.90466E-02 1.65574E-03
 -1       486 1.64268E-02-1.86992E-02 1.33870E-03
 -1       487 2.16393E-02-4.63551E-02 3.27953E-03
 -1       489 2.15702E-02-4.56810E-02 3.29462E-03
 -1       490 1.77747E-02-7.45294E-02 3.02835E-03
 -1       492 1.78539E-02-7.33949E-02 3.32609E-03
 -1       493 6.90093E-03-9.19743E-02 9.48419E-04
 -1       495 7.32285E-03-9.02430E-02 1.56174E-03
 -1       496-7.28348E-03-9.36357E-02-3.30216E-03
 -1       498-6.57478E-03-9.11664E-02-2.72926E-03
 -1       499-2.11411E-02-7.72672E-02-9.61884E-03
 -1       501-2.01665E-02-7.39339E-02-9.04788E-03
 -1       502-3.12160E-02-4.58143E-02-1.73382E-02
 -1       504-3.00900E-02-4.15477E-02-1.70631E-02
 -1       505-3.50477E-02-5.43168E-03-2.57209E-02
 -1       507-3.39008E-02-2.27153E-04-2.56800E-02
 -1       508-3.16362E-02 3.53639E-02-3.36306E-02
 -1       510-3.06199E-02 4.14283E-02-3.39426E-02
 -1       511-2.15823E-02 6.79485E-02-4.01427E-02
 -1       513-2.08291E-02 7.47196E-02-4.06597E-02
 -1       514-6.98748E-03 8.53223E-02-4.43560E-02
 -1       516-6.59310E-03 9.25817E-02-4.50358E-02
 -1       517 9.06604E-03 8.37625E-02-4.58451E-02
 -1       519 9.06205E-03 9.12514E-02-4.64880E-02
 -1       520 2.31402E-02 6.35889E-02-4.44891E-02
 -1       522 2.27594E-02 7.10339E-02-4.50008E-02
 -1       523 3.22304E-02 2.91524E-02-4.06766E-02
 -1       525 3.15492E-02 3.62955E-02-4.09112E-02
 -1       526 3.43790E-02-1.21156E-02-3.50574E-02
 -1       528 3.35128E-02-5.49414E-03-3.49928E-02
 -1       529 2.91329E-02-5.12788E-02-2.85357E-02
 -1       531 2.82117E-02-4.53429E-02-2.81618E-02
 -1       532 1.76170E-02-7.98307E-02-2.19842E-02
 -1       534 1.67603E-02-7.46830E-02-2.14001E-02
 -1       535 2.31948E-03-9.15217E-02-1.61640E-02
 -1       537 1.61384E-03-8.72047E-02-1.54798E-02
 -1       538-1.34592E-02-8.37185E-02-1.15223E-02
 -1       540-1.39741E-02-8.02277E-02-1.08980E-02
 -1       541-2.62921E-02-5.79865E-02-8.18850E-03
 -1       543-2.66266E-02-5.52835E-02-7.74967E-03
 -1       544-3.33721E-02-1.97758E-02-5.94319E-03
 -1       546-3.35791E-02-1.78069E-02-5.79407E-03
 -1       547-3.30883E-02 2.27111E-02-4.34314E-03
 -1       549-3.32457E-02 2.40048E-02-4.51420E-03
 -1       550-2.53744E-02 6.02456E-02-2.83584E-03
 -1       552-2.55620E-02 6.09176E-02-3.30063E-03
 -1       553-1.16796E-02 8.44784E-02-9.35764E-04
 -1       555-1.19586E-02 8.45796E-02-1.60096E-03
 -1       556 5.35513E-03 8.96610E-02 1.63993E-03
 -1       558 4.96460E-03 8.92404E-02 8.99420E-04
 -1       559 2.25446E-02 7.37144E-02 4.88472E-03
 -1       561 2.20617E-02 7.28300E-02 4.21015E-03
 -1       562 3.68951E-02 3.85388E-02 8.45916E-03
 -1       564 3.63978E-02 3.72591E-02 7.95394E-03
 -1       565 4.64311E-02-1.08358E-02 1.18155E-02
 -1       567 4.59932E-02-1.24296E-02 1.15489E-02
 -1       568 5.06425E-02-6.74666E-02 1.41810E-02
 -1       570 5.04167E-02-6.92749E-02 1.41187E-02
 -1       571 2.55847E-02-1.25304E-01 8.64866E-03
 -1       573 2.55470E-02-1.27327E-01 8.62217E-03
 -1       574-4.69269E-15-1.55490E-02-4.29382E-15
 -1       576-3.72072E-15-1.67360E-02-4.21326E-15
 -1       577-1.47907E-03-1.61425E-02-3.78092E-04
 -1       579 1.47907E-03-1.61425E-02 3.78092E-04
 -1       588-9.02423E-15-4.53541E-02-1.11431E-14
 -1       590-8.01769E-15-4.79913E-02-1.06380E-14
 -1       591-1.28761E-03-4.66727E-02-8.39991E-04
 -1       593 1.28761E-03-4.66727E-02 8.39991E-04
 -1       602-1.16351E-14-7.30041E-02-2.20949E-14
 -1       604-9.36892E-15-7.65315E-02-2.23400E-14
 -1       605-1.19789E-03-7.47678E-02-1.12352E-03
 -1       607 1.19789E-03-7.47678E-02 1.12352E-03
 -1       616-1.02789E-14-9.11949E-02-3.34992E-14
 -1       618-8.97649E-15-9.50722E-02-3.33917E-14
 -1       619-4.21972E-04-9.31336E-02-1.23500E-03
 -1       621 4.21972E-04-9.31336E-02 1.23500E-03
 -1       630-8.85707E-15-9.26106E-02-3.62180E-14
 -1       632-8.80761E-15-9.61257E-02-3.70151E-14
 -1       633 3.50119E-04-9.43681E-02-1.11961E-03
 -1       635-3.50119E-04-9.43681E-02 1.11961E-03
 -1       644-9.28221E-15-7.61812E-02-3.05418E-14
 -1       646-1.02924E-14-7.86300E-02-3.04337E-14
 -1       647 1.19558E-03-7.74056E-02-7.79987E-04
 -1       649-1.19558E-03-7.74056E-02 7.79987E-04
 -1       658-1.15378E-14-4.42545E-02-2.12713E-14
 -1       660-1.20961E-14-4.51017E-02-2.10282E-14
 -1       661 1.75904E-03-4.46781E-02-2.69851E-04
 -1       663-1.75904E-03-4.46781E-02 2.69851E-04
 -1       672-1.31455E-14-3.42298E-03-1.59870E-14
 -1       674-1.24590E-14-2.36117E-03-1.57515E-14
 -1       675 1.99740E-03-2.89207E-03 3.38208E-04
 -1       677-1.99740E-03-2.89207E-03-3.38208E-04
 -1       686-1.15529E-14 3.78982E-02-1.29759E-14
 -1       688-1.11512E-14 4.08284E-02-1.34336E-14
 -1       689 1.79918E-03 3.93633E-02 9.33319E-04
 -1       691-1.79918E-03 3.93633E-02-9.33319E-04
 -1       700-7.90412E-15 7.08674E-02-1.01426E-15
 -1       702-9.94099E-15 7.53269E-02-6.51078E-16
 -1       703 1.23307E-03 7.30972E-02 1.42044E-03
 -1       705-1.23307E-03 7.30972E-02-1.42044E-03
 -1       714-7.11792E-15 8.84718E-02 2.14758E-14
 -1       716-9.40359E-15 9.38432E-02 2.11845E-14
 -1       717 3.99160E-04 9.11575E-02 1.71088E-03
 -1       719-3.99160E-04 9.11575E-02-1.71088E-03
 -1       728-8.84342E-15 8.69021E-02 4.10178E-14
 -1       730-1.02212E-14 9.24395E-02 4.13885E-14
 -1       731-5.13923E-04 8.96708E-02 1.76377E-03
 -1       733 5.13923E-04 8.96708E-02-1.76377E-03
 -1       742-1.09433E-14 6.65034E-02 5.51251E-14
 -1       744-1.15526E-14 7.14471E-02 5.50923E-14
 -1       745-1.31794E-03 6.89753E-02 1.57465E-03
 -1       747 1.31794E-03 6.89753E-02-1.57465E-03
 -1       756-1.37317E-14 3.16543E-02 6.20756E-14
 -1       758-1.35590E-14 3.53946E-02 6.28245E-14
 -1       759-1.83626E-03 3.35245E-02 1.19135E-03
 -1       761 1.83626E-03 3.35245E-02-1.19135E-03
 -1       770-1.63456E-14-1.01237E-02 6.51239E-14
 -1       772-1.60938E-14-7.95417E-03 6.49110E-14
 -1       773-1.96061E-03-9.03892E-03 6.91029E-04
 -1       775 1.96061E-03-9.03892E-03-6.91029E-04
 -1       784-1.84407E-14-4.98059E-02 6.33748E-14
 -1       786-1.75583E-14-4.92603E-02 6.41898E-14
 -1       787-1.66259E-03-4.95331E-02 1.73793E-04
 -1       789 1.66259E-03-4.95331E-02-1.73793E-04
 -1       798-2.16618E-14-7.87861E-02 5.81782E-14
 -1       800-2.04230E-14-7.96234E-02 5.85201E-14
 -1       801-1.00774E-03-7.92047E-02-2.66690E-04
 -1       803 1.00774E-03-7.92047E-02 2.66690E-04
 -1       812-2.61549E-14-9.07476E-02 4.82170E-14
 -1       814-2.42215E-14-9.24914E-02 4.85285E-14
 -1       815-1.36366E-04-9.16195E-02-5.55416E-04
 -1       817 1.36366E-04-9.16195E-02 5.55416E-04
 -1       826-2.74536E-14-8.30189E-02 3.68469E-14
 -1       828-2.60592E-14-8.50831E-02 3.72605E-14
 -1       829 7.62947E-04-8.40510E-02-6.57490E-04
 -1       831-7.62947E-04-8.40510E-02 6.57490E-04
 -1       840-2.51321E-14-5.71772E-02 2.95204E-14
 -1       842-2.43700E-14-5.89927E-02 2.98228E-14
 -1       843 1.49578E-03-5.80850E-02-5.78255E-04
 -1       845-1.49578E-03-5.80850E-02 5.78255E-04
 -1       854-2.18079E-14-1.87177E-02 2.09166E-14
 -1       856-1.98115E-14-1.98694E-02 2.07896E-14
 -1       857 1.90270E-03-1.92935E-02-3.66819E-04
 -1       859-1.90270E-03-1.92935E-02 3.66819E-04
 -1       868-1.59773E-14 2.40745E-02 1.17605E-14
 -1       870-1.50604E-14 2.37693E-02 1.16843E-14
 -1       871 1.89175E-03 2.39219E-02-9.72034E-05
 -1       873-1.89175E-03 2.39219E-02 9.72034E-05
 -1       882-9.72161E-15 6.18923E-02 9.10399E-15
 -1       884-9.79056E-15 6.23372E-02 8.86774E-15
 -1       885 1.46236E-03 6.21148E-02 1.41697E-04
 -1       887-1.46236E-03 6.21148E-02-1.41697E-04
 -1       896-3.57926E-15 8.62929E-02 8.82820E-15
 -1       898-3.22779E-15 8.71593E-02 8.51903E-15
 -1       899 6.93649E-04 8.67261E-02 2.75961E-04
 -1       901-6.93649E-04 8.67261E-02-2.75961E-04
 -1       910 1.44791E-15 9.15019E-02 9.13085E-15
 -1       912 1.58439E-15 9.22989E-02 9.34049E-15
 -1       913-2.52197E-04 9.19004E-02 2.53853E-04
 -1       915 2.52197E-04 9.19004E-02-2.53853E-04
 -1       924 5.43693E-15 7.53951E-02 1.18759E-14
 -1       926 5.11019E-15 7.56193E-02 1.17719E-14
 -1       927-1.20761E-03 7.55072E-02 7.14244E-05
 -1       929 1.20761E-03 7.55072E-02-7.14244E-05
 -1       938 9.30636E-15 3.99400E-02 1.57553E-14
 -1       940 9.01232E-15 3.91940E-02 1.62052E-14
 -1       941-1.96735E-03 3.95670E-02-2.37607E-04
 -1       943 1.96735E-03 3.95670E-02 2.37607E-04
 -1       952 1.30737E-14-9.78012E-03 2.01802E-14
 -1       954 1.27528E-14-1.16420E-02 2.06622E-14
 -1       955-2.45699E-03-1.07110E-02-5.93033E-04
 -1       957 2.45699E-03-1.07110E-02 5.93033E-04
 -1       966 1.63266E-14-6.67853E-02 2.30663E-14
 -1       968 1.62307E-14-6.95683E-02 2.31259E-14
 -1       969-2.56647E-03-6.81768E-02-8.86410E-04
 -1       971 2.56647E-03-6.81768E-02 8.86410E-04
 -1       980 0.00000E+00 0.00000E+00 1.85170E-04
 -1       982 0.00000E+00-0.00000E+00-1.85170E-04
 -1       983-2.55847E-02-1.25304E-01-8.64866E-03
 -1       985-2.55470E-02-1.27327E-01-8.62217E-03
 -1       986-1.68512E-02-1.90466E-02-1.65574E-03
 -1       988-1.64268E-02-1.86992E-02-1.33870E-03
 -1       989-2.16393E-02-4.63551E-02-3.27953E-03
 -1       991-2.15702E-02-4.56810E-02-3.29462E-03
 -1       992-1.77747E-02-7.45294E-02-3.02835E-03
 -1       994-1.78539E-02-7.33949E-02-3.32609E-03
 -1       995-6.90093E-03-9.19743E-02-9.48419E-04
 -1       997-7.32285E-03-9.02430E-02-1.56174E-03
 -1       998 7.28348E-03-9.36357E-02 3.30216E-03
 -1      1000 6.57478E-03-9.11664E-02 2.72926E-03
 -1      1001 2.11411E-02-7.72672E-02 9.61884E-03
 -1      1003 2.01665E-02-7.39339E-02 9.04788E-03
 -1      1004 3.12160E-02-4.58143E-02 1.73382E-02
 -1      1006 3.00900E-02-4.15477E-02 1.70631E-02
 -1      1007 3.50477E-02-5.43168E-03 2.57209E-02
 -1      1009 3.39008E-02-2.27153E-04 2.56800E-02
 -1      1010 3.16362E-02 3.53639E-02 3.36306E-02
 -1      1012 3.06199E-02 4.14283E-02 3.39426E-02
 -1      1013 2.15823E-02 6.79485E-02 4.01427E-02
 -1      1015 2.08291E-02 7.47196E-02 4.06597E-02
 -1      1016 6.98748E-03 8.53223E-02 4.43560E-02
 -1      1018 6.59310E-03 9.25817E-02 4.50358E-02
 -1      1019-9.06604E-03 8.37625E-02 4.58451E-02
 -1      1021-9.06205E-03 9.12514E-02 4.64880E-02
 -1      1022-2.31402E-02 6.35889E-02 4.44891E-02
 -1      1024-2.27594E-02 7.10339E-02 4.50008E-02
 -1      1025-3.22304E-02 2.91524E-02 4.06766E-02
 -1      1027-3.15492E-02 3.62955E-02 4.09112E-02
 -1      1028-3.43790E-02-1.21156E-02 3.50574E-02
 -1      1030-3.35128E-02-5.49414E-03 3.49928E-02
 -1      1031-2.91329E-02-5.12788E-02 2.85357E-02
 -1      1033-2.82117E-02-4.53429E-02 2.81618E-02
 -1      1034-1.76170E-02-7.98307E-02 2.19842E-02
 -1      1036-1.67603E-02-7.46830E-02 2.14001E-02
 -1      1037-2.31948E-03-9.15217E-02 1.61640E-02
 -1      1039-1.61384E-03-8.72047E-02 1.54798E-02
 -1      1040 1.34592E-02-8.37185E-02 1.15223E-02
 -1      1042 1.39741E-02-8.02277E-02 1.08980E-02
 -1      1043 2.62921E-02-5.79865E-02 8.18850E-03
 -1      1045 2.66266E-02-5.52835E-02 7.74967E-03
 -1      1046 3.33721E-02-1.97758E-02 5.94319E-03
 -1      1048 3.35791E-02-1.78069E-02 5.79407E-03
 -1      1049 3.30883E-02 2.27111E-02 4.34314E-03
 -1      1051 3.32457E-02 2.40048E-02 4.51420E-03
 -1      1052 2.53744E-02 6.02456E-02 2.83584E-03
 -1      1054 2.55620E-02 6.09176E-02 3.30063E-03
 -1      1055 1.16796E-02 8.44784E-02 9.35764E-04
 -1      1057 1.19586E-02 8.45796E-02 1.60096E-03
 -1      1058-5.35513E-03 8.96610E-02-1.63993E-03
 -1      1060-4.96460E-03 8.92404E-02-8.99420E-04
 -1      1061-2.25446E-02 7.37144E-02-4.88472E-03
 -1      1063-2.20617E-02 7.28300E-02-4.21015E-03
 -1      1064-3.68951E-02 3.85388E-02-8.45916E-03
 -1      1066-3.63978E-02 3.72591E-02-7.95394E-03
 -1      1067-4.64311E-02-1.08358E-02-1.18155E-02
 -1      1069-4.59932E-02-1.24296E-02-1.15489E-02
 -1      1070-5.06425E-02-6.74666E-02-1.41810E-02
 -1      1072-5.04167E-02-6.92749E-02-1.41187E-02
 -1      1073 0.00000E+00 0.00000E+00-1.85170E-04
 -1      1075 0.00000E+00-0.00000E+00 1.85170E-04
 -1      1076 0.00000E+00-5.86553E-17 0.00000E+00
 -1      1078 0.00000E+00 5.86553E-17 0.00000E+00
 -1      1079 0.00000E+00 2.24430E-17 0.00000E+00
 -1      1081 0.00000E+00-2.24430E-17 0.00000E+00
 -1      1082 0.00000E+00 1.09721E-16 0.00000E+00
 -1      1084 0.00000E+00-1.09721E-16 0.00000E+00
 -1      1085-1.47907E-03-1.61425E-02 3.78092E-04
 -1      1087 1.47907E-03-1.61425E-02-3.78092E-04
 -1      1088 3.19182E-15-1.55490E-02-1.02853E-14
 -1      1090 1.27336E-15-1.67360E-02-1.02677E-14
 -1      1099-1.28761E-03-4.66727E-02 8.39991E-04
 -1      1101 1.28761E-03-4.66727E-02-8.39991E-04
 -1      1102 9.79147E-16-4.53541E-02-1.81890E-14
 -1      1104 1.66110E-15-4.79913E-02-1.83651E-14
 -1      1113-1.19789E-03-7.47678E-02 1.12352E-03
 -1      1115 1.19789E-03-7.47678E-02-1.12352E-03
 -1      1116-6.49224E-16-7.30041E-02-1.96257E-14
 -1      1118-5.85899E-16-7.65315E-02-1.97698E-14
 -1      1127-4.21972E-04-9.31336E-02 1.23500E-03
 -1      1129 4.21972E-04-9.31336E-02-1.23500E-03
 -1      1130-2.26050E-15-9.11949E-02-2.25228E-14
 -1      1132-2.00345E-15-9.50722E-02-2.25731E-14
 -1      1141 3.50119E-04-9.43681E-02 1.11961E-03
 -1      1143-3.50119E-04-9.43681E-02-1.11961E-03
 -1      1144-4.11510E-15-9.26106E-02-2.35325E-14
 -1      1146-3.29563E-15-9.61257E-02-2.31108E-14
 -1      1155 1.19558E-03-7.74056E-02 7.79987E-04
 -1      1157-1.19558E-03-7.74056E-02-7.79987E-04
 -1      1158-5.97983E-15-7.61812E-02-2.22605E-14
 -1      1160-5.24730E-15-7.86300E-02-2.21068E-14
 -1      1169 1.75904E-03-4.46781E-02 2.69851E-04
 -1      1171-1.75904E-03-4.46781E-02-2.69851E-04
 -1      1172-8.67550E-15-4.42545E-02-2.48069E-14
 -1      1174-9.07419E-15-4.51017E-02-2.51167E-14
 -1      1183 1.99740E-03-2.89207E-03-3.38208E-04
 -1      1185-1.99740E-03-2.89207E-03 3.38208E-04
 -1      1186-1.43417E-14-3.42298E-03-2.83176E-14
 -1      1188-1.37886E-14-2.36117E-03-2.84426E-14
 -1      1197 1.79918E-03 3.93633E-02-9.33319E-04
 -1      1199-1.79918E-03 3.93633E-02 9.33319E-04
 -1      1200-1.97318E-14 3.78982E-02-1.96220E-14
 -1      1202-1.65829E-14 4.08284E-02-2.00685E-14
 -1      1211 1.23307E-03 7.30972E-02-1.42044E-03
 -1      1213-1.23307E-03 7.30972E-02 1.42044E-03
 -1      1214-2.09658E-14 7.08674E-02-4.47842E-15
 -1      1216-1.82927E-14 7.53269E-02-4.27673E-15
 -1      1225 3.99160E-04 9.11575E-02-1.71088E-03
 -1      1227-3.99160E-04 9.11575E-02 1.71088E-03
 -1      1228-2.22308E-14 8.84718E-02 7.89112E-15
 -1      1230-1.99794E-14 9.38432E-02 7.38139E-15
 -1      1239-5.13923E-04 8.96708E-02-1.76377E-03
 -1      1241 5.13923E-04 8.96708E-02 1.76377E-03
 -1      1242-2.33938E-14 8.69021E-02 1.61415E-14
 -1      1244-2.19033E-14 9.24395E-02 1.65615E-14
 -1      1253-1.31794E-03 6.89753E-02-1.57465E-03
 -1      1255 1.31794E-03 6.89753E-02 1.57465E-03
 -1      1256-2.24580E-14 6.65034E-02 2.17842E-14
 -1      1258-2.14756E-14 7.14471E-02 2.13408E-14
 -1      1267-1.83626E-03 3.35245E-02-1.19135E-03
 -1      1269 1.83626E-03 3.35245E-02 1.19135E-03
 -1      1270-1.93339E-14 3.16543E-02 2.71758E-14
 -1      1272-1.76417E-14 3.53946E-02 2.72355E-14
 -1      1281-1.96061E-03-9.03892E-03-6.91029E-04
 -1      1283 1.96061E-03-9.03892E-03 6.91029E-04
 -1      1284-1.37517E-14-1.01237E-02 3.03512E-14
 -1      1286-1.35459E-14-7.95417E-03 3.05689E-14
 -1      1295-1.66259E-03-4.95331E-02-1.73793E-04
 -1      1297 1.66259E-03-4.95331E-02 1.73793E-04
 -1      1298-9.10652E-15-4.98059E-02 2.54614E-14
 -1      1300-9.98932E-15-4.92603E-02 2.52064E-14
 -1      1309-1.00774E-03-7.92047E-02 2.66690E-04
 -1      1311 1.00774E-03-7.92047E-02-2.66690E-04
 -1      1312-7.03661E-15-7.87861E-02 1.96872E-14
 -1      1314-7.04935E-15-7.96234E-02 1.93094E-14
 -1      1323-1.36366E-04-9.16195E-02 5.55416E-04
 -1      1325 1.36366E-04-9.16195E-02-5.55416E-04
 -1      1326-6.22952E-15-9.07476E-02 1.92288E-14
 -1      1328-5.63599E-15-9.24914E-02 1.92890E-14
 -1      1337 7.62947E-04-8.40510E-02 6.57490E-04
 -1      1339-7.62947E-04-8.40510E-02-6.57490E-04
 -1      1340-6.13067E-15-8.30189E-02 1.83726E-14
 -1      1342-6.55363E-15-8.50831E-02 1.76264E-14
 -1      1351 1.49578E-03-5.80850E-02 5.78255E-04
 -1      1353-1.49578E-03-5.80850E-02-5.78255E-04
 -1      1354-6.62404E-15-5.71772E-02 1.21707E-14
 -1      1356-7.42028E-15-5.89927E-02 1.20877E-14
 -1      1365 1.90270E-03-1.92935E-02 3.66819E-04
 -1      1367-1.90270E-03-1.92935E-02-3.66819E-04
 -1      1368-6.32581E-15-1.87177E-02 3.75006E-15
 -1      1370-7.39932E-15-1.98694E-02 3.35536E-15
 -1      1379 1.89175E-03 2.39219E-02 9.72034E-05
 -1      1381-1.89175E-03 2.39219E-02-9.72034E-05
 -1      1382-5.68751E-15 2.40745E-02-1.05368E-14
 -1      1384-8.03763E-15 2.37693E-02-1.02244E-14
 -1      1393 1.46236E-03 6.21148E-02-1.41697E-04
 -1      1395-1.46236E-03 6.21148E-02 1.41697E-04
 -1      1396-5.57782E-15 6.18923E-02-2.67906E-14
 -1      1398-7.59220E-15 6.23372E-02-2.72634E-14
 -1      1407 6.93649E-04 8.67261E-02-2.75961E-04
 -1      1409-6.93649E-04 8.67261E-02 2.75961E-04
 -1      1410-5.79933E-15 8.62929E-02-3.37975E-14
 -1      1412-5.26126E-15 8.71593E-02-3.36902E-14
 -1      1421-2.52197E-04 9.19004E-02-2.53853E-04
 -1      1423 2.52197E-04 9.19004E-02 2.53853E-04
 -1      1424-4.87668E-15 9.15019E-02-2.98583E-14
 -1      1426-3.84551E-15 9.22989E-02-3.01978E-14
 -1      1435-1.20761E-03 7.55072E-02-7.14244E-05
 -1      1437 1.20761E-03 7.55072E-02 7.14244E-05
 -1      1438-3.88367E-15 7.53951E-02-2.66446E-14
 -1      1440-3.97810E-15 7.56193E-02-2.65490E-14
 -1      1449-1.96735E-03 3.95670E-02 2.37607E-04
 -1      1451 1.96735E-03 3.95670E-02-2.37607E-04
 -1      1452-4.40706E-15 3.99400E-02-2.60121E-14
 -1      1454-4.25268E-15 3.91940E-02-2.67790E-14
 -1      1463-2.45699E-03-1.07110E-02 5.93033E-04
 -1      1465 2.45699E-03-1.07110E-02-5.93033E-04
 -1      1466-6.04435E-15-9.78012E-03-2.10608E-14
 -1      1468-4.83931E-15-1.16420E-02-2.14746E-14
 -1      1477-2.56647E-03-6.81768E-02 8.86410E-04
 -1      1479 2.56647E-03-6.81768E-02-8.86410E-04
 -1      1480-7.19613E-15-6.67853E-02-1.12374E-14
 -1      1482-5.57143E-15-6.95683E-02-1.16193E-14
 -1      1491-2.51187E-03-1.46842E-01-7.19727E-04
 -1      1493 2.51187E-03-1.46842E-01 7.19727E-04
 -1      1494-2.54324E-03-1.55066E-01 1.46029E-14
 -1      1496 2.54324E-03-1.55066E-01 8.17358E-15
 -1      1497-2.51187E-03-1.46842E-01 7.19727E-04
 -1      1499 2.51187E-03-1.46842E-01-7.19727E-04
 -1      1500-1.68512E-02-1.90466E-02 1.65574E-03
 -1      1502-1.64268E-02-1.86992E-02 1.33870E-03
 -1      1503-2.16393E-02-4.63551E-02 3.27953E-03
 -1      1505-2.15702E-02-4.56810E-02 3.29462E-03
 -1      1506-1.77747E-02-7.45294E-02 3.02835E-03
 -1      1508-1.78539E-02-7.33949E-02 3.32609E-03
 -1      1509-6.90093E-03-9.19743E-02 9.48419E-04
 -1      1511-7.32285E-03-9.02430E-02 1.56174E-03
 -1      1512 7.28348E-03-9.36357E-02-3.30216E-03
 -1      1514 6.57478E-03-9.11664E-02-2.72926E-03
 -1      1515 2.11411E-02-7.72672E-02-9.61884E-03
 -1      1517 2.01665E-02-7.39339E-02-9.04788E-03
 -1      1518 3.12160E-02-4.58143E-02-1.73382E-02
 -1      1520 3.00900E-02-4.15477E-02-1.70631E-02
 -1      1521 3.50477E-02-5.43168E-03-2.57209E-02
 -1      1523 3.39008E-02-2.27153E-04-2.56800E-02
 -1      1524 3.16362E-02 3.53639E-02-3.36306E-02
 -1      1526 3.06199E-02 4.14283E-02-3.39426E-02
 -1      1527 2.15823E-02 6.79485E-02-4.01427E-02
 -1      1529 2.08291E-02 7.47196E-02-4.06597E-02
 -1      1530 6.98748E-03 8.53223E-02-4.43560E-02
 -1      1532 6.59310E-03 9.25817E-02-4.50358E-02
 -1      1533-9.06604E-03 8.37625E-02-4.58451E-02
 -1      1535-9.06205E-03 9.12514E-02-4.64880E-02
 -1      1536-2.31402E-02 6.35889E-02-4.44891E-02
 -1      1538-2.27594E-02 7.10339E-02-4.50008E-02
 -1      1539-3.22304E-02 2.91524E-02-4.06766E-02
 -1      1541-3.15492E-02 3.62955E-02-4.09112E-02
 -1      1542-3.43790E-02-1.21156E-02-3.50574E-02
 -1      1544-3.35128E-02-5.49414E-03-3.49928E-02
 -1      1545-2.91329E-02-5.12788E-02-2.85357E-02
 -1      1547-2.82117E-02-4.53429E-02-2.81618E-02
 -1      1548-1.76170E-02-7.98307E-02-2.19842E-02
 -1      1550-1.67603E-02-7.46830E-02-2.14001E-02
 -1      1551-2.31948E-03-9.15217E-02-1.61640E-02
 -1      1553-1.61384E-03-8.72047E-02-1.54798E-02
 -1      1554 1.34592E-02-8.37185E-02-1.15223E-02
 -1      1556 1.39741E-02-8.02277E-02-1.08980E-02
 -1      1557 2.62921E-02-5.79865E-02-8.18850E-03
 -1      1559 2.66266E-02-5.52835E-02-7.74967E-03
 -1      1560 3.33721E-02-1.97758E-02-5.94319E-03
 -1      1562 3.35791E-02-1.78069E-02-5.79407E-03
 -1      1563 3.30883E-02 2.27111E-02-4.34314E-03
 -1      1565 3.32457E-02 2.40048E-02-4.51420E-03
 -1      1566 2.53744E-02 6.02456E-02-2.83584E-03
 -1      1568 2.55620E-02 6.09176E-02-3.30063E-03
 -1      1569 1.16796E-02 8.44784E-02-9.35764E-04
 -1      1571 1.19586E-02 8.45796E-02-1.60096E-03
 -1      1572-5.35513E-03 8.96610E-02 1.63993E-03
 -1      1574-4.96460E-03 8.92404E-02 8.99420E-04
 -1      1575-2.25446E-02 7.37144E-02 4.88472E-03
 -1      1577-2.20617E-02 7.28300E-02 4.21015E-03
 -1      1578-3.68951E-02 3.85388E-02 8.45916E-03
 -1      1580-3.63978E-02 3.72591E-02 7.95394E-03
 -1      1581-4.64311E-02-1.08358E-02 1.18155E-02
 -1      1583-4.59932E-02-1.24296E-02 1.15489E-02
 -1      1584-5.06425E-02-6.74666E-02 1.41810E-02
 -1      1586-5.04167E-02-6.92749E-02 1.41187E-02
 -1      1587-2.55847E-02-1.25304E-01 8.64866E-03
 -1      1589-2.55470E-02-1.27327E-01 8.62217E-03
 -1      1590 0.00000E+00 0.00000E+00 1.85170E-04
 -1      1592 0.00000E+00 0.00000E+00-1.85170E-04
 -1      1593 2.55847E-02-1.25304E-01-8.64866E-03
 -1      1595 2.55470E-02-1.27327E-01-8.62217E-03
 -1      1596 1.68512E-02-1.90466E-02-1.65574E-03
 -1      1598 1.64268E-02-1.86992E-02-1.33870E-03
 -1      1599 2.16393E-02-4.63551E-02-3.27953E-03
 -1      1601 2.15702E-02-4.56810E-02-3.29462E-03
 -1      1602 1.77747E-02-7.45294E-02-3.02835E-03
 -1      1604 1.78539E-02-7.33949E-02-3.32609E-03
 -1      1605 6.90093E-03-9.19743E-02-9.48419E-04
 -1      1607 7.32285E-03-9.02430E-02-1.56174E-03
 -1      1608-7.28348E-03-9.36357E-02 3.30216E-03
 -1      1610-6.57478E-03-9.11664E-02 2.72926E-03
 -1      1611-2.11411E-02-7.72672E-02 9.61884E-03
 -1      1613-2.01665E-02-7.39339E-02 9.04788E-03
 -1      1614-3.12160E-02-4.58143E-02 1.73382E-02
 -1      1616-3.00900E-02-4.15477E-02 1.70631E-02
 -1      1617-3.50477E-02-5.43168E-03 2.57209E-02
 -1      1619-3.39008E-02-2.27153E-04 2.56800E-02
 -1      1620-3.16362E-02 3.53639E-02 3.36306E-02
 -1      1622-3.06199E-02 4.14283E-02 3.39426E-02
 -1      1623-2.15823E-02 6.79485E-02 4.01427E-02
 -1      1625-2.08291E-02 7.47196E-02 4.06597E-02
 -1      1626-6.98748E-03 8.53223E-02 4.43560E-02
 -1      1628-6.59310E-03 9.25817E-02 4.50358E-02
 -1      1629 9.06604E-03 8.37625E-02 4.58451E-02
 -1      1631 9.06205E-03 9.12514E-02 4.64880E-02
 -1      1632 2.31402E-02 6.35889E-02 4.44891E-02
 -1      1634 2.27594E-02 7.10339E-02 4.50008E-02
 -1      1635 3.22304E-02 2.91524E-02 4.06766E-02
 -1      1637 3.15492E-02 3.62955E-02 4.09112E-02
 -1      1638 3.43790E-02-1.21156E-02 3.50574E-02
 -1      1640 3.35128E-02-5.49414E-03 3.49928E-02
 -1      1641 2.91329E-02-5.12788E-02 2.85357E-02
 -1      1643 2.82117E-02-4.53429E-02 2.81618E-02
 -1      1644 1.76170E-02-7.98307E-02 2.19842E-02
 -1      1646 1.67603E-02-7.46830E-02 2.14001E-02
 -1      1647 2.31948E-03-9.15217E-02 1.61640E-02
 -1      1649 1.61384E-03-8.72047E-02 1.54798E-02
 -1      1650-1.34592E-02-8.37185E-02 1.15223E-02
 -1      1652-1.39741E-02-8.02277E-02 1.08980E-02
 -1      1653-2.62921E-02-5.79865E-02 8.18850E-03
 -1      1655-2.66266E-02-5.52835E-02 7.74967E-03
 -1      1656-3.33721E-02-1.97758E-02 5.94319E-03
 -1      1658-3.35791E-02-1.78069E-02 5.79407E-03
 -1      1659-3.30883E-02 2.27111E-02 4.34314E-03
 -1      1661-3.32457E-02 2.40048E-02 4.51420E-03
 -1      1662-2.53744E-02 6.02456E-02 2.83584E-03
 -1      1664-2.55620E-02 6.09176E-02 3.30063E-03
 -1      1665-1.16796E-02 8.44784E-02 9.35764E-04
 -1      1667-1.19586E-02 8.45796E-02 1.60096E-03
 -1      1668 5.35513E-03 8.96610E-02-1.63993E-03
 -1      1670 4.96460E-03 8.92404E-02-8.99420E-04
 -1      1671 2.25446E-02 7.37144E-02-4.88472E-03
 -1      1673 2.20617E-02 7.28300E-02-4.21015E-03
 -1      1674 3.68951E-02 3.85388E-02-8.45916E-03
 -1      1676 3.63978E-02 3.72591E-02-7.95394E-03
 -1      1677 4.64311E-02-1.08358E-02-1.18155E-02
 -1      1679 4.59932E-02-1.24296E-02-1.15489E-02
 -1      1680 5.06425E-02-6.74666E-02-1.41810E-02
 -1      1682 5.04167E-02-6.92749E-02-1.41187E-02
 -1      1683 0.00000E+00 0.00000E+00-1.85170E-04
 -1      1685 0.00000E+00 0.00000E+00 1.85170E-04
 -1      1686 6.78321E-03-1.67693E-02 2.14397E-03
 -1      1688 6.29434E-03-1.68063E-02 1.91255E-03
 -1      1689 1.00638E-02-4.64789E-02 4.41644E-03
 -1      1691 9.90519E-03-4.64932E-02 4.37948E-03
 -1      1692 8.07688E-03-7.46203E-02 5.38926E-03
 -1      1694 7.97342E-03-7.44014E-02 5.52891E-03
 -1      1695 3.13249E-03-9.28964E-02 5.18057E-03
 -1      1697 3.28987E-03-9.22207E-02 5.39669E-03
 -1      1698-3.62819E-03-9.45142E-02 3.32335E-03
 -1      1700-3.27625E-03-9.31185E-02 3.58599E-03
 -1      1701-1.01711E-02-7.80626E-02 2.41634E-05
 -1      1703-9.61787E-03-7.57294E-02 2.42534E-04
 -1      1704-1.49651E-02-4.61099E-02-4.42728E-03
 -1      1706-1.42958E-02-4.26885E-02-4.30042E-03
 -1      1707-1.67688E-02-5.14677E-03-9.41786E-03
 -1      1709-1.60686E-02-5.89951E-04-9.41268E-03
 -1      1710-1.51300E-02 3.62907E-02-1.42364E-02
 -1      1712-1.45061E-02 4.19084E-02-1.43668E-02
 -1      1713-1.03186E-02 6.93690E-02-1.81754E-02
 -1      1715-9.86202E-03 7.58599E-02-1.84022E-02
 -1      1716-3.34402E-03 8.70129E-02-2.06468E-02
 -1      1718-3.12102E-03 9.40903E-02-2.09376E-02
 -1      1719 4.32631E-03 8.54145E-02-2.13351E-02
 -1      1721 4.29075E-03 9.27371E-02-2.16124E-02
 -1      1722 1.10490E-02 6.49128E-02-2.02002E-02
 -1      1724 1.07734E-02 7.21226E-02-2.04198E-02
 -1      1725 1.53906E-02 2.99168E-02-1.75357E-02
 -1      1727 1.49327E-02 3.66914E-02-1.76362E-02
 -1      1728 1.64158E-02-1.20162E-02-1.38465E-02
 -1      1730 1.58604E-02-5.93232E-03-1.38193E-02
 -1      1731 1.39091E-02-5.18129E-02-9.79532E-03
 -1      1733 1.33499E-02-4.65797E-02-9.63437E-03
 -1      1734 8.40803E-03-8.08268E-02-6.01736E-03
 -1      1736 7.92897E-03-7.65084E-02-5.76779E-03
 -1      1737 1.10179E-03-9.27106E-02-3.03802E-03
 -1      1739 7.60473E-04-8.92825E-02-2.74453E-03
 -1      1740-6.43232E-03-8.47866E-02-1.13496E-03
 -1      1742-6.61475E-03-8.21662E-02-8.69346E-04
 -1      1743-1.25569E-02-5.86439E-02-3.29553E-04
 -1      1745-1.25978E-02-5.67182E-02-1.42892E-04
 -1      1746-1.59290E-02-1.98192E-02-3.71613E-04
 -1      1748-1.58777E-02-1.84819E-02-3.11982E-04
 -1      1749-1.57792E-02 2.33607E-02-8.39364E-04
 -1      1751-1.57037E-02 2.41912E-02-9.16965E-04
 -1      1752-1.20704E-02 6.15177E-02-1.22998E-03
 -1      1754-1.20394E-02 6.18814E-02-1.43659E-03
 -1      1755-5.49528E-03 8.61845E-02-1.10459E-03
 -1      1757-5.56167E-03 8.60917E-02-1.39860E-03
 -1      1758 2.69434E-03 9.15143E-02-1.94648E-04
 -1      1760 2.51055E-03 9.09548E-02-5.23409E-04
 -1      1761 1.09832E-02 7.54316E-02 1.52591E-03
 -1      1763 1.06946E-02 7.44109E-02 1.21928E-03
 -1      1764 1.79534E-02 3.98437E-02 3.78947E-03
 -1      1766 1.76209E-02 3.83990E-02 3.55416E-03
 -1      1767 2.26763E-02-1.00303E-02 6.14758E-03
 -1      1769 2.23618E-02-1.18016E-02 6.00050E-03
 -1      1770 2.50080E-02-6.72190E-02 7.91519E-03
 -1      1772 2.48398E-02-6.91768E-02 7.84254E-03
 -1      1773-6.78321E-03-1.67693E-02-2.14397E-03
 -1      1775-6.29434E-03-1.68063E-02-1.91255E-03
 -1      1776-1.00638E-02-4.64789E-02-4.41644E-03
 -1      1778-9.90519E-03-4.64932E-02-4.37948E-03
 -1      1779-8.07688E-03-7.46203E-02-5.38926E-03
 -1      1781-7.97342E-03-7.44014E-02-5.52891E-03
 -1      1782-3.13249E-03-9.28964E-02-5.18057E-03
 -1      1784-3.28987E-03-9.22207E-02-5.39669E-03
 -1      1785 3.62819E-03-9.45142E-02-3.32335E-03
 -1      1787 3.27625E-03-9.31185E-02-3.58599E-03
 -1      1788 1.01711E-02-7.80626E-02-2.41634E-05
 -1      1790 9.61787E-03-7.57294E-02-2.42534E-04
 -1      1791 1.49651E-02-4.61099E-02 4.42728E-03
 -1      1793 1.42958E-02-4.26885E-02 4.30042E-03
 -1      1794 1.67688E-02-5.14677E-03 9.41786E-03
 -1      1796 1.60686E-02-5.89951E-04 9.41268E-03
 -1      1797 1.51300E-02 3.62907E-02 1.42364E-02
 -1      1799 1.45061E-02 4.19084E-02 1.43668E-02
 -1      1800 1.03186E-02 6.93690E-02 1.81754E-02
 -1      1802 9.86202E-03 7.58599E-02 1.84022E-02
 -1      1803 3.34402E-03 8.70129E-02 2.06468E-02
 -1      1805 3.12102E-03 9.40903E-02 2.09376E-02
 -1      1806-4.32631E-03 8.54145E-02 2.13351E-02
 -1      1808-4.29075E-03 9.27371E-02 2.16124E-02
 -1      1809-1.10490E-02 6.49128E-02 2.02002E-02
 -1      1811-1.07734E-02 7.21226E-02 2.04198E-02
 -1      1812-1.53906E-02 2.99168E-02 1.75357E-02
 -1      1814-1.49327E-02 3.66914E-02 1.76362E-02
 -1      1815-1.64158E-02-1.20162E-02 1.38465E-02
 -1      1817-1.58604E-02-5.93232E-03 1.38193E-02
 -1      1818-1.39091E-02-5.18129E-02 9.79532E-03
 -1      1820-1.33499E-02-4.65797E-02 9.63437E-03
 -1      1821-8.40803E-03-8.08268E-02 6.01736E-03
 -1      1823-7.92897E-03-7.65084E-02 5.76779E-03
 -1      1824-1.10179E-03-9.27106E-02 3.03802E-03
 -1      1826-7.60473E-04-8.92825E-02 2.74453E-03
 -1      1827 6.43232E-03-8.47866E-02 1.13496E-03
 -1      1829 6.61475E-03-8.21662E-02 8.69346E-04
 -1      1830 1.25569E-02-5.86439E-02 3.29553E-04
 -1      1832 1.25978E-02-5.67182E-02 1.42892E-04
 -1      1833 1.59290E-02-1.98192E-02 3.71613E-04
 -1      1835 1.58777E-02-1.84819E-02 3.11982E-04
 -1      1836 1.57792E-02 2.33607E-02 8.39364E-04
 -1      1838 1.57037E-02 2.41912E-02 9.16965E-04
 -1      1839 1.20704E-02 6.15177E-02 1.22998E-03
 -1      1841 1.20394E-02 6.18814E-02 1.43659E-03
 -1      1842 5.49528E-03 8.61845E-02 1.10459E-03
 -1      1844 5.56167E-03 8.60917E-02 1.39860E-03
 -1      1845-2.69434E-03 9.15143E-02 1.94648E-04
 -1      1847-2.51055E-03 9.09548E-02 5.23409E-04
 -1      1848-1.09832E-02 7.54316E-02-1.52591E-03
 -1      1850-1.06946E-02 7.44109E-02-1.21928E-03
 -1      1851-1.79534E-02 3.98437E-02-3.78947E-03
 -1      1853-1.76209E-02 3.83990E-02-3.55416E-03
 -1      1854-2.26763E-02-1.00303E-02-6.14758E-03
 -1      1856-2.23618E-02-1.18016E-02-6.00050E-03
 -1      1857-2.50080E-02-6.72190E-02-7.91519E-03
 -1      1859-2.48398E-02-6.91768E-02-7.84254E-03
 -1      1860-2.09632E-03-2.62387E-02-4.92738E-04
 -1      1862 2.09632E-03-2.62387E-02 4.92738E-04
 -1      1863-1.51961E-03-6.94278E-02-1.07809E-03
 -1      1865 1.51961E-03-6.94278E-02 1.07809E-03
 -1      1866-1.47966E-03-1.05348E-01-1.48186E-03
 -1      1868 1.47966E-03-1.05348E-01 1.48186E-03
 -1      1869-4.70776E-04-1.28346E-01-1.73877E-03
 -1      1871 4.70776E-04-1.28346E-01 1.73877E-03
 -1      1872 4.28244E-04-1.28541E-01-1.77969E-03
 -1      1874-4.28244E-04-1.28541E-01 1.77969E-03
 -1      1875 1.44211E-03-1.05765E-01-1.60957E-03
 -1      1877-1.44211E-03-1.05765E-01 1.60957E-03
 -1      1878 2.10250E-03-6.29952E-02-1.27485E-03
 -1      1880-2.10250E-03-6.29952E-02 1.27485E-03
 -1      1881 2.38293E-03-8.98065E-03-8.35341E-04
 -1      1883-2.38293E-03-8.98065E-03 8.35341E-04
 -1      1884 2.14894E-03 4.55438E-02-3.93139E-04
 -1      1886-2.14894E-03 4.55438E-02 3.93139E-04
 -1      1887 1.48115E-03 8.92427E-02-2.85747E-05
 -1      1889-1.48115E-03 8.92427E-02 2.85747E-05
 -1      1890 5.00019E-04 1.13167E-01 1.76986E-04
 -1      1892-5.00019E-04 1.13167E-01-1.76986E-04
 -1      1893-5.76939E-04 1.12419E-01 1.90941E-04
 -1      1895 5.76939E-04 1.12419E-01-1.90941E-04
 -1      1896-1.52664E-03 8.73619E-02 9.58072E-06
 -1      1898 1.52664E-03 8.73619E-02-9.58072E-06
 -1      1899-2.14475E-03 4.34727E-02-3.20537E-04
 -1      1901 2.14475E-03 4.34727E-02 3.20537E-04
 -1      1902-2.30253E-03-9.79077E-03-7.29006E-04
 -1      1904 2.30253E-03-9.79077E-03 7.29006E-04
 -1      1905-1.96742E-03-6.10382E-02-1.12400E-03
 -1      1907 1.96742E-03-6.10382E-02 1.12400E-03
 -1      1908-1.21417E-03-9.93781E-02-1.42208E-03
 -1      1910 1.21417E-03-9.93781E-02 1.42208E-03
 -1      1911-2.06311E-04-1.16760E-01-1.55768E-03
 -1      1913 2.06311E-04-1.16760E-01 1.55768E-03
 -1      1914 8.37390E-04-1.09693E-01-1.50413E-03
 -1      1916-8.37390E-04-1.09693E-01 1.50413E-03
 -1      1917 1.69066E-03-8.00001E-02-1.27252E-03
 -1      1919-1.69066E-03-8.00001E-02 1.27252E-03
 -1      1920 2.16818E-03-3.44156E-02-9.15362E-04
 -1      1922-2.16818E-03-3.44156E-02 9.15362E-04
 -1      1923 2.16348E-03 1.68434E-02-5.07989E-04
 -1      1925-2.16348E-03 1.68434E-02 5.07989E-04
 -1      1926 1.67619E-03 6.22837E-02-1.39349E-04
 -1      1928-1.67619E-03 6.22837E-02 1.39349E-04
 -1      1929 7.99586E-04 9.15248E-02 1.16738E-04
 -1      1931-7.99586E-04 9.15248E-02-1.16738E-04
 -1      1932-2.75468E-04 9.75756E-02 2.08362E-04
 -1      1934 2.75468E-04 9.75756E-02-2.08362E-04
 -1      1935-1.35412E-03 7.80657E-02 1.29500E-04
 -1      1937 1.35412E-03 7.80657E-02-1.29500E-04
 -1      1938-2.18549E-03 3.59333E-02-8.84369E-05
 -1      1940 2.18549E-03 3.59333E-02 8.84369E-05
 -1      1941-2.69766E-03-2.19720E-02-3.70558E-04
 -1      1943 2.69766E-03-2.19720E-02 3.70558E-04
 -1      1944-2.70680E-03-8.57912E-02-6.15393E-04
 -1      1946 2.70680E-03-8.57912E-02 6.15393E-04
 -1      1947-2.71356E-03-3.19703E-02-8.10463E-15
 -1      1949 2.71356E-03-3.19703E-02-7.21298E-15
 -1      1950-1.75161E-03-8.19241E-02-1.75554E-14
 -1      1952 1.75161E-03-8.19241E-02-1.50088E-14
 -1      1953-1.76142E-03-1.22456E-01-2.38767E-14
 -1      1955 1.76142E-03-1.22456E-01-1.97654E-14
 -1      1956-5.19579E-04-1.48486E-01-2.84837E-14
 -1      1958 5.19579E-04-1.48486E-01-2.35510E-14
 -1      1959 5.06369E-04-1.49092E-01-3.15269E-14
 -1      1961-5.06369E-04-1.49092E-01-2.62672E-14
 -1      1962 1.68864E-03-1.24437E-01-3.07879E-14
 -1      1964-1.68864E-03-1.24437E-01-2.58370E-14
 -1      1965 2.44596E-03-7.77816E-02-2.82432E-14
 -1      1967-2.44596E-03-7.77816E-02-2.43573E-14
 -1      1968 2.76845E-03-1.87773E-02-2.36929E-14
 -1      1970-2.76845E-03-1.87773E-02-2.06987E-14
 -1      1971 2.49869E-03 4.08478E-02-1.51268E-14
 -1      1973-2.49869E-03 4.08478E-02-1.31596E-14
 -1      1974 1.72923E-03 8.86987E-02-1.85615E-15
 -1      1976-1.72923E-03 8.86987E-02-1.98279E-15
 -1      1977 6.00878E-04 1.15003E-01 1.43722E-14
 -1      1979-6.00878E-04 1.15003E-01 1.17475E-14
 -1      1980-6.39954E-04 1.14406E-01 2.92717E-14
 -1      1982 6.39954E-04 1.14406E-01 2.37102E-14
 -1      1983-1.73535E-03 8.72924E-02 4.26117E-14
 -1      1985 1.73535E-03 8.72924E-02 3.41879E-14
 -1      1986-2.45324E-03 3.96218E-02 5.17850E-14
 -1      1988 2.45324E-03 3.96218E-02 4.21468E-14
 -1      1989-2.64444E-03-1.83050E-02 5.33115E-14
 -1      1991 2.64444E-03-1.83050E-02 4.39232E-14
 -1      1992-2.27225E-03-7.40770E-02 4.89157E-14
 -1      1994 2.27225E-03-7.40770E-02 4.08423E-14
 -1      1995-1.42060E-03-1.15824E-01 4.25622E-14
 -1      1997 1.42060E-03-1.15824E-01 3.64075E-14
 -1      1998-2.76257E-04-1.34766E-01 3.50145E-14
 -1      2000 2.76257E-04-1.34766E-01 3.04375E-14
 -1      2001 9.11833E-04-1.27088E-01 2.74381E-14
 -1      2003-9.11833E-04-1.27088E-01 2.41022E-14
 -1      2004 1.88553E-03-9.47573E-02 1.92710E-14
 -1      2006-1.88553E-03-9.47573E-02 1.76751E-14
 -1      2007 2.43367E-03-4.50874E-02 9.03097E-15
 -1      2009-2.43367E-03-4.50874E-02 9.47734E-15
 -1      2010 2.43521E-03 1.08212E-02-8.33535E-16
 -1      2012-2.43521E-03 1.08212E-02 8.70831E-16
 -1      2013 1.89002E-03 6.04868E-02-8.65800E-15
 -1      2015-1.89002E-03 6.04868E-02-6.65440E-15
 -1      2016 9.05524E-04 9.26531E-02-1.36514E-14
 -1      2018-9.05524E-04 9.26531E-02-1.15845E-14
 -1      2019-2.98739E-04 9.97783E-02-1.33452E-14
 -1      2021 2.98739E-04 9.97783E-02-1.16088E-14
 -1      2022-1.50063E-03 7.93755E-02-1.08481E-14
 -1      2024 1.50063E-03 7.93755E-02-1.01291E-14
 -1      2025-2.40363E-03 3.48055E-02-7.09675E-15
 -1      2027 2.40363E-03 3.48055E-02-8.91474E-15
 -1      2028-2.93832E-03-2.62976E-02-6.03684E-16
 -1      2030 2.93832E-03-2.62976E-02-4.83294E-15
 -1      2031-2.84714E-03-9.28274E-02 7.47145E-15
 -1      2033 2.84714E-03-9.28274E-02 1.74340E-15
 -1      2034-2.09632E-03-2.62387E-02 4.92738E-04
 -1      2036 2.09632E-03-2.62387E-02-4.92738E-04
 -1      2037-1.51961E-03-6.94278E-02 1.07809E-03
 -1      2039 1.51961E-03-6.94278E-02-1.07809E-03
 -1      2040-1.47966E-03-1.05348E-01 1.48186E-03
 -1      2042 1.47966E-03-1.05348E-01-1.48186E-03
 -1      2043-4.70776E-04-1.28346E-01 1.73877E-03
 -1      2045 4.70776E-04-1.28346E-01-1.73877E-03
 -1      2046 4.28244E-04-1.28541E-01 1.77969E-03
 -1      2048-4.28244E-04-1.28541E-01-1.77969E-03
 -1      2049 1.44211E-03-1.05765E-01 1.60957E-03
 -1      2051-1.44211E-03-1.05765E-01-1.60957E-03
 -1      2052 2.10250E-03-6.29952E-02 1.27485E-03
 -1      2054-2.10250E-03-6.29952E-02-1.27485E-03
 -1      2055 2.38293E-03-8.98065E-03 8.35341E-04
 -1      2057-2.38293E-03-8.98065E-03-8.35341E-04
 -1      2058 2.14894E-03 4.55438E-02 3.93139E-04
 -1      2060-2.14894E-03 4.55438E-02-3.93139E-04
 -1      2061 1.48115E-03 8.92427E-02 2.85747E-05
 -1      2063-1.48115E-03 8.92427E-02-2.85747E-05
 -1      2064 5.00019E-04 1.13167E-01-1.76986E-04
 -1      2066-5.00019E-04 1.13167E-01 1.76986E-04
 -1      2067-5.76939E-04 1.12419E-01-1.90941E-04
 -1      2069 5.76939E-04 1.12419E-01 1.90941E-04
 -1      2070-1.52664E-03 8.73619E-02-9.58072E-06
 -1      2072 1.52664E-03 8.73619E-02 9.58072E-06
 -1      2073-2.14475E-03 4.34727E-02 3.20537E-04
 -1      2075 2.14475E-03 4.34727E-02-3.20537E-04
 -1      2076-2.30253E-03-9.79077E-03 7.29006E-04
 -1      2078 2.30253E-03-9.79077E-03-7.29006E-04
 -1      2079-1.96742E-03-6.10382E-02 1.12400E-03
 -1      2081 1.96742E-03-6.10382E-02-1.12400E-03
 -1      2082-1.21417E-03-9.93781E-02 1.42208E-03
 -1      2084 1.21417E-03-9.93781E-02-1.42208E-03
 -1      2085-2.06311E-04-1.16760E-01 1.55768E-03
 -1      2087 2.06311E-04-1.16760E-01-1.55768E-03
 -1      2088 8.37390E-04-1.09693E-01 1.50413E-03
 -1      2090-8.37390E-04-1.09693E-01-1.50413E-03
 -1      2091 1.69066E-03-8.00001E-02 1.27252E-03
 -1      2093-1.69066E-03-8.00001E-02-1.27252E-03
 -1      2094 2.16818E-03-3.44156E-02 9.15362E-04
 -1      2096-2.16818E-03-3.44156E-02-9.15362E-04
 -1      2097 2.16348E-03 1.68434E-02 5.07989E-04
 -1      2099-2.16348E-03 1.68434E-02-5.07989E-04
 -1      2100 1.67619E-03 6.22837E-02 1.39349E-04
 -1      2102-1.67619E-03 6.22837E-02-1.39349E-04
 -1      2103 7.99586E-04 9.15248E-02-1.16738E-04
 -1      2105-7.99586E-04 9.15248E-02 1.16738E-04
 -1      2106-2.75468E-04 9.75756E-02-2.08362E-04
 -1      2108 2.75468E-04 9.75756E-02 2.08362E-04
 -1      2109-1.35412E-03 7.80657E-02-1.29500E-04
 -1      2111 1.35412E-03 7.80657E-02 1.29500E-04
 -1      2112-2.18549E-03 3.59333E-02 8.84369E-05
 -1      2114 2.18549E-03 3.59333E-02-8.84369E-05
 -1      2115-2.69766E-03-2.19720E-02 3.70558E-04
 -1      2117 2.69766E-03-2.19720E-02-3.70558E-04
 -1      2118-2.70680E-03-8.57912E-02 6.15393E-04
 -1      2120 2.70680E-03-8.57912E-02-6.15393E-04
 -1      2121-6.78321E-03-1.67693E-02 2.14397E-03
 -1      2123-6.29434E-03-1.68063E-02 1.91255E-03
 -1      2124-1.00638E-02-4.64789E-02 4.41644E-03
 -1      2126-9.90519E-03-4.64932E-02 4.37948E-03
 -1      2127-8.07688E-03-7.46203E-02 5.38926E-03
 -1      2129-7.97342E-03-7.44014E-02 5.52891E-03
 -1      2130-3.13249E-03-9.28964E-02 5.18057E-03
 -1      2132-3.28987E-03-9.22207E-02 5.39669E-03
 -1      2133 3.62819E-03-9.45142E-02 3.32335E-03
 -1      2135 3.27625E-03-9.31185E-02 3.58599E-03
 -1      2136 1.01711E-02-7.80626E-02 2.41634E-05
 -1      2138 9.61787E-03-7.57294E-02 2.42534E-04
 -1      2139 1.49651E-02-4.61099E-02-4.42728E-03
 -1      2141 1.42958E-02-4.26885E-02-4.30042E-03
 -1      2142 1.67688E-02-5.14677E-03-9.41786E-03
 -1      2144 1.60686E-02-5.89951E-04-9.41268E-03
 -1      2145 1.51300E-02 3.62907E-02-1.42364E-02
 -1      2147 1.45061E-02 4.19084E-02-1.43668E-02
 -1      2148 1.03186E-02 6.93690E-02-1.81754E-02
 -1      2150 9.86202E-03 7.58599E-02-1.84022E-02
 -1      2151 3.34402E-03 8.70129E-02-2.06468E-02
 -1      2153 3.12102E-03 9.40903E-02-2.09376E-02
 -1      2154-4.32631E-03 8.54145E-02-2.13351E-02
 -1      2156-4.29075E-03 9.27371E-02-2.16124E-02
 -1      2157-1.10490E-02 6.49128E-02-2.02002E-02
 -1      2159-1.07734E-02 7.21226E-02-2.04198E-02
 -1      2160-1.53906E-02 2.99168E-02-1.75357E-02
 -1      2162-1.49327E-02 3.66914E-02-1.76362E-02
 -1      2163-1.64158E-02-1.20162E-02-1.38465E-02
 -1      2165-1.58604E-02-5.93232E-03-1.38193E-02
 -1      2166-1.39091E-02-5.18129E-02-9.79532E-03
 -1      2168-1.33499E-02-4.65797E-02-9.63437E-03
 -1      2169-8.40803E-03-8.08268E-02-6.01736E-03
 -1      2171-7.92897E-03-7.65084E-02-5.76779E-03
 -1      2172-1.10179E-03-9.27106E-02-3.03802E-03
 -1      2174-7.60473E-04-8.92825E-02-2.74453E-03
 -1      2175 6.43232E-03-8.47866E-02-1.13496E-03
 -1      2177 6.61475E-03-8.21662E-02-8.69346E-04
 -1      2178 1.25569E-02-5.86439E-02-3.29553E-04
 -1      2180 1.25978E-02-5.67182E-02-1.42892E-04
 -1      2181 1.59290E-02-1.98192E-02-3.71613E-04
 -1      2183 1.58777E-02-1.84819E-02-3.11982E-04
 -1      2184 1.57792E-02 2.33607E-02-8.39364E-04
 -1      2186 1.57037E-02 2.41912E-02-9.16965E-04
 -1      2187 1.20704E-02 6.15177E-02-1.22998E-03
 -1      2189 1.20394E-02 6.18814E-02-1.43659E-03
 -1      2190 5.49528E-03 8.61845E-02-1.10459E-03
 -1      2192 5.56167E-03 8.60917E-02-1.39860E-03
 -1      2193-2.69434E-03 9.15143E-02-1.94648E-04
 -1      2195-2.51055E-03 9.09548E-02-5.23409E-04
 -1      2196-1.09832E-02 7.54316E-02 1.52591E-03
 -1      2198-1.06946E-02 7.44109E-02 1.21928E-03
 -1      2199-1.79534E-02 3.98437E-02 3.78947E-03
 -1      2201-1.76209E-02 3.83990E-02 3.55416E-03
 -1      2202-2.26763E-02-1.00303E-02 6.14758E-03
 -1      2204-2.23618E-02-1.18016E-02 6.00050E-03
 -1      2205-2.50080E-02-6.72190E-02 7.91519E-03
 -1      2207-2.48398E-02-6.91768E-02 7.84254E-03
 -1      2208 6.78321E-03-1.67693E-02-2.14397E-03
 -1      2210 6.29434E-03-1.68063E-02-1.91255E-03
 -1      2211 1.00638E-02-4.64789E-02-4.41644E-03
 -1      2213 9.90519E-03-4.64932E-02-4.37948E-03
 -1      2214 8.07688E-03-7.46203E-02-5.38926E-03
 -1      2216 7.97342E-03-7.44014E-02-5.52891E-03
 -1      2217 3.13249E-03-9.28964E-02-5.18057E-03
 -1      2219 3.28987E-03-9.22207E-02-5.39669E-03
 -1      2220-3.62819E-03-9.45142E-02-3.32335E-03
 -1      2222-3.27625E-03-9.31185E-02-3.58599E-03
 -1      2223-1.01711E-02-7.80626E-02-2.41634E-05
 -1      2225-9.61787E-03-7.57294E-02-2.42534E-04
 -1      2226-1.49651E-02-4.61099E-02 4.42728E-03
 -1      2228-1.42958E-02-4.26885E-02 4.30042E-03
 -1      2229-1.67688E-02-5.14677E-03 9.41786E-03
 -1      2231-1.60686E-02-5.89951E-04 9.41268E-03
 -1      2232-1.51300E-02 3.62907E-02 1.42364E-02
 -1      2234-1.45061E-02 4.19084E-02 1.43668E-02
 -1      2235-1.03186E-02 6.93690E-02 1.81754E-02
 -1      2237-9.86202E-03 7.58599E-02 1.84022E-02
 -1      2238-3.34402E-03 8.70129E-02 2.06468E-02
 -1      2240-3.12102E-03 9.40903E-02 2.09376E-02
 -1      2241 4.32631E-03 8.54145E-02 2.13351E-02
 -1      2243 4.29075E-03 9.27371E-02 2.16124E-02
 -1      2244 1.10490E-02 6.49128E-02 2.02002E-02
 -1      2246 1.07734E-02 7.21226E-02 2.04198E-02
 -1      2247 1.53906E-02 2.99168E-02 1.75357E-02
 -1      2249 1.49327E-02 3.66914E-02 1.76362E-02
 -1      2250 1.64158E-02-1.20162E-02 1.38465E-02
 -1      2252 1.58604E-02-5.93232E-03 1.38193E-02
 -1      2253 1.39091E-02-5.18129E-02 9.79532E-03
 -1      2255 1.33499E-02-4.65797E-02 9.63437E-03
 -1      2256 8.40803E-03-8.08268E-02 6.01736E-03
 -1      2258 7.92897E-03-7.65084E-02 5.76779E-03
 -1      2259 1.10179E-03-9.27106E-02 3.03802E-03
 -1      2261 7.60473E-04-8.92825E-02 2.74453E-03
 -1      2262-6.43232E-03-8.47866E-02 1.13496E-03
 -1      2264-6.61475E-03-8.21662E-02 8.69346E-04
 -1      2265-1.25569E-02-5.86439E-02 3.29553E-04
 -1      2267-1.25978E-02-5.67182E-02 1.42892E-04
 -1      2268-1.59290E-02-1.98192E-02 3.71613E-04
 -1      2270-1.58777E-02-1.84819E-02 3.11982E-04
 -1      2271-1.57792E-02 2.33607E-02 8.39364E-04
 -1      2273-1.57037E-02 2.41912E-02 9.16965E-04
 -1      2274-1.20704E-02 6.15177E-02 1.22998E-03
 -1      2276-1.20394E-02 6.18814E-02 1.43659E-03
 -1      2277-5.49528E-03 8.61845E-02 1.10459E-03
 -1      2279-5.56167E-03 8.60917E-02 1.39860E-03
 -1      2280 2.69434E-03 9.15143E-02 1.94648E-04
 -1      2282 2.51055E-03 9.09548E-02 5.23409E-04
 -1      2283 1.09832E-02 7.54316E-02-1.52591E-03
 -1      2285 1.06946E-02 7.44109E-02-1.21928E-03
 -1      2286 1.79534E-02 3.98437E-02-3.78947E-03
 -1      2288 1.76209E-02 3.83990E-02-3.55416E-03
 -1      2289 2.26763E-02-1.00303E-02-6.14758E-03
 -1      2291 2.23618E-02-1.18016E-02-6.00050E-03
 -1      2292 2.50080E-02-6.72190E-02-7.91519E-03
 -1      2294 2.48398E-02-6.91768E-02-7.84254E-03
 -3
    1PSTEP                        62           1           1          
    1PGM                1.000000E+00                                  
    1PGK                1.666060E+07                                  
    1PHID                         -1                                  
    1PSUBC                         0                                  
    1PMODE                        16                                  
  100CL  116 649.6290092         930                     2   16MODAL      1
 -4  STRESS      6    1
 -5  SXX         1    4    1    1
 -5  SYY         1    4    2    2
 -5  SZZ         1    4    3    3
 -5  SXY         1    4    1    2
 -5  SYZ         1    4    2    3
 -5  SZX         1    4    3    1
 -1       404 2.51668E+10 2.70379E+09 6.32617E+07-5.33714E+09-1.23634E+07 5.78414E+07
 -1       406 2.51668E+10 2.70379E+09 6.32617E+07-5.33714E+09-1.23634E+07 5.78414E+07
 -1       407 1.64485E+09-4.45628E+06-6.07255E+06-6.72178E+08-2.67033E+06-6.55114E+06
 -1       409 1.64485E+09-4.45628E+06-6.07255E+06-6.72178E+08-2.67033E+06-6.55114E+06
 -1       410 4.36997E-03 1.20628E-03-3.83258E-05-1.68757E+09-3.04953E+07-2.17175E-05
 -1       412 4.36997E-03 1.20628E-03-3.83258E-05-1.68757E+09-3.04953E+07-2.17175E-05
 -1       413 1.72513E-04-4.98765E-04-1.61347E-02 2.29259E+07-1.86359E+08 5.52112E-04
 -1       415 1.72513E-04-4.98765E-04-1.61347E-02 2.29259E+07-1.86359E+08 5.52112E-04
 -1       424-9.00412E-03-4.68612E-04-5.73397E-05-7.43065E+09-1.05719E+07-2.83100E-04
 -1       426-9.00412E-03-4.68612E-04-5.73397E-05-7.43065E+09-1.05719E+07-2.83100E-04
 -1       427-8.54501E-03 6.88302E-06-3.78883E-03-3.25840E+08 1.20020E+07-3.35432E-03
 -1       429-8.54501E-03 6.88302E-06-3.78883E-03-3.25840E+08 1.20020E+07-3.35432E-03
 -1       438-1.64485E+09 4.45628E+06 6.07255E+06-6.72178E+08-2.67033E+06 6.55114E+06
 -1       440-1.64485E+09 4.45628E+06 6.07255E+06-6.72178E+08-2.67033E+06 6.55114E+06
 -1       441-2.51668E+10-2.70379E+09-6.32617E+07-5.33714E+09-1.23634E+07-5.78414E+07
 -1       443-2.51668E+10-2.70379E+09-6.32617E+07-5.33714E+09-1.23634E+07-5.78414E+07
 -1       444 3.46477E-03-2.45196E-06 1.79694E-04-3.25840E+08-1.20020E+07-7.48452E-03
 -1       446 3.46477E-03-2.45196E-06 1.79694E-04-3.25840E+08-1.20020E+07-7.48452E-03
 -1       447 3.22247E-03 5.63145E-04 1.47820E-05-7.43065E+09 1.05719E+07-3.11330E-04
 -1       449 3.22247E-03 5.63145E-04 1.47820E-05-7.43065E+09 1.05719E+07-3.11330E-04
 -1       458-1.51782E-03 4.19233E-04-1.38713E-02 2.29259E+07 1.86359E+08 9.85462E-04
 -1       460-1.51782E-03 4.19233E-04-1.38713E-02 2.29259E+07 1.86359E+08 9.85462E-04
 -1       461-6.47783E-04-2.34422E-03-2.10792E-04-1.68757E+09 3.04953E+07-3.95118E-05
 -1       463-6.47783E-04-2.34422E-03-2.10792E-04-1.68757E+09 3.04953E+07-3.95118E-05
 -1       472-2.51668E+10-2.70379E+09-6.32617E+07-5.33714E+09 1.23634E+07 5.78414E+07
 -1       474-2.51668E+10-2.70379E+09-6.32617E+07-5.33714E+09 1.23634E+07 5.78414E+07
 -1       475-1.64485E+09 4.45628E+06 6.07255E+06-6.72178E+08 2.67033E+06-6.55114E+06
 -1       477-1.64485E+09 4.45628E+06 6.07255E+06-6.72178E+08 2.67033E+06-6.55114E+06
 -1       478 1.64485E+09-4.45628E+06-6.07255E+06-6.72178E+08 2.67033E+06 6.55114E+06
 -1       480 1.64485E+09-4.45628E+06-6.07255E+06-6.72178E+08 2.67033E+06 6.55114E+06
 -1       481 2.51668E+10 2.70379E+09 6.32617E+07-5.33714E+09 1.23634E+07-5.78414E+07
 -1       483 2.51668E+10 2.70379E+09 6.32617E+07-5.33714E+09 1.23634E+07-5.78414E+07
 -1       484 1.67998E+10 7.20158E+08-1.94703E+06-4.40018E+09-1.73845E+07 1.55544E+07
 -1       486 1.67998E+10 7.20158E+08-1.94703E+06-4.40018E+09-1.73845E+07 1.55544E+07
 -1       487 1.30329E+09-3.10413E+08-3.19673E+06-3.42627E+09-2.79566E+07-9.74872E+06
 -1       489 1.30329E+09-3.10413E+08-3.19673E+06-3.42627E+09-2.79566E+07-9.74872E+06
 -1       490-1.11127E+10 1.81624E+08-8.11704E+06-2.65830E+09-3.83155E+07-3.83607E+06
 -1       492-1.11127E+10 1.81624E+08-8.11704E+06-2.65830E+09-3.83155E+07-3.83607E+06
 -1       493-1.90357E+10-4.31292E+07-2.29133E+07-1.28840E+09-4.43011E+07-1.36958E+07
 -1       495-1.90357E+10-4.31292E+07-2.29133E+07-1.28840E+09-4.43011E+07-1.36958E+07
 -1       496-2.14414E+10 6.83356E+07-1.50071E+07 9.61955E+07-4.58425E+07-1.67226E+07
 -1       498-2.14414E+10 6.83356E+07-1.50071E+07 9.61955E+07-4.58425E+07-1.67226E+07
 -1       499-1.83275E+10 7.44983E+06-2.03237E+07 1.41062E+09-4.38629E+07-2.18778E+07
 -1       501-1.83275E+10 7.44983E+06-2.03237E+07 1.41062E+09-4.38629E+07-2.18778E+07
 -1       502-1.06744E+10 2.83261E+07-6.50887E+06 2.33311E+09-3.86286E+07-2.37018E+07
 -1       504-1.06744E+10 2.83261E+07-6.50887E+06 2.33311E+09-3.86286E+07-2.37018E+07
 -1       505-3.48018E+08 2.67950E+06-3.20023E+06 2.72167E+09-3.18332E+07-2.37326E+07
 -1       507-3.48018E+08 2.67950E+06-3.20023E+06 2.72167E+09-3.18332E+07-2.37326E+07
 -1       508 1.02919E+10 9.17800E+05 1.05965E+07 2.49034E+09-2.46857E+07-2.08122E+07
 -1       510 1.02919E+10 9.17800E+05 1.05965E+07 2.49034E+09-2.46857E+07-2.08122E+07
 -1       511 1.88604E+10-1.22056E+07 1.43330E+07 1.70741E+09-1.88678E+07-1.56467E+07
 -1       513 1.88604E+10-1.22056E+07 1.43330E+07 1.70741E+09-1.88678E+07-1.56467E+07
 -1       514 2.34530E+10-1.44006E+07 2.12690E+07 5.42955E+08-1.54064E+07-8.70384E+06
 -1       516 2.34530E+10-1.44006E+07 2.12690E+07 5.42955E+08-1.54064E+07-8.70384E+06
 -1       517 2.30395E+10-1.68673E+07 1.85805E+07-7.45632E+08-1.50417E+07-1.00145E+06
 -1       519 2.30395E+10-1.68673E+07 1.85805E+07-7.45632E+08-1.50417E+07-1.00145E+06
 -1       520 1.76825E+10-1.23001E+07 1.59607E+07-1.87960E+09-1.76478E+07 6.44477E+06
 -1       522 1.76825E+10-1.23001E+07 1.59607E+07-1.87960E+09-1.76478E+07 6.44477E+06
 -1       523 8.51717E+09-6.19726E+06 6.58041E+06-2.61203E+09-2.26245E+07 1.26830E+07
 -1       525 8.51717E+09-6.19726E+06 6.58041E+06-2.61203E+09-2.26245E+07 1.26830E+07
 -1       526-2.49306E+09 3.09806E+06-1.54500E+06-2.78401E+09-2.87068E+07 1.70221E+07
 -1       528-2.49306E+09 3.09806E+06-1.54500E+06-2.78401E+09-2.87068E+07 1.70221E+07
 -1       529-1.29816E+10 1.15880E+07-1.15564E+07-2.35664E+09-3.45484E+07 1.91620E+07
 -1       531-1.29816E+10 1.15880E+07-1.15564E+07-2.35664E+09-3.45484E+07 1.91620E+07
 -1       532-2.06866E+10 1.90736E+07-1.73204E+07-1.42024E+09-3.86998E+07 1.92031E+07
 -1       534-2.06866E+10 1.90736E+07-1.73204E+07-1.42024E+09-3.86998E+07 1.92031E+07
 -1       535-2.39379E+10 2.31438E+07-2.08230E+07-1.74189E+08-4.02423E+07 1.76155E+07
 -1       537-2.39379E+10 2.31438E+07-2.08230E+07-1.74189E+08-4.02423E+07 1.76155E+07
 -1       538-2.20141E+10 2.38389E+07-1.87028E+07 1.11598E+09-3.86392E+07 1.51051E+07
 -1       540-2.20141E+10 2.38389E+07-1.87028E+07 1.11598E+09-3.86392E+07 1.51051E+07
 -1       541-1.52956E+10 2.10120E+07-1.34705E+07 2.17587E+09-3.42191E+07 1.24431E+07
 -1       543-1.52956E+10 2.10120E+07-1.34705E+07 2.17587E+09-3.42191E+07 1.24431E+07
 -1       544-5.17941E+09 1.55385E+07-4.62524E+06 2.78219E+09-2.76858E+07 1.02935E+07
 -1       546-5.17941E+09 1.55385E+07-4.62524E+06 2.78219E+09-2.76858E+07 1.02935E+07
 -1       547 6.22854E+09 9.32172E+06 4.73985E+06 2.81060E+09-2.04119E+07 9.07897E+06
 -1       549 6.22854E+09 9.32172E+06 4.73985E+06 2.81060E+09-2.04119E+07 9.07897E+06
 -1       550 1.65744E+10 2.93632E+06 1.35490E+07 2.26474E+09-1.35965E+07 8.82541E+06
 -1       552 1.65744E+10 2.93632E+06 1.35490E+07 2.26474E+09-1.35965E+07 8.82541E+06
 -1       553 2.37807E+10 2.32826E+04 1.92901E+07 1.27646E+09-8.55738E+06 9.39729E+06
 -1       555 2.37807E+10 2.32826E+04 1.92901E+07 1.27646E+09-8.55738E+06 9.39729E+06
 -1       556 2.65125E+10-3.38683E+06 2.14097E+07 7.86854E+07-5.71326E+06 9.96524E+06
 -1       558 2.65125E+10-3.38683E+06 2.14097E+07 7.86854E+07-5.71326E+06 9.96524E+06
 -1       559 2.45091E+10 3.30458E+06 1.88477E+07-1.03384E+09-5.10023E+06 1.06256E+07
 -1       561 2.45091E+10 3.30458E+06 1.88477E+07-1.03384E+09-5.10023E+06 1.06256E+07
 -1       562 1.86878E+10-1.91884E+06 1.35271E+07-1.77603E+09-5.59021E+06 9.21929E+06
 -1       564 1.86878E+10-1.91884E+06 1.35271E+07-1.77603E+09-5.59021E+06 9.21929E+06
 -1       565 1.10410E+10 1.36348E+07 4.99194E+06-1.91324E+09-5.45652E+06 8.98566E+06
 -1       567 1.10410E+10 1.36348E+07 4.99194E+06-1.91324E+09-5.45652E+06 8.98566E+06
 -1       568 4.35893E+09 2.11684E+07-2.06424E+06-1.23808E+09-3.99793E+06 2.07666E+06
 -1       570 4.35893E+09 2.11684E+07-2.06424E+06-1.23808E+09-3.99793E+06 2.07666E+06
 -1       571 1.23283E+09 2.39403E+08-1.77971E+05-1.17987E+09-1.65828E+07-4.47738E+06
 -1       573 1.23283E+09 2.39403E+08-1.77971E+05-1.17987E+09-1.65828E+07-4.47738E+06
 -1       574-8.85570E-03 1.93894E-04-5.69224E-05-8.46254E+09-2.00605E+07-2.31555E-05
 -1       576-8.85570E-03 1.93894E-04-5.69224E-05-8.46254E+09-2.00605E+07-2.31555E-05
 -1       577-8.22996E-03-1.49018E-04-5.05099E-03-6.25313E+07-7.92347E+07-3.46958E-03
 -1       579-8.22996E-03-1.49018E-04-5.05099E-03-6.25313E+07-7.92347E+07-3.46958E-03
 -1       588-6.33502E-03 4.94838E-04-1.56373E-04-7.99787E+09-4.88959E+07 3.58503E-05
 -1       590-6.33502E-03 4.94838E-04-1.56373E-04-7.99787E+09-4.88959E+07 3.58503E-05
 -1       591-5.91209E-03-4.96295E-04-5.14582E-03 5.22542E+07-2.33936E+08-3.78417E-03
 -1       593-5.91209E-03-4.96295E-04-5.14582E-03 5.22542E+07-2.33936E+08-3.78417E-03
 -1       602-1.28055E-03 4.05163E-05-4.14848E-05-5.56143E+09-8.00310E+07-5.03263E-05
 -1       604-1.28055E-03 4.05163E-05-4.14848E-05-5.56143E+09-8.00310E+07-5.03263E-05
 -1       605-1.28198E-03-5.85941E-04 1.06004E-04-1.76153E+07-3.34062E+08-3.69685E-03
 -1       607-1.28198E-03-5.85941E-04 1.06004E-04-1.76153E+07-3.34062E+08-3.69685E-03
 -1       616 1.41549E-03 1.41621E-04 1.24961E-04-2.92219E+09-1.02012E+08-2.96775E-05
 -1       618 1.41549E-03 1.41621E-04 1.24961E-04-2.92219E+09-1.02012E+08-2.96775E-05
 -1       619 1.46319E-03-3.20016E-04 6.48510E-03 1.03042E+07-4.06215E+08-1.62429E-03
 -1       621 1.46319E-03-3.20016E-04 6.48510E-03 1.03042E+07-4.06215E+08-1.62429E-03
 -1       630-1.99556E-04 6.12378E-04 3.54648E-05 2.41410E+08-1.17574E+08-8.96365E-05
 -1       632-1.99556E-04 6.12378E-04 3.54648E-05 2.41410E+08-1.17574E+08-8.96365E-05
 -1       633-1.39486E-04-3.61227E-06 7.12185E-03-1.67028E+07-4.29664E+08 2.43540E-03
 -1       635-1.39486E-04-3.61227E-06 7.12185E-03-1.67028E+07-4.29664E+08 2.43540E-03
 -1       644-2.91657E-03 2.75880E-04-5.72205E-06 3.01832E+09-1.21150E+08-1.35209E-04
 -1       646-2.91657E-03 2.75880E-04-5.72205E-06 3.01832E+09-1.21150E+08-1.35209E-04
 -1       647-3.30189E-03 1.29597E-04 1.48013E-03-1.16962E+07-3.96453E+08 5.51220E-03
 -1       649-3.30189E-03 1.29597E-04 1.48013E-03-1.16962E+07-3.96453E+08 5.51220E-03
 -1       658-2.96515E-03-6.98879E-04 6.01411E-05 5.05679E+09-1.15540E+08-1.87330E-04
 -1       660-2.96515E-03-6.98879E-04 6.01411E-05 5.05679E+09-1.15540E+08-1.87330E-04
 -1       661-4.16117E-03 1.12987E-05-4.71417E-03-2.23087E+07-3.21611E+08 5.53183E-03
 -1       663-4.16117E-03 1.12987E-05-4.71417E-03-2.23087E+07-3.21611E+08 5.53183E-03
 -1       672 6.87242E-05-1.41518E-03 5.90980E-05 5.88144E+09-1.03426E+08-2.29294E-04
 -1       674 6.87242E-05-1.41518E-03 5.90980E-05 5.88144E+09-1.03426E+08-2.29294E-04
 -1       675-1.68965E-03-1.92834E-04-5.30152E-03-1.97176E+07-2.16475E+08 4.11522E-03
 -1       677-1.68965E-03-1.92834E-04-5.30152E-03-1.97176E+07-2.16475E+08 4.11522E-03
 -1       686 2.79236E-03-1.82927E-03 1.31726E-05 5.39240E+09-8.93840E+07-2.61520E-04
 -1       688 2.79236E-03-1.82927E-03 1.31726E-05 5.39240E+09-8.93840E+07-2.61520E-04
 -1       689 6.33693E-04-9.99351E-05-2.36569E-03-1.99256E+07-1.10690E+08 5.75949E-03
 -1       691 6.33693E-04-9.99351E-05-2.36569E-03-1.99256E+07-1.10690E+08 5.75949E-03
 -1       700 2.50578E-03-8.28683E-04 1.03801E-04 3.69279E+09-7.87625E+07-2.17839E-04
 -1       702 2.50578E-03-8.28683E-04 1.03801E-04 3.69279E+09-7.87625E+07-2.17839E-04
 -1       703-1.07861E-03-1.96591E-04-3.92876E-03-1.37161E+07-2.44477E+07 1.01445E-02
 -1       705-1.07861E-03-1.96591E-04-3.92876E-03-1.37161E+07-2.44477E+07 1.01445E-02
 -1       714-1.06812E-04 1.02067E-03 5.07832E-05 1.17516E+09-7.49068E+07-2.63726E-04
 -1       716-1.06812E-04 1.02067E-03 5.07832E-05 1.17516E+09-7.49068E+07-2.63726E-04
 -1       717-4.84957E-03 5.70520E-05-1.06588E-02-7.61984E+06 1.91096E+07 1.10691E-02
 -1       719-4.84957E-03 5.70520E-05-1.06588E-02-7.61984E+06 1.91096E+07 1.10691E-02
 -1       728-2.75517E-03 1.14262E-03 5.53131E-05-1.61606E+09-8.03932E+07-2.66336E-04
 -1       730-2.75517E-03 1.14262E-03 5.53131E-05-1.61606E+09-8.03932E+07-2.66336E-04
 -1       731-7.34649E-03 2.84003E-04-1.68867E-02 5.24968E+05 1.21382E+07 8.22591E-03
 -1       733-7.34649E-03 2.84003E-04-1.68867E-02 5.24968E+05 1.21382E+07 8.22591E-03
 -1       742-4.42624E-03-6.28829E-05 1.36703E-04-4.07010E+09-9.41666E+07-2.31413E-04
 -1       744-4.42624E-03-6.28829E-05 1.36703E-04-4.07010E+09-9.41666E+07-2.31413E-04
 -1       745-9.25601E-03 1.31058E-04-1.95282E-02 7.25630E+06-4.60873E+07 4.58004E-03
 -1       747-9.25601E-03 1.31058E-04-1.95282E-02 7.25630E+06-4.60873E+07 4.58004E-03
 -1       756-4.42383E-03 2.10822E-04 2.61948E-04-5.65615E+09-1.13843E+08-1.98224E-04
 -1       758-4.42383E-03 2.10822E-04 2.61948E-04-5.65615E+09-1.13843E+08-1.98224E-04
 -1       759-1.06310E-02-2.14416E-05-1.98468E-02 1.26648E+07-1.41340E+08 6.15391E-04
 -1       761-1.06310E-02-2.14416E-05-1.98468E-02 1.26648E+07-1.41340E+08 6.15391E-04
 -1       770-3.04461E-03 2.02774E-03 1.59845E-04-6.02792E+09-1.34247E+08-1.09428E-04
 -1       772-3.04461E-03 2.02774E-03 1.59845E-04-6.02792E+09-1.34247E+08-1.09428E-04
 -1       773-9.83178E-03-1.61022E-04-2.02563E-02 1.50905E+07-2.53251E+08-2.64959E-03
 -1       775-9.83178E-03-1.61022E-04-2.02563E-02 1.50905E+07-2.53251E+08-2.64959E-03
 -1       784-3.62158E-03 3.45588E-03 2.00897E-04-5.10235E+09-1.50282E+08-1.11740E-04
 -1       786-3.62158E-03 3.45588E-03 2.00897E-04-5.10235E+09-1.50282E+08-1.11740E-04
 -1       787-9.04054E-03-2.63170E-04-2.09800E-02 1.48218E+07-3.55217E+08-4.40664E-03
 -1       789-9.04054E-03-2.63170E-04-2.09800E-02 1.48218E+07-3.55217E+08-4.40664E-03
 -1       798-6.40106E-03 2.61652E-03 1.82629E-04-3.07432E+09-1.56502E+08-6.64480E-05
 -1       800-6.40106E-03 2.61652E-03 1.82629E-04-3.07432E+09-1.56502E+08-6.64480E-05
 -1       801-9.90950E-03-4.45989E-04-2.03319E-02 1.18287E+07-4.23703E+08-5.02563E-03
 -1       803-9.90950E-03-4.45989E-04-2.03319E-02 1.18287E+07-4.23703E+08-5.02563E-03
 -1       812-5.68771E-03 5.06639E-06 4.12464E-05-3.75823E+08-1.49776E+08-6.52941E-05
 -1       814-5.68771E-03 5.06639E-06 4.12464E-05-3.75823E+08-1.49776E+08-6.52941E-05
 -1       815-8.70223E-03-2.54327E-04-1.73254E-02 7.20513E+06-4.40494E+08-4.81385E-03
 -1       817-8.70223E-03-2.54327E-04-1.73254E-02 7.20513E+06-4.40494E+08-4.81385E-03
 -1       826-3.14951E-04-2.21586E-03 6.85453E-05 2.41824E+09-1.28720E+08-1.05621E-05
 -1       828-3.14951E-04-2.21586E-03 6.85453E-05 2.41824E+09-1.28720E+08-1.05621E-05
 -1       829-4.11605E-03-2.34342E-04-1.45397E-02 1.97273E+06-3.99236E+08-3.41319E-03
 -1       831-4.11605E-03-2.34342E-04-1.45397E-02 1.97273E+06-3.99236E+08-3.41319E-03
 -1       840 5.36752E-03-2.75674E-03 5.61774E-05 4.71419E+09-9.54319E+07 4.75179E-05
 -1       842 5.36752E-03-2.75674E-03 5.61774E-05 4.71419E+09-9.54319E+07 4.75179E-05
 -1       843 1.04591E-03 1.39173E-04-1.34439E-02-2.59654E+06-3.04646E+08-3.11295E-03
 -1       845 1.04591E-03 1.39173E-04-1.34439E-02-2.59654E+06-3.04646E+08-3.11295E-03
 -1       854 9.30960E-03-1.76886E-03 4.35561E-05 6.02774E+09-5.38184E+07-6.35041E-05
 -1       856 9.30960E-03-1.76886E-03 4.35561E-05 6.02774E+09-5.38184E+07-6.35041E-05
 -1       857 4.60212E-03 1.28153E-05-1.22533E-02-5.39949E+06-1.73993E+08-4.36898E-03
 -1       859 4.60212E-03 1.28153E-05-1.22533E-02-5.39949E+06-1.73993E+08-4.36898E-03
 -1       868 1.13889E-02-4.61727E-04 5.55068E-05 6.09141E+09-1.03747E+07-4.48795E-05
 -1       870 1.13889E-02-4.61727E-04 5.55068E-05 6.09141E+09-1.03747E+07-4.48795E-05
 -1       871 6.20912E-03 1.02036E-05-1.20426E-02-6.20058E+06-3.10741E+07-3.77585E-03
 -1       873 6.20912E-03 1.02036E-05-1.20426E-02-6.20058E+06-3.10741E+07-3.77585E-03
 -1       882 1.24862E-02 8.41051E-04 1.38581E-04 4.91127E+09 2.86834E+07-3.18429E-05
 -1       884 1.24862E-02 8.41051E-04 1.38581E-04 4.91127E+09 2.86834E+07-3.18429E-05
 -1       885 6.24169E-03-3.47297E-04-1.57926E-02-4.22589E+06 9.58050E+07-2.19897E-03
 -1       887 6.24169E-03-3.47297E-04-1.57926E-02-4.22589E+06 9.58050E+07-2.19897E-03
 -1       896 1.17486E-02 1.73223E-03 5.78761E-05 2.77526E+09 5.67214E+07-9.40440E-05
 -1       898 1.17486E-02 1.73223E-03 5.78761E-05 2.77526E+09 5.67214E+07-9.40440E-05
 -1       899 4.78914E-03-3.42988E-04-1.99212E-02-1.60658E+06 1.83195E+08-1.20693E-03
 -1       901 4.78914E-03-3.42988E-04-1.99212E-02-1.60658E+06 1.83195E+08-1.20693E-03
 -1       910 9.18937E-03 1.23692E-03 6.27637E-05 1.88124E+08 7.00876E+07-8.65189E-05
 -1       912 9.18937E-03 1.23692E-03 6.27637E-05 1.88124E+08 7.00876E+07-8.65189E-05
 -1       913 2.47688E-03 2.52534E-04-2.13749E-02 3.54395E+06 2.13233E+08-1.08341E-04
 -1       915 2.47688E-03 2.52534E-04-2.13749E-02 3.54395E+06 2.13233E+08-1.08341E-04
 -1       924 7.64632E-03-4.08828E-04 2.97427E-05-2.21378E+09 6.62502E+07-5.39080E-05
 -1       926 7.64632E-03-4.08828E-04 2.97427E-05-2.21378E+09 6.62502E+07-5.39080E-05
 -1       927 1.24241E-03 2.85826E-04-2.23609E-02 4.77359E+06 1.82251E+08 8.91054E-04
 -1       929 1.24241E-03 2.85826E-04-2.23609E-02 4.77359E+06 1.82251E+08 8.91054E-04
 -1       938 7.71856E-03-5.12898E-04-2.99811E-05-3.81084E+09 4.72001E+07-4.71479E-05
 -1       940 7.71856E-03-5.12898E-04-2.99811E-05-3.81084E+09 4.72001E+07-4.71479E-05
 -1       941 8.83848E-04 2.50821E-04-2.33819E-02 9.44887E+06 9.70776E+07 1.68612E-03
 -1       943 8.83848E-04 2.50821E-04-2.33819E-02 9.44887E+06 9.70776E+07 1.68612E-03
 -1       952 8.15487E-03 1.40378E-03 1.76817E-04-4.05161E+09 1.61608E+07-1.89852E-05
 -1       954 8.15487E-03 1.40378E-03 1.76817E-04-4.05161E+09 1.61608E+07-1.89852E-05
 -1       955 6.68808E-04-3.94083E-04-2.23633E-02 2.65158E+06-2.15943E+07 1.68484E-03
 -1       957 6.68808E-04-3.94083E-04-2.23633E-02 2.65158E+06-2.15943E+07 1.68484E-03
 -1       966 6.33842E-03 1.85935E-03 1.89662E-04-2.72552E+09-1.67683E+07-1.19096E-05
 -1       968 6.33842E-03 1.85935E-03 1.89662E-04-2.72552E+09-1.67683E+07-1.19096E-05
 -1       969 4.67143E-04-5.67306E-04-1.85230E-02 5.39734E+06-1.35181E+08 9.32552E-04
 -1       971 4.67143E-04-5.67306E-04-1.85230E-02 5.39734E+06-1.35181E+08 9.32552E-04
 -1       980 1.60951E+10 1.64383E+09 2.63639E+06-6.38389E+09-1.14677E+07 7.28632E+07
 -1       982 1.60951E+10 1.64383E+09 2.63639E+06-6.38389E+09-1.14677E+07 7.28632E+07
 -1       983-1.23283E+09-2.39403E+08 1.77971E+05-1.17987E+09-1.65828E+07 4.47738E+06
 -1       985-1.23283E+09-2.39403E+08 1.77971E+05-1.17987E+09-1.65828E+07 4.47738E+06
 -1       986-1.67998E+10-7.20158E+08 1.94703E+06-4.40018E+09-1.73845E+07-1.55544E+07
 -1       988-1.67998E+10-7.20158E+08 1.94703E+06-4.40018E+09-1.73845E+07-1.55544E+07
 -1       989-1.30329E+09 3.10413E+08 3.19673E+06-3.42627E+09-2.79566E+07 9.74872E+06
 -1       991-1.30329E+09 3.10413E+08 3.19673E+06-3.42627E+09-2.79566E+07 9.74872E+06
 -1       992 1.11127E+10-1.81624E+08 8.11704E+06-2.65830E+09-3.83155E+07 3.83607E+06
 -1       994 1.11127E+10-1.81624E+08 8.11704E+06-2.65830E+09-3.83155E+07 3.83607E+06
 -1       995 1.90357E+10 4.31292E+07 2.29133E+07-1.28840E+09-4.43011E+07 1.36958E+07
 -1       997 1.90357E+10 4.31292E+07 2.29133E+07-1.28840E+09-4.43011E+07 1.36958E+07
 -1       998 2.14414E+10-6.83356E+07 1.50071E+07 9.61955E+07-4.58425E+07 1.67226E+07
 -1      1000 2.14414E+10-6.83356E+07 1.50071E+07 9.61955E+07-4.58425E+07 1.67226E+07
 -1      1001 1.83275E+10-7.44983E+06 2.03237E+07 1.41062E+09-4.38629E+07 2.18778E+07
 -1      1003 1.83275E+10-7.44983E+06 2.03237E+07 1.41062E+09-4.38629E+07 2.18778E+07
 -1      1004 1.06744E+10-2.83261E+07 6.50887E+06 2.33311E+09-3.86286E+07 2.37018E+07
 -1      1006 1.06744E+10-2.83261E+07 6.50887E+06 2.33311E+09-3.86286E+07 2.37018E+07
 -1      1007 3.48018E+08-2.67950E+06 3.20023E+06 2.72167E+09-3.18332E+07 2.37326E+07
 -1      1009 3.48018E+08-2.67950E+06 3.20023E+06 2.72167E+09-3.18332E+07 2.37326E+07
 -1      1010-1.02919E+10-9.17800E+05-1.05965E+07 2.49034E+09-2.46857E+07 2.08122E+07
 -1      1012-1.02919E+10-9.17800E+05-1.05965E+07 2.49034E+09-2.46857E+07 2.08122E+07
 -1      1013-1.88604E+10 1.22056E+07-1.43330E+07 1.70741E+09-1.88678E+07 1.56467E+07
 -1      1015-1.88604E+10 1.22056E+07-1.43330E+07 1.70741E+09-1.88678E+07 1.56467E+07
 -1      1016-2.34530E+10 1.44006E+07-2.12690E+07 5.42955E+08-1.54064E+07 8.70384E+06
 -1      1018-2.34530E+10 1.44006E+07-2.12690E+07 5.42955E+08-1.54064E+07 8.70384E+06
 -1      1019-2.30395E+10 1.68673E+07-1.85805E+07-7.45632E+08-1.50417E+07 1.00145E+06
 -1      1021-2.30395E+10 1.68673E+07-1.85805E+07-7.45632E+08-1.50417E+07 1.00145E+06
 -1      1022-1.76825E+10 1.23001E+07-1.59607E+07-1.87960E+09-1.76478E+07-6.44477E+06
 -1      1024-1.76825E+10 1.23001E+07-1.59607E+07-1.87960E+09-1.76478E+07-6.44477E+06
 -1      1025-8.51717E+09 6.19726E+06-6.58041E+06-2.61203E+09-2.26245E+07-1.26830E+07
 -1      1027-8.51717E+09 6.19726E+06-6.58041E+06-2.61203E+09-2.26245E+07-1.26830E+07
 -1      1028 2.49306E+09-3.09806E+06 1.54500E+06-2.78401E+09-2.87068E+07-1.70221E+07
 -1      1030 2.49306E+09-3.09806E+06 1.54500E+06-2.78401E+09-2.87068E+07-1.70221E+07
 -1      1031 1.29816E+10-1.15880E+07 1.15564E+07-2.35664E+09-3.45484E+07-1.91620E+07
 -1      1033 1.29816E+10-1.15880E+07 1.15564E+07-2.35664E+09-3.45484E+07-1.91620E+07
 -1      1034 2.06866E+10-1.90736E+07 1.73204E+07-1.42024E+09-3.86998E+07-1.92031E+07
 -1      1036 2.06866E+10-1.90736E+07 1.73204E+07-1.42024E+09-3.86998E+07-1.92031E+07
 -1      1037 2.39379E+10-2.31438E+07 2.08230E+07-1.74189E+08-4.02423E+07-1.76155E+07
 -1      1039 2.39379E+10-2.31438E+07 2.08230E+07-1.74189E+08-4.02423E+07-1.76155E+07
 -1      1040 2.20141E+10-2.38389E+07 1.87028E+07 1.11598E+09-3.86392E+07-1.51051E+07
 -1      1042 2.20141E+10-2.38389E+07 1.87028E+07 1.11598E+09-3.86392E+07-1.51051E+07
 -1      1043 1.52956E+10-2.10120E+07 1.34705E+07 2.17587E+09-3.42191E+07-1.24431E+07
 -1      1045 1.52956E+10-2.10120E+07 1.34705E+07 2.17587E+09-3.42191E+07-1.24431E+07
 -1      1046 5.17941E+09-1.55385E+07 4.62524E+06 2.78219E+09-2.76858E+07-1.02935E+07
 -1      1048 5.17941E+09-1.55385E+07 4.62524E+06 2.78219E+09-2.76858E+07-1.02935E+07
 -1      1049-6.22854E+09-9.32172E+06-4.73985E+06 2.81060E+09-2.04119E+07-9.07897E+06
 -1      1051-6.22854E+09-9.32172E+06-4.73985E+06 2.81060E+09-2.04119E+07-9.07897E+06
 -1      1052-1.65744E+10-2.93632E+06-1.35490E+07 2.26474E+09-1.35965E+07-8.82541E+06
 -1      1054-1.65744E+10-2.93632E+06-1.35490E+07 2.26474E+09-1.35965E+07-8.82541E+06
 -1      1055-2.37807E+10-2.32826E+04-1.92901E+07 1.27646E+09-8.55738E+06-9.39729E+06
 -1      1057-2.37807E+10-2.32826E+04-1.92901E+07 1.27646E+09-8.55738E+06-9.39729E+06
 -1      1058-2.65125E+10 3.38683E+06-2.14097E+07 7.86854E+07-5.71326E+06-9.96524E+06
 -1      1060-2.65125E+10 3.38683E+06-2.14097E+07 7.86854E+07-5.71326E+06-9.96524E+06
 -1      1061-2.45091E+10-3.30458E+06-1.88477E+07-1.03384E+09-5.10023E+06-1.06256E+07
 -1      1063-2.45091E+10-3.30458E+06-1.88477E+07-1.03384E+09-5.10023E+06-1.06256E+07
 -1      1064-1.86878E+10 1.91884E+06-1.35271E+07-1.77603E+09-5.59021E+06-9.21929E+06
 -1      1066-1.86878E+10 1.91884E+06-1.35271E+07-1.77603E+09-5.59021E+06-9.21929E+06
 -1      1067-1.10410E+10-1.36348E+07-4.99194E+06-1.91324E+09-5.45652E+06-8.98566E+06
 -1      1069-1.10410E+10-1.36348E+07-4.99194E+06-1.91324E+09-5.45652E+06-8.98566E+06
 -1      1070-4.35893E+09-2.11684E+07 2.06424E+06-1.23808E+09-3.99793E+06-2.07666E+06
 -1      1072-4.35893E+09-2.11684E+07 2.06424E+06-1.23808E+09-3.99793E+06-2.07666E+06
 -1      1073-1.60951E+10-1.64383E+09-2.63639E+06-6.38389E+09-1.14677E+07-7.28632E+07
 -1      1075-1.60951E+10-1.64383E+09-2.63639E+06-6.38389E+09-1.14677E+07-7.28632E+07
 -1      1076-7.30116E-03 2.25756E-05-3.97006E-03-6.23339E+08 5.57321E+06-4.09923E-03
 -1      1078-7.30116E-03 2.25756E-05-3.97006E-03-6.23339E+08 5.57321E+06-4.09923E-03
 -1      1079-3.74320E-03 5.51780E-05-3.22271E-03-9.20838E+08 9.44357E-05-5.31686E-03
 -1      1081-3.74320E-03 5.51780E-05-3.22271E-03-9.20838E+08 9.44357E-05-5.31686E-03
 -1      1082 1.01785E-03 3.48179E-05-1.05722E-03-6.23339E+08-5.57321E+06-6.63705E-03
 -1      1084 1.01785E-03 3.48179E-05-1.05722E-03-6.23339E+08-5.57321E+06-6.63705E-03
 -1      1085 8.40534E-04 1.66734E-05-9.79245E-04-6.25313E+07 7.92347E+07-6.65365E-03
 -1      1087 8.40534E-04 1.66734E-05-9.79245E-04-6.25313E+07 7.92347E+07-6.65365E-03
 -1      1088 7.53641E-04-1.94281E-04 7.62939E-06-8.46254E+09 2.00605E+07 1.44318E-05
 -1      1090 7.53641E-04-1.94281E-04 7.62939E-06-8.46254E+09 2.00605E+07 1.44318E-05
 -1      1099-3.18264E-03 2.97397E-04-1.57699E-03 5.22542E+07 2.33936E+08-3.54719E-03
 -1      1101-3.18264E-03 2.97397E-04-1.57699E-03 5.22542E+07 2.33936E+08-3.54719E-03
 -1      1102-2.39968E-03-7.41184E-04-3.20375E-05-7.99787E+09 4.88959E+07 2.23024E-04
 -1      1104-2.39968E-03-7.41184E-04-3.20375E-05-7.99787E+09 4.88959E+07 2.23024E-04
 -1      1113-4.17048E-03 5.69486E-04-1.48484E-04-1.76153E+07 3.34062E+08-1.22244E-03
 -1      1115-4.17048E-03 5.69486E-04-1.48484E-04-1.76153E+07 3.34062E+08-1.22244E-03
 -1      1116-2.68722E-03 6.28144E-04 4.99785E-05-5.56143E+09 8.00310E+07 1.20287E-04
 -1      1118-2.68722E-03 6.28144E-04 4.99785E-05-5.56143E+09 8.00310E+07 1.20287E-04
 -1      1127-3.57863E-03 5.85056E-05 1.44218E-03 1.03042E+07 4.06215E+08-4.24628E-04
 -1      1129-3.57863E-03 5.85056E-05 1.44218E-03 1.03042E+07 4.06215E+08-4.24628E-04
 -1      1130-2.74587E-03 1.19907E-03 7.87377E-05-2.92219E+09 1.02012E+08 1.07921E-04
 -1      1132-2.74587E-03 1.19907E-03 7.87377E-05-2.92219E+09 1.02012E+08 1.07921E-04
 -1      1141-3.10345E-03 9.49611E-05 4.04171E-03-1.67028E+07 4.29664E+08 1.45281E-03
 -1      1143-3.10345E-03 9.49611E-05 4.04171E-03-1.67028E+07 4.29664E+08 1.45281E-03
 -1      1144-3.82924E-03-2.26378E-04-1.01745E-04 2.41410E+08 1.17574E+08 1.35208E-04
 -1      1146-3.82924E-03-2.26378E-04-1.01745E-04 2.41410E+08 1.17574E+08 1.35208E-04
 -1      1155-3.59251E-03 3.63696E-04 5.27113E-03-1.16962E+07 3.96453E+08 1.60746E-03
 -1      1157-3.59251E-03 3.63696E-04 5.27113E-03-1.16962E+07 3.96453E+08 1.60746E-03
 -1      1158-6.01244E-03-9.35078E-04-7.66814E-05 3.01832E+09 1.21150E+08 1.90623E-04
 -1      1160-6.01244E-03-9.35078E-04-7.66814E-05 3.01832E+09 1.21150E+08 1.90623E-04
 -1      1169-6.28295E-03-1.47573E-04 5.84093E-04-2.23087E+07 3.21611E+08-4.61495E-05
 -1      1171-6.28295E-03-1.47573E-04 5.84093E-04-2.23087E+07 3.21611E+08-4.61495E-05
 -1      1172-9.10723E-03-3.67492E-04-8.15541E-05 5.05679E+09 1.15540E+08 1.33597E-04
 -1      1174-9.10723E-03-3.67492E-04-8.15541E-05 5.05679E+09 1.15540E+08 1.33597E-04
 -1      1183-8.13088E-03-5.10228E-05-5.95029E-03-1.97176E+07 2.16475E+08 1.95886E-03
 -1      1185-8.13088E-03-5.10228E-05-5.95029E-03-1.97176E+07 2.16475E+08 1.95886E-03
 -1      1186-9.34857E-03-1.47223E-04-1.95056E-05 5.88144E+09 1.03426E+08 1.50551E-04
 -1      1188-9.34857E-03-1.47223E-04-1.95056E-05 5.88144E+09 1.03426E+08 1.50551E-04
 -1      1197-6.54567E-03 9.19013E-05-7.44766E-03-1.99256E+07 1.10690E+08 6.45435E-03
 -1      1199-6.54567E-03 9.19013E-05-7.44766E-03-1.99256E+07 1.10690E+08 6.45435E-03
 -1      1200-5.76043E-03-5.18322E-04 8.04663E-07 5.39240E+09 8.93840E+07 2.75180E-04
 -1      1202-5.76043E-03-5.18322E-04 8.04663E-07 5.39240E+09 8.93840E+07 2.75180E-04
 -1      1211-5.48515E-03-1.11128E-04-6.38718E-03-1.37161E+07 2.44477E+07 7.60400E-03
 -1      1213-5.48515E-03-1.11128E-04-6.38718E-03-1.37161E+07 2.44477E+07 7.60400E-03
 -1      1214-3.44872E-03-1.02839E-03-1.15395E-04 3.69279E+09 7.87625E+07 2.37000E-04
 -1      1216-3.44872E-03-1.02839E-03-1.15395E-04 3.69279E+09 7.87625E+07 2.37000E-04
 -1      1225-6.71409E-03-7.43799E-06-8.23210E-03-7.61984E+06-1.91096E+07 6.18962E-03
 -1      1227-6.71409E-03-7.43799E-06-8.23210E-03-7.61984E+06-1.91096E+07 6.18962E-03
 -1      1228-3.32355E-03-1.40083E-03-1.41859E-04 1.17516E+09 7.49068E+07 2.48822E-04
 -1      1230-3.32355E-03-1.40083E-03-1.41859E-04 1.17516E+09 7.49068E+07 2.48822E-04
 -1      1239-6.09007E-03-6.48766E-05-1.29334E-02 5.24968E+05-1.21382E+07 4.89290E-03
 -1      1241-6.09007E-03-6.48766E-05-1.29334E-02 5.24968E+05-1.21382E+07 4.89290E-03
 -1      1242-6.66618E-04-8.98063E-04-1.02758E-04-1.61606E+09 8.03932E+07 1.99975E-04
 -1      1244-6.66618E-04-8.98063E-04-1.02758E-04-1.61606E+09 8.03932E+07 1.99975E-04
 -1      1253-2.78489E-03-7.86640E-04-1.82558E-02 7.25630E+06 4.60873E+07 4.61438E-03
 -1      1255-2.78489E-03-7.86640E-04-1.82558E-02 7.25630E+06 4.60873E+07 4.61438E-03
 -1      1256 4.32587E-03-8.38965E-04 1.04696E-04-4.07010E+09 9.41666E+07 1.38274E-04
 -1      1258 4.32587E-03-8.38965E-04 1.04696E-04-4.07010E+09 9.41666E+07 1.38274E-04
 -1      1267 4.50551E-04-8.85210E-04-2.04793E-02 1.26648E+07 1.41340E+08 4.04639E-03
 -1      1269 4.50551E-04-8.85210E-04-2.04793E-02 1.26648E+07 1.41340E+08 4.04639E-03
 -1      1270 7.39846E-03-1.80496E-03 1.46426E-04-5.65615E+09 1.13843E+08 1.82566E-04
 -1      1272 7.39846E-03-1.80496E-03 1.46426E-04-5.65615E+09 1.13843E+08 1.82566E-04
 -1      1281 1.71058E-03-1.27480E-04-1.96798E-02 1.50905E+07 2.53251E+08 8.40893E-04
 -1      1283 1.71058E-03-1.27480E-04-1.96798E-02 1.50905E+07 2.53251E+08 8.40893E-04
 -1      1284 7.69639E-03-1.52058E-03 7.75233E-05-6.02792E+09 1.34247E+08 8.53983E-05
 -1      1286 7.69639E-03-1.52058E-03 7.75233E-05-6.02792E+09 1.34247E+08 8.53983E-05
 -1      1295 8.96824E-04 2.91363E-04-1.95877E-02 1.48218E+07 3.55217E+08-1.82715E-03
 -1      1297 8.96824E-04 2.91363E-04-1.95877E-02 1.48218E+07 3.55217E+08-1.82715E-03
 -1      1298 6.53219E-03-5.17666E-05 1.63525E-04-5.10235E+09 1.50282E+08 4.37154E-05
 -1      1300 6.53219E-03-5.17666E-05 1.63525E-04-5.10235E+09 1.50282E+08 4.37154E-05
 -1      1309-7.55950E-04 6.34980E-04-1.82661E-02 1.18287E+07 4.23703E+08-8.50276E-04
 -1      1311-7.55950E-04 6.34980E-04-1.82661E-02 1.18287E+07 4.23703E+08-8.50276E-04
 -1      1312 4.11296E-03 2.20656E-04 3.09944E-06-3.07432E+09 1.56502E+08 9.90587E-05
 -1      1314 4.11296E-03 2.20656E-04 3.09944E-06-3.07432E+09 1.56502E+08 9.90587E-05
 -1      1323-3.36949E-03 1.96297E-04-1.41616E-02 7.20513E+06 4.40494E+08 2.33230E-04
 -1      1325-3.36949E-03 1.96297E-04-1.41616E-02 7.20513E+06 4.40494E+08 2.33230E-04
 -1      1326 1.15895E-03 4.93824E-04-2.21968E-04-3.75823E+08 1.49776E+08 9.58014E-05
 -1      1328 1.15895E-03 4.93824E-04-2.21968E-04-3.75823E+08 1.49776E+08 9.58014E-05
 -1      1337-5.07191E-03-1.89624E-04-1.04816E-02 1.97273E+06 3.99236E+08-1.05524E-03
 -1      1339-5.07191E-03-1.89624E-04-1.04816E-02 1.97273E+06 3.99236E+08-1.05524E-03
 -1      1340-2.38419E-05 2.58446E-03-1.70469E-05 2.41824E+09 1.28720E+08 2.63937E-05
 -1      1342-2.38419E-05 2.58446E-03-1.70469E-05 2.41824E+09 1.28720E+08 2.63937E-05
 -1      1351-4.13129E-03 2.63472E-04-8.51299E-03-2.59654E+06 3.04646E+08-2.96816E-03
 -1      1353-4.13129E-03 2.63472E-04-8.51299E-03-2.59654E+06 3.04646E+08-2.96816E-03
 -1      1354 5.38468E-04 3.16840E-03-7.24196E-06 4.71419E+09 9.54319E+07 3.43863E-05
 -1      1356 5.38468E-04 3.16840E-03-7.24196E-06 4.71419E+09 9.54319E+07 3.43863E-05
 -1      1365-3.10927E-03 6.26052E-04-8.32640E-03-5.39949E+06 1.73993E+08-5.06694E-03
 -1      1367-3.10927E-03 6.26052E-04-8.32640E-03-5.39949E+06 1.73993E+08-5.06694E-03
 -1      1368 6.19203E-04 1.55306E-03-8.57692E-05 6.02774E+09 5.38184E+07 7.29533E-05
 -1      1370 6.19203E-04 1.55306E-03-8.57692E-05 6.02774E+09 5.38184E+07 7.29533E-05
 -1      1379-2.80103E-03 4.62190E-04-1.26781E-02-6.20058E+06 3.10741E+07-6.92700E-03
 -1      1381-2.80103E-03 4.62190E-04-1.26781E-02-6.20058E+06 3.10741E+07-6.92700E-03
 -1      1382 8.15272E-04 1.35756E-03-3.50755E-05 6.09141E+09 1.03747E+07 7.42162E-05
 -1      1384 8.15272E-04 1.35756E-03-3.50755E-05 6.09141E+09 1.03747E+07 7.42162E-05
 -1      1393-1.97689E-03 3.42082E-05-1.95917E-02-4.22589E+06-9.58050E+07-5.42809E-03
 -1      1395-1.97689E-03 3.42082E-05-1.95917E-02-4.22589E+06-9.58050E+07-5.42809E-03
 -1      1396 2.08640E-03 1.89525E-03 7.37309E-05 4.91127E+09-2.86834E+07 7.76192E-05
 -1      1398 2.08640E-03 1.89525E-03 7.37309E-05 4.91127E+09-2.86834E+07 7.76192E-05
 -1      1407-1.53963E-03-1.21946E-04-2.15598E-02-1.60658E+06-1.83195E+08-8.63996E-04
 -1      1409-1.53963E-03-1.21946E-04-2.15598E-02-1.60658E+06-1.83195E+08-8.63996E-04
 -1      1410 2.55919E-03 5.20885E-04 1.30534E-05 2.77526E+09-5.67214E+07 9.30573E-05
 -1      1412 2.55919E-03 5.20885E-04 1.30534E-05 2.77526E+09-5.67214E+07 9.30573E-05
 -1      1421-2.58649E-03-4.25652E-04-1.87275E-02 3.54395E+06-2.13233E+08 1.29305E-03
 -1      1423-2.58649E-03-4.25652E-04-1.87275E-02 3.54395E+06-2.13233E+08 1.29305E-03
 -1      1424 1.50347E-03-7.41303E-04 1.86563E-05 1.88124E+08-7.00876E+07 1.68481E-05
 -1      1426 1.50347E-03-7.41303E-04 1.86563E-05 1.88124E+08-7.00876E+07 1.68481E-05
 -1      1435-4.28611E-03-5.68164E-04-1.73475E-02 4.77359E+06-1.82251E+08-2.56632E-04
 -1      1437-4.28611E-03-5.68164E-04-1.73475E-02 4.77359E+06-1.82251E+08-2.56632E-04
 -1      1438-4.95911E-05-7.59184E-04 2.68340E-04-2.21378E+09-6.62502E+07-6.16844E-05
 -1      1440-4.95911E-05-7.59184E-04 2.68340E-04-2.21378E+09-6.62502E+07-6.16844E-05
 -1      1449-5.58695E-03-2.24157E-04-1.85138E-02 9.44887E+06-9.70776E+07-3.80907E-04
 -1      1451-5.58695E-03-2.24157E-04-1.85138E-02 9.44887E+06-9.70776E+07-3.80907E-04
 -1      1452-1.43194E-03-8.38816E-04 2.33650E-04-3.81084E+09-4.72001E+07-3.79004E-05
 -1      1454-1.43194E-03-8.38816E-04 2.33650E-04-3.81084E+09-4.72001E+07-3.79004E-05
 -1      1463-5.30917E-03-1.50971E-05-1.85610E-02 2.65158E+06 2.15943E+07 1.46113E-03
 -1      1465-5.30917E-03-1.50971E-05-1.85610E-02 2.65158E+06 2.15943E+07 1.46113E-03
 -1      1466-1.93286E-03-5.88238E-04 4.48227E-05-4.05161E+09-1.61608E+07 1.76544E-05
 -1      1468-1.93286E-03-5.88238E-04 4.48227E-05-4.05161E+09-1.61608E+07 1.76544E-05
 -1      1477-3.03788E-03 1.64172E-04-1.58438E-02 5.39734E+06 1.35181E+08 1.59830E-03
 -1      1479-3.03788E-03 1.64172E-04-1.58438E-02 5.39734E+06 1.35181E+08 1.59830E-03
 -1      1480-1.24991E-03-1.33948E-03-1.35556E-04-2.72552E+09 1.67683E+07 7.21600E-06
 -1      1482-1.24991E-03-1.33948E-03-1.35556E-04-2.72552E+09 1.67683E+07 7.21600E-06
 -1      1491 2.46085E-04-6.24432E-04-1.66272E-02 2.60095E+07-3.97876E+07 6.20811E-04
 -1      1493 2.46085E-04-6.24432E-04-1.66272E-02 2.60095E+07-3.97876E+07 6.20811E-04
 -1      1494 1.09441E-04-8.50188E-04-1.66213E-02 2.90930E+07-5.99697E-05 1.03806E-04
 -1      1496 1.09441E-04-8.50188E-04-1.66213E-02 2.90930E+07-5.99697E-05 1.03806E-04
 -1      1497-8.09297E-04-2.65522E-04-1.49972E-02 2.60095E+07 3.97876E+07 2.51782E-04
 -1      1499-8.09297E-04-2.65522E-04-1.49972E-02 2.60095E+07 3.97876E+07 2.51782E-04
 -1      1500-1.67998E+10-7.20158E+08 1.94703E+06-4.40018E+09 1.73845E+07 1.55544E+07
 -1      1502-1.67998E+10-7.20158E+08 1.94703E+06-4.40018E+09 1.73845E+07 1.55544E+07
 -1      1503-1.30329E+09 3.10413E+08 3.19673E+06-3.42627E+09 2.79566E+07-9.74872E+06
 -1      1505-1.30329E+09 3.10413E+08 3.19673E+06-3.42627E+09 2.79566E+07-9.74872E+06
 -1      1506 1.11127E+10-1.81624E+08 8.11704E+06-2.65830E+09 3.83155E+07-3.83607E+06
 -1      1508 1.11127E+10-1.81624E+08 8.11704E+06-2.65830E+09 3.83155E+07-3.83607E+06
 -1      1509 1.90357E+10 4.31292E+07 2.29133E+07-1.28840E+09 4.43011E+07-1.36958E+07
 -1      1511 1.90357E+10 4.31292E+07 2.29133E+07-1.28840E+09 4.43011E+07-1.36958E+07
 -1      1512 2.14414E+10-6.83356E+07 1.50071E+07 9.61955E+07 4.58425E+07-1.67226E+07
 -1      1514 2.14414E+10-6.83356E+07 1.50071E+07 9.61955E+07 4.58425E+07-1.67226E+07
 -1      1515 1.83275E+10-7.44983E+06 2.03237E+07 1.41062E+09 4.38629E+07-2.18778E+07
 -1      1517 1.83275E+10-7.44983E+06 2.03237E+07 1.41062E+09 4.38629E+07-2.18778E+07
 -1      1518 1.06744E+10-2.83261E+07 6.50887E+06 2.33311E+09 3.86286E+07-2.37018E+07
 -1      1520 1.06744E+10-2.83261E+07 6.50887E+06 2.33311E+09 3.86286E+07-2.37018E+07
 -1      1521 3.48018E+08-2.67950E+06 3.20023E+06 2.72167E+09 3.18332E+07-2.37326E+07
 -1      1523 3.48018E+08-2.67950E+06 3.20023E+06 2.72167E+09 3.18332E+07-2.37326E+07
 -1      1524-1.02919E+10-9.17800E+05-1.05965E+07 2.49034E+09 2.46857E+07-2.08122E+07
 -1      1526-1.02919E+10-9.17800E+05-1.05965E+07 2.49034E+09 2.46857E+07-2.08122E+07
 -1      1527-1.88604E+10 1.22056E+07-1.43330E+07 1.70741E+09 1.88678E+07-1.56467E+07
 -1      1529-1.88604E+10 1.22056E+07-1.43330E+07 1.70741E+09 1.88678E+07-1.56467E+07
 -1      1530-2.34530E+10 1.44006E+07-2.12690E+07 5.42955E+08 1.54064E+07-8.70384E+06
 -1      1532-2.34530E+10 1.44006E+07-2.12690E+07 5.42955E+08 1.54064E+07-8.70384E+06
 -1      1533-2.30395E+10 1.68673E+07-1.85805E+07-7.45632E+08 1.50417E+07-1.00145E+06
 -1      1535-2.30395E+10 1.68673E+07-1.85805E+07-7.45632E+08 1.50417E+07-1.00145E+06
 -1      1536-1.76825E+10 1.23001E+07-1.59607E+07-1.87960E+09 1.76478E+07 6.44477E+06
 -1      1538-1.76825E+10 1.23001E+07-1.59607E+07-1.87960E+09 1.76478E+07 6.44477E+06
 -1      1539-8.51717E+09 6.19726E+06-6.58041E+06-2.61203E+09 2.26245E+07 1.26830E+07
 -1      1541-8.51717E+09 6.19726E+06-6.58041E+06-2.61203E+09 2.26245E+07 1.26830E+07
 -1      1542 2.49306E+09-3.09806E+06 1.54500E+06-2.78401E+09 2.87068E+07 1.70221E+07
 -1      1544 2.49306E+09-3.09806E+06 1.54500E+06-2.78401E+09 2.87068E+07 1.70221E+07
 -1      1545 1.29816E+10-1.15880E+07 1.15564E+07-2.35664E+09 3.45484E+07 1.91620E+07
 -1      1547 1.29816E+10-1.15880E+07 1.15564E+07-2.35664E+09 3.45484E+07 1.91620E+07
 -1      1548 2.06866E+10-1.90736E+07 1.73204E+07-1.42024E+09 3.86998E+07 1.92031E+07
 -1      1550 2.06866E+10-1.90736E+07 1.73204E+07-1.42024E+09 3.86998E+07 1.92031E+07
 -1      1551 2.39379E+10-2.31438E+07 2.08230E+07-1.74189E+08 4.02423E+07 1.76155E+07
 -1      1553 2.39379E+10-2.31438E+07 2.08230E+07-1.74189E+08 4.02423E+07 1.76155E+07
 -1      1554 2.20141E+10-2.38389E+07 1.87028E+07 1.11598E+09 3.86392E+07 1.51051E+07
 -1      1556 2.20141E+10-2.38389E+07 1.87028E+07 1.11598E+09 3.86392E+07 1.51051E+07
 -1      1557 1.52956E+10-2.10120E+07 1.34705E+07 2.17587E+09 3.42191E+07 1.24431E+07
 -1      1559 1.52956E+10-2.10120E+07 1.34705E+07 2.17587E+09 3.42191E+07 1.24431E+07
 -1      1560 5.17941E+09-1.55385E+07 4.62524E+06 2.78219E+09 2.76858E+07 1.02935E+07
 -1      1562 5.17941E+09-1.55385E+07 4.62524E+06 2.78219E+09 2.76858E+07 1.02935E+07
 -1      1563-6.22854E+09-9.32172E+06-4.73985E+06 2.81060E+09 2.04119E+07 9.07897E+06
 -1      1565-6.22854E+09-9.32172E+06-4.73985E+06 2.81060E+09 2.04119E+07 9.07897E+06
 -1      1566-1.65744E+10-2.93632E+06-1.35490E+07 2.26474E+09 1.35965E+07 8.82541E+06
 -1      1568-1.65744E+10-2.93632E+06-1.35490E+07 2.26474E+09 1.35965E+07 8.82541E+06
 -1      1569-2.37807E+10-2.32826E+04-1.92901E+07 1.27646E+09 8.55738E+06 9.39729E+06
 -1      1571-2.37807E+10-2.32826E+04-1.92901E+07 1.27646E+09 8.55738E+06 9.39729E+06
 -1      1572-2.65125E+10 3.38683E+06-2.14097E+07 7.86854E+07 5.71326E+06 9.96524E+06
 -1      1574-2.65125E+10 3.38683E+06-2.14097E+07 7.86854E+07 5.71326E+06 9.96524E+06
 -1      1575-2.45091E+10-3.30458E+06-1.88477E+07-1.03384E+09 5.10023E+06 1.06256E+07
 -1      1577-2.45091E+10-3.30458E+06-1.88477E+07-1.03384E+09 5.10023E+06 1.06256E+07
 -1      1578-1.86878E+10 1.91884E+06-1.35271E+07-1.77603E+09 5.59021E+06 9.21929E+06
 -1      1580-1.86878E+10 1.91884E+06-1.35271E+07-1.77603E+09 5.59021E+06 9.21929E+06
 -1      1581-1.10410E+10-1.36348E+07-4.99194E+06-1.91324E+09 5.45652E+06 8.98566E+06
 -1      1583-1.10410E+10-1.36348E+07-4.99194E+06-1.91324E+09 5.45652E+06 8.98566E+06
 -1      1584-4.35893E+09-2.11684E+07 2.06424E+06-1.23808E+09 3.99793E+06 2.07666E+06
 -1      1586-4.35893E+09-2.11684E+07 2.06424E+06-1.23808E+09 3.99793E+06 2.07666E+06
 -1      1587-1.23283E+09-2.39403E+08 1.77971E+05-1.17987E+09 1.65828E+07-4.47738E+06
 -1      1589-1.23283E+09-2.39403E+08 1.77971E+05-1.17987E+09 1.65828E+07-4.47738E+06
 -1      1590-1.60951E+10-1.64383E+09-2.63639E+06-6.38389E+09 1.14677E+07 7.28632E+07
 -1      1592-1.60951E+10-1.64383E+09-2.63639E+06-6.38389E+09 1.14677E+07 7.28632E+07
 -1      1593 1.23283E+09 2.39403E+08-1.77971E+05-1.17987E+09 1.65828E+07 4.47738E+06
 -1      1595 1.23283E+09 2.39403E+08-1.77971E+05-1.17987E+09 1.65828E+07 4.47738E+06
 -1      1596 1.67998E+10 7.20158E+08-1.94703E+06-4.40018E+09 1.73845E+07-1.55544E+07
 -1      1598 1.67998E+10 7.20158E+08-1.94703E+06-4.40018E+09 1.73845E+07-1.55544E+07
 -1      1599 1.30329E+09-3.10413E+08-3.19673E+06-3.42627E+09 2.79566E+07 9.74872E+06
 -1      1601 1.30329E+09-3.10413E+08-3.19673E+06-3.42627E+09 2.79566E+07 9.74872E+06
 -1      1602-1.11127E+10 1.81624E+08-8.11704E+06-2.65830E+09 3.83155E+07 3.83607E+06
 -1      1604-1.11127E+10 1.81624E+08-8.11704E+06-2.65830E+09 3.83155E+07 3.83607E+06
 -1      1605-1.90357E+10-4.31292E+07-2.29133E+07-1.28840E+09 4.43011E+07 1.36958E+07
 -1      1607-1.90357E+10-4.31292E+07-2.29133E+07-1.28840E+09 4.43011E+07 1.36958E+07
 -1      1608-2.14414E+10 6.83356E+07-1.50071E+07 9.61955E+07 4.58425E+07 1.67226E+07
 -1      1610-2.14414E+10 6.83356E+07-1.50071E+07 9.61955E+07 4.58425E+07 1.67226E+07
 -1      1611-1.83275E+10 7.44983E+06-2.03237E+07 1.41062E+09 4.38629E+07 2.18778E+07
 -1      1613-1.83275E+10 7.44983E+06-2.03237E+07 1.41062E+09 4.38629E+07 2.18778E+07
 -1      1614-1.06744E+10 2.83261E+07-6.50887E+06 2.33311E+09 3.86286E+07 2.37018E+07
 -1      1616-1.06744E+10 2.83261E+07-6.50887E+06 2.33311E+09 3.86286E+07 2.37018E+07
 -1      1617-3.48018E+08 2.67950E+06-3.20023E+06 2.72167E+09 3.18332E+07 2.37326E+07
 -1      1619-3.48018E+08 2.67950E+06-3.20023E+06 2.72167E+09 3.18332E+07 2.37326E+07
 -1      1620 1.02919E+10 9.17800E+05 1.05965E+07 2.49034E+09 2.46857E+07 2.08122E+07
 -1      1622 1.02919E+10 9.17800E+05 1.05965E+07 2.49034E+09 2.46857E+07 2.08122E+07
 -1      1623 1.88604E+10-1.22056E+07 1.43330E+07 1.70741E+09 1.88678E+07 1.56467E+07
 -1      1625 1.88604E+10-1.22056E+07 1.43330E+07 1.70741E+09 1.88678E+07 1.56467E+07
 -1      1626 2.34530E+10-1.44006E+07 2.12690E+07 5.42955E+08 1.54064E+07 8.70384E+06
 -1      1628 2.34530E+10-1.44006E+07 2.12690E+07 5.42955E+08 1.54064E+07 8.70384E+06
 -1      1629 2.30395E+10-1.68673E+07 1.85805E+07-7.45632E+08 1.50417E+07 1.00145E+06
 -1      1631 2.30395E+10-1.68673E+07 1.85805E+07-7.45632E+08 1.50417E+07 1.00145E+06
 -1      1632 1.76825E+10-1.23001E+07 1.59607E+07-1.87960E+09 1.76478E+07-6.44477E+06
 -1      1634 1.76825E+10-1.23001E+07 1.59607E+07-1.87960E+09 1.76478E+07-6.44477E+06
 -1      1635 8.51717E+09-6.19726E+06 6.58041E+06-2.61203E+09 2.26245E+07-1.26830E+07
 -1      1637 8.51717E+09-6.19726E+06 6.58041E+06-2.61203E+09 2.26245E+07-1.26830E+07
 -1      1638-2.49306E+09 3.09806E+06-1.54500E+06-2.78401E+09 2.87068E+07-1.70221E+07
 -1      1640-2.49306E+09 3.09806E+06-1.54500E+06-2.78401E+09 2.87068E+07-1.70221E+07
 -1      1641-1.29816E+10 1.15880E+07-1.15564E+07-2.35664E+09 3.45484E+07-1.91620E+07
 -1      1643-1.29816E+10 1.15880E+07-1.15564E+07-2.35664E+09 3.45484E+07-1.91620E+07
 -1      1644-2.06866E+10 1.90736E+07-1.73204E+07-1.42024E+09 3.86998E+07-1.92031E+07
 -1      1646-2.06866E+10 1.90736E+07-1.73204E+07-1.42024E+09 3.86998E+07-1.92031E+07
 -1      1647-2.39379E+10 2.31438E+07-2.08230E+07-1.74189E+08 4.02423E+07-1.76155E+07
 -1      1649-2.39379E+10 2.31438E+07-2.08230E+07-1.74189E+08 4.02423E+07-1.76155E+07
 -1      1650-2.20141E+10 2.38389E+07-1.87028E+07 1.11598E+09 3.86392E+07-1.51051E+07
 -1      1652-2.20141E+10 2.38389E+07-1.87028E+07 1.11598E+09 3.86392E+07-1.51051E+07
 -1      1653-1.52956E+10 2.10120E+07-1.34705E+07 2.17587E+09 3.42191E+07-1.24431E+07
 -1      1655-1.52956E+10 2.10120E+07-1.34705E+07 2.17587E+09 3.42191E+07-1.24431E+07
 -1      1656-5.17941E+09 1.55385E+07-4.62524E+06 2.78219E+09 2.76858E+07-1.02935E+07
 -1      1658-5.17941E+09 1.55385E+07-4.62524E+06 2.78219E+09 2.76858E+07-1.02935E+07
 -1      1659 6.22854E+09 9.32172E+06 4.73985E+06 2.81060E+09 2.04119E+07-9.07897E+06
 -1      1661 6.22854E+09 9.32172E+06 4.73985E+06 2.81060E+09 2.04119E+07-9.07897E+06
 -1      1662 1.65744E+10 2.93632E+06 1.35490E+07 2.26474E+09 1.35965E+07-8.82541E+06
 -1      1664 1.65744E+10 2.93632E+06 1.35490E+07 2.26474E+09 1.35965E+07-8.82541E+06
 -1      1665 2.37807E+10 2.32826E+04 1.92901E+07 1.27646E+09 8.55738E+06-9.39729E+06
 -1      1667 2.37807E+10 2.32826E+04 1.92901E+07 1.27646E+09 8.55738E+06-9.39729E+06
 -1      1668 2.65125E+10-3.38683E+06 2.14097E+07 7.86854E+07 5.71326E+06-9.96524E+06
 -1      1670 2.65125E+10-3.38683E+06 2.14097E+07 7.86854E+07 5.71326E+06-9.96524E+06
 -1      1671 2.45091E+10 3.30458E+06 1.88477E+07-1.03384E+09 5.10023E+06-1.06256E+07
 -1      1673 2.45091E+10 3.30458E+06 1.88477E+07-1.03384E+09 5.10023E+06-1.06256E+07
 -1      1674 1.86878E+10-1.91884E+06 1.35271E+07-1.77603E+09 5.59021E+06-9.21929E+06
 -1      1676 1.86878E+10-1.91884E+06 1.35271E+07-1.77603E+09 5.59021E+06-9.21929E+06
 -1      1677 1.10410E+10 1.36348E+07 4.99194E+06-1.91324E+09 5.45652E+06-8.98566E+06
 -1      1679 1.10410E+10 1.36348E+07 4.99194E+06-1.91324E+09 5.45652E+06-8.98566E+06
 -1      1680 4.35893E+09 2.11684E+07-2.06424E+06-1.23808E+09 3.99793E+06-2.07666E+06
 -1      1682 4.35893E+09 2.11684E+07-2.06424E+06-1.23808E+09 3.99793E+06-2.07666E+06
 -1      1683 1.60951E+10 1.64383E+09 2.63639E+06-6.38389E+09 1.14677E+07-7.28632E+07
 -1      1685 1.60951E+10 1.64383E+09 2.63639E+06-6.38389E+09 1.14677E+07-7.28632E+07
 -1      1686 1.10685E+10 5.17166E+08 7.45783E+05-6.43136E+09-1.87225E+07 2.68696E+07
 -1      1688 1.10685E+10 5.17166E+08 7.45783E+05-6.43136E+09-1.87225E+07 2.68696E+07
 -1      1689 1.07887E+09-3.48782E+07 1.57145E+06-5.71207E+09-3.84263E+07 1.36771E+06
 -1      1691 1.07887E+09-3.48782E+07 1.57145E+06-5.71207E+09-3.84263E+07 1.36771E+06
 -1      1692-7.26339E+09 3.23822E+08-5.43010E+05-4.10987E+09-5.91732E+07 1.01544E+07
 -1      1694-7.26339E+09 3.23822E+08-5.43010E+05-4.10987E+09-5.91732E+07 1.01544E+07
 -1      1695-1.24463E+10 2.46492E+08 1.78904E+06-2.10529E+09-7.31565E+07 1.39306E+06
 -1      1697-1.24463E+10 2.46492E+08 1.78904E+06-2.10529E+09-7.31565E+07 1.39306E+06
 -1      1698-1.40771E+10 3.06054E+08 2.74930E+05 1.68803E+08-8.17084E+07 6.93473E+04
 -1      1700-1.40771E+10 3.06054E+08 2.74930E+05 1.68803E+08-8.17084E+07 6.93473E+04
 -1      1701-1.20278E+10 2.26873E+08 8.60823E+05 2.21447E+09-8.25062E+07-4.71205E+06
 -1      1703-1.20278E+10 2.26873E+08 8.60823E+05 2.21447E+09-8.25062E+07-4.71205E+06
 -1      1704-7.00777E+09 1.50532E+08 5.02897E+05 3.69495E+09-7.70844E+07-6.67710E+06
 -1      1706-7.00777E+09 1.50532E+08 5.02897E+05 3.69495E+09-7.70844E+07-6.67710E+06
 -1      1707-2.15463E+08 2.58306E+07-1.42065E+05 4.30156E+09-6.76295E+07-8.00549E+06
 -1      1709-2.15463E+08 2.58306E+07-1.42065E+05 4.30156E+09-6.76295E+07-8.00549E+06
 -1      1710 6.77951E+09-8.64560E+07 1.31099E+05 3.94137E+09-5.70349E+07-7.19443E+06
 -1      1712 6.77951E+09-8.64560E+07 1.31099E+05 3.94137E+09-5.70349E+07-7.19443E+06
 -1      1713 1.24158E+10-1.83218E+08-8.53100E+05 2.70010E+09-4.88152E+07-5.03305E+06
 -1      1715 1.24158E+10-1.83218E+08-8.53100E+05 2.70010E+09-4.88152E+07-5.03305E+06
 -1      1716 1.54351E+10-2.33318E+08-2.17957E+05 8.59057E+08-4.51566E+07-1.71799E+06
 -1      1718 1.54351E+10-2.33318E+08-2.17957E+05 8.59057E+08-4.51566E+07-1.71799E+06
 -1      1719 1.51619E+10-2.33307E+08-9.91622E+05-1.18085E+09-4.77174E+07 1.89628E+06
 -1      1721 1.51619E+10-2.33307E+08-9.91622E+05-1.18085E+09-4.77174E+07 1.89628E+06
 -1      1722 1.16357E+10-1.79709E+08-1.21546E+05-2.97485E+09-5.59072E+07 5.07193E+06
 -1      1724 1.16357E+10-1.79709E+08-1.21546E+05-2.97485E+09-5.59072E+07 5.07193E+06
 -1      1725 5.60437E+09-8.68219E+07-5.51566E+05-4.13409E+09-6.82335E+07 7.09484E+06
 -1      1727 5.60437E+09-8.68219E+07-5.51566E+05-4.13409E+09-6.82335E+07 7.09484E+06
 -1      1728-1.64074E+09 2.69878E+07 3.61301E+05-4.40596E+09-8.14768E+07 7.51824E+06
 -1      1730-1.64074E+09 2.69878E+07 3.61301E+05-4.40596E+09-8.14768E+07 7.51824E+06
 -1      1731-8.54192E+09 1.36206E+08 1.07853E+05-3.72949E+09-9.24152E+07 6.24185E+06
 -1      1733-8.54192E+09 1.36206E+08 1.07853E+05-3.72949E+09-9.24152E+07 6.24185E+06
 -1      1734-1.36111E+10 2.18581E+08 8.13792E+05-2.24728E+09-9.76007E+07 3.52393E+06
 -1      1736-1.36111E+10 2.18581E+08 8.13792E+05-2.24728E+09-9.76007E+07 3.52393E+06
 -1      1737-1.57490E+10 2.56139E+08 4.95141E+05-2.75006E+08-9.50091E+07-5.81767E+04
 -1      1739-1.57490E+10 2.56139E+08 4.95141E+05-2.75006E+08-9.50091E+07-5.81767E+04
 -1      1740-1.44809E+10 2.42146E+08 8.39748E+05 1.76711E+09-8.36795E+07-3.74291E+06
 -1      1742-1.44809E+10 2.42146E+08 8.39748E+05 1.76711E+09-8.36795E+07-3.74291E+06
 -1      1743-1.00571E+10 1.79616E+08 3.57985E+05 3.44503E+09-6.48255E+07-6.74429E+06
 -1      1745-1.00571E+10 1.79616E+08 3.57985E+05 3.44503E+09-6.48255E+07-6.74429E+06
 -1      1746-3.39665E+09 8.38141E+07 3.97752E+05 4.40497E+09-4.07521E+07-8.42292E+06
 -1      1748-3.39665E+09 8.38141E+07 3.97752E+05 4.40497E+09-4.07521E+07-8.42292E+06
 -1      1749 4.11486E+09-2.49360E+07-1.19147E+05 4.45101E+09-1.53933E+07-8.41257E+06
 -1      1751 4.11486E+09-2.49360E+07-1.19147E+05 4.45101E+09-1.53933E+07-8.41257E+06
 -1      1752 1.09294E+10-1.20491E+08-1.72737E+05 3.58800E+09 7.54343E+06-6.75900E+06
 -1      1754 1.09294E+10-1.20491E+08-1.72737E+05 3.58800E+09 7.54343E+06-6.75900E+06
 -1      1755 1.56800E+10-1.82732E+08-4.54296E+05 2.02586E+09 2.40820E+07-3.74234E+06
 -1      1757 1.56800E+10-1.82732E+08-4.54296E+05 2.02586E+09 2.40820E+07-3.74234E+06
 -1      1758 1.74910E+10-1.96212E+08-4.46409E+05 1.33405E+08 3.21872E+07-2.74737E+05
 -1      1760 1.74910E+10-1.96212E+08-4.46409E+05 1.33405E+08 3.21872E+07-2.74737E+05
 -1      1761 1.61915E+10-1.52123E+08-2.52098E+05-1.62381E+09 3.05750E+07 3.34808E+06
 -1      1763 1.61915E+10-1.52123E+08-2.52098E+05-1.62381E+09 3.05750E+07 3.34808E+06
 -1      1764 1.23867E+10-7.14757E+07-2.05303E+05-2.79344E+09 2.08049E+07 5.04401E+06
 -1      1766 1.23867E+10-7.14757E+07-2.05303E+05-2.79344E+09 2.08049E+07 5.04401E+06
 -1      1767 7.40965E+09 6.15560E+07 2.79202E+05-2.98243E+09 5.35215E+06 6.80769E+06
 -1      1769 7.40965E+09 6.15560E+07 2.79202E+05-2.98243E+09 5.35215E+06 6.80769E+06
 -1      1770 3.03515E+09 1.94871E+08 9.66474E+05-1.98180E+09-1.03831E+07 2.17212E+06
 -1      1772 3.03515E+09 1.94871E+08 9.66474E+05-1.98180E+09-1.03831E+07 2.17212E+06
 -1      1773-1.10685E+10-5.17166E+08-7.45783E+05-6.43136E+09-1.87225E+07-2.68696E+07
 -1      1775-1.10685E+10-5.17166E+08-7.45783E+05-6.43136E+09-1.87225E+07-2.68696E+07
 -1      1776-1.07887E+09 3.48782E+07-1.57145E+06-5.71207E+09-3.84263E+07-1.36771E+06
 -1      1778-1.07887E+09 3.48782E+07-1.57145E+06-5.71207E+09-3.84263E+07-1.36771E+06
 -1      1779 7.26339E+09-3.23822E+08 5.43010E+05-4.10987E+09-5.91732E+07-1.01544E+07
 -1      1781 7.26339E+09-3.23822E+08 5.43010E+05-4.10987E+09-5.91732E+07-1.01544E+07
 -1      1782 1.24463E+10-2.46492E+08-1.78904E+06-2.10529E+09-7.31565E+07-1.39306E+06
 -1      1784 1.24463E+10-2.46492E+08-1.78904E+06-2.10529E+09-7.31565E+07-1.39306E+06
 -1      1785 1.40771E+10-3.06054E+08-2.74930E+05 1.68803E+08-8.17084E+07-6.93473E+04
 -1      1787 1.40771E+10-3.06054E+08-2.74930E+05 1.68803E+08-8.17084E+07-6.93473E+04
 -1      1788 1.20278E+10-2.26873E+08-8.60823E+05 2.21447E+09-8.25062E+07 4.71205E+06
 -1      1790 1.20278E+10-2.26873E+08-8.60823E+05 2.21447E+09-8.25062E+07 4.71205E+06
 -1      1791 7.00777E+09-1.50532E+08-5.02897E+05 3.69495E+09-7.70844E+07 6.67710E+06
 -1      1793 7.00777E+09-1.50532E+08-5.02897E+05 3.69495E+09-7.70844E+07 6.67710E+06
 -1      1794 2.15463E+08-2.58306E+07 1.42065E+05 4.30156E+09-6.76295E+07 8.00549E+06
 -1      1796 2.15463E+08-2.58306E+07 1.42065E+05 4.30156E+09-6.76295E+07 8.00549E+06
 -1      1797-6.77951E+09 8.64560E+07-1.31099E+05 3.94137E+09-5.70349E+07 7.19443E+06
 -1      1799-6.77951E+09 8.64560E+07-1.31099E+05 3.94137E+09-5.70349E+07 7.19443E+06
 -1      1800-1.24158E+10 1.83218E+08 8.53100E+05 2.70010E+09-4.88152E+07 5.03305E+06
 -1      1802-1.24158E+10 1.83218E+08 8.53100E+05 2.70010E+09-4.88152E+07 5.03305E+06
 -1      1803-1.54351E+10 2.33318E+08 2.17957E+05 8.59057E+08-4.51566E+07 1.71799E+06
 -1      1805-1.54351E+10 2.33318E+08 2.17957E+05 8.59057E+08-4.51566E+07 1.71799E+06
 -1      1806-1.51619E+10 2.33307E+08 9.91622E+05-1.18085E+09-4.77174E+07-1.89628E+06
 -1      1808-1.51619E+10 2.33307E+08 9.91622E+05-1.18085E+09-4.77174E+07-1.89628E+06
 -1      1809-1.16357E+10 1.79709E+08 1.21546E+05-2.97485E+09-5.59072E+07-5.07193E+06
 -1      1811-1.16357E+10 1.79709E+08 1.21546E+05-2.97485E+09-5.59072E+07-5.07193E+06
 -1      1812-5.60437E+09 8.68219E+07 5.51566E+05-4.13409E+09-6.82335E+07-7.09484E+06
 -1      1814-5.60437E+09 8.68219E+07 5.51566E+05-4.13409E+09-6.82335E+07-7.09484E+06
 -1      1815 1.64074E+09-2.69878E+07-3.61301E+05-4.40596E+09-8.14768E+07-7.51824E+06
 -1      1817 1.64074E+09-2.69878E+07-3.61301E+05-4.40596E+09-8.14768E+07-7.51824E+06
 -1      1818 8.54192E+09-1.36206E+08-1.07853E+05-3.72949E+09-9.24152E+07-6.24185E+06
 -1      1820 8.54192E+09-1.36206E+08-1.07853E+05-3.72949E+09-9.24152E+07-6.24185E+06
 -1      1821 1.36111E+10-2.18581E+08-8.13792E+05-2.24728E+09-9.76007E+07-3.52393E+06
 -1      1823 1.36111E+10-2.18581E+08-8.13792E+05-2.24728E+09-9.76007E+07-3.52393E+06
 -1      1824 1.57490E+10-2.56139E+08-4.95141E+05-2.75006E+08-9.50091E+07 5.81767E+04
 -1      1826 1.57490E+10-2.56139E+08-4.95141E+05-2.75006E+08-9.50091E+07 5.81767E+04
 -1      1827 1.44809E+10-2.42146E+08-8.39748E+05 1.76711E+09-8.36795E+07 3.74291E+06
 -1      1829 1.44809E+10-2.42146E+08-8.39748E+05 1.76711E+09-8.36795E+07 3.74291E+06
 -1      1830 1.00571E+10-1.79616E+08-3.57985E+05 3.44503E+09-6.48255E+07 6.74429E+06
 -1      1832 1.00571E+10-1.79616E+08-3.57985E+05 3.44503E+09-6.48255E+07 6.74429E+06
 -1      1833 3.39665E+09-8.38141E+07-3.97752E+05 4.40497E+09-4.07521E+07 8.42292E+06
 -1      1835 3.39665E+09-8.38141E+07-3.97752E+05 4.40497E+09-4.07521E+07 8.42292E+06
 -1      1836-4.11486E+09 2.49360E+07 1.19147E+05 4.45101E+09-1.53933E+07 8.41257E+06
 -1      1838-4.11486E+09 2.49360E+07 1.19147E+05 4.45101E+09-1.53933E+07 8.41257E+06
 -1      1839-1.09294E+10 1.20491E+08 1.72737E+05 3.58800E+09 7.54343E+06 6.75900E+06
 -1      1841-1.09294E+10 1.20491E+08 1.72737E+05 3.58800E+09 7.54343E+06 6.75900E+06
 -1      1842-1.56800E+10 1.82732E+08 4.54296E+05 2.02586E+09 2.40820E+07 3.74234E+06
 -1      1844-1.56800E+10 1.82732E+08 4.54296E+05 2.02586E+09 2.40820E+07 3.74234E+06
 -1      1845-1.74910E+10 1.96212E+08 4.46409E+05 1.33405E+08 3.21872E+07 2.74737E+05
 -1      1847-1.74910E+10 1.96212E+08 4.46409E+05 1.33405E+08 3.21872E+07 2.74737E+05
 -1      1848-1.61915E+10 1.52123E+08 2.52098E+05-1.62381E+09 3.05750E+07-3.34808E+06
 -1      1850-1.61915E+10 1.52123E+08 2.52098E+05-1.62381E+09 3.05750E+07-3.34808E+06
 -1      1851-1.23867E+10 7.14757E+07 2.05303E+05-2.79344E+09 2.08049E+07-5.04401E+06
 -1      1853-1.23867E+10 7.14757E+07 2.05303E+05-2.79344E+09 2.08049E+07-5.04401E+06
 -1      1854-7.40965E+09-6.15560E+07-2.79202E+05-2.98243E+09 5.35215E+06-6.80769E+06
 -1      1856-7.40965E+09-6.15560E+07-2.79202E+05-2.98243E+09 5.35215E+06-6.80769E+06
 -1      1857-3.03515E+09-1.94871E+08-9.66474E+05-1.98180E+09-1.03831E+07-2.17212E+06
 -1      1859-3.03515E+09-1.94871E+08-9.66474E+05-1.98180E+09-1.03831E+07-2.17212E+06
 -1      1860-6.50172E-03-1.38768E-04-5.19074E-03-1.78330E+08-3.60343E+07-4.27055E-03
 -1      1862-6.50172E-03-1.38768E-04-5.19074E-03-1.78330E+08-3.60343E+07-4.27055E-03
 -1      1863-4.43296E-03-5.16187E-04-5.09809E-03 3.58091E+07-9.68419E+07-4.20965E-03
 -1      1865-4.43296E-03-5.16187E-04-5.09809E-03 3.58091E+07-9.68419E+07-4.20965E-03
 -1      1866-1.84744E-03-1.00484E-03-1.03149E-04-6.46415E+07-1.30536E+08-3.71731E-03
 -1      1868-1.84744E-03-1.00484E-03-1.03149E-04-6.46415E+07-1.30536E+08-3.71731E-03
 -1      1869-6.40164E-04-1.07553E-03 5.52607E-03 7.32928E+06-1.60600E+08-2.13612E-03
 -1      1871-6.40164E-04-1.07553E-03 5.52607E-03 7.32928E+06-1.60600E+08-2.13612E-03
 -1      1872-1.83790E-03-3.09151E-04 5.93663E-03-7.66201E+06-1.73549E+08 1.20302E-03
 -1      1874-1.83790E-03-3.09151E-04 5.93663E-03-7.66201E+06-1.73549E+08 1.20302E-03
 -1      1875-3.68681E-03 1.34872E-04 7.55758E-04 2.35821E+07-1.71062E+08 4.03308E-03
 -1      1877-3.68681E-03 1.34872E-04 7.55758E-04 2.35821E+07-1.71062E+08 4.03308E-03
 -1      1878-3.86618E-03-7.99592E-05-4.97578E-03 2.53493E+07-1.57228E+08 4.67903E-03
 -1      1880-3.86618E-03-7.99592E-05-4.97578E-03 2.53493E+07-1.57228E+08 4.67903E-03
 -1      1881-2.24481E-03-1.54752E-04-5.64187E-03 3.43191E+07-1.33897E+08 4.56770E-03
 -1      1883-2.24481E-03-1.54752E-04-5.64187E-03 3.43191E+07-1.33897E+08 4.56770E-03
 -1      1884-1.43154E-03-1.91927E-04-2.93857E-03 2.89410E+07-1.10332E+08 6.65973E-03
 -1      1886-1.43154E-03-1.91927E-04-2.93857E-03 2.89410E+07-1.10332E+08 6.65973E-03
 -1      1887-3.15451E-03-3.43826E-04-4.05339E-03 2.09042E+07-8.99929E+07 1.05109E-02
 -1      1889-3.15451E-03-3.43826E-04-4.05339E-03 2.09042E+07-8.99929E+07 1.05109E-02
 -1      1890-5.63873E-03 3.32520E-05-1.01821E-02 6.39331E+06-8.01726E+07 1.12521E-02
 -1      1892-5.63873E-03 3.32520E-05-1.01821E-02 6.39331E+06-8.01726E+07 1.12521E-02
 -1      1893-7.15914E-03 2.13573E-04-1.63762E-02-8.48978E+06-8.16408E+07 8.68838E-03
 -1      1895-7.15914E-03 2.13573E-04-1.63762E-02-8.48978E+06-8.16408E+07 8.68838E-03
 -1      1896-8.48324E-03 2.32986E-04-1.91841E-02-2.21221E+07-9.55734E+07 5.44014E-03
 -1      1898-8.48324E-03 2.32986E-04-1.91841E-02-2.21221E+07-9.55734E+07 5.44014E-03
 -1      1899-9.50168E-03 1.73568E-04-1.96266E-02-3.07113E+07-1.17685E+08 1.66127E-03
 -1      1901-9.50168E-03 1.73568E-04-1.96266E-02-3.07113E+07-1.17685E+08 1.66127E-03
 -1      1902-8.53582E-03-1.80194E-04-2.02562E-02-3.28822E+07-1.43540E+08-1.63830E-03
 -1      1904-8.53582E-03-1.80194E-04-2.02562E-02-3.28822E+07-1.43540E+08-1.63830E-03
 -1      1905-6.85424E-03-1.78891E-04-2.12922E-02-2.78968E+07-1.66082E+08-3.18256E-03
 -1      1907-6.85424E-03-1.78891E-04-2.12922E-02-2.78968E+07-1.66082E+08-3.18256E-03
 -1      1908-6.95876E-03-5.51283E-04-2.12244E-02-1.69859E+07-1.79906E+08-3.51138E-03
 -1      1910-6.95876E-03-5.51283E-04-2.12244E-02-1.69859E+07-1.79906E+08-3.51138E-03
 -1      1911-7.03318E-03-6.95202E-04-1.84434E-02-2.39128E+06-1.80210E+08-3.26109E-03
 -1      1913-7.03318E-03-6.95202E-04-1.84434E-02-2.39128E+06-1.80210E+08-3.26109E-03
 -1      1914-4.39406E-03-3.67639E-04-1.43951E-02 1.27047E+07-1.65796E+08-2.38856E-03
 -1      1916-4.39406E-03-3.67639E-04-1.43951E-02 1.27047E+07-1.65796E+08-2.38856E-03
 -1      1917-9.67661E-05-6.67394E-06-1.19131E-02 2.50676E+07-1.37607E+08-2.75081E-03
 -1      1919-9.67661E-05-6.67394E-06-1.19131E-02 2.50676E+07-1.37607E+08-2.75081E-03
 -1      1920 3.08131E-03-9.32187E-05-1.12025E-02 3.21719E+07-1.00310E+08-4.30544E-03
 -1      1922 3.08131E-03-9.32187E-05-1.12025E-02 3.21719E+07-1.00310E+08-4.30544E-03
 -1      1923 4.42154E-03-4.43967E-05-1.22439E-02 3.21958E+07-5.94917E+07-4.28905E-03
 -1      1925 4.42154E-03-4.43967E-05-1.22439E-02 3.21958E+07-5.94917E+07-4.28905E-03
 -1      1926 4.79121E-03-3.13518E-04-1.60559E-02 2.59727E+07-2.25469E+07-3.04721E-03
 -1      1928 4.79121E-03-3.13518E-04-1.60559E-02 2.59727E+07-2.25469E+07-3.04721E-03
 -1      1929 3.81226E-03-4.00557E-04-2.02243E-02 1.32397E+07 5.25971E+06-1.47017E-03
 -1      1931 3.81226E-03-4.00557E-04-2.02243E-02 1.32397E+07 5.25971E+06-1.47017E-03
 -1      1932 1.64834E-03 4.08830E-05-2.23399E-02 2.39769E+05 1.92269E+07-2.44485E-06
 -1      1934 1.64834E-03 4.08830E-05-2.23399E-02 2.39769E+05 1.92269E+07-2.44485E-06
 -1      1935 2.44712E-04 1.79437E-04-2.35830E-02-1.64969E+07 1.92648E+07 6.24169E-04
 -1      1937 2.44712E-04 1.79437E-04-2.35830E-02-1.64969E+07 1.92648E+07 6.24169E-04
 -1      1938-1.61827E-04 4.82011E-05-2.45562E-02-2.12960E+07 6.96661E+06 1.22225E-03
 -1      1940-1.61827E-04 4.82011E-05-2.45562E-02-2.12960E+07 6.96661E+06 1.22225E-03
 -1      1941 7.71001E-05-3.41170E-04-2.33730E-02-3.35587E+07-1.21579E+07 1.56269E-03
 -1      1943 7.71001E-05-3.41170E-04-2.33730E-02-3.35587E+07-1.21579E+07 1.56269E-03
 -1      1944 3.60172E-04-4.81483E-04-1.92180E-02-1.36151E+07-3.05203E+07 1.03447E-03
 -1      1946 3.60172E-04-4.81483E-04-1.92180E-02-1.36151E+07-3.05203E+07 1.03447E-03
 -1      1947-3.06129E-03-1.19052E-05-4.12823E-03-2.94130E+08 3.50224E-06-5.12362E-03
 -1      1949-3.06129E-03-1.19052E-05-4.12823E-03-2.94130E+08 3.50224E-06-5.12362E-03
 -1      1950-2.66508E-03-2.77405E-04-3.69970E-03 1.93639E+07-9.41567E-05-3.95766E-03
 -1      1952-2.66508E-03-2.77405E-04-3.69970E-03 1.93639E+07-9.41567E-05-3.95766E-03
 -1      1953-3.03033E-03-8.69219E-04 2.88362E-04-1.11668E+08-1.16572E-04-2.91609E-03
 -1      1955-3.03033E-03-8.69219E-04 2.88362E-04-1.11668E+08-1.16572E-04-2.91609E-03
 -1      1956-3.12391E-03-9.64023E-04 4.34029E-03 4.35437E+06-6.55726E-05-2.29709E-03
 -1      1958-3.12391E-03-9.64023E-04 4.34029E-03 4.35437E+06-6.55726E-05-2.29709E-03
 -1      1959-3.56301E-03-2.47303E-04 4.83699E-03 1.37874E+06-1.12131E-05-2.67781E-04
 -1      1961-3.56301E-03-2.47303E-04 4.83699E-03 1.37874E+06-1.12131E-05-2.67781E-04
 -1      1962-3.88716E-03 1.13097E-05 1.36024E-03 5.88605E+07 3.19481E-05 1.57097E-03
 -1      1964-3.88716E-03 1.13097E-05 1.36024E-03 5.88605E+07 3.19481E-05 1.57097E-03
 -1      1965-3.41042E-03 9.44182E-05-3.61898E-03 7.30074E+07 1.20497E-04 2.33353E-03
 -1      1967-3.41042E-03 9.44182E-05-3.61898E-03 7.30074E+07 1.20497E-04 2.33353E-03
 -1      1968-3.37294E-03 1.19535E-04-6.17621E-03 8.83558E+07 9.83626E-05 4.15018E-03
 -1      1970-3.37294E-03 1.19535E-04-6.17621E-03 8.83558E+07 9.83626E-05 4.15018E-03
 -1      1971-4.22748E-03 1.88331E-06-4.97555E-03 7.78076E+07 5.33760E-05 7.43346E-03
 -1      1973-4.22748E-03 1.88331E-06-4.97555E-03 7.78076E+07 5.33760E-05 7.43346E-03
 -1      1974-5.57717E-03-1.33952E-04-4.81694E-03 5.55245E+07 1.11312E-04 1.03508E-02
 -1      1976-5.57717E-03-1.33952E-04-4.81694E-03 5.55245E+07 1.11312E-04 1.03508E-02
 -1      1977-6.89568E-03-4.47801E-05-9.02985E-03 2.04065E+07 2.09816E-04 1.04221E-02
 -1      1979-6.89568E-03-4.47801E-05-9.02985E-03 2.04065E+07 2.09816E-04 1.04221E-02
 -1      1980-7.15289E-03-5.26119E-05-1.47051E-02-1.75045E+07 4.12598E-04 8.41611E-03
 -1      1982-7.15289E-03-5.26119E-05-1.47051E-02-1.75045E+07 4.12598E-04 8.41611E-03
 -1      1983-6.70826E-03-7.67834E-05-1.84555E-02-5.15006E+07 6.46301E-04 6.41232E-03
 -1      1985-6.70826E-03-7.67834E-05-1.84555E-02-5.15006E+07 6.46301E-04 6.41232E-03
 -1      1986-6.21007E-03 2.61721E-04-1.96808E-02-7.40874E+07 6.51380E-04 3.76856E-03
 -1      1988-6.21007E-03 2.61721E-04-1.96808E-02-7.40874E+07 6.51380E-04 3.76856E-03
 -1      1989-5.00738E-03-1.69623E-05-2.02970E-02-8.08550E+07 5.45458E-04 7.54067E-04
 -1      1991-5.00738E-03-1.69623E-05-2.02970E-02-8.08550E+07 5.45458E-04 7.54067E-04
 -1      1992-2.92550E-03-1.61873E-04-2.13173E-02-7.06154E+07 4.08847E-04-6.77241E-04
 -1      1994-2.92550E-03-1.61873E-04-2.13173E-02-7.06154E+07 4.08847E-04-6.77241E-04
 -1      1995-2.45398E-03-5.26734E-04-2.12953E-02-4.58005E+07 2.36508E-04-6.98022E-04
 -1      1997-2.45398E-03-5.26734E-04-2.12953E-02-4.58005E+07 2.36508E-04-6.98022E-04
 -1      1998-4.47074E-03-9.93850E-04-1.81933E-02-1.19877E+07 1.75986E-04-6.57275E-04
 -1      2000-4.47074E-03-9.93850E-04-1.81933E-02-1.19877E+07 1.75986E-04-6.57275E-04
 -1      2001-4.94002E-03-5.22930E-04-1.28125E-02 2.34367E+07 1.41796E-04-1.09091E-03
 -1      2003-4.94002E-03-5.22930E-04-1.28125E-02 2.34367E+07 1.41796E-04-1.09091E-03
 -1      2004-2.49137E-03-2.25302E-04-8.98439E-03 5.27317E+07 4.65179E-05-2.86242E-03
 -1      2006-2.49137E-03-2.25302E-04-8.98439E-03 5.27317E+07 4.65179E-05-2.86242E-03
 -1      2007-2.12624E-04-1.05894E-04-8.97079E-03 6.97433E+07 2.26982E-05-5.29826E-03
 -1      2009-2.12624E-04-1.05894E-04-8.97079E-03 6.97433E+07 2.26982E-05-5.29826E-03
 -1      2010 1.11711E-03 1.65883E-04-1.22701E-02 7.05922E+07 6.72601E-05-6.34138E-03
 -1      2012 1.11711E-03 1.65883E-04-1.22701E-02 7.05922E+07 6.72601E-05-6.34138E-03
 -1      2013 2.51356E-03 2.39997E-06-1.68052E-02 5.61714E+07 9.37060E-05-5.24037E-03
 -1      2015 2.51356E-03 2.39997E-06-1.68052E-02 5.61714E+07 9.37060E-05-5.24037E-03
 -1      2016 2.29741E-03-5.16707E-04-2.03400E-02 2.80860E+07 4.93675E-05-2.30363E-03
 -1      2018 2.29741E-03-5.16707E-04-2.03400E-02 2.80860E+07 4.93675E-05-2.30363E-03
 -1      2019 1.03269E-04-6.44020E-04-2.19898E-02-3.06442E+06-9.51439E-06-1.50776E-04
 -1      2021 1.03269E-04-6.44020E-04-2.19898E-02-3.06442E+06-9.51439E-06-1.50776E-04
 -1      2022-1.65539E-03-2.80434E-04-2.28272E-02-3.77673E+07-5.32642E-05-2.92564E-04
 -1      2024-1.65539E-03-2.80434E-04-2.28272E-02-3.77673E+07-5.32642E-05-2.92564E-04
 -1      2025-2.09002E-03-1.53737E-04-2.36994E-02-5.20408E+07-2.26311E-06-1.73902E-04
 -1      2027-2.09002E-03-1.53737E-04-2.36994E-02-5.20408E+07-2.26311E-06-1.73902E-04
 -1      2028-1.20384E-03-1.69288E-04-2.27723E-02-6.97690E+07 8.19750E-06 6.73631E-04
 -1      2030-1.20384E-03-1.69288E-04-2.27723E-02-6.97690E+07 8.19750E-06 6.73631E-04
 -1      2031-1.54743E-04-4.92939E-04-1.90521E-02-3.26275E+07-6.80946E-05 5.38723E-04
 -1      2033-1.54743E-04-4.92939E-04-1.90521E-02-3.26275E+07-6.80946E-05 5.38723E-04
 -1      2034-2.54282E-04 6.06905E-05-1.95260E-03-1.78330E+08 3.60343E+07-5.91468E-03
 -1      2036-2.54282E-04 6.06905E-05-1.95260E-03-1.78330E+08 3.60343E+07-5.91468E-03
 -1      2037-2.77949E-03 1.39333E-04-1.96302E-03 3.58091E+07 9.68419E+07-3.41370E-03
 -1      2039-2.77949E-03 1.39333E-04-1.96302E-03 3.58091E+07 9.68419E+07-3.41370E-03
 -1      2040-3.90912E-03 1.27395E-04 3.70271E-04-6.46415E+07 1.30536E+08-1.65843E-03
 -1      2042-3.90912E-03 1.27395E-04 3.70271E-04-6.46415E+07 1.30536E+08-1.65843E-03
 -1      2043-3.54146E-03-1.92501E-05 2.77786E-03 7.32928E+06 1.60600E+08-1.18543E-03
 -1      2045-3.54146E-03-1.92501E-05 2.77786E-03 7.32928E+06 1.60600E+08-1.18543E-03
 -1      2046-3.34658E-03 1.07523E-04 4.48214E-03-7.66201E+06 1.73549E+08 4.73299E-04
 -1      2048-3.34658E-03 1.07523E-04 4.48214E-03-7.66201E+06 1.73549E+08 4.73299E-04
 -1      2049-3.64755E-03 1.23084E-04 3.98011E-03 2.35821E+07 1.71062E+08 1.09773E-03
 -1      2051-3.64755E-03 1.23084E-04 3.98011E-03 2.35821E+07 1.71062E+08 1.09773E-03
 -1      2052-4.76630E-03 1.06240E-04-7.08233E-04 2.53493E+07 1.57228E+08 3.97332E-04
 -1      2054-4.76630E-03 1.06240E-04-7.08233E-04 2.53493E+07 1.57228E+08 3.97332E-04
 -1      2055-6.03840E-03 1.52359E-04-6.16024E-03 3.43191E+07 1.33897E+08 2.61952E-03
 -1      2057-6.03840E-03 1.52359E-04-6.16024E-03 3.43191E+07 1.33897E+08 2.61952E-03
 -1      2058-5.75193E-03 1.89793E-04-6.94365E-03 2.89410E+07 1.10332E+08 6.88065E-03
 -1      2060-5.75193E-03 1.89793E-04-6.94365E-03 2.89410E+07 1.10332E+08 6.88065E-03
 -1      2061-5.70454E-03 5.60145E-05-5.92152E-03 2.09042E+07 8.99929E+07 8.71409E-03
 -1      2063-5.70454E-03 5.60145E-05-5.92152E-03 2.09042E+07 8.99929E+07 8.71409E-03
 -1      2064-7.03879E-03-5.32252E-05-8.29318E-03 6.39331E+06 8.01726E+07 7.79932E-03
 -1      2066-7.03879E-03-5.32252E-05-8.29318E-03 6.39331E+06 8.01726E+07 7.79932E-03
 -1      2067-6.71203E-03-1.56622E-04-1.32389E-02-8.48978E+06 8.16408E+07 6.28715E-03
 -1      2069-6.71203E-03-1.56622E-04-1.32389E-02-8.48978E+06 8.16408E+07 6.28715E-03
 -1      2070-4.24547E-03-6.37561E-04-1.81635E-02-2.21221E+07 9.55734E+07 5.56939E-03
 -1      2072-4.24547E-03-6.37561E-04-1.81635E-02-2.21221E+07 9.55734E+07 5.56939E-03
 -1      2073-1.79859E-03-3.65173E-04-2.02173E-02-3.07113E+07 1.17685E+08 4.43819E-03
 -1      2075-1.79859E-03-3.65173E-04-2.02173E-02-3.07113E+07 1.17685E+08 4.43819E-03
 -1      2076-5.32151E-04 1.89808E-05-2.00089E-02-3.28822E+07 1.43540E+08 1.48801E-03
 -1      2078-5.32151E-04 1.89808E-05-2.00089E-02-3.28822E+07 1.43540E+08 1.48801E-03
 -1      2079-1.43116E-04 3.11137E-05-2.03090E-02-2.78968E+07 1.66082E+08-6.11573E-04
 -1      2081-1.43116E-04 3.11137E-05-2.03090E-02-2.78968E+07 1.66082E+08-6.11573E-04
 -1      2082-8.27948E-04 1.19045E-04-1.93699E-02-1.69859E+07 1.79906E+08-1.24595E-04
 -1      2084-8.27948E-04 1.19045E-04-1.93699E-02-1.69859E+07 1.79906E+08-1.24595E-04
 -1      2085-3.47342E-03-3.27664E-04-1.54934E-02-2.39128E+06 1.80210E+08 3.13510E-04
 -1      2087-3.47342E-03-3.27664E-04-1.54934E-02-2.39128E+06 1.80210E+08 3.13510E-04
 -1      2088-5.13994E-03-3.67274E-04-1.09280E-02 1.27047E+07 1.65796E+08-9.36572E-04
 -1      2090-5.13994E-03-3.67274E-04-1.09280E-02 1.27047E+07 1.65796E+08-9.36572E-04
 -1      2091-3.93730E-03-1.73055E-05-8.04973E-03 2.50676E+07 1.37607E+08-3.15217E-03
 -1      2093-3.93730E-03-1.73055E-05-8.04973E-03 2.50676E+07 1.37607E+08-3.15217E-03
 -1      2094-2.54750E-03 3.06759E-04-8.05817E-03 3.21719E+07 1.00310E+08-5.71078E-03
 -1      2096-2.54750E-03 3.06759E-04-8.05817E-03 3.21719E+07 1.00310E+08-5.71078E-03
 -1      2097-1.60039E-03 4.46477E-04-1.23865E-02 3.21958E+07 5.94917E+07-7.40376E-03
 -1      2099-1.60039E-03 4.46477E-04-1.23865E-02 3.21958E+07 5.94917E+07-7.40376E-03
 -1      2100-1.45248E-04 1.59373E-04-1.84415E-02 2.59727E+07 2.25469E+07-6.00669E-03
 -1      2102-1.45248E-04 1.59373E-04-1.84415E-02 2.59727E+07 2.25469E+07-6.00669E-03
 -1      2103 1.09914E-04-3.48617E-04-2.08563E-02 1.32397E+07-5.25971E+06-1.86893E-03
 -1      2105 1.09914E-04-3.48617E-04-2.08563E-02 1.32397E+07-5.25971E+06-1.86893E-03
 -1      2106-1.59988E-03-7.71462E-04-1.97011E-02 2.39769E+05-1.92269E+07 4.44022E-04
 -1      2108-1.59988E-03-7.71462E-04-1.97011E-02 2.39769E+05-1.92269E+07 4.44022E-04
 -1      2109-3.42196E-03-6.01040E-04-1.90984E-02-1.64969E+07-1.92648E+07-5.99522E-04
 -1      2111-3.42196E-03-6.01040E-04-1.90984E-02-1.64969E+07-1.92648E+07-5.99522E-04
 -1      2112-4.27974E-03-1.88606E-04-2.00911E-02-2.12960E+07-6.96661E+06-7.43549E-04
 -1      2114-4.27974E-03-1.88606E-04-2.00911E-02-2.12960E+07-6.96661E+06-7.43549E-04
 -1      2115-3.60112E-03-3.27086E-05-1.98614E-02-3.35587E+07 1.21579E+07 6.83925E-04
 -1      2117-3.60112E-03-3.27086E-05-1.98614E-02-3.35587E+07 1.21579E+07 6.83925E-04
 -1      2118-1.80029E-03-2.13023E-04-1.70175E-02-1.36151E+07 3.05203E+07 7.69676E-04
 -1      2120-1.80029E-03-2.13023E-04-1.70175E-02-1.36151E+07 3.05203E+07 7.69676E-04
 -1      2121-1.10685E+10-5.17166E+08-7.45783E+05-6.43136E+09 1.87225E+07 2.68696E+07
 -1      2123-1.10685E+10-5.17166E+08-7.45783E+05-6.43136E+09 1.87225E+07 2.68696E+07
 -1      2124-1.07887E+09 3.48782E+07-1.57145E+06-5.71207E+09 3.84263E+07 1.36771E+06
 -1      2126-1.07887E+09 3.48782E+07-1.57145E+06-5.71207E+09 3.84263E+07 1.36771E+06
 -1      2127 7.26339E+09-3.23822E+08 5.43010E+05-4.10987E+09 5.91732E+07 1.01544E+07
 -1      2129 7.26339E+09-3.23822E+08 5.43010E+05-4.10987E+09 5.91732E+07 1.01544E+07
 -1      2130 1.24463E+10-2.46492E+08-1.78904E+06-2.10529E+09 7.31565E+07 1.39306E+06
 -1      2132 1.24463E+10-2.46492E+08-1.78904E+06-2.10529E+09 7.31565E+07 1.39306E+06
 -1      2133 1.40771E+10-3.06054E+08-2.74930E+05 1.68803E+08 8.17084E+07 6.93473E+04
 -1      2135 1.40771E+10-3.06054E+08-2.74930E+05 1.68803E+08 8.17084E+07 6.93473E+04
 -1      2136 1.20278E+10-2.26873E+08-8.60823E+05 2.21447E+09 8.25062E+07-4.71205E+06
 -1      2138 1.20278E+10-2.26873E+08-8.60823E+05 2.21447E+09 8.25062E+07-4.71205E+06
 -1      2139 7.00777E+09-1.50532E+08-5.02897E+05 3.69495E+09 7.70844E+07-6.67710E+06
 -1      2141 7.00777E+09-1.50532E+08-5.02897E+05 3.69495E+09 7.70844E+07-6.67710E+06
 -1      2142 2.15463E+08-2.58306E+07 1.42065E+05 4.30156E+09 6.76295E+07-8.00549E+06
 -1      2144 2.15463E+08-2.58306E+07 1.42065E+05 4.30156E+09 6.76295E+07-8.00549E+06
 -1      2145-6.77951E+09 8.64560E+07-1.31099E+05 3.94137E+09 5.70349E+07-7.19443E+06
 -1      2147-6.77951E+09 8.64560E+07-1.31099E+05 3.94137E+09 5.70349E+07-7.19443E+06
 -1      2148-1.24158E+10 1.83218E+08 8.53100E+05 2.70010E+09 4.88152E+07-5.03305E+06
 -1      2150-1.24158E+10 1.83218E+08 8.53100E+05 2.70010E+09 4.88152E+07-5.03305E+06
 -1      2151-1.54351E+10 2.33318E+08 2.17957E+05 8.59057E+08 4.51566E+07-1.71799E+06
 -1      2153-1.54351E+10 2.33318E+08 2.17957E+05 8.59057E+08 4.51566E+07-1.71799E+06
 -1      2154-1.51619E+10 2.33307E+08 9.91622E+05-1.18085E+09 4.77174E+07 1.89628E+06
 -1      2156-1.51619E+10 2.33307E+08 9.91622E+05-1.18085E+09 4.77174E+07 1.89628E+06
 -1      2157-1.16357E+10 1.79709E+08 1.21546E+05-2.97485E+09 5.59072E+07 5.07193E+06
 -1      2159-1.16357E+10 1.79709E+08 1.21546E+05-2.97485E+09 5.59072E+07 5.07193E+06
 -1      2160-5.60437E+09 8.68219E+07 5.51566E+05-4.13409E+09 6.82335E+07 7.09484E+06
 -1      2162-5.60437E+09 8.68219E+07 5.51566E+05-4.13409E+09 6.82335E+07 7.09484E+06
 -1      2163 1.64074E+09-2.69878E+07-3.61301E+05-4.40596E+09 8.14768E+07 7.51824E+06
 -1      2165 1.64074E+09-2.69878E+07-3.61301E+05-4.40596E+09 8.14768E+07 7.51824E+06
 -1      2166 8.54192E+09-1.36206E+08-1.07853E+05-3.72949E+09 9.24152E+07 6.24185E+06
 -1      2168 8.54192E+09-1.36206E+08-1.07853E+05-3.72949E+09 9.24152E+07 6.24185E+06
 -1      2169 1.36111E+10-2.18581E+08-8.13792E+05-2.24728E+09 9.76007E+07 3.52393E+06
 -1      2171 1.36111E+10-2.18581E+08-8.13792E+05-2.24728E+09 9.76007E+07 3.52393E+06
 -1      2172 1.57490E+10-2.56139E+08-4.95141E+05-2.75006E+08 9.50091E+07-5.81767E+04
 -1      2174 1.57490E+10-2.56139E+08-4.95141E+05-2.75006E+08 9.50091E+07-5.81767E+04
 -1      2175 1.44809E+10-2.42146E+08-8.39748E+05 1.76711E+09 8.36795E+07-3.74291E+06
 -1      2177 1.44809E+10-2.42146E+08-8.39748E+05 1.76711E+09 8.36795E+07-3.74291E+06
 -1      2178 1.00571E+10-1.79616E+08-3.57985E+05 3.44503E+09 6.48255E+07-6.74429E+06
 -1      2180 1.00571E+10-1.79616E+08-3.57985E+05 3.44503E+09 6.48255E+07-6.74429E+06
 -1      2181 3.39665E+09-8.38141E+07-3.97752E+05 4.40497E+09 4.07521E+07-8.42292E+06
 -1      2183 3.39665E+09-8.38141E+07-3.97752E+05 4.40497E+09 4.07521E+07-8.42292E+06
 -1      2184-4.11486E+09 2.49360E+07 1.19147E+05 4.45101E+09 1.53933E+07-8.41257E+06
 -1      2186-4.11486E+09 2.49360E+07 1.19147E+05 4.45101E+09 1.53933E+07-8.41257E+06
 -1      2187-1.09294E+10 1.20491E+08 1.72737E+05 3.58800E+09-7.54343E+06-6.75900E+06
 -1      2189-1.09294E+10 1.20491E+08 1.72737E+05 3.58800E+09-7.54343E+06-6.75900E+06
 -1      2190-1.56800E+10 1.82732E+08 4.54296E+05 2.02586E+09-2.40820E+07-3.74234E+06
 -1      2192-1.56800E+10 1.82732E+08 4.54296E+05 2.02586E+09-2.40820E+07-3.74234E+06
 -1      2193-1.74910E+10 1.96212E+08 4.46409E+05 1.33405E+08-3.21872E+07-2.74737E+05
 -1      2195-1.74910E+10 1.96212E+08 4.46409E+05 1.33405E+08-3.21872E+07-2.74737E+05
 -1      2196-1.61915E+10 1.52123E+08 2.52098E+05-1.62381E+09-3.05750E+07 3.34808E+06
 -1      2198-1.61915E+10 1.52123E+08 2.52098E+05-1.62381E+09-3.05750E+07 3.34808E+06
 -1      2199-1.23867E+10 7.14757E+07 2.05303E+05-2.79344E+09-2.08049E+07 5.04401E+06
 -1      2201-1.23867E+10 7.14757E+07 2.05303E+05-2.79344E+09-2.08049E+07 5.04401E+06
 -1      2202-7.40965E+09-6.15560E+07-2.79202E+05-2.98243E+09-5.35215E+06 6.80769E+06
 -1      2204-7.40965E+09-6.15560E+07-2.79202E+05-2.98243E+09-5.35215E+06 6.80769E+06
 -1      2205-3.03515E+09-1.94871E+08-9.66474E+05-1.98180E+09 1.03831E+07 2.17212E+06
 -1      2207-3.03515E+09-1.94871E+08-9.66474E+05-1.98180E+09 1.03831E+07 2.17212E+06
 -1      2208 1.10685E+10 5.17166E+08 7.45783E+05-6.43136E+09 1.87225E+07-2.68696E+07
 -1      2210 1.10685E+10 5.17166E+08 7.45783E+05-6.43136E+09 1.87225E+07-2.68696E+07
 -1      2211 1.07887E+09-3.48782E+07 1.57145E+06-5.71207E+09 3.84263E+07-1.36771E+06
 -1      2213 1.07887E+09-3.48782E+07 1.57145E+06-5.71207E+09 3.84263E+07-1.36771E+06
 -1      2214-7.26339E+09 3.23822E+08-5.43010E+05-4.10987E+09 5.91732E+07-1.01544E+07
 -1      2216-7.26339E+09 3.23822E+08-5.43010E+05-4.10987E+09 5.91732E+07-1.01544E+07
 -1      2217-1.24463E+10 2.46492E+08 1.78904E+06-2.10529E+09 7.31565E+07-1.39306E+06
 -1      2219-1.24463E+10 2.46492E+08 1.78904E+06-2.10529E+09 7.31565E+07-1.39306E+06
 -1      2220-1.40771E+10 3.06054E+08 2.74930E+05 1.68803E+08 8.17084E+07-6.93473E+04
 -1      2222-1.40771E+10 3.06054E+08 2.74930E+05 1.68803E+08 8.17084E+07-6.93473E+04
 -1      2223-1.20278E+10 2.26873E+08 8.60823E+05 2.21447E+09 8.25062E+07 4.71205E+06
 -1      2225-1.20278E+10 2.26873E+08 8.60823E+05 2.21447E+09 8.25062E+07 4.71205E+06
 -1      2226-7.00777E+09 1.50532E+08 5.02897E+05 3.69495E+09 7.70844E+07 6.67710E+06
 -1      2228-7.00777E+09 1.50532E+08 5.02897E+05 3.69495E+09 7.70844E+07 6.67710E+06
 -1      2229-2.15463E+08 2.58306E+07-1.42065E+05 4.30156E+09 6.76295E+07 8.00549E+06
 -1      2231-2.15463E+08 2.58306E+07-1.42065E+05 4.30156E+09 6.76295E+07 8.00549E+06
 -1      2232 6.77951E+09-8.64560E+07 1.31099E+05 3.94137E+09 5.70349E+07 7.19443E+06
 -1      2234 6.77951E+09-8.64560E+07 1.31099E+05 3.94137E+09 5.70349E+07 7.19443E+06
 -1      2235 1.24158E+10-1.83218E+08-8.53100E+05 2.70010E+09 4.88152E+07 5.03305E+06
 -1      2237 1.24158E+10-1.83218E+08-8.53100E+05 2.70010E+09 4.88152E+07 5.03305E+06
 -1      2238 1.54351E+10-2.33318E+08-2.17957E+05 8.59057E+08 4.51566E+07 1.71799E+06
 -1      2240 1.54351E+10-2.33318E+08-2.17957E+05 8.59057E+08 4.51566E+07 1.71799E+06
 -1      2241 1.51619E+10-2.33307E+08-9.91622E+05-1.18085E+09 4.77174E+07-1.89628E+06
 -1      2243 1.51619E+10-2.33307E+08-9.91622E+05-1.18085E+09 4.77174E+07-1.89628E+06
 -1      2244 1.16357E+10-1.79709E+08-1.21546E+05-2.97485E+09 5.59072E+07-5.07193E+06
 -1      2246 1.16357E+10-1.79709E+08-1.21546E+05-2.97485E+09 5.59072E+07-5.07193E+06
 -1      2247 5.60437E+09-8.68219E+07-5.51566E+05-4.13409E+09 6.82335E+07-7.09484E+06
 -1      2249 5.60437E+09-8.68219E+07-5.51566E+05-4.13409E+09 6.82335E+07-7.09484E+06
 -1      2250-1.64074E+09 2.69878E+07 3.61301E+05-4.40596E+09 8.14768E+07-7.51824E+06
 -1      2252-1.64074E+09 2.69878E+07 3.61301E+05-4.40596E+09 8.14768E+07-7.51824E+06
 -1      2253-8.54192E+09 1.36206E+08 1.07853E+05-3.72949E+09 9.24152E+07-6.24185E+06
 -1      2255-8.54192E+09 1.36206E+08 1.07853E+05-3.72949E+09 9.24152E+07-6.24185E+06
 -1      2256-1.36111E+10 2.18581E+08 8.13792E+05-2.24728E+09 9.76007E+07-3.52393E+06
 -1      2258-1.36111E+10 2.18581E+08 8.13792E+05-2.24728E+09 9.76007E+07-3.52393E+06
 -1      2259-1.57490E+10 2.56139E+08 4.95141E+05-2.75006E+08 9.50091E+07 5.81767E+04
 -1      2261-1.57490E+10 2.56139E+08 4.95141E+05-2.75006E+08 9.50091E+07 5.81767E+04
 -1      2262-1.44809E+10 2.42146E+08 8.39748E+05 1.76711E+09 8.36795E+07 3.74291E+06
 -1      2264-1.44809E+10 2.42146E+08 8.39748E+05 1.76711E+09 8.36795E+07 3.74291E+06
 -1      2265-1.00571E+10 1.79616E+08 3.57985E+05 3.44503E+09 6.48255E+07 6.74429E+06
 -1      2267-1.00571E+10 1.79616E+08 3.57985E+05 3.44503E+09 6.48255E+07 6.74429E+06
 -1      2268-3.39665E+09 8.38141E+07 3.97752E+05 4.40497E+09 4.07521E+07 8.42292E+06
 -1      2270-3.39665E+09 8.38141E+07 3.97752E+05 4.40497E+09 4.07521E+07 8.42292E+06
 -1      2271 4.11486E+09-2.49360E+07-1.19147E+05 4.45101E+09 1.53933E+07 8.41257E+06
 -1      2273 4.11486E+09-2.49360E+07-1.19147E+05 4.45101E+09 1.53933E+07 8.41257E+06
 -1      2274 1.09294E+10-1.20491E+08-1.72737E+05 3.58800E+09-7.54343E+06 6.75900E+06
 -1      2276 1.09294E+10-1.20491E+08-1.72737E+05 3.58800E+09-7.54343E+06 6.75900E+06
 -1      2277 1.56800E+10-1.82732E+08-4.54296E+05 2.02586E+09-2.40820E+07 3.74234E+06
 -1      2279 1.56800E+10-1.82732E+08-4.54296E+05 2.02586E+09-2.40820E+07 3.74234E+06
 -1      2280 1.74910E+10-1.96212E+08-4.46409E+05 1.33405E+08-3.21872E+07 2.74737E+05
 -1      2282 1.74910E+10-1.96212E+08-4.46409E+05 1.33405E+08-3.21872E+07 2.74737E+05
 -1      2283 1.61915E+10-1.52123E+08-2.52098E+05-1.62381E+09-3.05750E+07-3.34808E+06
 -1      2285 1.61915E+10-1.52123E+08-2.52098E+05-1.62381E+09-3.05750E+07-3.34808E+06
 -1      2286 1.23867E+10-7.14757E+07-2.05303E+05-2.79344E+09-2.08049E+07-5.04401E+06
 -1      2288 1.23867E+10-7.14757E+07-2.05303E+05-2.79344E+09-2.08049E+07-5.04401E+06
 -1      2289 7.40965E+09 6.15560E+07 2.79202E+05-2.98243E+09-5.35215E+06-6.80769E+06
 -1      2291 7.40965E+09 6.15560E+07 2.79202E+05-2.98243E+09-5.35215E+06-6.80769E+06
 -1      2292 3.03515E+09 1.94871E+08 9.66474E+05-1.98180E+09 1.03831E+07-2.17212E+06
 -1      2294 3.03515E+09 1.94871E+08 9.66474E+05-1.98180E+09 1.03831E+07-2.17212E+06
 -3
    1PSTEP                        63           1           1          
    1PGM                1.000000E+00                                  
    1PGK                1.666060E+07                                  
    1PHID                         -1                                  
    1PSUBC                         0                                  
    1PMODE                        16                                  
  100CL  116 649.6290092         930                     2   16MODAL      1
 -4  FORC        4    1
 -5  F1          1    2    1    0
 -5  F2          1    2    2    0
 -5  F3          1    2    3    0
 -5  ALL         1    2    0    0    1ALL
 -1       404-6.23978E+06 1.85399E+06 1.47705E+04
 -1       406-6.06195E+06 1.80997E+06 1.47705E+04
 -1       407 3.78581E+04-9.66436E+04 1.13778E+04
 -1       409 3.78581E+04-9.66436E+04 1.13778E+04
 -1       410 1.66008E-06-6.42336E+05-2.86314E-06
 -1       412 1.71133E-06-1.06514E+06-3.45979E-06
 -1       413-1.41037E-07 5.10337E+05 3.31856E+05
 -1       415-2.16947E-07 5.10337E+05-3.31856E+05
 -1       424 3.14510E-06 1.75543E+06 4.85693E-07
 -1       426 1.76867E-06 1.83568E+06 3.30844E-07
 -1       427 1.41093E+06-1.61644E+06 1.15238E+05
 -1       429-1.41093E+06-1.61644E+06-1.15238E+05
 -1       438-3.78581E+04-9.66436E+04-1.13778E+04
 -1       440-3.78581E+04-9.66436E+04-1.13778E+04
 -1       441 6.23978E+06 1.85399E+06-1.47705E+04
 -1       443 6.06195E+06 1.80997E+06-1.47705E+04
 -1       444 1.41093E+06-1.61644E+06-1.15238E+05
 -1       446-1.41093E+06-1.61644E+06 1.15238E+05
 -1       447-1.19861E-06 1.75543E+06-1.15913E-06
 -1       449 1.00123E-06 1.83568E+06-1.15565E-06
 -1       458-2.85956E-07 5.10337E+05-3.31856E+05
 -1       460-5.60769E-07 5.10337E+05 3.31856E+05
 -1       461-1.06249E-06-6.42336E+05 1.61717E-06
 -1       463-9.82860E-07-1.06514E+06 3.08458E-06
 -1       472 6.23978E+06 1.85399E+06 1.47705E+04
 -1       474 6.06195E+06 1.80997E+06 1.47705E+04
 -1       475-3.78581E+04-9.66436E+04 1.13778E+04
 -1       477-3.78581E+04-9.66436E+04 1.13778E+04
 -1       478 3.78581E+04-9.66436E+04-1.13778E+04
 -1       480 3.78581E+04-9.66436E+04-1.13778E+04
 -1       481-6.23978E+06 1.85399E+06-1.47705E+04
 -1       483-6.06195E+06 1.80997E+06-1.47705E+04
 -1       484 1.93528E+04-4.06760E+04 3.65878E+03
 -1       486 1.93528E+04-4.06760E+04 3.65878E+03
 -1       487 2.78569E+04-9.16537E+04 6.83584E+03
 -1       489 2.78569E+04-9.16537E+04 6.83584E+03
 -1       490 2.32376E+04-1.42298E+05 7.82142E+03
 -1       492 2.32376E+04-1.42298E+05 7.82142E+03
 -1       493 8.96426E+03-1.74305E+05 5.50274E+03
 -1       495 8.96426E+03-1.74305E+05 5.50274E+03
 -1       496-1.01768E+04-1.75937E+05-4.41554E+02
 -1       498-1.01768E+04-1.75937E+05-4.41554E+02
 -1       499-2.89905E+04-1.43831E+05-9.81374E+03
 -1       501-2.89905E+04-1.43831E+05-9.81374E+03
 -1       502-4.27076E+04-8.30164E+04-2.17115E+04
 -1       504-4.27076E+04-8.30164E+04-2.17115E+04
 -1       505-4.79235E+04-5.45740E+03-3.47316E+04
 -1       507-4.79235E+04-5.45740E+03-3.47316E+04
 -1       508-4.32223E+04 7.28086E+04-4.71704E+04
 -1       510-4.32223E+04 7.28086E+04-4.71704E+04
 -1       511-2.94373E+04 1.35291E+05-5.73438E+04
 -1       513-2.94373E+04 1.35291E+05-5.73438E+04
 -1       514-9.42726E+03 1.68722E+05-6.38862E+04
 -1       516-9.42726E+03 1.68722E+05-6.38862E+04
 -1       517 1.25593E+04 1.65980E+05-6.60009E+04
 -1       519 1.25593E+04 1.65980E+05-6.60009E+04
 -1       520 3.18172E+04 1.27687E+05-6.35941E+04
 -1       522 3.18172E+04 1.27687E+05-6.35941E+04
 -1       523 4.42072E+04 6.20984E+04-5.72733E+04
 -1       525 4.42072E+04 6.20984E+04-5.72733E+04
 -1       526 4.70559E+04-1.66446E+04-4.82075E+04
 -1       528 4.70559E+04-1.66446E+04-4.82075E+04
 -1       529 3.97373E+04-9.15484E+04-3.78814E+04
 -1       531 3.97373E+04-9.15484E+04-3.78814E+04
 -1       532 2.38143E+04-1.46420E+05-2.77950E+04
 -1       534 2.38143E+04-1.46420E+05-2.77950E+04
 -1       535 2.70946E+03-1.69356E+05-1.91737E+04
 -1       537 2.70946E+03-1.69356E+05-1.91737E+04
 -1       538-1.90237E+04-1.55323E+05-1.27479E+04
 -1       540-1.90237E+04-1.55323E+05-1.27479E+04
 -1       541-3.66703E+04-1.07266E+05-8.64872E+03
 -1       543-3.66703E+04-1.07266E+05-8.64872E+03
 -1       544-4.63562E+04-3.55217E+04-6.43886E+03
 -1       546-4.63562E+04-3.55217E+04-6.43886E+03
 -1       547-4.58636E+04 4.43460E+04-5.27007E+03
 -1       549-4.58636E+04 4.43460E+04-5.27007E+03
 -1       550-3.50837E+04 1.14799E+05-4.12899E+03
 -1       552-3.50837E+04 1.14799E+05-4.12899E+03
 -1       553-1.60037E+04 1.59972E+05-2.11809E+03
 -1       555-1.60037E+04 1.59972E+05-2.11809E+03
 -1       556 7.77617E+03 1.68894E+05 1.29641E+03
 -1       558 7.77617E+03 1.68894E+05 1.29641E+03
 -1       559 3.19001E+04 1.37575E+05 6.11511E+03
 -1       561 3.19001E+04 1.37575E+05 6.11511E+03
 -1       562 5.23244E+04 6.94427E+04 1.17771E+04
 -1       564 5.23244E+04 6.94427E+04 1.17771E+04
 -1       565 6.63798E+04-2.59823E+04 1.72361E+04
 -1       567 6.63798E+04-2.59823E+04 1.72361E+04
 -1       568 7.36575E+04-1.36151E+05 2.12559E+04
 -1       570 7.36575E+04-1.36151E+05 2.12559E+04
 -1       571 5.03942E+04-1.93260E+05 1.54781E+04
 -1       573 5.03942E+04-1.93260E+05 1.54781E+04
 -1       574-4.04380E-07 6.76859E+05-6.34733E-07
 -1       576-2.55433E-07 3.71665E+04-1.21757E-06
 -1       577 1.67234E-06-5.06579E+05 5.02084E+05
 -1       579 1.57532E-06-5.06579E+05-5.02084E+05
 -1       588-1.53258E-06-5.05512E+05-5.73263E-07
 -1       590-1.48911E-06-2.12166E+06-1.64609E-06
 -1       591 5.74591E-07 9.70766E+05 1.26849E+06
 -1       593 4.88313E-07 9.70766E+05-1.26849E+06
 -1       602-1.80660E-06 8.22537E+03 4.41839E-07
 -1       604-1.92594E-06-2.35669E+06-1.54093E-07
 -1       605-7.23230E-08 6.42233E+05 1.85618E+06
 -1       607-4.44561E-08 6.42233E+05-1.85618E+06
 -1       616 3.44929E-07-3.30830E+05 1.98283E-06
 -1       618 2.94133E-07-3.25267E+06 3.21505E-06
 -1       619 4.29005E-07 1.14240E+06 2.29330E+06
 -1       621 5.25280E-07 1.14240E+06-2.29330E+06
 -1       630 2.02953E-06-2.27632E+04 3.36529E-06
 -1       632 2.05083E-06-3.22845E+06 3.02556E-06
 -1       633-4.43579E-08 9.70952E+05 2.51610E+06
 -1       635-2.09442E-07 9.70952E+05-2.51610E+06
 -1       644 2.06128E-06 1.60110E+05 1.41066E-06
 -1       646 2.08997E-06-2.99938E+06 1.40624E-06
 -1       647-1.34028E-06 8.83746E+05 2.47983E+06
 -1       649-1.59487E-06 8.83746E+05-2.47983E+06
 -1       658 3.26843E-07 6.18312E+05-1.35547E-06
 -1       660 3.32810E-07-2.24164E+06-6.76445E-07
 -1       661-2.62213E-06 4.99465E+05 2.24473E+06
 -1       663-2.52119E-06 4.99465E+05-2.24473E+06
 -1       672-8.47733E-07 1.05980E+06-1.94481E-06
 -1       674-7.09118E-07-1.31892E+06-1.23516E-06
 -1       675-3.06243E-06 1.02222E+05 1.86702E+06
 -1       677-2.81276E-06 1.02222E+05-1.86702E+06
 -1       686 6.73628E-07 1.53501E+06-7.41984E-07
 -1       688 7.26004E-07-3.37059E+05-9.90159E-07
 -1       689-3.05805E-06-3.38977E+05 1.46936E+06
 -1       691-2.93249E-06-3.38977E+05-1.46936E+06
 -1       700 2.91634E-06 1.89508E+06-1.55262E-06
 -1       702 2.75588E-06 4.32097E+05-2.97267E-07
 -1       703-3.23710E-06-6.73896E+05 1.14827E+06
 -1       705-3.22031E-06-6.73896E+05-1.14827E+06
 -1       714 3.39279E-06 2.11524E+06-2.98497E-06
 -1       716 3.28386E-06 8.41967E+05-2.75833E-06
 -1       717-3.70150E-06-8.65291E+05 9.99368E+05
 -1       719-3.53266E-06-8.65291E+05-9.99368E+05
 -1       728 2.82434E-06 2.13820E+06-5.39781E-06
 -1       730 2.89515E-06 7.85688E+05-4.61915E-06
 -1       731-3.08732E-06-8.57079E+05 1.06156E+06
 -1       733-2.98147E-06-8.57079E+05-1.06156E+06
 -1       742 2.71819E-06 1.97668E+06-6.88373E-06
 -1       744 2.68441E-06 2.79906E+05-5.76095E-06
 -1       745-1.53734E-06-6.61797E+05 1.33177E+06
 -1       747-1.69607E-06-6.61797E+05-1.33177E+06
 -1       756 1.16199E-06 1.65882E+06-8.02298E-06
 -1       758 1.05232E-06-5.68185E+05-5.12206E-06
 -1       759-1.55342E-08-3.17157E+05 1.74794E+06
 -1       761-2.50633E-07-3.17157E+05-1.74794E+06
 -1       770-9.09367E-07 1.25207E+06-7.34752E-06
 -1       772-9.69286E-07-1.56898E+06-6.10925E-06
 -1       773 8.34055E-07 9.96868E+04 2.21420E+06
 -1       775 6.91073E-07 9.96868E+04-2.21420E+06
 -1       784-7.48224E-07 8.31069E+05-7.92877E-06
 -1       786-1.07047E-06-2.49801E+06-5.44616E-06
 -1       787 2.35425E-06 5.00959E+05 2.61294E+06
 -1       789 2.47806E-06 5.00959E+05-2.61294E+06
 -1       798-8.28016E-07 4.72682E+05-6.87072E-06
 -1       800-1.17014E-06-3.14176E+06-5.00545E-06
 -1       801 2.21131E-06 8.00394E+05 2.83692E+06
 -1       803 2.75061E-06 8.00394E+05-2.83692E+06
 -1       812-3.37797E-06 2.33557E+05-5.18207E-06
 -1       814-3.46248E-06-3.34462E+06-4.64681E-06
 -1       815 7.22750E-07 9.35226E+05 2.80845E+06
 -1       817 9.11241E-07 9.35226E+05-2.80845E+06
 -1       826-4.19635E-06 1.42689E+05-5.28679E-06
 -1       828-3.98404E-06-3.04387E+06-4.37172E-06
 -1       829 1.48986E-07 8.78066E+05 2.50108E+06
 -1       831-3.75960E-07 8.78066E+05-2.50108E+06
 -1       840-3.57744E-06 1.93432E+05-6.15917E-06
 -1       842-3.31825E-06-2.28263E+06-5.36216E-06
 -1       843 6.11171E-07 6.43296E+05 1.94342E+06
 -1       845 1.15282E-07 6.43296E+05-1.94342E+06
 -1       854-3.13113E-06 3.48156E+05-4.94891E-06
 -1       856-3.03600E-06-1.20347E+06-4.54216E-06
 -1       857 1.23844E-06 2.83711E+05 1.21784E+06
 -1       859 1.27935E-06 2.83711E+05-1.21784E+06
 -1       868-2.68952E-06 5.43631E+05-3.87926E-06
 -1       870-2.73197E-06-1.82467E+04-3.26857E-06
 -1       871 1.39583E-06-1.19425E+05 4.41009E+05
 -1       873 1.47859E-06-1.19425E+05-4.41009E+05
 -1       882-2.16149E-06 7.12930E+05-5.68948E-06
 -1       884-2.15211E-06 1.03820E+06-4.43224E-06
 -1       885 1.19667E-06-4.78644E+05-2.55301E+05
 -1       887 1.13773E-06-4.78644E+05 2.55301E+05
 -1       896 5.24615E-08 7.83007E+05-6.20537E-06
 -1       898-1.32295E-08 1.74651E+06-5.73139E-06
 -1       899 1.10368E-06-7.05025E+05-7.56237E+05
 -1       901 1.16833E-06-7.05025E+05 7.56237E+05
 -1       910 1.07416E-06 7.27215E+05-6.58379E-06
 -1       912 1.01515E-06 1.97663E+06-5.67614E-06
 -1       913 6.82816E-07-7.59673E+05-9.80644E+05
 -1       915 5.91561E-07-7.59673E+05 9.80644E+05
 -1       924 7.78376E-07 4.93446E+05-6.56199E-06
 -1       926 8.25478E-07 1.64736E+06-6.26861E-06
 -1       927-2.50833E-07-5.89896E+05-9.05688E+05
 -1       929-5.48922E-07-5.89896E+05 9.05688E+05
 -1       938 4.14523E-07 1.61341E+05-7.53618E-06
 -1       940 4.43167E-07 8.83058E+05-7.31981E-06
 -1       941-6.58637E-07-2.84525E+05-5.66464E+05
 -1       943-4.75827E-07-2.84525E+05 5.66464E+05
 -1       952 2.14153E-07-3.65112E+05-7.38246E-06
 -1       954 2.40798E-07-2.92464E+05-5.23644E-06
 -1       955-6.39557E-07 2.28108E+05-5.70198E+04
 -1       957-8.03615E-07 2.28108E+05 5.70198E+04
 -1       966 1.44251E-06-8.50128E+05-7.05105E-06
 -1       968 1.53759E-06-1.41464E+06-5.17021E-06
 -1       969-1.02598E-07 6.44916E+05 4.43077E+05
 -1       971-3.01916E-07 6.44916E+05-4.43077E+05
 -1       980-5.61004E+06 1.15041E+06-1.55160E+05
 -1       982-5.20895E+06 1.14651E+06-1.55160E+05
 -1       983-5.03942E+04-1.93260E+05-1.54781E+04
 -1       985-5.03942E+04-1.93260E+05-1.54781E+04
 -1       986-1.93528E+04-4.06760E+04-3.65878E+03
 -1       988-1.93528E+04-4.06760E+04-3.65878E+03
 -1       989-2.78569E+04-9.16537E+04-6.83584E+03
 -1       991-2.78569E+04-9.16537E+04-6.83584E+03
 -1       992-2.32376E+04-1.42298E+05-7.82142E+03
 -1       994-2.32376E+04-1.42298E+05-7.82142E+03
 -1       995-8.96426E+03-1.74305E+05-5.50274E+03
 -1       997-8.96426E+03-1.74305E+05-5.50274E+03
 -1       998 1.01768E+04-1.75937E+05 4.41554E+02
 -1      1000 1.01768E+04-1.75937E+05 4.41554E+02
 -1      1001 2.89905E+04-1.43831E+05 9.81374E+03
 -1      1003 2.89905E+04-1.43831E+05 9.81374E+03
 -1      1004 4.27076E+04-8.30164E+04 2.17115E+04
 -1      1006 4.27076E+04-8.30164E+04 2.17115E+04
 -1      1007 4.79235E+04-5.45740E+03 3.47316E+04
 -1      1009 4.79235E+04-5.45740E+03 3.47316E+04
 -1      1010 4.32223E+04 7.28086E+04 4.71704E+04
 -1      1012 4.32223E+04 7.28086E+04 4.71704E+04
 -1      1013 2.94373E+04 1.35291E+05 5.73438E+04
 -1      1015 2.94373E+04 1.35291E+05 5.73438E+04
 -1      1016 9.42726E+03 1.68722E+05 6.38862E+04
 -1      1018 9.42726E+03 1.68722E+05 6.38862E+04
 -1      1019-1.25593E+04 1.65980E+05 6.60009E+04
 -1      1021-1.25593E+04 1.65980E+05 6.60009E+04
 -1      1022-3.18172E+04 1.27687E+05 6.35941E+04
 -1      1024-3.18172E+04 1.27687E+05 6.35941E+04
 -1      1025-4.42072E+04 6.20984E+04 5.72733E+04
 -1      1027-4.42072E+04 6.20984E+04 5.72733E+04
 -1      1028-4.70559E+04-1.66446E+04 4.82075E+04
 -1      1030-4.70559E+04-1.66446E+04 4.82075E+04
 -1      1031-3.97373E+04-9.15484E+04 3.78814E+04
 -1      1033-3.97373E+04-9.15484E+04 3.78814E+04
 -1      1034-2.38143E+04-1.46420E+05 2.77950E+04
 -1      1036-2.38143E+04-1.46420E+05 2.77950E+04
 -1      1037-2.70946E+03-1.69356E+05 1.91737E+04
 -1      1039-2.70946E+03-1.69356E+05 1.91737E+04
 -1      1040 1.90237E+04-1.55323E+05 1.27479E+04
 -1      1042 1.90237E+04-1.55323E+05 1.27479E+04
 -1      1043 3.66703E+04-1.07266E+05 8.64872E+03
 -1      1045 3.66703E+04-1.07266E+05 8.64872E+03
 -1      1046 4.63562E+04-3.55217E+04 6.43886E+03
 -1      1048 4.63562E+04-3.55217E+04 6.43886E+03
 -1      1049 4.58636E+04 4.43460E+04 5.27007E+03
 -1      1051 4.58636E+04 4.43460E+04 5.27007E+03
 -1      1052 3.50837E+04 1.14799E+05 4.12899E+03
 -1      1054 3.50837E+04 1.14799E+05 4.12899E+03
 -1      1055 1.60037E+04 1.59972E+05 2.11809E+03
 -1      1057 1.60037E+04 1.59972E+05 2.11809E+03
 -1      1058-7.77617E+03 1.68894E+05-1.29641E+03
 -1      1060-7.77617E+03 1.68894E+05-1.29641E+03
 -1      1061-3.19001E+04 1.37575E+05-6.11511E+03
 -1      1063-3.19001E+04 1.37575E+05-6.11511E+03
 -1      1064-5.23244E+04 6.94427E+04-1.17771E+04
 -1      1066-5.23244E+04 6.94427E+04-1.17771E+04
 -1      1067-6.63798E+04-2.59823E+04-1.72361E+04
 -1      1069-6.63798E+04-2.59823E+04-1.72361E+04
 -1      1070-7.36575E+04-1.36151E+05-2.12559E+04
 -1      1072-7.36575E+04-1.36151E+05-2.12559E+04
 -1      1073 5.61004E+06 1.15041E+06 1.55160E+05
 -1      1075 5.20895E+06 1.14651E+06 1.55160E+05
 -1      1076 4.51525E+06 9.98756E+05 1.99560E+05
 -1      1078-4.51525E+06 9.98756E+05-1.99560E+05
 -1      1079 6.20864E+06 2.30752E+06 1.70332E-06
 -1      1081-6.20864E+06 2.30752E+06 2.21630E-06
 -1      1082 4.51525E+06 9.98756E+05-1.99560E+05
 -1      1084-4.51525E+06 9.98756E+05 1.99560E+05
 -1      1085-1.38610E-06-5.06579E+05-5.02084E+05
 -1      1087-1.43859E-06-5.06579E+05 5.02084E+05
 -1      1088 4.38639E-06 6.76859E+05-7.53307E-07
 -1      1090 4.35163E-06 3.71665E+04-8.14720E-07
 -1      1099-1.06967E-06 9.70766E+05-1.26849E+06
 -1      1101-1.13926E-06 9.70766E+05 1.26849E+06
 -1      1102 2.77626E-06-5.05512E+05 1.07052E-06
 -1      1104 2.70062E-06-2.12166E+06 1.26156E-06
 -1      1113-7.97823E-07 6.42233E+05-1.85618E+06
 -1      1115-7.98798E-07 6.42233E+05 1.85618E+06
 -1      1116 5.13555E-08 8.22537E+03 1.07858E-06
 -1      1118 1.46792E-09-2.35669E+06 5.45394E-07
 -1      1127-2.86247E-07 1.14240E+06-2.29330E+06
 -1      1129-1.18427E-07 1.14240E+06 2.29330E+06
 -1      1130-3.42473E-07-3.30830E+05 1.83664E-06
 -1      1132-2.69755E-07-3.25267E+06 1.11559E-06
 -1      1141 3.52436E-07 9.70952E+05-2.51610E+06
 -1      1143 5.89975E-07 9.70952E+05 2.51610E+06
 -1      1144-1.94418E-07-2.27632E+04-7.27146E-07
 -1      1146-1.74386E-07-3.22845E+06 5.98536E-07
 -1      1155 1.23171E-06 8.83746E+05-2.47983E+06
 -1      1157 1.40921E-06 8.83746E+05 2.47983E+06
 -1      1158 4.04964E-07 1.60110E+05-1.32759E-06
 -1      1160 2.88755E-07-2.99938E+06-4.00074E-07
 -1      1169 1.20437E-06 4.99465E+05-2.24473E+06
 -1      1171 1.28469E-06 4.99465E+05 2.24473E+06
 -1      1172 8.17240E-07 6.18312E+05 2.52840E-07
 -1      1174 7.98735E-07-2.24164E+06 8.78892E-07
 -1      1183 5.50011E-07 1.02222E+05-1.86702E+06
 -1      1185 8.04934E-07 1.02222E+05 1.86702E+06
 -1      1186-9.74018E-07 1.05980E+06 1.90269E-06
 -1      1188-9.76666E-07-1.31892E+06 2.12094E-06
 -1      1197 1.19439E-06-3.38977E+05-1.46936E+06
 -1      1199 2.11093E-06-3.38977E+05 1.46936E+06
 -1      1200-2.31997E-06 1.53501E+06 2.01123E-06
 -1      1202-2.31630E-06-3.37059E+05 1.73158E-06
 -1      1211 2.86156E-06-6.73896E+05-1.14827E+06
 -1      1213 3.77919E-06-6.73896E+05 1.14827E+06
 -1      1214-1.04297E-06 1.89508E+06 1.54534E-06
 -1      1216-1.14156E-06 4.32097E+05 2.82070E-06
 -1      1225 2.83065E-06-8.65291E+05-9.99368E+05
 -1      1227 3.04828E-06-8.65291E+05 9.99368E+05
 -1      1228-1.35237E-06 2.11524E+06 3.02749E-06
 -1      1230-1.45487E-06 8.41967E+05 3.94685E-06
 -1      1239 1.46998E-06-8.57079E+05-1.06156E+06
 -1      1241 1.50982E-06-8.57079E+05 1.06156E+06
 -1      1242-3.69614E-06 2.13820E+06 4.12045E-06
 -1      1244-3.67109E-06 7.85688E+05 5.41503E-06
 -1      1253 1.28624E-06-6.61797E+05-1.33177E+06
 -1      1255 9.68288E-07-6.61797E+05 1.33177E+06
 -1      1256-4.25393E-06 1.97668E+06 7.17582E-06
 -1      1258-4.20120E-06 2.79906E+05 5.81561E-06
 -1      1267 1.03755E-06-3.17157E+05-1.74794E+06
 -1      1269 1.09568E-06-3.17157E+05 1.74794E+06
 -1      1270-2.51946E-06 1.65882E+06 7.49761E-06
 -1      1272-2.52996E-06-5.68185E+05 6.15127E-06
 -1      1281 3.92002E-07 9.96868E+04-2.21420E+06
 -1      1283 6.79282E-07 9.96868E+04 2.21420E+06
 -1      1284 2.18511E-07 1.25207E+06 6.45478E-06
 -1      1286 2.69458E-07-1.56898E+06 5.84153E-06
 -1      1295-1.42238E-07 5.00959E+05-2.61294E+06
 -1      1297-1.38418E-07 5.00959E+05 2.61294E+06
 -1      1298 2.50718E-06 8.31069E+05 7.09142E-06
 -1      1300 2.47697E-06-2.49801E+06 5.30317E-06
 -1      1309-8.03266E-09 8.00394E+05-2.83692E+06
 -1      1311 3.27200E-08 8.00394E+05 2.83692E+06
 -1      1312 3.17223E-06 4.72682E+05 6.70251E-06
 -1      1314 2.95843E-06-3.14176E+06 6.28100E-06
 -1      1323 5.93351E-07 9.35226E+05-2.80845E+06
 -1      1325 6.83565E-07 9.35226E+05 2.80845E+06
 -1      1326 1.93325E-06 2.33557E+05 4.98029E-06
 -1      1328 1.79880E-06-3.34462E+06 6.99218E-06
 -1      1337-5.20286E-07 8.78066E+05-2.50108E+06
 -1      1339-5.14210E-07 8.78066E+05 2.50108E+06
 -1      1340 2.55227E-08 1.42689E+05 5.03774E-06
 -1      1342-8.39632E-08-3.04387E+06 4.52844E-06
 -1      1351-1.73503E-06 6.43296E+05-1.94342E+06
 -1      1353-1.74087E-06 6.43296E+05 1.94342E+06
 -1      1354-3.43813E-07 1.93432E+05 4.44637E-06
 -1      1356-3.77991E-07-2.28263E+06 4.38176E-06
 -1      1365-2.20290E-06 2.83711E+05-1.21784E+06
 -1      1367-2.01642E-06 2.83711E+05 1.21784E+06
 -1      1368-2.46250E-08 3.48156E+05 3.50510E-06
 -1      1370 1.17357E-08-1.20347E+06 3.90575E-06
 -1      1379-2.86119E-06-1.19425E+05-4.41009E+05
 -1      1381-2.51807E-06-1.19425E+05 4.41009E+05
 -1      1382-8.51542E-07 5.43631E+05 3.64247E-06
 -1      1384-9.75130E-07-1.82467E+04 4.18025E-06
 -1      1393-2.42398E-06-4.78644E+05 2.55301E+05
 -1      1395-2.30791E-06-4.78644E+05-2.55301E+05
 -1      1396-9.13847E-07 7.12930E+05 7.83706E-06
 -1      1398-1.10613E-06 1.03820E+06 6.71795E-06
 -1      1407-4.84779E-07-7.05025E+05 7.56237E+05
 -1      1409-4.81105E-07-7.05025E+05-7.56237E+05
 -1      1410-3.01989E-07 7.83007E+05 8.90592E-06
 -1      1412-2.12684E-07 1.74651E+06 8.83185E-06
 -1      1421 7.20138E-07-7.59673E+05 9.80644E+05
 -1      1423 7.84545E-07-7.59673E+05-9.80644E+05
 -1      1424-3.54602E-07 7.27215E+05 7.77409E-06
 -1      1426-2.07044E-07 1.97663E+06 7.30859E-06
 -1      1435 2.80748E-07-5.89896E+05 9.05688E+05
 -1      1437 2.97367E-07-5.89896E+05-9.05688E+05
 -1      1438-3.26003E-07 4.93446E+05 7.42033E-06
 -1      1440-2.57529E-07 1.64736E+06 5.11449E-06
 -1      1449 2.34778E-07-2.84525E+05 5.66464E+05
 -1      1451 1.14833E-07-2.84525E+05-5.66464E+05
 -1      1452-8.27685E-07 1.61341E+05 7.74371E-06
 -1      1454-7.92263E-07 8.83058E+05 5.05616E-06
 -1      1463 3.18945E-07 2.28108E+05 5.70198E+04
 -1      1465 5.27038E-07 2.28108E+05-5.70198E+04
 -1      1466-2.03610E-06-3.65112E+05 7.09941E-06
 -1      1468-2.14480E-06-2.92464E+05 6.38783E-06
 -1      1477-3.88973E-08 6.44916E+05-4.43077E+05
 -1      1479-1.64255E-07 6.44916E+05 4.43077E+05
 -1      1480-2.44404E-06-8.50128E+05 5.81051E-06
 -1      1482-2.52103E-06-1.41464E+06 6.74388E-06
 -1      1491 2.00740E-07-3.19070E+05 3.25759E-07
 -1      1493 1.78225E-07-3.19070E+05 4.25211E-07
 -1      1494 3.96718E-07-3.37797E+05-1.16390E-07
 -1      1496 3.48638E-07-3.37797E+05-1.36824E-08
 -1      1497-1.93577E-07-3.19070E+05-1.78361E-07
 -1      1499-6.95578E-07-3.19070E+05-3.10888E-07
 -1      1500-1.93528E+04-4.06760E+04 3.65878E+03
 -1      1502-1.93528E+04-4.06760E+04 3.65878E+03
 -1      1503-2.78569E+04-9.16537E+04 6.83584E+03
 -1      1505-2.78569E+04-9.16537E+04 6.83584E+03
 -1      1506-2.32376E+04-1.42298E+05 7.82142E+03
 -1      1508-2.32376E+04-1.42298E+05 7.82142E+03
 -1      1509-8.96426E+03-1.74305E+05 5.50274E+03
 -1      1511-8.96426E+03-1.74305E+05 5.50274E+03
 -1      1512 1.01768E+04-1.75937E+05-4.41554E+02
 -1      1514 1.01768E+04-1.75937E+05-4.41554E+02
 -1      1515 2.89905E+04-1.43831E+05-9.81374E+03
 -1      1517 2.89905E+04-1.43831E+05-9.81374E+03
 -1      1518 4.27076E+04-8.30164E+04-2.17115E+04
 -1      1520 4.27076E+04-8.30164E+04-2.17115E+04
 -1      1521 4.79235E+04-5.45740E+03-3.47316E+04
 -1      1523 4.79235E+04-5.45740E+03-3.47316E+04
 -1      1524 4.32223E+04 7.28086E+04-4.71704E+04
 -1      1526 4.32223E+04 7.28086E+04-4.71704E+04
 -1      1527 2.94373E+04 1.35291E+05-5.73438E+04
 -1      1529 2.94373E+04 1.35291E+05-5.73438E+04
 -1      1530 9.42726E+03 1.68722E+05-6.38862E+04
 -1      1532 9.42726E+03 1.68722E+05-6.38862E+04
 -1      1533-1.25593E+04 1.65980E+05-6.60009E+04
 -1      1535-1.25593E+04 1.65980E+05-6.60009E+04
 -1      1536-3.18172E+04 1.27687E+05-6.35941E+04
 -1      1538-3.18172E+04 1.27687E+05-6.35941E+04
 -1      1539-4.42072E+04 6.20984E+04-5.72733E+04
 -1      1541-4.42072E+04 6.20984E+04-5.72733E+04
 -1      1542-4.70559E+04-1.66446E+04-4.82075E+04
 -1      1544-4.70559E+04-1.66446E+04-4.82075E+04
 -1      1545-3.97373E+04-9.15484E+04-3.78814E+04
 -1      1547-3.97373E+04-9.15484E+04-3.78814E+04
 -1      1548-2.38143E+04-1.46420E+05-2.77950E+04
 -1      1550-2.38143E+04-1.46420E+05-2.77950E+04
 -1      1551-2.70946E+03-1.69356E+05-1.91737E+04
 -1      1553-2.70946E+03-1.69356E+05-1.91737E+04
 -1      1554 1.90237E+04-1.55323E+05-1.27479E+04
 -1      1556 1.90237E+04-1.55323E+05-1.27479E+04
 -1      1557 3.66703E+04-1.07266E+05-8.64872E+03
 -1      1559 3.66703E+04-1.07266E+05-8.64872E+03
 -1      1560 4.63562E+04-3.55217E+04-6.43886E+03
 -1      1562 4.63562E+04-3.55217E+04-6.43886E+03
 -1      1563 4.58636E+04 4.43460E+04-5.27007E+03
 -1      1565 4.58636E+04 4.43460E+04-5.27007E+03
 -1      1566 3.50837E+04 1.14799E+05-4.12899E+03
 -1      1568 3.50837E+04 1.14799E+05-4.12899E+03
 -1      1569 1.60037E+04 1.59972E+05-2.11809E+03
 -1      1571 1.60037E+04 1.59972E+05-2.11809E+03
 -1      1572-7.77617E+03 1.68894E+05 1.29641E+03
 -1      1574-7.77617E+03 1.68894E+05 1.29641E+03
 -1      1575-3.19001E+04 1.37575E+05 6.11511E+03
 -1      1577-3.19001E+04 1.37575E+05 6.11511E+03
 -1      1578-5.23244E+04 6.94427E+04 1.17771E+04
 -1      1580-5.23244E+04 6.94427E+04 1.17771E+04
 -1      1581-6.63798E+04-2.59823E+04 1.72361E+04
 -1      1583-6.63798E+04-2.59823E+04 1.72361E+04
 -1      1584-7.36575E+04-1.36151E+05 2.12559E+04
 -1      1586-7.36575E+04-1.36151E+05 2.12559E+04
 -1      1587-5.03942E+04-1.93260E+05 1.54781E+04
 -1      1589-5.03942E+04-1.93260E+05 1.54781E+04
 -1      1590 5.61004E+06 1.15041E+06-1.55160E+05
 -1      1592 5.20895E+06 1.14651E+06-1.55160E+05
 -1      1593 5.03942E+04-1.93260E+05-1.54781E+04
 -1      1595 5.03942E+04-1.93260E+05-1.54781E+04
 -1      1596 1.93528E+04-4.06760E+04-3.65878E+03
 -1      1598 1.93528E+04-4.06760E+04-3.65878E+03
 -1      1599 2.78569E+04-9.16537E+04-6.83584E+03
 -1      1601 2.78569E+04-9.16537E+04-6.83584E+03
 -1      1602 2.32376E+04-1.42298E+05-7.82142E+03
 -1      1604 2.32376E+04-1.42298E+05-7.82142E+03
 -1      1605 8.96426E+03-1.74305E+05-5.50274E+03
 -1      1607 8.96426E+03-1.74305E+05-5.50274E+03
 -1      1608-1.01768E+04-1.75937E+05 4.41554E+02
 -1      1610-1.01768E+04-1.75937E+05 4.41554E+02
 -1      1611-2.89905E+04-1.43831E+05 9.81374E+03
 -1      1613-2.89905E+04-1.43831E+05 9.81374E+03
 -1      1614-4.27076E+04-8.30164E+04 2.17115E+04
 -1      1616-4.27076E+04-8.30164E+04 2.17115E+04
 -1      1617-4.79235E+04-5.45740E+03 3.47316E+04
 -1      1619-4.79235E+04-5.45740E+03 3.47316E+04
 -1      1620-4.32223E+04 7.28086E+04 4.71704E+04
 -1      1622-4.32223E+04 7.28086E+04 4.71704E+04
 -1      1623-2.94373E+04 1.35291E+05 5.73438E+04
 -1      1625-2.94373E+04 1.35291E+05 5.73438E+04
 -1      1626-9.42726E+03 1.68722E+05 6.38862E+04
 -1      1628-9.42726E+03 1.68722E+05 6.38862E+04
 -1      1629 1.25593E+04 1.65980E+05 6.60009E+04
 -1      1631 1.25593E+04 1.65980E+05 6.60009E+04
 -1      1632 3.18172E+04 1.27687E+05 6.35941E+04
 -1      1634 3.18172E+04 1.27687E+05 6.35941E+04
 -1      1635 4.42072E+04 6.20984E+04 5.72733E+04
 -1      1637 4.42072E+04 6.20984E+04 5.72733E+04
 -1      1638 4.70559E+04-1.66446E+04 4.82075E+04
 -1      1640 4.70559E+04-1.66446E+04 4.82075E+04
 -1      1641 3.97373E+04-9.15484E+04 3.78814E+04
 -1      1643 3.97373E+04-9.15484E+04 3.78814E+04
 -1      1644 2.38143E+04-1.46420E+05 2.77950E+04
 -1      1646 2.38143E+04-1.46420E+05 2.77950E+04
 -1      1647 2.70946E+03-1.69356E+05 1.91737E+04
 -1      1649 2.70946E+03-1.69356E+05 1.91737E+04
 -1      1650-1.90237E+04-1.55323E+05 1.27479E+04
 -1      1652-1.90237E+04-1.55323E+05 1.27479E+04
 -1      1653-3.66703E+04-1.07266E+05 8.64872E+03
 -1      1655-3.66703E+04-1.07266E+05 8.64872E+03
 -1      1656-4.63562E+04-3.55217E+04 6.43886E+03
 -1      1658-4.63562E+04-3.55217E+04 6.43886E+03
 -1      1659-4.58636E+04 4.43460E+04 5.27007E+03
 -1      1661-4.58636E+04 4.43460E+04 5.27007E+03
 -1      1662-3.50837E+04 1.14799E+05 4.12899E+03
 -1      1664-3.50837E+04 1.14799E+05 4.12899E+03
 -1      1665-1.60037E+04 1.59972E+05 2.11809E+03
 -1      1667-1.60037E+04 1.59972E+05 2.11809E+03
 -1      1668 7.77617E+03 1.68894E+05-1.29641E+03
 -1      1670 7.77617E+03 1.68894E+05-1.29641E+03
 -1      1671 3.19001E+04 1.37575E+05-6.11511E+03
 -1      1673 3.19001E+04 1.37575E+05-6.11511E+03
 -1      1674 5.23244E+04 6.94427E+04-1.17771E+04
 -1      1676 5.23244E+04 6.94427E+04-1.17771E+04
 -1      1677 6.63798E+04-2.59823E+04-1.72361E+04
 -1      1679 6.63798E+04-2.59823E+04-1.72361E+04
 -1      1680 7.36575E+04-1.36151E+05-2.12559E+04
 -1      1682 7.36575E+04-1.36151E+05-2.12559E+04
 -1      1683-5.61004E+06 1.15041E+06 1.55160E+05
 -1      1685-5.20895E+06 1.14651E+06 1.55160E+05
 -1      1686 2.50788E+04-8.01586E+04 5.75793E+03
 -1      1688 2.50788E+04-8.01586E+04 5.75793E+03
 -1      1689 3.64310E+04-1.83155E+05 1.08788E+04
 -1      1691 3.64310E+04-1.83155E+05 1.08788E+04
 -1      1692 3.04991E+04-2.85662E+05 1.29373E+04
 -1      1694 3.04991E+04-2.85662E+05 1.29373E+04
 -1      1695 1.16943E+04-3.50303E+05 1.03421E+04
 -1      1697 1.16943E+04-3.50303E+05 1.03421E+04
 -1      1698-1.35505E+04-3.53801E+05 2.62017E+03
 -1      1700-1.35505E+04-3.53801E+05 2.62017E+03
 -1      1701-3.83936E+04-2.89295E+05-9.97327E+03
 -1      1703-3.83936E+04-2.89295E+05-9.97327E+03
 -1      1704-5.65061E+04-1.66992E+05-2.61831E+04
 -1      1706-5.65061E+04-1.66992E+05-2.61831E+04
 -1      1707-6.33884E+04-1.09533E+04-4.40414E+04
 -1      1709-6.33884E+04-1.09533E+04-4.40414E+04
 -1      1710-5.71625E+04 1.46520E+05-6.11508E+04
 -1      1712-5.71625E+04 1.46520E+05-6.11508E+04
 -1      1713-3.89296E+04 2.72246E+05-7.51390E+04
 -1      1715-3.89296E+04 2.72246E+05-7.51390E+04
 -1      1716-1.24680E+04 3.39513E+05-8.40837E+04
 -1      1718-1.24680E+04 3.39513E+05-8.40837E+04
 -1      1719 1.66053E+04 3.33996E+05-8.68695E+04
 -1      1721 1.66053E+04 3.33996E+05-8.68695E+04
 -1      1722 4.20697E+04 2.56936E+05-8.33777E+04
 -1      1724 4.20697E+04 2.56936E+05-8.33777E+04
 -1      1725 5.84522E+04 1.24949E+05-7.44834E+04
 -1      1727 5.84522E+04 1.24949E+05-7.44834E+04
 -1      1728 6.22183E+04-3.35101E+04-6.18551E+04
 -1      1730 6.22183E+04-3.35101E+04-6.18551E+04
 -1      1731 5.25404E+04-1.84245E+05-4.76031E+04
 -1      1733 5.25404E+04-1.84245E+05-4.76031E+04
 -1      1734 3.14859E+04-2.94670E+05-3.38510E+04
 -1      1736 3.14859E+04-2.94670E+05-3.38510E+04
 -1      1737 3.58027E+03-3.40832E+05-2.23213E+04
 -1      1739 3.58027E+03-3.40832E+05-2.23213E+04
 -1      1740-2.51547E+04-3.12598E+05-1.40221E+04
 -1      1742-2.51547E+04-3.12598E+05-1.40221E+04
 -1      1743-4.84843E+04-2.15894E+05-9.09971E+03
 -1      1745-4.84843E+04-2.15894E+05-9.09971E+03
 -1      1746-6.12847E+04-7.15126E+04-6.88528E+03
 -1      1748-6.12847E+04-7.15126E+04-6.88528E+03
 -1      1749-6.06221E+04 8.92281E+04-6.12206E+03
 -1      1751-6.06221E+04 8.92281E+04-6.12206E+03
 -1      1752-4.63510E+04 2.31046E+05-5.31987E+03
 -1      1754-4.63510E+04 2.31046E+05-5.31987E+03
 -1      1755-2.10959E+04 3.22025E+05-3.15979E+03
 -1      1757-2.10959E+04 3.22025E+05-3.15979E+03
 -1      1758 1.03870E+04 3.40104E+05 1.14817E+03
 -1      1760 1.03870E+04 3.40104E+05 1.14817E+03
 -1      1761 4.23450E+04 2.77282E+05 7.61924E+03
 -1      1763 4.23450E+04 2.77282E+05 7.61924E+03
 -1      1764 6.94395E+04 1.40497E+05 1.54493E+04
 -1      1766 6.94395E+04 1.40497E+05 1.54493E+04
 -1      1767 8.81668E+04-5.10446E+04 2.31202E+04
 -1      1769 8.81668E+04-5.10446E+04 2.31202E+04
 -1      1770 9.79731E+04-2.71996E+05 2.88205E+04
 -1      1772 9.79731E+04-2.71996E+05 2.88205E+04
 -1      1773-2.50788E+04-8.01586E+04-5.75793E+03
 -1      1775-2.50788E+04-8.01586E+04-5.75793E+03
 -1      1776-3.64310E+04-1.83155E+05-1.08788E+04
 -1      1778-3.64310E+04-1.83155E+05-1.08788E+04
 -1      1779-3.04991E+04-2.85662E+05-1.29373E+04
 -1      1781-3.04991E+04-2.85662E+05-1.29373E+04
 -1      1782-1.16943E+04-3.50303E+05-1.03421E+04
 -1      1784-1.16943E+04-3.50303E+05-1.03421E+04
 -1      1785 1.35505E+04-3.53801E+05-2.62017E+03
 -1      1787 1.35505E+04-3.53801E+05-2.62017E+03
 -1      1788 3.83936E+04-2.89295E+05 9.97327E+03
 -1      1790 3.83936E+04-2.89295E+05 9.97327E+03
 -1      1791 5.65061E+04-1.66992E+05 2.61831E+04
 -1      1793 5.65061E+04-1.66992E+05 2.61831E+04
 -1      1794 6.33884E+04-1.09533E+04 4.40414E+04
 -1      1796 6.33884E+04-1.09533E+04 4.40414E+04
 -1      1797 5.71625E+04 1.46520E+05 6.11508E+04
 -1      1799 5.71625E+04 1.46520E+05 6.11508E+04
 -1      1800 3.89296E+04 2.72246E+05 7.51390E+04
 -1      1802 3.89296E+04 2.72246E+05 7.51390E+04
 -1      1803 1.24680E+04 3.39513E+05 8.40837E+04
 -1      1805 1.24680E+04 3.39513E+05 8.40837E+04
 -1      1806-1.66053E+04 3.33996E+05 8.68695E+04
 -1      1808-1.66053E+04 3.33996E+05 8.68695E+04
 -1      1809-4.20697E+04 2.56936E+05 8.33777E+04
 -1      1811-4.20697E+04 2.56936E+05 8.33777E+04
 -1      1812-5.84522E+04 1.24949E+05 7.44834E+04
 -1      1814-5.84522E+04 1.24949E+05 7.44834E+04
 -1      1815-6.22183E+04-3.35101E+04 6.18551E+04
 -1      1817-6.22183E+04-3.35101E+04 6.18551E+04
 -1      1818-5.25404E+04-1.84245E+05 4.76031E+04
 -1      1820-5.25404E+04-1.84245E+05 4.76031E+04
 -1      1821-3.14859E+04-2.94670E+05 3.38510E+04
 -1      1823-3.14859E+04-2.94670E+05 3.38510E+04
 -1      1824-3.58027E+03-3.40832E+05 2.23213E+04
 -1      1826-3.58027E+03-3.40832E+05 2.23213E+04
 -1      1827 2.51547E+04-3.12598E+05 1.40221E+04
 -1      1829 2.51547E+04-3.12598E+05 1.40221E+04
 -1      1830 4.84843E+04-2.15894E+05 9.09971E+03
 -1      1832 4.84843E+04-2.15894E+05 9.09971E+03
 -1      1833 6.12847E+04-7.15126E+04 6.88528E+03
 -1      1835 6.12847E+04-7.15126E+04 6.88528E+03
 -1      1836 6.06221E+04 8.92281E+04 6.12206E+03
 -1      1838 6.06221E+04 8.92281E+04 6.12206E+03
 -1      1839 4.63510E+04 2.31046E+05 5.31987E+03
 -1      1841 4.63510E+04 2.31046E+05 5.31987E+03
 -1      1842 2.10959E+04 3.22025E+05 3.15979E+03
 -1      1844 2.10959E+04 3.22025E+05 3.15979E+03
 -1      1845-1.03870E+04 3.40104E+05-1.14817E+03
 -1      1847-1.03870E+04 3.40104E+05-1.14817E+03
 -1      1848-4.23450E+04 2.77282E+05-7.61924E+03
 -1      1850-4.23450E+04 2.77282E+05-7.61924E+03
 -1      1851-6.94395E+04 1.40497E+05-1.54493E+04
 -1      1853-6.94395E+04 1.40497E+05-1.54493E+04
 -1      1854-8.81668E+04-5.10446E+04-2.31202E+04
 -1      1856-8.81668E+04-5.10446E+04-2.31202E+04
 -1      1857-9.79731E+04-2.71996E+05-2.88205E+04
 -1      1859-9.79731E+04-2.71996E+05-2.88205E+04
 -1      1860-1.07095E-07-1.64718E+05 2.35974E-07
 -1      1862-3.59447E-07-1.64718E+05 8.76986E-07
 -1      1863-6.64013E-07-3.66746E+05-5.72021E-07
 -1      1865-8.26598E-07-3.66746E+05 1.21348E-07
 -1      1866-8.28222E-07-5.55912E+05-7.09413E-07
 -1      1868-6.96600E-07-5.55912E+05 2.47535E-07
 -1      1869 7.31528E-07-6.69611E+05-9.98200E-07
 -1      1871 8.47991E-07-6.69611E+05 2.42335E-07
 -1      1872 2.25622E-06-6.72312E+05-8.77331E-07
 -1      1874 1.61325E-06-6.72312E+05-3.00384E-07
 -1      1875 2.15349E-06-5.53850E+05 1.92740E-07
 -1      1877 1.34384E-06-5.53850E+05-1.40819E-07
 -1      1878 1.15337E-07-3.33878E+05 1.56433E-07
 -1      1880 7.14390E-08-3.33878E+05 3.24391E-07
 -1      1881-1.30385E-06-5.49770E+04 1.66445E-07
 -1      1883-8.90494E-07-5.49770E+04 4.43019E-07
 -1      1884-5.16226E-07 2.26093E+05-9.90512E-07
 -1      1886-4.38231E-08 2.26093E+05-1.36892E-06
 -1      1887 6.96557E-07 4.51434E+05-1.58955E-06
 -1      1889 9.71959E-07 4.51434E+05-1.47664E-06
 -1      1890 1.25059E-07 5.74394E+05 4.45488E-07
 -1      1892 2.73772E-07 5.74394E+05 3.83717E-07
 -1      1893 1.35384E-07 5.69870E+05 7.19800E-07
 -1      1895-7.03731E-08 5.69870E+05 9.67844E-07
 -1      1896 5.48309E-07 4.39706E+05 1.18574E-06
 -1      1898-5.31145E-09 4.39706E+05 1.25251E-06
 -1      1899-1.29842E-07 2.12385E+05 2.41882E-06
 -1      1901-1.04649E-06 2.12385E+05 8.37768E-07
 -1      1902-1.45399E-06-6.30727E+04 1.83795E-06
 -1      1904-2.58630E-06-6.30727E+04 1.03653E-07
 -1      1905-1.55196E-06-3.27615E+05 9.00451E-07
 -1      1907-1.87390E-06-3.27615E+05-5.80985E-08
 -1      1908-1.37827E-06-5.24826E+05 1.35104E-06
 -1      1910-3.31642E-07-5.24826E+05 6.80557E-07
 -1      1911-1.82580E-06-6.13034E+05 1.03299E-06
 -1      1913-1.37042E-06-6.13034E+05 1.00061E-06
 -1      1914-2.09731E-06-5.74258E+05-5.28787E-07
 -1      1916-3.30378E-06-5.74258E+05-4.83371E-07
 -1      1917-1.80613E-06-4.18066E+05-9.37034E-07
 -1      1919-2.84286E-06-4.18066E+05-1.27631E-06
 -1      1920-1.00798E-06-1.79552E+05-2.51413E-07
 -1      1922-5.92544E-07-1.79552E+05-8.97722E-07
 -1      1923-4.98621E-08 8.81588E+04 4.77157E-08
 -1      1925 6.96302E-07 8.81588E+04 1.72309E-07
 -1      1926 4.80544E-07 3.25194E+05-6.39629E-07
 -1      1928 8.03444E-07 3.25194E+05-2.24289E-07
 -1      1929 9.26102E-07 4.77620E+05-1.38675E-06
 -1      1931 1.18055E-06 4.77620E+05-1.32477E-07
 -1      1932 9.84495E-07 5.08637E+05 2.11416E-07
 -1      1934 5.45886E-07 5.08637E+05 9.75893E-07
 -1      1935 6.57801E-07 4.06001E+05 1.08616E-06
 -1      1937 1.75740E-07 4.06001E+05 9.29780E-07
 -1      1938 4.69110E-07 1.83666E+05 4.97967E-07
 -1      1940 6.63919E-07 1.83666E+05 4.85335E-07
 -1      1941-4.48636E-08-1.22406E+05 1.06396E-06
 -1      1943-3.51858E-07-1.22406E+05 1.04751E-06
 -1      1944 2.38048E-07-4.64424E+05 1.16301E-06
 -1      1946-2.71157E-07-4.64424E+05 8.92735E-07
 -1      1947-8.72897E-07-1.88235E+05-1.27536E-06
 -1      1949-1.25139E-06-1.88235E+05-8.76476E-07
 -1      1950-2.52243E-07-4.13852E+05-2.31987E-06
 -1      1952-4.15821E-07-4.13852E+05-2.32697E-06
 -1      1953-4.54740E-07-6.21282E+05-9.30791E-07
 -1      1955-1.21370E-07-6.21282E+05-5.61959E-07
 -1      1956-2.22622E-07-7.44519E+05-2.06262E-07
 -1      1958-2.35101E-07-7.44519E+05 4.40977E-07
 -1      1959 4.57512E-07-7.46768E+05-1.44365E-06
 -1      1961 2.63870E-07-7.46768E+05-7.74751E-07
 -1      1962 8.06462E-07-6.17782E+05-1.81660E-06
 -1      1964 2.16774E-07-6.17782E+05-1.58267E-06
 -1      1965 1.08394E-06-3.79263E+05-2.35546E-06
 -1      1967 9.51165E-07-3.79263E+05-2.06748E-06
 -1      1968 1.24717E-06-7.72576E+04-9.04009E-07
 -1      1970 1.49208E-06-7.72576E+04-1.04851E-06
 -1      1971 3.50665E-08 2.27037E+05 2.82365E-07
 -1      1973 1.48496E-06 2.27037E+05 1.16284E-07
 -1      1974 1.72033E-07 4.71304E+05-3.17646E-07
 -1      1976 1.73938E-06 4.71304E+05-2.71502E-07
 -1      1977 8.92265E-07 6.05334E+05 3.46590E-08
 -1      1979 1.51443E-06 6.05334E+05 1.60434E-07
 -1      1980 7.53724E-07 6.02078E+05-8.23264E-07
 -1      1982 3.16773E-07 6.02078E+05-1.81481E-07
 -1      1983 9.06221E-09 4.63419E+05-7.82020E-08
 -1      1985-2.37411E-07 4.63419E+05 1.04611E-06
 -1      1986-5.75807E-07 2.19853E+05 2.04357E-06
 -1      1988-1.81999E-06 2.19853E+05 2.12125E-06
 -1      1989-1.54638E-06-7.60702E+04 1.48491E-06
 -1      1991-2.79875E-06-7.60702E+04 8.63860E-07
 -1      1992-2.27493E-06-3.60997E+05-1.65557E-07
 -1      1994-2.67521E-06-3.60997E+05-3.87983E-07
 -1      1995-1.19611E-06-5.74361E+05-5.03140E-07
 -1      1997-2.80477E-07-5.74361E+05-5.95712E-07
 -1      1998 3.74250E-07-6.71363E+05-1.61112E-06
 -1      2000 6.51027E-07-6.71363E+05-1.07527E-06
 -1      2001-1.75944E-07-6.32567E+05-9.93001E-07
 -1      2003-1.06176E-06-6.32567E+05-7.95037E-07
 -1      2004-7.96279E-07-4.68039E+05 5.08371E-07
 -1      2006-1.15045E-06-4.68039E+05-4.10786E-07
 -1      2007-2.22904E-07-2.15179E+05-4.28263E-07
 -1      2009 6.00390E-07-2.15179E+05-5.47036E-07
 -1      2010 4.68683E-07 6.93110E+04-6.82288E-07
 -1      2012 1.27601E-06 6.93110E+04 4.46315E-07
 -1      2013 3.32882E-07 3.21528E+05-6.64557E-07
 -1      2015 9.63701E-07 3.21528E+05 5.62897E-07
 -1      2016 8.85851E-07 4.83983E+05-2.13093E-06
 -1      2018 1.27659E-06 4.83983E+05-1.33762E-06
 -1      2019 1.33806E-06 5.17618E+05-1.72768E-06
 -1      2021 1.04618E-06 5.17618E+05-1.28732E-06
 -1      2022 1.29646E-06 4.09816E+05-1.61147E-06
 -1      2024 8.51049E-07 4.09816E+05-1.38405E-06
 -1      2025 6.69303E-07 1.76200E+05-1.98887E-06
 -1      2027 5.54942E-07 1.76200E+05-2.47493E-06
 -1      2028-3.48482E-08-1.43701E+05-1.33374E-06
 -1      2030 9.89166E-09-1.43701E+05-2.14904E-06
 -1      2031 4.20114E-07-4.97293E+05 4.12765E-08
 -1      2033 3.67705E-07-4.97293E+05-6.62025E-07
 -1      2034 1.97534E-06-1.64718E+05-1.81257E-06
 -1      2036 1.81915E-06-1.64718E+05-1.57167E-06
 -1      2037 1.72705E-06-3.66746E+05-1.77474E-06
 -1      2039 1.52167E-06-3.66746E+05-2.10507E-06
 -1      2040-5.59958E-07-5.55912E+05 3.78270E-07
 -1      2042-5.78540E-07-5.55912E+05 2.71095E-07
 -1      2043-1.19048E-06-6.69611E+05 1.11408E-06
 -1      2045-9.46540E-07-6.69611E+05 1.38345E-06
 -1      2046-7.95979E-07-6.72312E+05-7.76152E-07
 -1      2048-5.68205E-07-6.72312E+05-2.46404E-07
 -1      2049-4.34711E-07-5.53850E+05-9.55828E-07
 -1      2051-3.11104E-07-5.53850E+05-7.28411E-07
 -1      2052 7.32969E-07-3.33878E+05-1.23852E-06
 -1      2054 6.84751E-07-3.33878E+05-1.52683E-06
 -1      2055 7.47248E-07-5.49770E+04-1.86932E-06
 -1      2057 1.04127E-06-5.49770E+04-2.52618E-06
 -1      2058-9.31144E-07 2.26093E+05-7.69476E-07
 -1      2060 1.06022E-06 2.26093E+05-1.16610E-06
 -1      2061 7.25602E-07 4.51434E+05 7.76397E-07
 -1      2063 2.87121E-06 4.51434E+05 3.01441E-07
 -1      2064 1.77148E-06 5.74394E+05 9.24530E-07
 -1      2066 2.55322E-06 5.74394E+05 4.84550E-07
 -1      2067 1.06982E-07 5.69870E+05-8.99779E-08
 -1      2069 1.77792E-07 5.69870E+05 7.30490E-08
 -1      2070-6.10435E-07 4.39706E+05-3.58434E-07
 -1      2072-9.86929E-07 4.39706E+05 9.13265E-07
 -1      2073-2.65727E-07 2.12385E+05 6.07575E-07
 -1      2075-6.81070E-07 2.12385E+05 2.08712E-06
 -1      2076 7.20535E-07-6.30727E+04 7.47030E-07
 -1      2078 4.19541E-08-6.30727E+04 1.80768E-06
 -1      2079 8.54932E-07-3.27615E+05-8.05350E-07
 -1      2081 8.73522E-07-3.27615E+05-3.37641E-08
 -1      2082 1.34582E-06-5.24826E+05-1.90314E-06
 -1      2084 1.66555E-06-5.24826E+05-1.17720E-06
 -1      2085 1.79229E-06-6.13034E+05-1.65231E-06
 -1      2087 2.01238E-06-6.13034E+05-7.71790E-07
 -1      2088 8.73370E-08-5.74258E+05 4.51415E-07
 -1      2090-7.77327E-08-5.74258E+05 3.49544E-07
 -1      2091-1.00351E-06-4.18066E+05 2.03651E-06
 -1      2093-6.81806E-07-4.18066E+05 1.62391E-06
 -1      2094-1.17512E-06-1.79552E+05 1.61771E-06
 -1      2096-5.82069E-07-1.79552E+05 1.24957E-06
 -1      2097-1.86251E-06 8.81588E+04-1.53701E-07
 -1      2099-1.20950E-06 8.81588E+04 2.35890E-07
 -1      2100-1.88022E-06 3.25194E+05-7.75621E-07
 -1      2102-1.39645E-06 3.25194E+05 5.45169E-07
 -1      2103-1.40197E-07 4.77620E+05-1.48669E-06
 -1      2105 1.48448E-07 4.77620E+05-8.20728E-07
 -1      2106 6.06007E-07 5.08637E+05-1.19409E-06
 -1      2108 4.43230E-07 5.08637E+05-8.48369E-07
 -1      2109 4.00223E-07 4.06001E+05-1.12178E-06
 -1      2111 1.93091E-07 4.06001E+05-6.01152E-07
 -1      2112-1.68553E-07 1.83666E+05-1.85138E-06
 -1      2114-4.06847E-07 1.83666E+05-2.10306E-06
 -1      2115-1.70027E-06-1.22406E+05-1.38995E-06
 -1      2117-1.43121E-06-1.22406E+05-2.04330E-06
 -1      2118-1.48740E-06-4.64424E+05-3.35902E-07
 -1      2120-1.67712E-06-4.64424E+05-9.29620E-07
 -1      2121-2.50788E+04-8.01586E+04 5.75793E+03
 -1      2123-2.50788E+04-8.01586E+04 5.75793E+03
 -1      2124-3.64310E+04-1.83155E+05 1.08788E+04
 -1      2126-3.64310E+04-1.83155E+05 1.08788E+04
 -1      2127-3.04991E+04-2.85662E+05 1.29373E+04
 -1      2129-3.04991E+04-2.85662E+05 1.29373E+04
 -1      2130-1.16943E+04-3.50303E+05 1.03421E+04
 -1      2132-1.16943E+04-3.50303E+05 1.03421E+04
 -1      2133 1.35505E+04-3.53801E+05 2.62017E+03
 -1      2135 1.35505E+04-3.53801E+05 2.62017E+03
 -1      2136 3.83936E+04-2.89295E+05-9.97327E+03
 -1      2138 3.83936E+04-2.89295E+05-9.97327E+03
 -1      2139 5.65061E+04-1.66992E+05-2.61831E+04
 -1      2141 5.65061E+04-1.66992E+05-2.61831E+04
 -1      2142 6.33884E+04-1.09533E+04-4.40414E+04
 -1      2144 6.33884E+04-1.09533E+04-4.40414E+04
 -1      2145 5.71625E+04 1.46520E+05-6.11508E+04
 -1      2147 5.71625E+04 1.46520E+05-6.11508E+04
 -1      2148 3.89296E+04 2.72246E+05-7.51390E+04
 -1      2150 3.89296E+04 2.72246E+05-7.51390E+04
 -1      2151 1.24680E+04 3.39513E+05-8.40837E+04
 -1      2153 1.24680E+04 3.39513E+05-8.40837E+04
 -1      2154-1.66053E+04 3.33996E+05-8.68695E+04
 -1      2156-1.66053E+04 3.33996E+05-8.68695E+04
 -1      2157-4.20697E+04 2.56936E+05-8.33777E+04
 -1      2159-4.20697E+04 2.56936E+05-8.33777E+04
 -1      2160-5.84522E+04 1.24949E+05-7.44834E+04
 -1      2162-5.84522E+04 1.24949E+05-7.44834E+04
 -1      2163-6.22183E+04-3.35101E+04-6.18551E+04
 -1      2165-6.22183E+04-3.35101E+04-6.18551E+04
 -1      2166-5.25404E+04-1.84245E+05-4.76031E+04
 -1      2168-5.25404E+04-1.84245E+05-4.76031E+04
 -1      2169-3.14859E+04-2.94670E+05-3.38510E+04
 -1      2171-3.14859E+04-2.94670E+05-3.38510E+04
 -1      2172-3.58027E+03-3.40832E+05-2.23213E+04
 -1      2174-3.58027E+03-3.40832E+05-2.23213E+04
 -1      2175 2.51547E+04-3.12598E+05-1.40221E+04
 -1      2177 2.51547E+04-3.12598E+05-1.40221E+04
 -1      2178 4.84843E+04-2.15894E+05-9.09971E+03
 -1      2180 4.84843E+04-2.15894E+05-9.09971E+03
 -1      2181 6.12847E+04-7.15126E+04-6.88528E+03
 -1      2183 6.12847E+04-7.15126E+04-6.88528E+03
 -1      2184 6.06221E+04 8.92281E+04-6.12206E+03
 -1      2186 6.06221E+04 8.92281E+04-6.12206E+03
 -1      2187 4.63510E+04 2.31046E+05-5.31987E+03
 -1      2189 4.63510E+04 2.31046E+05-5.31987E+03
 -1      2190 2.10959E+04 3.22025E+05-3.15979E+03
 -1      2192 2.10959E+04 3.22025E+05-3.15979E+03
 -1      2193-1.03870E+04 3.40104E+05 1.14817E+03
 -1      2195-1.03870E+04 3.40104E+05 1.14817E+03
 -1      2196-4.23450E+04 2.77282E+05 7.61924E+03
 -1      2198-4.23450E+04 2.77282E+05 7.61924E+03
 -1      2199-6.94395E+04 1.40497E+05 1.54493E+04
 -1      2201-6.94395E+04 1.40497E+05 1.54493E+04
 -1      2202-8.81668E+04-5.10446E+04 2.31202E+04
 -1      2204-8.81668E+04-5.10446E+04 2.31202E+04
 -1      2205-9.79731E+04-2.71996E+05 2.88205E+04
 -1      2207-9.79731E+04-2.71996E+05 2.88205E+04
 -1      2208 2.50788E+04-8.01586E+04-5.75793E+03
 -1      2210 2.50788E+04-8.01586E+04-5.75793E+03
 -1      2211 3.64310E+04-1.83155E+05-1.08788E+04
 -1      2213 3.64310E+04-1.83155E+05-1.08788E+04
 -1      2214 3.04991E+04-2.85662E+05-1.29373E+04
 -1      2216 3.04991E+04-2.85662E+05-1.29373E+04
 -1      2217 1.16943E+04-3.50303E+05-1.03421E+04
 -1      2219 1.16943E+04-3.50303E+05-1.03421E+04
 -1      2220-1.35505E+04-3.53801E+05-2.62017E+03
 -1      2222-1.35505E+04-3.53801E+05-2.62017E+03
 -1      2223-3.83936E+04-2.89295E+05 9.97327E+03
 -1      2225-3.83936E+04-2.89295E+05 9.97327E+03
 -1      2226-5.65061E+04-1.66992E+05 2.61831E+04
 -1      2228-5.65061E+04-1.66992E+05 2.61831E+04
 -1      2229-6.33884E+04-1.09533E+04 4.40414E+04
 -1      2231-6.33884E+04-1.09533E+04 4.40414E+04
 -1      2232-5.71625E+04 1.46520E+05 6.11508E+04
 -1      2234-5.71625E+04 1.46520E+05 6.11508E+04
 -1      2235-3.89296E+04 2.72246E+05 7.51390E+04
 -1      2237-3.89296E+04 2.72246E+05 7.51390E+04
 -1      2238-1.24680E+04 3.39513E+05 8.40837E+04
 -1      2240-1.24680E+04 3.39513E+05 8.40837E+04
 -1      2241 1.66053E+04 3.33996E+05 8.68695E+04
 -1      2243 1.66053E+04 3.33996E+05 8.68695E+04
 -1      2244 4.20697E+04 2.56936E+05 8.33777E+04
 -1      2246 4.20697E+04 2.56936E+05 8.33777E+04
 -1      2247 5.84522E+04 1.24949E+05 7.44834E+04
 -1      2249 5.84522E+04 1.24949E+05 7.44834E+04
 -1      2250 6.22183E+04-3.35101E+04 6.18551E+04
 -1      2252 6.22183E+04-3.35101E+04 6.18551E+04
 -1      2253 5.25404E+04-1.84245E+05 4.76031E+04
 -1      2255 5.25404E+04-1.84245E+05 4.76031E+04
 -1      2256 3.14859E+04-2.94670E+05 3.38510E+04
 -1      2258 3.14859E+04-2.94670E+05 3.38510E+04
 -1      2259 3.58027E+03-3.40832E+05 2.23213E+04
 -1      2261 3.58027E+03-3.40832E+05 2.23213E+04
 -1      2262-2.51547E+04-3.12598E+05 1.40221E+04
 -1      2264-2.51547E+04-3.12598E+05 1.40221E+04
 -1      2265-4.84843E+04-2.15894E+05 9.09971E+03
 -1      2267-4.84843E+04-2.15894E+05 9.09971E+03
 -1      2268-6.12847E+04-7.15126E+04 6.88528E+03
 -1      2270-6.12847E+04-7.15126E+04 6.88528E+03
 -1      2271-6.06221E+04 8.92281E+04 6.12206E+03
 -1      2273-6.06221E+04 8.92281E+04 6.12206E+03
 -1      2274-4.63510E+04 2.31046E+05 5.31987E+03
 -1      2276-4.63510E+04 2.31046E+05 5.31987E+03
 -1      2277-2.10959E+04 3.22025E+05 3.15979E+03
 -1      2279-2.10959E+04 3.22025E+05 3.15979E+03
 -1      2280 1.03870E+04 3.40104E+05-1.14817E+03
 -1      2282 1.03870E+04 3.40104E+05-1.14817E+03
 -1      2283 4.23450E+04 2.77282E+05-7.61924E+03
 -1      2285 4.23450E+04 2.77282E+05-7.61924E+03
 -1      2286 6.94395E+04 1.40497E+05-1.54493E+04
 -1      2288 6.94395E+04 1.40497E+05-1.54493E+04
 -1      2289 8.81668E+04-5.10446E+04-2.31202E+04
 -1      2291 8.81668E+04-5.10446E+04-2.31202E+04
 -1      2292 9.79731E+04-2.71996E+05-2.88205E+04
 -1      2294 9.79731E+04-2.71996E+05-2.88205E+04
 -3
    1PSTEP                        64           1           1          
    1PGM                1.000000E+00                                  
    1PGK                1.666060E+07                                  
    1PHID                         -1                                  
    1PSUBC                         0                                  
    1PMODE                        16                                  
  100CL  116 649.6290092         930                     2   16MODAL      1
 -4  ERROR       1    1
 -5  STR(%)      1    1    0    0
 -1       404 0.00000E+00
 -1       406 0.00000E+00
 -1       407 0.00000E+00
 -1       409 0.00000E+00
 -1       410 0.00000E+00
 -1       412 0.00000E+00
 -1       413 0.00000E+00
 -1       415 0.00000E+00
 -1       424 0.00000E+00
 -1       426 0.00000E+00
 -1       427 0.00000E+00
 -1       429 0.00000E+00
 -1       438 0.00000E+00
 -1       440 0.00000E+00
 -1       441 0.00000E+00
 -1       443 0.00000E+00
 -1       444 0.00000E+00
 -1       446 0.00000E+00
 -1       447 0.00000E+00
 -1       449 0.00000E+00
 -1       458 0.00000E+00
 -1       460 0.00000E+00
 -1       461 0.00000E+00
 -1       463 0.00000E+00
 -1       472 0.00000E+00
 -1       474 0.00000E+00
 -1       475 0.00000E+00
 -1       477 0.00000E+00
 -1       478 0.00000E+00
 -1       480 0.00000E+00
 -1       481 0.00000E+00
 -1       483 0.00000E+00
 -1       484 0.00000E+00
 -1       486 0.00000E+00
 -1       487 0.00000E+00
 -1       489 0.00000E+00
 -1       490 0.00000E+00
 -1       492 0.00000E+00
 -1       493 0.00000E+00
 -1       495 0.00000E+00
 -1       496 0.00000E+00
 -1       498 0.00000E+00
 -1       499 0.00000E+00
 -1       501 0.00000E+00
 -1       502 0.00000E+00
 -1       504 0.00000E+00
 -1       505 0.00000E+00
 -1       507 0.00000E+00
 -1       508 0.00000E+00
 -1       510 0.00000E+00
 -1       511 0.00000E+00
 -1       513 0.00000E+00
 -1       514 0.00000E+00
 -1       516 0.00000E+00
 -1       517 0.00000E+00
 -1       519 0.00000E+00
 -1       520 0.00000E+00
 -1       522 0.00000E+00
 -1       523 0.00000E+00
 -1       525 0.00000E+00
 -1       526 0.00000E+00
 -1       528 0.00000E+00
 -1       529 0.00000E+00
 -1       531 0.00000E+00
 -1       532 0.00000E+00
 -1       534 0.00000E+00
 -1       535 0.00000E+00
 -1       537 0.00000E+00
 -1       538 0.00000E+00
 -1       540 0.00000E+00
 -1       541 0.00000E+00
 -1       543 0.00000E+00
 -1       544 0.00000E+00
 -1       546 0.00000E+00
 -1       547 0.00000E+00
 -1       549 0.00000E+00
 -1       550 0.00000E+00
 -1       552 0.00000E+00
 -1       553 0.00000E+00
 -1       555 0.00000E+00
 -1       556 0.00000E+00
 -1       558 0.00000E+00
 -1       559 0.00000E+00
 -1       561 0.00000E+00
 -1       562 0.00000E+00
 -1       564 0.00000E+00
 -1       565 0.00000E+00
 -1       567 0.00000E+00
 -1       568 0.00000E+00
 -1       570 0.00000E+00
 -1       571 0.00000E+00
 -1       573 0.00000E+00
 -1       574 0.00000E+00
 -1       576 0.00000E+00
 -1       577 0.00000E+00
 -1       579 0.00000E+00
 -1       588 0.00000E+00
 -1       590 0.00000E+00
 -1       591 0.00000E+00
 -1       593 0.00000E+00
 -1       602 0.00000E+00
 -1       604 0.00000E+00
 -1       605 0.00000E+00
 -1       607 0.00000E+00
 -1       616 0.00000E+00
 -1       618 0.00000E+00
 -1       619 0.00000E+00
 -1       621 0.00000E+00
 -1       630 0.00000E+00
 -1       632 0.00000E+00
 -1       633 0.00000E+00
 -1       635 0.00000E+00
 -1       644 0.00000E+00
 -1       646 0.00000E+00
 -1       647 0.00000E+00
 -1       649 0.00000E+00
 -1       658 0.00000E+00
 -1       660 0.00000E+00
 -1       661 0.00000E+00
 -1       663 0.00000E+00
 -1       672 0.00000E+00
 -1       674 0.00000E+00
 -1       675 0.00000E+00
 -1       677 0.00000E+00
 -1       686 0.00000E+00
 -1       688 0.00000E+00
 -1       689 0.00000E+00
 -1       691 0.00000E+00
 -1       700 0.00000E+00
 -1       702 0.00000E+00
 -1       703 0.00000E+00
 -1       705 0.00000E+00
 -1       714 0.00000E+00
 -1       716 0.00000E+00
 -1       717 0.00000E+00
 -1       719 0.00000E+00
 -1       728 0.00000E+00
 -1       730 0.00000E+00
 -1       731 0.00000E+00
 -1       733 0.00000E+00
 -1       742 0.00000E+00
 -1       744 0.00000E+00
 -1       745 0.00000E+00
 -1       747 0.00000E+00
 -1       756 0.00000E+00
 -1       758 0.00000E+00
 -1       759 0.00000E+00
 -1       761 0.00000E+00
 -1       770 0.00000E+00
 -1       772 0.00000E+00
 -1       773 0.00000E+00
 -1       775 0.00000E+00
 -1       784 0.00000E+00
 -1       786 0.00000E+00
 -1       787 0.00000E+00
 -1       789 0.00000E+00
 -1       798 0.00000E+00
 -1       800 0.00000E+00
 -1       801 0.00000E+00
 -1       803 0.00000E+00
 -1       812 0.00000E+00
 -1       814 0.00000E+00
 -1       815 0.00000E+00
 -1       817 0.00000E+00
 -1       826 0.00000E+00
 -1       828 0.00000E+00
 -1       829 0.00000E+00
 -1       831 0.00000E+00
 -1       840 0.00000E+00
 -1       842 0.00000E+00
 -1       843 0.00000E+00
 -1       845 0.00000E+00
 -1       854 0.00000E+00
 -1       856 0.00000E+00
 -1       857 0.00000E+00
 -1       859 0.00000E+00
 -1       868 0.00000E+00
 -1       870 0.00000E+00
 -1       871 0.00000E+00
 -1       873 0.00000E+00
 -1       882 0.00000E+00
 -1       884 0.00000E+00
 -1       885 0.00000E+00
 -1       887 0.00000E+00
 -1       896 0.00000E+00
 -1       898 0.00000E+00
 -1       899 0.00000E+00
 -1       901 0.00000E+00
 -1       910 0.00000E+00
 -1       912 0.00000E+00
 -1       913 0.00000E+00
 -1       915 0.00000E+00
 -1       924 0.00000E+00
 -1       926 0.00000E+00
 -1       927 0.00000E+00
 -1       929 0.00000E+00
 -1       938 0.00000E+00
 -1       940 0.00000E+00
 -1       941 0.00000E+00
 -1       943 0.00000E+00
 -1       952 0.00000E+00
 -1       954 0.00000E+00
 -1       955 0.00000E+00
 -1       957 0.00000E+00
 -1       966 0.00000E+00
 -1       968 0.00000E+00
 -1       969 0.00000E+00
 -1       971 0.00000E+00
 -1       980 0.00000E+00
 -1       982 0.00000E+00
 -1       983 0.00000E+00
 -1       985 0.00000E+00
 -1       986 0.00000E+00
 -1       988 0.00000E+00
 -1       989 0.00000E+00
 -1       991 0.00000E+00
 -1       992 0.00000E+00
 -1       994 0.00000E+00
 -1       995 0.00000E+00
 -1       997 0.00000E+00
 -1       998 0.00000E+00
 -1      1000 0.00000E+00
 -1      1001 0.00000E+00
 -1      1003 0.00000E+00
 -1      1004 0.00000E+00
 -1      1006 0.00000E+00
 -1      1007 0.00000E+00
 -1      1009 0.00000E+00
 -1      1010 0.00000E+00
 -1      1012 0.00000E+00
 -1      1013 0.00000E+00
 -1      1015 0.00000E+00
 -1      1016 0.00000E+00
 -1      1018 0.00000E+00
 -1      1019 0.00000E+00
 -1      1021 0.00000E+00
 -1      1022 0.00000E+00
 -1      1024 0.00000E+00
 -1      1025 0.00000E+00
 -1      1027 0.00000E+00
 -1      1028 0.00000E+00
 -1      1030 0.00000E+00
 -1      1031 0.00000E+00
 -1      1033 0.00000E+00
 -1      1034 0.00000E+00
 -1      1036 0.00000E+00
 -1      1037 0.00000E+00
 -1      1039 0.00000E+00
 -1      1040 0.00000E+00
 -1      1042 0.00000E+00
 -1      1043 0.00000E+00
 -1      1045 0.00000E+00
 -1      1046 0.00000E+00
 -1      1048 0.00000E+00
 -1      1049 0.00000E+00
 -1      1051 0.00000E+00
 -1      1052 0.00000E+00
 -1      1054 0.00000E+00
 -1      1055 0.00000E+00
 -1      1057 0.00000E+00
 -1      1058 0.00000E+00
 -1      1060 0.00000E+00
 -1      1061 0.00000E+00
 -1      1063 0.00000E+00
 -1      1064 0.00000E+00
 -1      1066 0.00000E+00
 -1      1067 0.00000E+00
 -1      1069 0.00000E+00
 -1      1070 0.00000E+00
 -1      1072 0.00000E+00
 -1      1073 0.00000E+00
 -1      1075 0.00000E+00
 -1      1076 0.00000E+00
 -1      1078 0.00000E+00
 -1      1079 0.00000E+00
 -1      1081 0.00000E+00
 -1      1082 0.00000E+00
 -1      1084 0.00000E+00
 -1      1085 0.00000E+00
 -1      1087 0.00000E+00
 -1      1088 0.00000E+00
 -1      1090 0.00000E+00
 -1      1099 0.00000E+00
 -1      1101 0.00000E+00
 -1      1102 0.00000E+00
 -1      1104 0.00000E+00
 -1      1113 0.00000E+00
 -1      1115 0.00000E+00
 -1      1116 0.00000E+00
 -1      1118 0.00000E+00
 -1      1127 0.00000E+00
 -1      1129 0.00000E+00
 -1      1130 0.00000E+00
 -1      1132 0.00000E+00
 -1      1141 0.00000E+00
 -1      1143 0.00000E+00
 -1      1144 0.00000E+00
 -1      1146 0.00000E+00
 -1      1155 0.00000E+00
 -1      1157 0.00000E+00
 -1      1158 0.00000E+00
 -1      1160 0.00000E+00
 -1      1169 0.00000E+00
 -1      1171 0.00000E+00
 -1      1172 0.00000E+00
 -1      1174 0.00000E+00
 -1      1183 0.00000E+00
 -1      1185 0.00000E+00
 -1      1186 0.00000E+00
 -1      1188 0.00000E+00
 -1      1197 0.00000E+00
 -1      1199 0.00000E+00
 -1      1200 0.00000E+00
 -1      1202 0.00000E+00
 -1      1211 0.00000E+00
 -1      1213 0.00000E+00
 -1      1214 0.00000E+00
 -1      1216 0.00000E+00
 -1      1225 0.00000E+00
 -1      1227 0.00000E+00
 -1      1228 0.00000E+00
 -1      1230 0.00000E+00
 -1      1239 0.00000E+00
 -1      1241 0.00000E+00
 -1      1242 0.00000E+00
 -1      1244 0.00000E+00
 -1      1253 0.00000E+00
 -1      1255 0.00000E+00
 -1      1256 0.00000E+00
 -1      1258 0.00000E+00
 -1      1267 0.00000E+00
 -1      1269 0.00000E+00
 -1      1270 0.00000E+00
 -1      1272 0.00000E+00
 -1      1281 0.00000E+00
 -1      1283 0.00000E+00
 -1      1284 0.00000E+00
 -1      1286 0.00000E+00
 -1      1295 0.00000E+00
 -1      1297 0.00000E+00
 -1      1298 0.00000E+00
 -1      1300 0.00000E+00
 -1      1309 0.00000E+00
 -1      1311 0.00000E+00
 -1      1312 0.00000E+00
 -1      1314 0.00000E+00
 -1      1323 0.00000E+00
 -1      1325 0.00000E+00
 -1      1326 0.00000E+00
 -1      1328 0.00000E+00
 -1      1337 0.00000E+00
 -1      1339 0.00000E+00
 -1      1340 0.00000E+00
 -1      1342 0.00000E+00
 -1      1351 0.00000E+00
 -1      1353 0.00000E+00
 -1      1354 0.00000E+00
 -1      1356 0.00000E+00
 -1      1365 0.00000E+00
 -1      1367 0.00000E+00
 -1      1368 0.00000E+00
 -1      1370 0.00000E+00
 -1      1379 0.00000E+00
 -1      1381 0.00000E+00
 -1      1382 0.00000E+00
 -1      1384 0.00000E+00
 -1      1393 0.00000E+00
 -1      1395 0.00000E+00
 -1      1396 0.00000E+00
 -1      1398 0.00000E+00
 -1      1407 0.00000E+00
 -1      1409 0.00000E+00
 -1      1410 0.00000E+00
 -1      1412 0.00000E+00
 -1      1421 0.00000E+00
 -1      1423 0.00000E+00
 -1      1424 0.00000E+00
 -1      1426 0.00000E+00
 -1      1435 0.00000E+00
 -1      1437 0.00000E+00
 -1      1438 0.00000E+00
 -1      1440 0.00000E+00
 -1      1449 0.00000E+00
 -1      1451 0.00000E+00
 -1      1452 0.00000E+00
 -1      1454 0.00000E+00
 -1      1463 0.00000E+00
 -1      1465 0.00000E+00
 -1      1466 0.00000E+00
 -1      1468 0.00000E+00
 -1      1477 0.00000E+00
 -1      1479 0.00000E+00
 -1      1480 0.00000E+00
 -1      1482 0.00000E+00
 -1      1491 0.00000E+00
 -1      1493 0.00000E+00
 -1      1494 0.00000E+00
 -1      1496 0.00000E+00
 -1      1497 0.00000E+00
 -1      1499 0.00000E+00
 -1      1500 0.00000E+00
 -1      1502 0.00000E+00
 -1      1503 0.00000E+00
 -1      1505 0.00000E+00
 -1      1506 0.00000E+00
 -1      1508 0.00000E+00
 -1      1509 0.00000E+00
 -1      1511 0.00000E+00
 -1      1512 0.00000E+00
 -1      1514 0.00000E+00
 -1      1515 0.00000E+00
 -1      1517 0.00000E+00
 -1      1518 0.00000E+00
 -1      1520 0.00000E+00
 -1      1521 0.00000E+00
 -1      1523 0.00000E+00
 -1      1524 0.00000E+00
 -1      1526 0.00000E+00
 -1      1527 0.00000E+00
 -1      1529 0.00000E+00
 -1      1530 0.00000E+00
 -1      1532 0.00000E+00
 -1      1533 0.00000E+00
 -1      1535 0.00000E+00
 -1      1536 0.00000E+00
 -1      1538 0.00000E+00
 -1      1539 0.00000E+00
 -1      1541 0.00000E+00
 -1      1542 0.00000E+00
 -1      1544 0.00000E+00
 -1      1545 0.00000E+00
 -1      1547 0.00000E+00
 -1      1548 0.00000E+00
 -1      1550 0.00000E+00
 -1      1551 0.00000E+00
 -1      1553 0.00000E+00
 -1      1554 0.00000E+00
 -1      1556 0.00000E+00
 -1      1557 0.00000E+00
 -1      1559 0.00000E+00
 -1      1560 0.00000E+00
 -1      1562 0.00000E+00
 -1      1563 0.00000E+00
 -1      1565 0.00000E+00
 -1      1566 0.00000E+00
 -1      1568 0.00000E+00
 -1      1569 0.00000E+00
 -1      1571 0.00000E+00
 -1      1572 0.00000E+00
 -1      1574 0.00000E+00
 -1      1575 0.00000E+00
 -1      1577 0.00000E+00
 -1      1578 0.00000E+00
 -1      1580 0.00000E+00
 -1      1581 0.00000E+00
 -1      1583 0.00000E+00
 -1      1584 0.00000E+00
 -1      1586 0.00000E+00
 -1      1587 0.00000E+00
 -1      1589 0.00000E+00
 -1      1590 0.00000E+00
 -1      1592 0.00000E+00
 -1      1593 0.00000E+00
 -1      1595 0.00000E+00
 -1      1596 0.00000E+00
 -1      1598 0.00000E+00
 -1      1599 0.00000E+00
 -1      1601 0.00000E+00
 -1      1602 0.00000E+00
 -1      1604 0.00000E+00
 -1      1605 0.00000E+00
 -1      1607 0.00000E+00
 -1      1608 0.00000E+00
 -1      1610 0.00000E+00
 -1      1611 0.00000E+00
 -1      1613 0.00000E+00
 -1      1614 0.00000E+00
 -1      1616 0.00000E+00
 -1      1617 0.00000E+00
 -1      1619 0.00000E+00
 -1      1620 0.00000E+00
 -1      1622 0.00000E+00
 -1      1623 0.00000E+00
 -1      1625 0.00000E+00
 -1      1626 0.00000E+00
 -1      1628 0.00000E+00
 -1      1629 0.00000E+00
 -1      1631 0.00000E+00
 -1      1632 0.00000E+00
 -1      1634 0.00000E+00
 -1      1635 0.00000E+00
 -1      1637 0.00000E+00
 -1      1638 0.00000E+00
 -1      1640 0.00000E+00
 -1      1641 0.00000E+00
 -1      1643 0.00000E+00
 -1      1644 0.00000E+00
 -1      1646 0.00000E+00
 -1      1647 0.00000E+00
 -1      1649 0.00000E+00
 -1      1650 0.00000E+00
 -1      1652 0.00000E+00
 -1      1653 0.00000E+00
 -1      1655 0.00000E+00
 -1      1656 0.00000E+00
 -1      1658 0.00000E+00
 -1      1659 0.00000E+00
 -1      1661 0.00000E+00
 -1      1662 0.00000E+00
 -1      1664 0.00000E+00
 -1      1665 0.00000E+00
 -1      1667 0.00000E+00
 -1      1668 0.00000E+00
 -1      1670 0.00000E+00
 -1      1671 0.00000E+00
 -1      1673 0.00000E+00
 -1      1674 0.00000E+00
 -1      1676 0.00000E+00
 -1      1677 0.00000E+00
 -1      1679 0.00000E+00
 -1      1680 0.00000E+00
 -1      1682 0.00000E+00
 -1      1683 0.00000E+00
 -1      1685 0.00000E+00
 -1      1686 0.00000E+00
 -1      1688 0.00000E+00
 -1      1689 0.00000E+00
 -1      1691 0.00000E+00
 -1      1692 0.00000E+00
 -1      1694 0.00000E+00
 -1      1695 0.00000E+00
 -1      1697 0.00000E+00
 -1      1698 0.00000E+00
 -1      1700 0.00000E+00
 -1      1701 0.00000E+00
 -1      1703 0.00000E+00
 -1      1704 0.00000E+00
 -1      1706 0.00000E+00
 -1      1707 0.00000E+00
 -1      1709 0.00000E+00
 -1      1710 0.00000E+00
 -1      1712 0.00000E+00
 -1      1713 0.00000E+00
 -1      1715 0.00000E+00
 -1      1716 0.00000E+00
 -1      1718 0.00000E+00
 -1      1719 0.00000E+00
 -1      1721 0.00000E+00
 -1      1722 0.00000E+00
 -1      1724 0.00000E+00
 -1      1725 0.00000E+00
 -1      1727 0.00000E+00
 -1      1728 0.00000E+00
 -1      1730 0.00000E+00
 -1      1731 0.00000E+00
 -1      1733 0.00000E+00
 -1      1734 0.00000E+00
 -1      1736 0.00000E+00
 -1      1737 0.00000E+00
 -1      1739 0.00000E+00
 -1      1740 0.00000E+00
 -1      1742 0.00000E+00
 -1      1743 0.00000E+00
 -1      1745 0.00000E+00
 -1      1746 0.00000E+00
 -1      1748 0.00000E+00
 -1      1749 0.00000E+00
 -1      1751 0.00000E+00
 -1      1752 0.00000E+00
 -1      1754 0.00000E+00
 -1      1755 0.00000E+00
 -1      1757 0.00000E+00
 -1      1758 0.00000E+00
 -1      1760 0.00000E+00
 -1      1761 0.00000E+00
 -1      1763 0.00000E+00
 -1      1764 0.00000E+00
 -1      1766 0.00000E+00
 -1      1767 0.00000E+00
 -1      1769 0.00000E+00
 -1      1770 0.00000E+00
 -1      1772 0.00000E+00
 -1      1773 0.00000E+00
 -1      1775 0.00000E+00
 -1      1776 0.00000E+00
 -1      1778 0.00000E+00
 -1      1779 0.00000E+00
 -1      1781 0.00000E+00
 -1      1782 0.00000E+00
 -1      1784 0.00000E+00
 -1      1785 0.00000E+00
 -1      1787 0.00000E+00
 -1      1788 0.00000E+00
 -1      1790 0.00000E+00
 -1      1791 0.00000E+00
 -1      1793 0.00000E+00
 -1      1794 0.00000E+00
 -1      1796 0.00000E+00
 -1      1797 0.00000E+00
 -1      1799 0.00000E+00
 -1      1800 0.00000E+00
 -1      1802 0.00000E+00
 -1      1803 0.00000E+00
 -1      1805 0.00000E+00
 -1      1806 0.00000E+00
 -1      1808 0.00000E+00
 -1      1809 0.00000E+00
 -1      1811 0.00000E+00
 -1      1812 0.00000E+00
 -1      1814 0.00000E+00
 -1      1815 0.00000E+00
 -1      1817 0.00000E+00
 -1      1818 0.00000E+00
 -1      1820 0.00000E+00
 -1      1821 0.00000E+00
 -1      1823 0.00000E+00
 -1      1824 0.00000E+00
 -1      1826 0.00000E+00
 -1      1827 0.00000E+00
 -1      1829 0.00000E+00
 -1      1830 0.00000E+00
 -1      1832 0.00000E+00
 -1      1833 0.00000E+00
 -1      1835 0.00000E+00
 -1      1836 0.00000E+00
 -1      1838 0.00000E+00
 -1      1839 0.00000E+00
 -1      1841 0.00000E+00
 -1      1842 0.00000E+00
 -1      1844 0.00000E+00
 -1      1845 0.00000E+00
 -1      1847 0.00000E+00
 -1      1848 0.00000E+00
 -1      1850 0.00000E+00
 -1      1851 0.00000E+00
 -1      1853 0.00000E+00
 -1      1854 0.00000E+00
 -1      1856 0.00000E+00
 -1      1857 0.00000E+00
 -1      1859 0.00000E+00
 -1      1860 0.00000E+00
 -1      1862 0.00000E+00
 -1      1863 0.00000E+00
 -1      1865 0.00000E+00
 -1      1866 0.00000E+00
 -1      1868 0.00000E+00
 -1      1869 0.00000E+00
 -1      1871 0.00000E+00
 -1      1872 0.00000E+00
 -1      1874 0.00000E+00
 -1      1875 0.00000E+00
 -1      1877 0.00000E+00
 -1      1878 0.00000E+00
 -1      1880 0.00000E+00
 -1      1881 0.00000E+00
 -1      1883 0.00000E+00
 -1      1884 0.00000E+00
 -1      1886 0.00000E+00
 -1      1887 0.00000E+00
 -1      1889 0.00000E+00
 -1      1890 0.00000E+00
 -1      1892 0.00000E+00
 -1      1893 0.00000E+00
 -1      1895 0.00000E+00
 -1      1896 0.00000E+00
 -1      1898 0.00000E+00
 -1      1899 0.00000E+00
 -1      1901 0.00000E+00
 -1      1902 0.00000E+00
 -1      1904 0.00000E+00
 -1      1905 0.00000E+00
 -1      1907 0.00000E+00
 -1      1908 0.00000E+00
 -1      1910 0.00000E+00
 -1      1911 0.00000E+00
 -1      1913 0.00000E+00
 -1      1914 0.00000E+00
 -1      1916 0.00000E+00
 -1      1917 0.00000E+00
 -1      1919 0.00000E+00
 -1      1920 0.00000E+00
 -1      1922 0.00000E+00
 -1      1923 0.00000E+00
 -1      1925 0.00000E+00
 -1      1926 0.00000E+00
 -1      1928 0.00000E+00
 -1      1929 0.00000E+00
 -1      1931 0.00000E+00
 -1      1932 0.00000E+00
 -1      1934 0.00000E+00
 -1      1935 0.00000E+00
 -1      1937 0.00000E+00
 -1      1938 0.00000E+00
 -1      1940 0.00000E+00
 -1      1941 0.00000E+00
 -1      1943 0.00000E+00
 -1      1944 0.00000E+00
 -1      1946 0.00000E+00
 -1      1947 0.00000E+00
 -1      1949 0.00000E+00
 -1      1950 0.00000E+00
 -1      1952 0.00000E+00
 -1      1953 0.00000E+00
 -1      1955 0.00000E+00
 -1      1956 0.00000E+00
 -1      1958 0.00000E+00
 -1      1959 0.00000E+00
 -1      1961 0.00000E+00
 -1      1962 0.00000E+00
 -1      1964 0.00000E+00
 -1      1965 0.00000E+00
 -1      1967 0.00000E+00
 -1      1968 0.00000E+00
 -1      1970 0.00000E+00
 -1      1971 0.00000E+00
 -1      1973 0.00000E+00
 -1      1974 0.00000E+00
 -1      1976 0.00000E+00
 -1      1977 0.00000E+00
 -1      1979 0.00000E+00
 -1      1980 0.00000E+00
 -1      1982 0.00000E+00
 -1      1983 0.00000E+00
 -1      1985 0.00000E+00
 -1      1986 0.00000E+00
 -1      1988 0.00000E+00
 -1      1989 0.00000E+00
 -1      1991 0.00000E+00
 -1      1992 0.00000E+00
 -1      1994 0.00000E+00
 -1      1995 0.00000E+00
 -1      1997 0.00000E+00
 -1      1998 0.00000E+00
 -1      2000 0.00000E+00
 -1      2001 0.00000E+00
 -1      2003 0.00000E+00
 -1      2004 0.00000E+00
 -1      2006 0.00000E+00
 -1      2007 0.00000E+00
 -1      2009 0.00000E+00
 -1      2010 0.00000E+00
 -1      2012 0.00000E+00
 -1      2013 0.00000E+00
 -1      2015 0.00000E+00
 -1      2016 0.00000E+00
 -1      2018 0.00000E+00
 -1      2019 0.00000E+00
 -1      2021 0.00000E+00
 -1      2022 0.00000E+00
 -1      2024 0.00000E+00
 -1      2025 0.00000E+00
 -1      2027 0.00000E+00
 -1      2028 0.00000E+00
 -1      2030 0.00000E+00
 -1      2031 0.00000E+00
 -1      2033 0.00000E+00
 -1      2034 0.00000E+00
 -1      2036 0.00000E+00
 -1      2037 0.00000E+00
 -1      2039 0.00000E+00
 -1      2040 0.00000E+00
 -1      2042 0.00000E+00
 -1      2043 0.00000E+00
 -1      2045 0.00000E+00
 -1      2046 0.00000E+00
 -1      2048 0.00000E+00
 -1      2049 0.00000E+00
 -1      2051 0.00000E+00
 -1      2052 0.00000E+00
 -1      2054 0.00000E+00
 -1      2055 0.00000E+00
 -1      2057 0.00000E+00
 -1      2058 0.00000E+00
 -1      2060 0.00000E+00
 -1      2061 0.00000E+00
 -1      2063 0.00000E+00
 -1      2064 0.00000E+00
 -1      2066 0.00000E+00
 -1      2067 0.00000E+00
 -1      2069 0.00000E+00
 -1      2070 0.00000E+00
 -1      2072 0.00000E+00
 -1      2073 0.00000E+00
 -1      2075 0.00000E+00
 -1      2076 0.00000E+00
 -1      2078 0.00000E+00
 -1      2079 0.00000E+00
 -1      2081 0.00000E+00
 -1      2082 0.00000E+00
 -1      2084 0.00000E+00
 -1      2085 0.00000E+00
 -1      2087 0.00000E+00
 -1      2088 0.00000E+00
 -1      2090 0.00000E+00
 -1      2091 0.00000E+00
 -1      2093 0.00000E+00
 -1      2094 0.00000E+00
 -1      2096 0.00000E+00
 -1      2097 0.00000E+00
 -1      2099 0.00000E+00
 -1      2100 0.00000E+00
 -1      2102 0.00000E+00
 -1      2103 0.00000E+00
 -1      2105 0.00000E+00
 -1      2106 0.00000E+00
 -1      2108 0.00000E+00
 -1      2109 0.00000E+00
 -1      2111 0.00000E+00
 -1      2112 0.00000E+00
 -1      2114 0.00000E+00
 -1      2115 0.00000E+00
 -1      2117 0.00000E+00
 -1      2118 0.00000E+00
 -1      2120 0.00000E+00
 -1      2121 0.00000E+00
 -1      2123 0.00000E+00
 -1      2124 0.00000E+00
 -1      2126 0.00000E+00
 -1      2127 0.00000E+00
 -1      2129 0.00000E+00
 -1      2130 0.00000E+00
 -1      2132 0.00000E+00
 -1      2133 0.00000E+00
 -1      2135 0.00000E+00
 -1      2136 0.00000E+00
 -1      2138 0.00000E+00
 -1      2139 0.00000E+00
 -1      2141 0.00000E+00
 -1      2142 0.00000E+00
 -1      2144 0.00000E+00
 -1      2145 0.00000E+00
 -1      2147 0.00000E+00
 -1      2148 0.00000E+00
 -1      2150 0.00000E+00
 -1      2151 0.00000E+00
 -1      2153 0.00000E+00
 -1      2154 0.00000E+00
 -1      2156 0.00000E+00
 -1      2157 0.00000E+00
 -1      2159 0.00000E+00
 -1      2160 0.00000E+00
 -1      2162 0.00000E+00
 -1      2163 0.00000E+00
 -1      2165 0.00000E+00
 -1      2166 0.00000E+00
 -1      2168 0.00000E+00
 -1      2169 0.00000E+00
 -1      2171 0.00000E+00
 -1      2172 0.00000E+00
 -1      2174 0.00000E+00
 -1      2175 0.00000E+00
 -1      2177 0.00000E+00
 -1      2178 0.00000E+00
 -1      2180 0.00000E+00
 -1      2181 0.00000E+00
 -1      2183 0.00000E+00
 -1      2184 0.00000E+00
 -1      2186 0.00000E+00
 -1      2187 0.00000E+00
 -1      2189 0.00000E+00
 -1      2190 0.00000E+00
 -1      2192 0.00000E+00
 -1      2193 0.00000E+00
 -1      2195 0.00000E+00
 -1      2196 0.00000E+00
 -1      2198 0.00000E+00
 -1      2199 0.00000E+00
 -1      2201 0.00000E+00
 -1      2202 0.00000E+00
 -1      2204 0.00000E+00
 -1      2205 0.00000E+00
 -1      2207 0.00000E+00
 -1      2208 0.00000E+00
 -1      2210 0.00000E+00
 -1      2211 0.00000E+00
 -1      2213 0.00000E+00
 -1      2214 0.00000E+00
 -1      2216 0.00000E+00
 -1      2217 0.00000E+00
 -1      2219 0.00000E+00
 -1      2220 0.00000E+00
 -1      2222 0.00000E+00
 -1      2223 0.00000E+00
 -1      2225 0.00000E+00
 -1      2226 0.00000E+00
 -1      2228 0.00000E+00
 -1      2229 0.00000E+00
 -1      2231 0.00000E+00
 -1      2232 0.00000E+00
 -1      2234 0.00000E+00
 -1      2235 0.00000E+00
 -1      2237 0.00000E+00
 -1      2238 0.00000E+00
 -1      2240 0.00000E+00
 -1      2241 0.00000E+00
 -1      2243 0.00000E+00
 -1      2244 0.00000E+00
 -1      2246 0.00000E+00
 -1      2247 0.00000E+00
 -1      2249 0.00000E+00
 -1      2250 0.00000E+00
 -1      2252 0.00000E+00
 -1      2253 0.00000E+00
 -1      2255 0.00000E+00
 -1      2256 0.00000E+00
 -1      2258 0.00000E+00
 -1      2259 0.00000E+00
 -1      2261 0.00000E+00
 -1      2262 0.00000E+00
 -1      2264 0.00000E+00
 -1      2265 0.00000E+00
 -1      2267 0.00000E+00
 -1      2268 0.00000E+00
 -1      2270 0.00000E+00
 -1      2271 0.00000E+00
 -1      2273 0.00000E+00
 -1      2274 0.00000E+00
 -1      2276 0.00000E+00
 -1      2277 0.00000E+00
 -1      2279 0.00000E+00
 -1      2280 0.00000E+00
 -1      2282 0.00000E+00
 -1      2283 0.00000E+00
 -1      2285 0.00000E+00
 -1      2286 0.00000E+00
 -1      2288 0.00000E+00
 -1      2289 0.00000E+00
 -1      2291 0.00000E+00
 -1      2292 0.00000E+00
 -1      2294 0.00000E+00
 -3
    1PSTEP                        65           1           1          
    1PGM                1.000000E+00                                  
    1PGK                1.786382E+07                                  
    1PHID                         -1                                  
    1PSUBC                         0                                  
    1PMODE                        17                                  
  100CL  117 672.6781674         930                     2   17MODAL      1
 -4  DISP        4    1
 -5  D1          1    2    1    0
 -5  D2          1    2    2    0
 -5  D3          1    2    3    0
 -5  ALL         1    2    0    0    1ALL
 -1       404 0.00000E+00 0.00000E+00 8.24614E-06
 -1       406 0.00000E+00-0.00000E+00-8.24614E-06
 -1       407 4.93110E-04-3.08748E-02-2.74885E-01
 -1       409 4.24546E-04 3.07600E-02-2.74933E-01
 -1       410 2.12559E-04 3.45051E-13-3.71134E-03
 -1       412 1.17604E-04 4.23223E-13-3.73826E-03
 -1       413 1.65081E-04 8.57151E-06-3.72480E-03
 -1       415 1.65081E-04-8.57151E-06-3.72480E-03
 -1       424 0.00000E+00 0.00000E+00 7.89707E-06
 -1       426 0.00000E+00 0.00000E+00-7.89707E-06
 -1       427 0.00000E+00 5.03073E-06 0.00000E+00
 -1       429 0.00000E+00-5.03073E-06 0.00000E+00
 -1       438 4.93110E-04 3.08748E-02-2.74885E-01
 -1       440 4.24546E-04-3.07600E-02-2.74933E-01
 -1       441 0.00000E+00 0.00000E+00 8.24614E-06
 -1       443 0.00000E+00-0.00000E+00-8.24614E-06
 -1       444 0.00000E+00 5.03073E-06 0.00000E+00
 -1       446 0.00000E+00-5.03073E-06 0.00000E+00
 -1       447 0.00000E+00 0.00000E+00-7.89707E-06
 -1       449 0.00000E+00 0.00000E+00 7.89707E-06
 -1       458 1.65081E-04 8.57151E-06 3.72480E-03
 -1       460 1.65081E-04-8.57152E-06 3.72480E-03
 -1       461 2.12559E-04-3.06995E-12 3.71134E-03
 -1       463 1.17604E-04-2.87192E-12 3.73826E-03
 -1       472 0.00000E+00 0.00000E+00-8.24614E-06
 -1       474 0.00000E+00 0.00000E+00 8.24614E-06
 -1       475 4.93110E-04 3.08748E-02 2.74885E-01
 -1       477 4.24546E-04-3.07600E-02 2.74933E-01
 -1       478 4.93110E-04-3.08748E-02 2.74885E-01
 -1       480 4.24546E-04 3.07600E-02 2.74933E-01
 -1       481 0.00000E+00 0.00000E+00-8.24614E-06
 -1       483 0.00000E+00 0.00000E+00 8.24614E-06
 -1       484-9.80269E-04-1.60906E-03-1.16713E-02
 -1       486 1.61039E-03 1.40321E-03-1.16807E-02
 -1       487-7.17964E-05-3.15111E-03-2.72317E-02
 -1       489 1.26973E-03 2.99375E-03-2.72486E-02
 -1       490-5.71679E-05-4.70540E-03-4.09062E-02
 -1       492 1.85587E-03 4.54580E-03-4.09252E-02
 -1       493 3.72885E-04-6.29067E-03-5.52583E-02
 -1       495 1.98400E-03 6.14346E-03-5.52767E-02
 -1       496 5.71713E-04-7.83720E-03-6.91285E-02
 -1       498 2.31053E-03 7.69975E-03-6.91506E-02
 -1       499 8.63944E-04-9.37786E-03-8.29775E-02
 -1       501 2.50025E-03 9.25464E-03-8.29987E-02
 -1       502 1.07229E-03-1.08903E-02-9.65429E-02
 -1       504 2.72495E-03 1.07800E-02-9.65668E-02
 -1       505 1.29268E-03-1.23737E-02-1.09894E-01
 -1       507 2.88673E-03 1.22785E-02-1.09917E-01
 -1       508 1.46722E-03-1.38281E-02-1.22939E-01
 -1       510 3.03976E-03 1.37475E-02-1.22964E-01
 -1       511 1.62897E-03-1.52415E-02-1.35670E-01
 -1       513 3.15022E-03 1.51765E-02-1.35695E-01
 -1       514 1.75642E-03-1.66189E-02-1.48033E-01
 -1       516 3.23766E-03 1.65694E-02-1.48060E-01
 -1       517 1.86215E-03-1.79476E-02-1.60004E-01
 -1       519 3.28933E-03 1.79139E-02-1.60031E-01
 -1       520 1.93784E-03-1.92316E-02-1.71541E-01
 -1       522 3.31298E-03 1.92136E-02-1.71570E-01
 -1       523 1.98862E-03-2.04606E-02-1.82616E-01
 -1       525 3.30388E-03 2.04583E-02-1.82645E-01
 -1       526 2.01159E-03-2.16367E-02-1.93193E-01
 -1       528 3.26557E-03 2.16497E-02-1.93222E-01
 -1       529 2.00918E-03-2.27518E-02-2.03244E-01
 -1       531 3.19671E-03 2.27799E-02-2.03273E-01
 -1       532 1.98089E-03-2.38067E-02-2.12737E-01
 -1       534 3.09949E-03 2.38492E-02-2.12767E-01
 -1       535 1.92831E-03-2.47950E-02-2.21647E-01
 -1       537 2.97408E-03 2.48516E-02-2.21677E-01
 -1       538 1.85217E-03-2.57168E-02-2.29946E-01
 -1       540 2.82253E-03 2.57863E-02-2.29977E-01
 -1       541 1.75396E-03-2.65667E-02-2.37612E-01
 -1       543 2.64571E-03 2.66490E-02-2.37642E-01
 -1       544 1.63519E-03-2.73450E-02-2.44621E-01
 -1       546 2.44618E-03 2.74381E-02-2.44652E-01
 -1       547 1.49766E-03-2.80464E-02-2.50954E-01
 -1       549 2.22515E-03 2.81510E-02-2.50985E-01
 -1       550 1.34380E-03-2.86726E-02-2.56593E-01
 -1       552 1.98649E-03 2.87844E-02-2.56625E-01
 -1       553 1.17651E-03-2.92169E-02-2.61525E-01
 -1       555 1.73222E-03 2.93392E-02-2.61557E-01
 -1       556 1.00095E-03-2.96857E-02-2.65736E-01
 -1       558 1.46902E-03 2.98065E-02-2.65769E-01
 -1       559 8.21693E-04-3.00631E-02-2.69223E-01
 -1       561 1.20179E-03 3.01986E-02-2.69255E-01
 -1       562 6.62541E-04-3.03791E-02-2.71956E-01
 -1       564 9.47733E-04 3.04818E-02-2.71990E-01
 -1       565 4.94372E-04-3.05843E-02-2.73932E-01
 -1       567 6.91547E-04 3.07060E-02-2.73967E-01
 -1       568 4.62707E-04-3.07127E-02-2.74952E-01
 -1       570 5.07648E-04 3.08360E-02-2.74988E-01
 -1       571 4.21088E-04-2.51743E-02-8.81891E-02
 -1       573 3.39329E-04 2.50577E-02-8.81420E-02
 -1       574 4.39964E-04-3.02827E-13 2.70348E-04
 -1       576 1.64828E-04-2.97352E-13 2.58908E-04
 -1       577 3.02396E-04 3.64410E-06 2.64628E-04
 -1       579 3.02396E-04-3.64410E-06 2.64628E-04
 -1       588 5.98233E-04-8.41754E-13-1.77428E-04
 -1       590 6.12893E-04-8.15365E-13-1.94425E-04
 -1       591 6.05563E-04 5.41398E-06-1.85926E-04
 -1       593 6.05563E-04-5.41399E-06-1.85926E-04
 -1       602 1.03291E-03-1.38095E-12-3.61529E-04
 -1       604 7.87937E-04-1.32366E-12-3.80517E-04
 -1       605 9.10424E-04 6.04795E-06-3.71023E-04
 -1       607 9.10424E-04-6.04795E-06-3.71023E-04
 -1       616 1.21613E-03-1.82551E-12-5.86355E-04
 -1       618 1.16802E-03-1.74080E-12-6.05661E-04
 -1       619 1.19208E-03 6.14921E-06-5.96008E-04
 -1       621 1.19208E-03-6.14922E-06-5.96008E-04
 -1       630 1.55134E-03-2.05120E-12-8.26991E-04
 -1       632 1.36335E-03-1.95149E-12-8.49059E-04
 -1       633 1.45735E-03 7.02925E-06-8.38025E-04
 -1       635 1.45735E-03-7.02926E-06-8.38025E-04
 -1       644 1.74378E-03-1.98765E-12-1.02475E-03
 -1       646 1.65397E-03-1.88209E-12-1.04695E-03
 -1       647 1.69887E-03 7.07089E-06-1.03585E-03
 -1       649 1.69887E-03-7.07089E-06-1.03585E-03
 -1       658 1.99212E-03-1.64907E-12-1.25190E-03
 -1       660 1.83949E-03-1.54487E-12-1.27618E-03
 -1       661 1.91580E-03 7.73384E-06-1.26404E-03
 -1       663 1.91580E-03-7.73385E-06-1.26404E-03
 -1       672 2.16043E-03-1.10194E-12-1.44953E-03
 -1       674 2.05335E-03-1.00815E-12-1.47422E-03
 -1       675 2.10689E-03 7.86614E-06-1.46187E-03
 -1       677 2.10689E-03-7.86615E-06-1.46187E-03
 -1       686 2.33667E-03-4.29106E-13-1.66123E-03
 -1       688 2.20436E-03-3.54392E-13-1.68742E-03
 -1       689 2.27052E-03 8.34073E-06-1.67432E-03
 -1       691 2.27052E-03-8.34073E-06-1.67432E-03
 -1       700 2.46169E-03 2.56198E-13-1.85620E-03
 -1       702 2.35106E-03 3.03049E-13-1.88296E-03
 -1       703 2.40637E-03 8.52402E-06-1.86958E-03
 -1       705 2.40637E-03-8.52402E-06-1.86958E-03
 -1       714 2.57288E-03 8.34581E-13-2.05440E-03
 -1       716 2.45403E-03 8.36387E-13-2.08224E-03
 -1       717 2.51345E-03 8.86661E-06-2.06832E-03
 -1       719 2.51345E-03-8.86661E-06-2.06832E-03
 -1       728 2.64536E-03 1.21864E-12-2.24165E-03
 -1       730 2.53816E-03 1.17291E-12-2.27012E-03
 -1       731 2.59176E-03 9.06668E-06-2.25588E-03
 -1       733 2.59176E-03-9.06667E-06-2.25588E-03
 -1       742 2.69482E-03 1.41495E-12-2.42628E-03
 -1       744 2.58698E-03 1.34280E-12-2.45551E-03
 -1       745 2.64090E-03 9.31008E-06-2.44089E-03
 -1       747 2.64090E-03-9.31008E-06-2.44089E-03
 -1       756 2.71130E-03 1.44539E-12-2.60177E-03
 -1       758 2.61119E-03 1.37262E-12-2.63164E-03
 -1       759 2.66124E-03 9.51366E-06-2.61671E-03
 -1       761 2.66124E-03-9.51366E-06-2.61671E-03
 -1       770 2.70153E-03 1.27072E-12-2.77147E-03
 -1       772 2.60428E-03 1.20312E-12-2.80184E-03
 -1       773 2.65290E-03 9.67299E-06-2.78666E-03
 -1       775 2.65290E-03-9.67298E-06-2.78666E-03
 -1       784 2.66208E-03 9.20821E-13-2.93211E-03
 -1       786 2.57125E-03 8.74992E-13-2.96314E-03
 -1       787 2.61667E-03 9.88076E-06-2.94763E-03
 -1       789 2.61667E-03-9.88076E-06-2.94763E-03
 -1       798 2.59623E-03 4.28243E-13-3.08509E-03
 -1       800 2.50995E-03 4.11765E-13-3.11636E-03
 -1       801 2.55309E-03 9.96043E-06-3.10073E-03
 -1       803 2.55309E-03-9.96042E-06-3.10073E-03
 -1       812 2.50346E-03-1.43904E-13-3.22841E-03
 -1       814 2.42337E-03-1.41500E-13-3.26038E-03
 -1       815 2.46342E-03 1.01819E-05-3.24439E-03
 -1       817 2.46342E-03-1.01819E-05-3.24439E-03
 -1       826 2.38587E-03-6.84035E-13-3.36291E-03
 -1       828 2.31126E-03-6.67962E-13-3.39487E-03
 -1       829 2.34857E-03 1.01791E-05-3.37889E-03
 -1       831 2.34857E-03-1.01791E-05-3.37889E-03
 -1       840 2.24436E-03-1.11940E-12-3.48711E-03
 -1       842 2.17618E-03-1.08957E-12-3.51986E-03
 -1       843 2.21027E-03 1.04306E-05-3.50348E-03
 -1       845 2.21027E-03-1.04306E-05-3.50348E-03
 -1       854 2.08078E-03-1.39119E-12-3.60215E-03
 -1       856 2.01866E-03-1.33979E-12-3.63460E-03
 -1       857 2.04972E-03 1.03382E-05-3.61837E-03
 -1       859 2.04972E-03-1.03382E-05-3.61837E-03
 -1       868 1.89685E-03-1.46463E-12-3.70705E-03
 -1       870 1.84180E-03-1.39184E-12-3.74046E-03
 -1       871 1.86933E-03 1.06421E-05-3.72376E-03
 -1       873 1.86933E-03-1.06421E-05-3.72376E-03
 -1       882 1.69470E-03-1.34622E-12-3.80437E-03
 -1       884 1.64622E-03-1.25973E-12-3.83721E-03
 -1       885 1.67046E-03 1.04587E-05-3.82079E-03
 -1       887 1.67046E-03-1.04587E-05-3.82079E-03
 -1       896 1.47681E-03-1.07522E-12-3.89497E-03
 -1       898 1.43689E-03-9.76546E-13-3.92902E-03
 -1       899 1.45685E-03 1.08443E-05-3.91199E-03
 -1       901 1.45685E-03-1.08443E-05-3.91199E-03
 -1       910 1.24732E-03-7.45705E-13-3.98404E-03
 -1       912 1.21458E-03-6.41873E-13-4.01735E-03
 -1       913 1.23095E-03 1.06113E-05-4.00069E-03
 -1       915 1.23095E-03-1.06113E-05-4.00069E-03
 -1       924 1.00906E-03-4.33529E-13-4.07629E-03
 -1       926 9.88167E-04-3.31858E-13-4.11126E-03
 -1       927 9.98613E-04 1.11373E-05-4.09378E-03
 -1       929 9.98613E-04-1.11373E-05-4.09378E-03
 -1       938 7.78738E-04-1.54188E-13-4.16930E-03
 -1       940 7.62236E-04-5.45512E-14-4.20369E-03
 -1       941 7.70487E-04 1.09548E-05-4.18649E-03
 -1       943 7.70487E-04-1.09548E-05-4.18649E-03
 -1       952 5.63895E-04 7.11070E-14-4.24715E-03
 -1       954 5.58756E-04 1.58994E-13-4.28453E-03
 -1       955 5.61326E-04 1.19057E-05-4.26584E-03
 -1       957 5.61326E-04-1.19057E-05-4.26584E-03
 -1       966 4.04016E-04 2.65246E-13-4.18230E-03
 -1       968 3.62975E-04 3.47695E-13-4.22086E-03
 -1       969 3.83496E-04 1.22803E-05-4.20158E-03
 -1       971 3.83496E-04-1.22803E-05-4.20158E-03
 -1       980 0.00000E+00 0.00000E+00 8.56503E-06
 -1       982 0.00000E+00-0.00000E+00-8.56503E-06
 -1       983 4.21088E-04 2.51743E-02-8.81891E-02
 -1       985 3.39329E-04-2.50577E-02-8.81420E-02
 -1       986-9.80269E-04 1.60906E-03-1.16713E-02
 -1       988 1.61039E-03-1.40321E-03-1.16807E-02
 -1       989-7.17964E-05 3.15111E-03-2.72317E-02
 -1       991 1.26973E-03-2.99375E-03-2.72486E-02
 -1       992-5.71679E-05 4.70540E-03-4.09062E-02
 -1       994 1.85587E-03-4.54580E-03-4.09252E-02
 -1       995 3.72885E-04 6.29067E-03-5.52583E-02
 -1       997 1.98400E-03-6.14346E-03-5.52767E-02
 -1       998 5.71713E-04 7.83720E-03-6.91285E-02
 -1      1000 2.31053E-03-7.69975E-03-6.91506E-02
 -1      1001 8.63944E-04 9.37786E-03-8.29775E-02
 -1      1003 2.50025E-03-9.25464E-03-8.29987E-02
 -1      1004 1.07229E-03 1.08903E-02-9.65429E-02
 -1      1006 2.72495E-03-1.07800E-02-9.65668E-02
 -1      1007 1.29268E-03 1.23737E-02-1.09894E-01
 -1      1009 2.88673E-03-1.22785E-02-1.09917E-01
 -1      1010 1.46722E-03 1.38281E-02-1.22939E-01
 -1      1012 3.03976E-03-1.37475E-02-1.22964E-01
 -1      1013 1.62897E-03 1.52415E-02-1.35670E-01
 -1      1015 3.15022E-03-1.51765E-02-1.35695E-01
 -1      1016 1.75642E-03 1.66189E-02-1.48033E-01
 -1      1018 3.23766E-03-1.65694E-02-1.48060E-01
 -1      1019 1.86215E-03 1.79476E-02-1.60004E-01
 -1      1021 3.28933E-03-1.79139E-02-1.60031E-01
 -1      1022 1.93784E-03 1.92316E-02-1.71541E-01
 -1      1024 3.31298E-03-1.92136E-02-1.71570E-01
 -1      1025 1.98862E-03 2.04606E-02-1.82616E-01
 -1      1027 3.30388E-03-2.04583E-02-1.82645E-01
 -1      1028 2.01159E-03 2.16367E-02-1.93193E-01
 -1      1030 3.26557E-03-2.16497E-02-1.93222E-01
 -1      1031 2.00918E-03 2.27518E-02-2.03244E-01
 -1      1033 3.19671E-03-2.27799E-02-2.03273E-01
 -1      1034 1.98089E-03 2.38067E-02-2.12737E-01
 -1      1036 3.09949E-03-2.38492E-02-2.12767E-01
 -1      1037 1.92831E-03 2.47950E-02-2.21647E-01
 -1      1039 2.97408E-03-2.48516E-02-2.21677E-01
 -1      1040 1.85217E-03 2.57168E-02-2.29946E-01
 -1      1042 2.82253E-03-2.57863E-02-2.29977E-01
 -1      1043 1.75396E-03 2.65667E-02-2.37612E-01
 -1      1045 2.64571E-03-2.66490E-02-2.37642E-01
 -1      1046 1.63519E-03 2.73450E-02-2.44621E-01
 -1      1048 2.44618E-03-2.74381E-02-2.44652E-01
 -1      1049 1.49766E-03 2.80464E-02-2.50954E-01
 -1      1051 2.22515E-03-2.81510E-02-2.50985E-01
 -1      1052 1.34380E-03 2.86726E-02-2.56593E-01
 -1      1054 1.98649E-03-2.87844E-02-2.56625E-01
 -1      1055 1.17651E-03 2.92169E-02-2.61525E-01
 -1      1057 1.73222E-03-2.93392E-02-2.61557E-01
 -1      1058 1.00095E-03 2.96857E-02-2.65736E-01
 -1      1060 1.46902E-03-2.98065E-02-2.65769E-01
 -1      1061 8.21693E-04 3.00631E-02-2.69223E-01
 -1      1063 1.20179E-03-3.01986E-02-2.69255E-01
 -1      1064 6.62541E-04 3.03791E-02-2.71956E-01
 -1      1066 9.47733E-04-3.04818E-02-2.71990E-01
 -1      1067 4.94372E-04 3.05843E-02-2.73932E-01
 -1      1069 6.91547E-04-3.07060E-02-2.73967E-01
 -1      1070 4.62707E-04 3.07127E-02-2.74952E-01
 -1      1072 5.07648E-04-3.08360E-02-2.74988E-01
 -1      1073 0.00000E+00 0.00000E+00 8.56503E-06
 -1      1075 0.00000E+00-0.00000E+00-8.56503E-06
 -1      1076 0.00000E+00 5.94032E-06 0.00000E+00
 -1      1078 0.00000E+00-5.94032E-06 0.00000E+00
 -1      1079 0.00000E+00 7.81985E-06 0.00000E+00
 -1      1081 0.00000E+00-7.81985E-06 0.00000E+00
 -1      1082 0.00000E+00 5.94032E-06 0.00000E+00
 -1      1084 0.00000E+00-5.94032E-06 0.00000E+00
 -1      1085 3.02396E-04 3.64410E-06-2.64628E-04
 -1      1087 3.02396E-04-3.64410E-06-2.64628E-04
 -1      1088 4.39964E-04 1.31225E-13-2.70348E-04
 -1      1090 1.64828E-04 9.59687E-14-2.58908E-04
 -1      1099 6.05563E-04 5.41399E-06 1.85926E-04
 -1      1101 6.05563E-04-5.41399E-06 1.85926E-04
 -1      1102 5.98233E-04 3.55795E-13 1.77428E-04
 -1      1104 6.12893E-04 2.67054E-13 1.94425E-04
 -1      1113 9.10424E-04 6.04795E-06 3.71023E-04
 -1      1115 9.10424E-04-6.04795E-06 3.71023E-04
 -1      1116 1.03291E-03 5.95979E-13 3.61529E-04
 -1      1118 7.87937E-04 4.69155E-13 3.80517E-04
 -1      1127 1.19208E-03 6.14922E-06 5.96008E-04
 -1      1129 1.19208E-03-6.14921E-06 5.96008E-04
 -1      1130 1.21613E-03 7.70728E-13 5.86355E-04
 -1      1132 1.16802E-03 6.15539E-13 6.05661E-04
 -1      1141 1.45735E-03 7.02926E-06 8.38025E-04
 -1      1143 1.45735E-03-7.02925E-06 8.38025E-04
 -1      1144 1.55134E-03 8.45770E-13 8.26991E-04
 -1      1146 1.36335E-03 6.79486E-13 8.49059E-04
 -1      1155 1.69887E-03 7.07089E-06 1.03585E-03
 -1      1157 1.69887E-03-7.07089E-06 1.03585E-03
 -1      1158 1.74378E-03 8.31011E-13 1.02475E-03
 -1      1160 1.65397E-03 6.73764E-13 1.04695E-03
 -1      1169 1.91580E-03 7.73385E-06 1.26404E-03
 -1      1171 1.91580E-03-7.73384E-06 1.26404E-03
 -1      1172 1.99212E-03 7.21487E-13 1.25190E-03
 -1      1174 1.83949E-03 5.85259E-13 1.27618E-03
 -1      1183 2.10689E-03 7.86615E-06 1.46187E-03
 -1      1185 2.10689E-03-7.86614E-06 1.46187E-03
 -1      1186 2.16043E-03 5.43108E-13 1.44953E-03
 -1      1188 2.05335E-03 4.32764E-13 1.47422E-03
 -1      1197 2.27052E-03 8.34073E-06 1.67432E-03
 -1      1199 2.27052E-03-8.34073E-06 1.67432E-03
 -1      1200 2.33667E-03 3.16033E-13 1.66123E-03
 -1      1202 2.20436E-03 2.30294E-13 1.68742E-03
 -1      1211 2.40637E-03 8.52402E-06 1.86958E-03
 -1      1213 2.40637E-03-8.52402E-06 1.86958E-03
 -1      1214 2.46169E-03 2.76887E-14 1.85620E-03
 -1      1216 2.35106E-03-2.58290E-14 1.88296E-03
 -1      1225 2.51345E-03 8.86661E-06 2.06832E-03
 -1      1227 2.51345E-03-8.86661E-06 2.06832E-03
 -1      1228 2.57288E-03-2.93832E-13 2.05440E-03
 -1      1230 2.45403E-03-3.22591E-13 2.08224E-03
 -1      1239 2.59176E-03 9.06668E-06 2.25588E-03
 -1      1241 2.59176E-03-9.06668E-06 2.25588E-03
 -1      1242 2.64536E-03-6.31021E-13 2.24165E-03
 -1      1244 2.53816E-03-6.37076E-13 2.27012E-03
 -1      1253 2.64090E-03 9.31008E-06 2.44089E-03
 -1      1255 2.64090E-03-9.31008E-06 2.44089E-03
 -1      1256 2.69482E-03-8.43803E-13 2.42628E-03
 -1      1258 2.58698E-03-8.40580E-13 2.45551E-03
 -1      1267 2.66124E-03 9.51366E-06 2.61671E-03
 -1      1269 2.66124E-03-9.51366E-06 2.61671E-03
 -1      1270 2.71130E-03-9.15368E-13 2.60177E-03
 -1      1272 2.61119E-03-9.02553E-13 2.63164E-03
 -1      1281 2.65290E-03 9.67299E-06 2.78666E-03
 -1      1283 2.65290E-03-9.67299E-06 2.78666E-03
 -1      1284 2.70153E-03-8.99552E-13 2.77147E-03
 -1      1286 2.60428E-03-9.12318E-13 2.80184E-03
 -1      1295 2.61667E-03 9.88076E-06 2.94763E-03
 -1      1297 2.61667E-03-9.88076E-06 2.94763E-03
 -1      1298 2.66208E-03-8.00836E-13 2.93211E-03
 -1      1300 2.57125E-03-8.63395E-13 2.96314E-03
 -1      1309 2.55309E-03 9.96042E-06 3.10073E-03
 -1      1311 2.55309E-03-9.96043E-06 3.10073E-03
 -1      1312 2.59623E-03-6.19000E-13 3.08509E-03
 -1      1314 2.50995E-03-7.42116E-13 3.11636E-03
 -1      1323 2.46342E-03 1.01819E-05 3.24439E-03
 -1      1325 2.46342E-03-1.01819E-05 3.24439E-03
 -1      1326 2.50346E-03-3.51548E-13 3.22841E-03
 -1      1328 2.42337E-03-5.34660E-13 3.26038E-03
 -1      1337 2.34857E-03 1.01791E-05 3.37889E-03
 -1      1339 2.34857E-03-1.01791E-05 3.37889E-03
 -1      1340 2.38587E-03-8.36481E-15 3.36291E-03
 -1      1342 2.31126E-03-2.27322E-13 3.39487E-03
 -1      1351 2.21027E-03 1.04306E-05 3.50348E-03
 -1      1353 2.21027E-03-1.04306E-05 3.50348E-03
 -1      1354 2.24436E-03 3.68859E-13 3.48711E-03
 -1      1356 2.17618E-03 1.36820E-13 3.51986E-03
 -1      1365 2.04972E-03 1.03382E-05 3.61837E-03
 -1      1367 2.04972E-03-1.03382E-05 3.61837E-03
 -1      1368 2.08078E-03 7.38700E-13 3.60215E-03
 -1      1370 2.01866E-03 5.11198E-13 3.63460E-03
 -1      1379 1.86933E-03 1.06421E-05 3.72376E-03
 -1      1381 1.86933E-03-1.06421E-05 3.72376E-03
 -1      1382 1.89685E-03 9.89913E-13 3.70705E-03
 -1      1384 1.84180E-03 7.87506E-13 3.74046E-03
 -1      1393 1.67046E-03 1.04587E-05 3.82079E-03
 -1      1395 1.67046E-03-1.04587E-05 3.82079E-03
 -1      1396 1.69470E-03 1.07982E-12 3.80437E-03
 -1      1398 1.64622E-03 9.16946E-13 3.83721E-03
 -1      1407 1.45685E-03 1.08443E-05 3.91199E-03
 -1      1409 1.45685E-03-1.08443E-05 3.91199E-03
 -1      1410 1.47681E-03 9.98694E-13 3.89497E-03
 -1      1412 1.43689E-03 8.96900E-13 3.92902E-03
 -1      1421 1.23095E-03 1.06113E-05 4.00069E-03
 -1      1423 1.23095E-03-1.06113E-05 4.00069E-03
 -1      1424 1.24732E-03 7.00757E-13 3.98404E-03
 -1      1426 1.21458E-03 6.79028E-13 4.01735E-03
 -1      1435 9.98613E-04 1.11373E-05 4.09378E-03
 -1      1437 9.98613E-04-1.11373E-05 4.09378E-03
 -1      1438 1.00906E-03 1.63830E-13 4.07629E-03
 -1      1440 9.88167E-04 2.11467E-13 4.11126E-03
 -1      1449 7.70487E-04 1.09548E-05 4.18649E-03
 -1      1451 7.70487E-04-1.09548E-05 4.18649E-03
 -1      1452 7.78738E-04-5.70554E-13 4.16930E-03
 -1      1454 7.62236E-04-4.64326E-13 4.20369E-03
 -1      1463 5.61326E-04 1.19057E-05 4.26584E-03
 -1      1465 5.61326E-04-1.19057E-05 4.26584E-03
 -1      1466 5.63895E-04-1.41022E-12 4.24715E-03
 -1      1468 5.58756E-04-1.25943E-12 4.28453E-03
 -1      1477 3.83496E-04 1.22803E-05 4.20158E-03
 -1      1479 3.83496E-04-1.22803E-05 4.20158E-03
 -1      1480 4.04016E-04-2.28478E-12 4.18230E-03
 -1      1482 3.62975E-04-2.10074E-12 4.22086E-03
 -1      1491-8.14879E-04 4.61305E-05-1.80134E-03
 -1      1493-8.14879E-04-4.61305E-05-1.80134E-03
 -1      1494-1.04212E-03 3.86762E-07 6.79665E-14
 -1      1496-1.04212E-03-3.86759E-07 2.11345E-13
 -1      1497-8.14879E-04 4.61305E-05 1.80134E-03
 -1      1499-8.14879E-04-4.61305E-05 1.80134E-03
 -1      1500-9.80269E-04 1.60906E-03 1.16713E-02
 -1      1502 1.61039E-03-1.40321E-03 1.16807E-02
 -1      1503-7.17964E-05 3.15111E-03 2.72317E-02
 -1      1505 1.26973E-03-2.99375E-03 2.72486E-02
 -1      1506-5.71679E-05 4.70540E-03 4.09062E-02
 -1      1508 1.85587E-03-4.54580E-03 4.09252E-02
 -1      1509 3.72885E-04 6.29067E-03 5.52583E-02
 -1      1511 1.98400E-03-6.14346E-03 5.52767E-02
 -1      1512 5.71713E-04 7.83720E-03 6.91285E-02
 -1      1514 2.31053E-03-7.69975E-03 6.91506E-02
 -1      1515 8.63944E-04 9.37786E-03 8.29775E-02
 -1      1517 2.50025E-03-9.25464E-03 8.29987E-02
 -1      1518 1.07229E-03 1.08903E-02 9.65429E-02
 -1      1520 2.72495E-03-1.07800E-02 9.65668E-02
 -1      1521 1.29268E-03 1.23737E-02 1.09894E-01
 -1      1523 2.88673E-03-1.22785E-02 1.09917E-01
 -1      1524 1.46722E-03 1.38281E-02 1.22939E-01
 -1      1526 3.03976E-03-1.37475E-02 1.22964E-01
 -1      1527 1.62897E-03 1.52415E-02 1.35670E-01
 -1      1529 3.15022E-03-1.51765E-02 1.35695E-01
 -1      1530 1.75642E-03 1.66189E-02 1.48033E-01
 -1      1532 3.23766E-03-1.65694E-02 1.48060E-01
 -1      1533 1.86215E-03 1.79476E-02 1.60004E-01
 -1      1535 3.28933E-03-1.79139E-02 1.60031E-01
 -1      1536 1.93784E-03 1.92316E-02 1.71541E-01
 -1      1538 3.31298E-03-1.92136E-02 1.71570E-01
 -1      1539 1.98862E-03 2.04606E-02 1.82616E-01
 -1      1541 3.30388E-03-2.04583E-02 1.82645E-01
 -1      1542 2.01159E-03 2.16367E-02 1.93193E-01
 -1      1544 3.26557E-03-2.16497E-02 1.93222E-01
 -1      1545 2.00918E-03 2.27518E-02 2.03244E-01
 -1      1547 3.19671E-03-2.27799E-02 2.03273E-01
 -1      1548 1.98089E-03 2.38067E-02 2.12737E-01
 -1      1550 3.09949E-03-2.38492E-02 2.12767E-01
 -1      1551 1.92831E-03 2.47950E-02 2.21647E-01
 -1      1553 2.97408E-03-2.48516E-02 2.21677E-01
 -1      1554 1.85217E-03 2.57168E-02 2.29946E-01
 -1      1556 2.82253E-03-2.57863E-02 2.29977E-01
 -1      1557 1.75396E-03 2.65667E-02 2.37612E-01
 -1      1559 2.64571E-03-2.66490E-02 2.37642E-01
 -1      1560 1.63519E-03 2.73450E-02 2.44621E-01
 -1      1562 2.44618E-03-2.74381E-02 2.44652E-01
 -1      1563 1.49766E-03 2.80464E-02 2.50954E-01
 -1      1565 2.22515E-03-2.81510E-02 2.50985E-01
 -1      1566 1.34380E-03 2.86726E-02 2.56593E-01
 -1      1568 1.98649E-03-2.87844E-02 2.56625E-01
 -1      1569 1.17651E-03 2.92169E-02 2.61525E-01
 -1      1571 1.73222E-03-2.93392E-02 2.61557E-01
 -1      1572 1.00095E-03 2.96857E-02 2.65736E-01
 -1      1574 1.46902E-03-2.98065E-02 2.65769E-01
 -1      1575 8.21693E-04 3.00631E-02 2.69223E-01
 -1      1577 1.20179E-03-3.01986E-02 2.69255E-01
 -1      1578 6.62541E-04 3.03791E-02 2.71956E-01
 -1      1580 9.47733E-04-3.04818E-02 2.71990E-01
 -1      1581 4.94372E-04 3.05843E-02 2.73932E-01
 -1      1583 6.91547E-04-3.07060E-02 2.73967E-01
 -1      1584 4.62707E-04 3.07127E-02 2.74952E-01
 -1      1586 5.07648E-04-3.08360E-02 2.74988E-01
 -1      1587 4.21088E-04 2.51743E-02 8.81891E-02
 -1      1589 3.39329E-04-2.50577E-02 8.81420E-02
 -1      1590 0.00000E+00 0.00000E+00-8.56503E-06
 -1      1592 0.00000E+00 0.00000E+00 8.56503E-06
 -1      1593 4.21088E-04-2.51743E-02 8.81891E-02
 -1      1595 3.39329E-04 2.50577E-02 8.81420E-02
 -1      1596-9.80269E-04-1.60906E-03 1.16713E-02
 -1      1598 1.61039E-03 1.40321E-03 1.16807E-02
 -1      1599-7.17964E-05-3.15111E-03 2.72317E-02
 -1      1601 1.26973E-03 2.99375E-03 2.72486E-02
 -1      1602-5.71679E-05-4.70540E-03 4.09062E-02
 -1      1604 1.85587E-03 4.54580E-03 4.09252E-02
 -1      1605 3.72885E-04-6.29067E-03 5.52583E-02
 -1      1607 1.98400E-03 6.14346E-03 5.52767E-02
 -1      1608 5.71713E-04-7.83720E-03 6.91285E-02
 -1      1610 2.31053E-03 7.69975E-03 6.91506E-02
 -1      1611 8.63944E-04-9.37786E-03 8.29775E-02
 -1      1613 2.50025E-03 9.25464E-03 8.29987E-02
 -1      1614 1.07229E-03-1.08903E-02 9.65429E-02
 -1      1616 2.72495E-03 1.07800E-02 9.65668E-02
 -1      1617 1.29268E-03-1.23737E-02 1.09894E-01
 -1      1619 2.88673E-03 1.22785E-02 1.09917E-01
 -1      1620 1.46722E-03-1.38281E-02 1.22939E-01
 -1      1622 3.03976E-03 1.37475E-02 1.22964E-01
 -1      1623 1.62897E-03-1.52415E-02 1.35670E-01
 -1      1625 3.15022E-03 1.51765E-02 1.35695E-01
 -1      1626 1.75642E-03-1.66189E-02 1.48033E-01
 -1      1628 3.23766E-03 1.65694E-02 1.48060E-01
 -1      1629 1.86215E-03-1.79476E-02 1.60004E-01
 -1      1631 3.28933E-03 1.79139E-02 1.60031E-01
 -1      1632 1.93784E-03-1.92316E-02 1.71541E-01
 -1      1634 3.31298E-03 1.92136E-02 1.71570E-01
 -1      1635 1.98862E-03-2.04606E-02 1.82616E-01
 -1      1637 3.30388E-03 2.04583E-02 1.82645E-01
 -1      1638 2.01159E-03-2.16367E-02 1.93193E-01
 -1      1640 3.26557E-03 2.16497E-02 1.93222E-01
 -1      1641 2.00918E-03-2.27518E-02 2.03244E-01
 -1      1643 3.19671E-03 2.27799E-02 2.03273E-01
 -1      1644 1.98089E-03-2.38067E-02 2.12737E-01
 -1      1646 3.09949E-03 2.38492E-02 2.12767E-01
 -1      1647 1.92831E-03-2.47950E-02 2.21647E-01
 -1      1649 2.97408E-03 2.48516E-02 2.21677E-01
 -1      1650 1.85217E-03-2.57168E-02 2.29946E-01
 -1      1652 2.82253E-03 2.57863E-02 2.29977E-01
 -1      1653 1.75396E-03-2.65667E-02 2.37612E-01
 -1      1655 2.64571E-03 2.66490E-02 2.37642E-01
 -1      1656 1.63519E-03-2.73450E-02 2.44621E-01
 -1      1658 2.44618E-03 2.74381E-02 2.44652E-01
 -1      1659 1.49766E-03-2.80464E-02 2.50954E-01
 -1      1661 2.22515E-03 2.81510E-02 2.50985E-01
 -1      1662 1.34380E-03-2.86726E-02 2.56593E-01
 -1      1664 1.98649E-03 2.87844E-02 2.56625E-01
 -1      1665 1.17651E-03-2.92169E-02 2.61525E-01
 -1      1667 1.73222E-03 2.93392E-02 2.61557E-01
 -1      1668 1.00095E-03-2.96857E-02 2.65736E-01
 -1      1670 1.46902E-03 2.98065E-02 2.65769E-01
 -1      1671 8.21693E-04-3.00631E-02 2.69223E-01
 -1      1673 1.20179E-03 3.01986E-02 2.69255E-01
 -1      1674 6.62541E-04-3.03791E-02 2.71956E-01
 -1      1676 9.47733E-04 3.04818E-02 2.71990E-01
 -1      1677 4.94372E-04-3.05843E-02 2.73932E-01
 -1      1679 6.91547E-04 3.07060E-02 2.73967E-01
 -1      1680 4.62707E-04-3.07127E-02 2.74952E-01
 -1      1682 5.07648E-04 3.08360E-02 2.74988E-01
 -1      1683 0.00000E+00 0.00000E+00-8.56503E-06
 -1      1685 0.00000E+00 0.00000E+00 8.56503E-06
 -1      1686-2.84585E-04-1.09437E-03-3.14416E-03
 -1      1688 8.73175E-04 1.00250E-03-3.15697E-03
 -1      1689 2.71590E-04-2.53400E-03-8.64650E-03
 -1      1691 9.49681E-04 2.44464E-03-8.65359E-03
 -1      1692 4.82413E-04-3.79917E-03-1.29371E-02
 -1      1694 1.31644E-03 3.72446E-03-1.29422E-02
 -1      1695 7.93363E-04-5.08786E-03-1.76216E-02
 -1      1697 1.57487E-03 5.01126E-03-1.76245E-02
 -1      1698 1.05860E-03-6.36603E-03-2.20890E-02
 -1      1700 1.83402E-03 6.29896E-03-2.20880E-02
 -1      1701 1.30115E-03-7.61293E-03-2.65485E-02
 -1      1703 2.07440E-03 7.55077E-03-2.65450E-02
 -1      1704 1.52957E-03-8.85568E-03-3.09288E-02
 -1      1706 2.27958E-03 8.80144E-03-3.09218E-02
 -1      1707 1.72385E-03-1.00626E-02-3.52244E-02
 -1      1709 2.46733E-03 1.00152E-02-3.52144E-02
 -1      1710 1.89945E-03-1.12531E-02-3.94349E-02
 -1      1712 2.61957E-03 1.12136E-02-3.94217E-02
 -1      1713 2.04284E-03-1.24064E-02-4.35346E-02
 -1      1715 2.74815E-03 1.23744E-02-4.35182E-02
 -1      1716 2.16234E-03-1.35322E-02-4.75236E-02
 -1      1718 2.84353E-03 1.35083E-02-4.75042E-02
 -1      1719 2.25151E-03-1.46176E-02-5.13815E-02
 -1      1721 2.91150E-03 1.46015E-02-5.13589E-02
 -1      1722 2.31423E-03-1.56669E-02-5.51035E-02
 -1      1724 2.94788E-03 1.56588E-02-5.50781E-02
 -1      1725 2.34796E-03-1.66713E-02-5.86744E-02
 -1      1727 2.95553E-03 1.66710E-02-5.86460E-02
 -1      1728 2.35469E-03-1.76324E-02-6.20867E-02
 -1      1730 2.93305E-03 1.76399E-02-6.20556E-02
 -1      1731 2.33387E-03-1.85440E-02-6.53286E-02
 -1      1733 2.88222E-03 1.85591E-02-6.52946E-02
 -1      1734 2.28693E-03-1.94061E-02-6.83917E-02
 -1      1736 2.80309E-03 1.94286E-02-6.83552E-02
 -1      1737 2.21437E-03-2.02142E-02-7.12663E-02
 -1      1739 2.69721E-03 2.02436E-02-7.12274E-02
 -1      1740 2.11765E-03-2.09676E-02-7.39446E-02
 -1      1742 2.56552E-03 2.10038E-02-7.39034E-02
 -1      1743 1.99791E-03-2.16627E-02-7.64186E-02
 -1      1745 2.40969E-03 2.17049E-02-7.63752E-02
 -1      1746 1.85694E-03-2.22987E-02-7.86814E-02
 -1      1748 2.23138E-03 2.23471E-02-7.86361E-02
 -1      1749 1.69635E-03-2.28729E-02-8.07272E-02
 -1      1751 2.03257E-03 2.29259E-02-8.06802E-02
 -1      1752 1.51887E-03-2.33840E-02-8.25511E-02
 -1      1754 1.81598E-03 2.34429E-02-8.25025E-02
 -1      1755 1.32661E-03-2.38309E-02-8.41512E-02
 -1      1757 1.58451E-03 2.38917E-02-8.41015E-02
 -1      1758 1.12537E-03-2.42111E-02-8.55245E-02
 -1      1760 1.34304E-03 2.42777E-02-8.54736E-02
 -1      1761 9.19640E-04-2.45254E-02-8.66771E-02
 -1      1763 1.09924E-03 2.45901E-02-8.66262E-02
 -1      1764 7.21453E-04-2.47717E-02-8.75909E-02
 -1      1766 8.55798E-04 2.48373E-02-8.75392E-02
 -1      1767 5.54913E-04-2.49564E-02-8.82660E-02
 -1      1769 6.50931E-04 2.50000E-02-8.82168E-02
 -1      1770 4.20185E-04-2.50190E-02-8.85202E-02
 -1      1772 4.22135E-04 2.51387E-02-8.84747E-02
 -1      1773-2.84585E-04 1.09437E-03-3.14416E-03
 -1      1775 8.73175E-04-1.00250E-03-3.15697E-03
 -1      1776 2.71590E-04 2.53400E-03-8.64650E-03
 -1      1778 9.49681E-04-2.44464E-03-8.65359E-03
 -1      1779 4.82413E-04 3.79917E-03-1.29371E-02
 -1      1781 1.31644E-03-3.72446E-03-1.29422E-02
 -1      1782 7.93363E-04 5.08786E-03-1.76216E-02
 -1      1784 1.57487E-03-5.01126E-03-1.76245E-02
 -1      1785 1.05860E-03 6.36603E-03-2.20890E-02
 -1      1787 1.83402E-03-6.29896E-03-2.20880E-02
 -1      1788 1.30115E-03 7.61293E-03-2.65485E-02
 -1      1790 2.07440E-03-7.55077E-03-2.65450E-02
 -1      1791 1.52957E-03 8.85568E-03-3.09288E-02
 -1      1793 2.27958E-03-8.80144E-03-3.09218E-02
 -1      1794 1.72385E-03 1.00626E-02-3.52244E-02
 -1      1796 2.46733E-03-1.00152E-02-3.52144E-02
 -1      1797 1.89945E-03 1.12531E-02-3.94349E-02
 -1      1799 2.61957E-03-1.12136E-02-3.94217E-02
 -1      1800 2.04284E-03 1.24064E-02-4.35346E-02
 -1      1802 2.74815E-03-1.23744E-02-4.35182E-02
 -1      1803 2.16234E-03 1.35322E-02-4.75236E-02
 -1      1805 2.84353E-03-1.35083E-02-4.75042E-02
 -1      1806 2.25151E-03 1.46176E-02-5.13815E-02
 -1      1808 2.91150E-03-1.46015E-02-5.13589E-02
 -1      1809 2.31423E-03 1.56669E-02-5.51035E-02
 -1      1811 2.94788E-03-1.56588E-02-5.50781E-02
 -1      1812 2.34796E-03 1.66713E-02-5.86744E-02
 -1      1814 2.95553E-03-1.66710E-02-5.86460E-02
 -1      1815 2.35469E-03 1.76324E-02-6.20867E-02
 -1      1817 2.93305E-03-1.76399E-02-6.20556E-02
 -1      1818 2.33387E-03 1.85440E-02-6.53286E-02
 -1      1820 2.88222E-03-1.85591E-02-6.52946E-02
 -1      1821 2.28693E-03 1.94061E-02-6.83917E-02
 -1      1823 2.80309E-03-1.94286E-02-6.83552E-02
 -1      1824 2.21437E-03 2.02142E-02-7.12663E-02
 -1      1826 2.69721E-03-2.02436E-02-7.12274E-02
 -1      1827 2.11765E-03 2.09676E-02-7.39446E-02
 -1      1829 2.56552E-03-2.10038E-02-7.39034E-02
 -1      1830 1.99791E-03 2.16627E-02-7.64186E-02
 -1      1832 2.40969E-03-2.17049E-02-7.63752E-02
 -1      1833 1.85694E-03 2.22987E-02-7.86814E-02
 -1      1835 2.23138E-03-2.23471E-02-7.86361E-02
 -1      1836 1.69635E-03 2.28729E-02-8.07272E-02
 -1      1838 2.03257E-03-2.29259E-02-8.06802E-02
 -1      1839 1.51887E-03 2.33840E-02-8.25511E-02
 -1      1841 1.81598E-03-2.34429E-02-8.25025E-02
 -1      1842 1.32661E-03 2.38309E-02-8.41512E-02
 -1      1844 1.58451E-03-2.38917E-02-8.41015E-02
 -1      1845 1.12537E-03 2.42111E-02-8.55245E-02
 -1      1847 1.34304E-03-2.42777E-02-8.54736E-02
 -1      1848 9.19640E-04 2.45254E-02-8.66771E-02
 -1      1850 1.09924E-03-2.45901E-02-8.66262E-02
 -1      1851 7.21453E-04 2.47717E-02-8.75909E-02
 -1      1853 8.55798E-04-2.48373E-02-8.75392E-02
 -1      1854 5.54913E-04 2.49564E-02-8.82660E-02
 -1      1856 6.50931E-04-2.50000E-02-8.82168E-02
 -1      1857 4.20185E-04 2.50190E-02-8.85202E-02
 -1      1859 4.22135E-04-2.51387E-02-8.84747E-02
 -1      1860 4.00079E-04 4.82487E-06 8.92437E-05
 -1      1862 4.00079E-04-4.82487E-06 8.92437E-05
 -1      1863 7.93617E-04 1.01681E-05-5.80010E-05
 -1      1865 7.93617E-04-1.01681E-05-5.80010E-05
 -1      1866 1.11668E-03 1.27498E-05-1.83902E-04
 -1      1868 1.11668E-03-1.27498E-05-1.83902E-04
 -1      1869 1.41976E-03 1.45187E-05-2.98025E-04
 -1      1871 1.41976E-03-1.45187E-05-2.98025E-04
 -1      1872 1.68923E-03 1.81436E-05-4.16210E-04
 -1      1874 1.68923E-03-1.81437E-05-4.16210E-04
 -1      1875 1.93174E-03 1.98872E-05-5.22730E-04
 -1      1877 1.93174E-03-1.98872E-05-5.22730E-04
 -1      1878 2.14730E-03 2.30134E-05-6.32612E-04
 -1      1880 2.14730E-03-2.30134E-05-6.32612E-04
 -1      1881 2.33463E-03 2.50270E-05-7.36067E-04
 -1      1883 2.33463E-03-2.50270E-05-7.36067E-04
 -1      1884 2.49420E-03 2.76932E-05-8.40215E-04
 -1      1886 2.49420E-03-2.76932E-05-8.40215E-04
 -1      1887 2.62454E-03 2.97950E-05-9.40179E-04
 -1      1889 2.62454E-03-2.97950E-05-9.40179E-04
 -1      1890 2.72580E-03 3.21345E-05-1.03885E-03
 -1      1892 2.72580E-03-3.21345E-05-1.03885E-03
 -1      1893 2.79728E-03 3.41888E-05-1.13389E-03
 -1      1895 2.79728E-03-3.41888E-05-1.13389E-03
 -1      1896 2.83914E-03 3.62670E-05-1.22634E-03
 -1      1898 2.83914E-03-3.62670E-05-1.22634E-03
 -1      1899 2.85141E-03 3.82002E-05-1.31502E-03
 -1      1901 2.85141E-03-3.82002E-05-1.31502E-03
 -1      1902 2.83449E-03 4.00384E-05-1.40020E-03
 -1      1904 2.83449E-03-4.00384E-05-1.40020E-03
 -1      1905 2.78900E-03 4.18109E-05-1.48122E-03
 -1      1907 2.78900E-03-4.18109E-05-1.48122E-03
 -1      1908 2.71567E-03 4.34107E-05-1.55807E-03
 -1      1910 2.71567E-03-4.34107E-05-1.55807E-03
 -1      1911 2.61563E-03 4.49981E-05-1.63033E-03
 -1      1913 2.61563E-03-4.49981E-05-1.63033E-03
 -1      1914 2.48993E-03 4.63555E-05-1.69792E-03
 -1      1916 2.48993E-03-4.63555E-05-1.69792E-03
 -1      1917 2.34005E-03 4.77402E-05-1.76064E-03
 -1      1919 2.34005E-03-4.77402E-05-1.76064E-03
 -1      1920 2.16722E-03 4.88508E-05-1.81860E-03
 -1      1922 2.16722E-03-4.88508E-05-1.81860E-03
 -1      1923 1.97289E-03 5.00211E-05-1.87209E-03
 -1      1925 1.97289E-03-5.00211E-05-1.87209E-03
 -1      1926 1.75770E-03 5.08761E-05-1.92204E-03
 -1      1928 1.75770E-03-5.08761E-05-1.92204E-03
 -1      1929 1.52149E-03 5.18318E-05-1.97021E-03
 -1      1931 1.52149E-03-5.18318E-05-1.97021E-03
 -1      1932 1.26153E-03 5.23860E-05-2.01955E-03
 -1      1934 1.26153E-03-5.23860E-05-2.01955E-03
 -1      1935 9.71150E-04 5.30618E-05-2.07419E-03
 -1      1937 9.71150E-04-5.30618E-05-2.07419E-03
 -1      1938 6.37021E-04 5.31759E-05-2.13410E-03
 -1      1940 6.37021E-04-5.31759E-05-2.13410E-03
 -1      1941 2.37169E-04 5.29412E-05-2.18204E-03
 -1      1943 2.37169E-04-5.29412E-05-2.18204E-03
 -1      1944-2.51374E-04 5.03059E-05-2.13332E-03
 -1      1946-2.51374E-04-5.03059E-05-2.13332E-03
 -1      1947 4.20705E-04 8.35984E-06 7.91988E-14
 -1      1949 4.20705E-04-8.35984E-06 6.66377E-14
 -1      1950 8.34282E-04 5.21514E-06 1.74728E-13
 -1      1952 8.34282E-04-5.21514E-06 1.40745E-13
 -1      1953 1.18609E-03 5.76937E-06 2.60131E-13
 -1      1955 1.18609E-03-5.76937E-06 2.08764E-13
 -1      1956 1.49260E-03 7.19330E-06 3.33331E-13
 -1      1958 1.49260E-03-7.19330E-06 2.71410E-13
 -1      1959 1.76650E-03 6.61359E-06 3.86871E-13
 -1      1961 1.76650E-03-6.61359E-06 3.23404E-13
 -1      1962 2.00955E-03 7.92800E-06 4.15435E-13
 -1      1964 2.00955E-03-7.92801E-06 3.58946E-13
 -1      1965 2.22461E-03 7.74968E-06 4.25084E-13
 -1      1967 2.22461E-03-7.74968E-06 3.83103E-13
 -1      1968 2.41108E-03 8.55616E-06 4.11851E-13
 -1      1970 2.41108E-03-8.55616E-06 3.87898E-13
 -1      1971 2.56904E-03 8.66786E-06 3.67172E-13
 -1      1973 2.56904E-03-8.66786E-06 3.64903E-13
 -1      1974 2.69776E-03 9.17702E-06 2.86760E-13
 -1      1976 2.69776E-03-9.17702E-06 3.05665E-13
 -1      1977 2.79691E-03 9.39141E-06 1.82713E-13
 -1      1979 2.79691E-03-9.39141E-06 2.25030E-13
 -1      1980 2.86622E-03 9.75385E-06 7.61041E-14
 -1      1982 2.86622E-03-9.75384E-06 1.40804E-13
 -1      1983 2.90556E-03 9.97261E-06-1.89085E-14
 -1      1985 2.90556E-03-9.97260E-06 5.65589E-14
 -1      1986 2.91518E-03 1.02628E-05-9.27591E-14
 -1      1988 2.91518E-03-1.02628E-05-1.67540E-14
 -1      1989 2.89535E-03 1.04430E-05-1.39139E-13
 -1      1991 2.89535E-03-1.04430E-05-6.77687E-14
 -1      1992 2.84678E-03 1.06984E-05-1.62287E-13
 -1      1994 2.84678E-03-1.06984E-05-1.01204E-13
 -1      1995 2.77016E-03 1.08204E-05-1.74230E-13
 -1      1997 2.77016E-03-1.08204E-05-1.23590E-13
 -1      1998 2.66665E-03 1.10655E-05-1.77883E-13
 -1      2000 2.66665E-03-1.10655E-05-1.44043E-13
 -1      2001 2.53728E-03 1.11161E-05-1.75020E-13
 -1      2003 2.53728E-03-1.11161E-05-1.61684E-13
 -1      2004 2.38351E-03 1.13753E-05-1.68155E-13
 -1      2006 2.38351E-03-1.13753E-05-1.72808E-13
 -1      2007 2.20643E-03 1.13398E-05-1.48189E-13
 -1      2009 2.20643E-03-1.13398E-05-1.65289E-13
 -1      2010 2.00727E-03 1.16421E-05-1.09736E-13
 -1      2012 2.00727E-03-1.16421E-05-1.34706E-13
 -1      2013 1.78593E-03 1.15039E-05-6.48873E-14
 -1      2015 1.78593E-03-1.15039E-05-9.08613E-14
 -1      2016 1.54105E-03 1.18646E-05-3.06734E-14
 -1      2018 1.54105E-03-1.18646E-05-4.76667E-14
 -1      2019 1.26686E-03 1.15757E-05-4.42528E-15
 -1      2021 1.26686E-03-1.15757E-05-2.29677E-15
 -1      2022 9.51605E-04 1.19096E-05 1.89597E-14
 -1      2024 9.51605E-04-1.19096E-05 5.06019E-14
 -1      2025 5.72683E-04 1.09664E-05 4.65279E-14
 -1      2027 5.72683E-04-1.09664E-05 1.13125E-13
 -1      2028 1.01424E-04 1.02859E-05 5.98248E-14
 -1      2030 1.01424E-04-1.02859E-05 1.63567E-13
 -1      2031-4.69614E-04 6.74134E-06 6.42455E-14
 -1      2033-4.69614E-04-6.74133E-06 1.95108E-13
 -1      2034 4.00079E-04 4.82487E-06-8.92437E-05
 -1      2036 4.00079E-04-4.82487E-06-8.92437E-05
 -1      2037 7.93617E-04 1.01681E-05 5.80010E-05
 -1      2039 7.93617E-04-1.01681E-05 5.80010E-05
 -1      2040 1.11668E-03 1.27498E-05 1.83902E-04
 -1      2042 1.11668E-03-1.27498E-05 1.83902E-04
 -1      2043 1.41976E-03 1.45187E-05 2.98025E-04
 -1      2045 1.41976E-03-1.45187E-05 2.98025E-04
 -1      2046 1.68923E-03 1.81437E-05 4.16210E-04
 -1      2048 1.68923E-03-1.81437E-05 4.16210E-04
 -1      2049 1.93174E-03 1.98872E-05 5.22730E-04
 -1      2051 1.93174E-03-1.98872E-05 5.22730E-04
 -1      2052 2.14730E-03 2.30134E-05 6.32612E-04
 -1      2054 2.14730E-03-2.30134E-05 6.32612E-04
 -1      2055 2.33463E-03 2.50270E-05 7.36067E-04
 -1      2057 2.33463E-03-2.50270E-05 7.36067E-04
 -1      2058 2.49420E-03 2.76932E-05 8.40215E-04
 -1      2060 2.49420E-03-2.76932E-05 8.40215E-04
 -1      2061 2.62454E-03 2.97950E-05 9.40179E-04
 -1      2063 2.62454E-03-2.97950E-05 9.40179E-04
 -1      2064 2.72580E-03 3.21345E-05 1.03885E-03
 -1      2066 2.72580E-03-3.21345E-05 1.03885E-03
 -1      2067 2.79728E-03 3.41888E-05 1.13389E-03
 -1      2069 2.79728E-03-3.41888E-05 1.13389E-03
 -1      2070 2.83914E-03 3.62670E-05 1.22634E-03
 -1      2072 2.83914E-03-3.62670E-05 1.22634E-03
 -1      2073 2.85141E-03 3.82002E-05 1.31502E-03
 -1      2075 2.85141E-03-3.82002E-05 1.31502E-03
 -1      2076 2.83449E-03 4.00384E-05 1.40020E-03
 -1      2078 2.83449E-03-4.00384E-05 1.40020E-03
 -1      2079 2.78900E-03 4.18109E-05 1.48122E-03
 -1      2081 2.78900E-03-4.18109E-05 1.48122E-03
 -1      2082 2.71567E-03 4.34107E-05 1.55807E-03
 -1      2084 2.71567E-03-4.34107E-05 1.55807E-03
 -1      2085 2.61563E-03 4.49981E-05 1.63033E-03
 -1      2087 2.61563E-03-4.49981E-05 1.63033E-03
 -1      2088 2.48993E-03 4.63555E-05 1.69792E-03
 -1      2090 2.48993E-03-4.63555E-05 1.69792E-03
 -1      2091 2.34005E-03 4.77402E-05 1.76064E-03
 -1      2093 2.34005E-03-4.77402E-05 1.76064E-03
 -1      2094 2.16722E-03 4.88508E-05 1.81860E-03
 -1      2096 2.16722E-03-4.88508E-05 1.81860E-03
 -1      2097 1.97289E-03 5.00211E-05 1.87209E-03
 -1      2099 1.97289E-03-5.00211E-05 1.87209E-03
 -1      2100 1.75770E-03 5.08761E-05 1.92204E-03
 -1      2102 1.75770E-03-5.08761E-05 1.92204E-03
 -1      2103 1.52149E-03 5.18318E-05 1.97021E-03
 -1      2105 1.52149E-03-5.18318E-05 1.97021E-03
 -1      2106 1.26153E-03 5.23860E-05 2.01955E-03
 -1      2108 1.26153E-03-5.23860E-05 2.01955E-03
 -1      2109 9.71150E-04 5.30618E-05 2.07419E-03
 -1      2111 9.71150E-04-5.30618E-05 2.07419E-03
 -1      2112 6.37021E-04 5.31759E-05 2.13410E-03
 -1      2114 6.37021E-04-5.31759E-05 2.13410E-03
 -1      2115 2.37169E-04 5.29412E-05 2.18204E-03
 -1      2117 2.37169E-04-5.29412E-05 2.18204E-03
 -1      2118-2.51374E-04 5.03059E-05 2.13332E-03
 -1      2120-2.51374E-04-5.03059E-05 2.13332E-03
 -1      2121-2.84585E-04 1.09437E-03 3.14416E-03
 -1      2123 8.73175E-04-1.00250E-03 3.15697E-03
 -1      2124 2.71590E-04 2.53400E-03 8.64650E-03
 -1      2126 9.49681E-04-2.44464E-03 8.65359E-03
 -1      2127 4.82413E-04 3.79917E-03 1.29371E-02
 -1      2129 1.31644E-03-3.72446E-03 1.29422E-02
 -1      2130 7.93363E-04 5.08786E-03 1.76216E-02
 -1      2132 1.57487E-03-5.01126E-03 1.76245E-02
 -1      2133 1.05860E-03 6.36603E-03 2.20890E-02
 -1      2135 1.83402E-03-6.29896E-03 2.20880E-02
 -1      2136 1.30115E-03 7.61293E-03 2.65485E-02
 -1      2138 2.07440E-03-7.55077E-03 2.65450E-02
 -1      2139 1.52957E-03 8.85568E-03 3.09288E-02
 -1      2141 2.27958E-03-8.80144E-03 3.09218E-02
 -1      2142 1.72385E-03 1.00626E-02 3.52244E-02
 -1      2144 2.46733E-03-1.00152E-02 3.52144E-02
 -1      2145 1.89945E-03 1.12531E-02 3.94349E-02
 -1      2147 2.61957E-03-1.12136E-02 3.94217E-02
 -1      2148 2.04284E-03 1.24064E-02 4.35346E-02
 -1      2150 2.74815E-03-1.23744E-02 4.35182E-02
 -1      2151 2.16234E-03 1.35322E-02 4.75236E-02
 -1      2153 2.84353E-03-1.35083E-02 4.75042E-02
 -1      2154 2.25151E-03 1.46176E-02 5.13815E-02
 -1      2156 2.91150E-03-1.46015E-02 5.13589E-02
 -1      2157 2.31423E-03 1.56669E-02 5.51035E-02
 -1      2159 2.94788E-03-1.56588E-02 5.50781E-02
 -1      2160 2.34796E-03 1.66713E-02 5.86744E-02
 -1      2162 2.95553E-03-1.66710E-02 5.86460E-02
 -1      2163 2.35469E-03 1.76324E-02 6.20867E-02
 -1      2165 2.93305E-03-1.76399E-02 6.20556E-02
 -1      2166 2.33387E-03 1.85440E-02 6.53286E-02
 -1      2168 2.88222E-03-1.85591E-02 6.52946E-02
 -1      2169 2.28693E-03 1.94061E-02 6.83917E-02
 -1      2171 2.80309E-03-1.94286E-02 6.83552E-02
 -1      2172 2.21437E-03 2.02142E-02 7.12663E-02
 -1      2174 2.69721E-03-2.02436E-02 7.12274E-02
 -1      2175 2.11765E-03 2.09676E-02 7.39446E-02
 -1      2177 2.56552E-03-2.10038E-02 7.39034E-02
 -1      2178 1.99791E-03 2.16627E-02 7.64186E-02
 -1      2180 2.40969E-03-2.17049E-02 7.63752E-02
 -1      2181 1.85694E-03 2.22987E-02 7.86814E-02
 -1      2183 2.23138E-03-2.23471E-02 7.86361E-02
 -1      2184 1.69635E-03 2.28729E-02 8.07272E-02
 -1      2186 2.03257E-03-2.29259E-02 8.06802E-02
 -1      2187 1.51887E-03 2.33840E-02 8.25511E-02
 -1      2189 1.81598E-03-2.34429E-02 8.25025E-02
 -1      2190 1.32661E-03 2.38309E-02 8.41512E-02
 -1      2192 1.58451E-03-2.38917E-02 8.41015E-02
 -1      2193 1.12537E-03 2.42111E-02 8.55245E-02
 -1      2195 1.34304E-03-2.42777E-02 8.54736E-02
 -1      2196 9.19640E-04 2.45254E-02 8.66771E-02
 -1      2198 1.09924E-03-2.45901E-02 8.66262E-02
 -1      2199 7.21453E-04 2.47717E-02 8.75909E-02
 -1      2201 8.55798E-04-2.48373E-02 8.75392E-02
 -1      2202 5.54913E-04 2.49564E-02 8.82660E-02
 -1      2204 6.50931E-04-2.50000E-02 8.82168E-02
 -1      2205 4.20185E-04 2.50190E-02 8.85202E-02
 -1      2207 4.22135E-04-2.51387E-02 8.84747E-02
 -1      2208-2.84585E-04-1.09437E-03 3.14416E-03
 -1      2210 8.73175E-04 1.00250E-03 3.15697E-03
 -1      2211 2.71590E-04-2.53400E-03 8.64650E-03
 -1      2213 9.49681E-04 2.44464E-03 8.65359E-03
 -1      2214 4.82413E-04-3.79917E-03 1.29371E-02
 -1      2216 1.31644E-03 3.72446E-03 1.29422E-02
 -1      2217 7.93363E-04-5.08786E-03 1.76216E-02
 -1      2219 1.57487E-03 5.01126E-03 1.76245E-02
 -1      2220 1.05860E-03-6.36603E-03 2.20890E-02
 -1      2222 1.83402E-03 6.29896E-03 2.20880E-02
 -1      2223 1.30115E-03-7.61293E-03 2.65485E-02
 -1      2225 2.07440E-03 7.55077E-03 2.65450E-02
 -1      2226 1.52957E-03-8.85568E-03 3.09288E-02
 -1      2228 2.27958E-03 8.80144E-03 3.09218E-02
 -1      2229 1.72385E-03-1.00626E-02 3.52244E-02
 -1      2231 2.46733E-03 1.00152E-02 3.52144E-02
 -1      2232 1.89945E-03-1.12531E-02 3.94349E-02
 -1      2234 2.61957E-03 1.12136E-02 3.94217E-02
 -1      2235 2.04284E-03-1.24064E-02 4.35346E-02
 -1      2237 2.74815E-03 1.23744E-02 4.35182E-02
 -1      2238 2.16234E-03-1.35322E-02 4.75236E-02
 -1      2240 2.84353E-03 1.35083E-02 4.75042E-02
 -1      2241 2.25151E-03-1.46176E-02 5.13815E-02
 -1      2243 2.91150E-03 1.46015E-02 5.13589E-02
 -1      2244 2.31423E-03-1.56669E-02 5.51035E-02
 -1      2246 2.94788E-03 1.56588E-02 5.50781E-02
 -1      2247 2.34796E-03-1.66713E-02 5.86744E-02
 -1      2249 2.95553E-03 1.66710E-02 5.86460E-02
 -1      2250 2.35469E-03-1.76324E-02 6.20867E-02
 -1      2252 2.93305E-03 1.76399E-02 6.20556E-02
 -1      2253 2.33387E-03-1.85440E-02 6.53286E-02
 -1      2255 2.88222E-03 1.85591E-02 6.52946E-02
 -1      2256 2.28693E-03-1.94061E-02 6.83917E-02
 -1      2258 2.80309E-03 1.94286E-02 6.83552E-02
 -1      2259 2.21437E-03-2.02142E-02 7.12663E-02
 -1      2261 2.69721E-03 2.02436E-02 7.12274E-02
 -1      2262 2.11765E-03-2.09676E-02 7.39446E-02
 -1      2264 2.56552E-03 2.10038E-02 7.39034E-02
 -1      2265 1.99791E-03-2.16627E-02 7.64186E-02
 -1      2267 2.40969E-03 2.17049E-02 7.63752E-02
 -1      2268 1.85694E-03-2.22987E-02 7.86814E-02
 -1      2270 2.23138E-03 2.23471E-02 7.86361E-02
 -1      2271 1.69635E-03-2.28729E-02 8.07272E-02
 -1      2273 2.03257E-03 2.29259E-02 8.06802E-02
 -1      2274 1.51887E-03-2.33840E-02 8.25511E-02
 -1      2276 1.81598E-03 2.34429E-02 8.25025E-02
 -1      2277 1.32661E-03-2.38309E-02 8.41512E-02
 -1      2279 1.58451E-03 2.38917E-02 8.41015E-02
 -1      2280 1.12537E-03-2.42111E-02 8.55245E-02
 -1      2282 1.34304E-03 2.42777E-02 8.54736E-02
 -1      2283 9.19640E-04-2.45254E-02 8.66771E-02
 -1      2285 1.09924E-03 2.45901E-02 8.66262E-02
 -1      2286 7.21453E-04-2.47717E-02 8.75909E-02
 -1      2288 8.55798E-04 2.48373E-02 8.75392E-02
 -1      2289 5.54913E-04-2.49564E-02 8.82660E-02
 -1      2291 6.50931E-04 2.50000E-02 8.82168E-02
 -1      2292 4.20185E-04-2.50190E-02 8.85202E-02
 -1      2294 4.22135E-04 2.51387E-02 8.84747E-02
 -3
    1PSTEP                        66           1           1          
    1PGM                1.000000E+00                                  
    1PGK                1.786382E+07                                  
    1PHID                         -1                                  
    1PSUBC                         0                                  
    1PMODE                        17                                  
  100CL  117 672.6781674         930                     2   17MODAL      1
 -4  STRESS      6    1
 -5  SXX         1    4    1    1
 -5  SYY         1    4    2    2
 -5  SZZ         1    4    3    3
 -5  SXY         1    4    1    2
 -5  SYZ         1    4    2    3
 -5  SZX         1    4    3    1
 -1       404 6.59365E+08 6.49082E+07 2.35714E+05-4.14830E+07-9.13188E+06-3.81035E+08
 -1       406 6.59365E+08 6.49082E+07 2.35714E+05-4.14830E+07-9.13188E+06-3.81035E+08
 -1       407-7.35720E+07-1.43530E+07 4.66412E+06 3.22252E+07-5.32961E+08 3.96415E+06
 -1       409-7.35720E+07-1.43530E+07 4.66412E+06 3.22252E+07-5.32961E+08 3.96415E+06
 -1       410-3.03517E+08-9.13400E+07-1.26053E+07-3.88862E-02 4.62711E-03 3.80620E+06
 -1       412-3.03517E+08-9.13400E+07-1.26053E+07-3.88862E-02 4.62711E-03 3.80620E+06
 -1       413 4.86687E+08 1.66926E+07 4.34231E+09-2.00160E-04 2.18914E-02-3.25528E+08
 -1       415 4.86687E+08 1.66926E+07 4.34231E+09-2.00160E-04 2.18914E-02-3.25528E+08
 -1       424 6.53292E+08 8.89000E+07 3.22557E+05-1.37010E-01 2.25581E-04 1.54688E+08
 -1       426 6.53292E+08 8.89000E+07 3.22557E+05-1.37010E-01 2.25581E-04 1.54688E+08
 -1       427 7.49746E+08-2.13280E+05 4.07063E+07-9.08201E-03-7.43319E-04 1.82359E+08
 -1       429 7.49746E+08-2.13280E+05 4.07063E+07-9.08201E-03-7.43319E-04 1.82359E+08
 -1       438-7.35720E+07-1.43530E+07 4.66412E+06-3.22252E+07 5.32961E+08 3.96415E+06
 -1       440-7.35720E+07-1.43530E+07 4.66412E+06-3.22252E+07 5.32961E+08 3.96415E+06
 -1       441 6.59365E+08 6.49082E+07 2.35714E+05 4.14830E+07 9.13188E+06-3.81035E+08
 -1       443 6.59365E+08 6.49082E+07 2.35714E+05 4.14830E+07 9.13188E+06-3.81035E+08
 -1       444 7.49746E+08-2.13280E+05 4.07063E+07 3.73847E-03 1.01989E-04-1.82359E+08
 -1       446 7.49746E+08-2.13280E+05 4.07063E+07 3.73847E-03 1.01989E-04-1.82359E+08
 -1       447 6.53292E+08 8.89000E+07 3.22557E+05 5.03346E-02 2.42674E-03-1.54688E+08
 -1       449 6.53292E+08 8.89000E+07 3.22557E+05 5.03346E-02 2.42674E-03-1.54688E+08
 -1       458 4.86687E+08 1.66926E+07 4.34231E+09-3.21430E-04-1.94974E-03 3.25528E+08
 -1       460 4.86687E+08 1.66926E+07 4.34231E+09-3.21430E-04-1.94974E-03 3.25528E+08
 -1       461-3.03517E+08-9.13400E+07-1.26053E+07 9.59763E-03 5.20110E-04-3.80620E+06
 -1       463-3.03517E+08-9.13400E+07-1.26053E+07 9.59763E-03 5.20110E-04-3.80620E+06
 -1       472 6.59365E+08 6.49082E+07 2.35714E+05 4.14830E+07-9.13188E+06 3.81035E+08
 -1       474 6.59365E+08 6.49082E+07 2.35714E+05 4.14830E+07-9.13188E+06 3.81035E+08
 -1       475-7.35720E+07-1.43530E+07 4.66412E+06-3.22252E+07-5.32961E+08-3.96415E+06
 -1       477-7.35720E+07-1.43530E+07 4.66412E+06-3.22252E+07-5.32961E+08-3.96415E+06
 -1       478-7.35720E+07-1.43530E+07 4.66412E+06 3.22252E+07 5.32961E+08-3.96415E+06
 -1       480-7.35720E+07-1.43530E+07 4.66412E+06 3.22252E+07 5.32961E+08-3.96415E+06
 -1       481 6.59365E+08 6.49082E+07 2.35714E+05-4.14830E+07 9.13188E+06 3.81035E+08
 -1       483 6.59365E+08 6.49082E+07 2.35714E+05-4.14830E+07 9.13188E+06 3.81035E+08
 -1       484 6.40798E+08 1.95074E+07-3.13008E+05-1.15121E+07-3.19826E+07-1.30058E+08
 -1       486 6.40798E+08 1.95074E+07-3.13008E+05-1.15121E+07-3.19826E+07-1.30058E+08
 -1       487 6.22012E+08-8.59591E+06 4.77354E+05 5.21021E+06-5.83401E+07-2.29132E+06
 -1       489 6.22012E+08-8.59591E+06 4.77354E+05 5.21021E+06-5.83401E+07-2.29132E+06
 -1       490 6.06151E+08 2.14540E+06 6.82649E+05-5.53950E+06-7.89392E+07-6.26331E+07
 -1       492 6.06151E+08 2.14540E+06 6.82649E+05-5.53950E+06-7.89392E+07-6.26331E+07
 -1       493 5.71344E+08-1.34938E+06 6.86083E+05-4.44322E+06-1.09416E+08-3.29809E+07
 -1       495 5.71344E+08-1.34938E+06 6.86083E+05-4.44322E+06-1.09416E+08-3.29809E+07
 -1       496 5.29226E+08 1.81076E+05 1.10539E+06-5.86499E+06-1.34160E+08-4.73401E+07
 -1       498 5.29226E+08 1.81076E+05 1.10539E+06-5.86499E+06-1.34160E+08-4.73401E+07
 -1       499 4.80995E+08-3.95113E+05 1.12002E+06-6.06303E+06-1.61729E+08-3.89222E+07
 -1       501 4.80995E+08-3.95113E+05 1.12002E+06-6.06303E+06-1.61729E+08-3.89222E+07
 -1       502 4.28539E+08 8.38900E+03 1.46138E+06-6.22161E+06-1.87754E+08-4.25704E+07
 -1       504 4.28539E+08 8.38900E+03 1.46138E+06-6.22161E+06-1.87754E+08-4.25704E+07
 -1       505 3.73060E+08-1.60991E+05 1.54343E+06-6.17216E+06-2.13358E+08-3.92418E+07
 -1       507 3.73060E+08-1.60991E+05 1.54343E+06-6.17216E+06-2.13358E+08-3.92418E+07
 -1       508 3.15433E+08-1.04361E+04 1.81870E+06-6.07722E+06-2.38928E+08-3.98094E+07
 -1       510 3.15433E+08-1.04361E+04 1.81870E+06-6.07722E+06-2.38928E+08-3.98094E+07
 -1       511 2.56223E+08-6.71591E+04 1.93490E+06-5.93173E+06-2.63111E+08-3.78471E+07
 -1       513 2.56223E+08-6.71591E+04 1.93490E+06-5.93173E+06-2.63111E+08-3.78471E+07
 -1       514 1.96037E+08 8.20005E+03 2.17033E+06-5.75938E+06-2.87401E+08-3.72616E+07
 -1       516 1.96037E+08 8.20005E+03 2.17033E+06-5.75938E+06-2.87401E+08-3.72616E+07
 -1       517 1.35341E+08-1.04980E+04 2.29571E+06-5.56707E+06-3.10163E+08-3.56438E+07
 -1       519 1.35341E+08-1.04980E+04 2.29571E+06-5.56707E+06-3.10163E+08-3.56438E+07
 -1       520 7.46578E+07 4.01922E+04 2.50640E+06-5.35557E+06-3.32758E+08-3.45025E+07
 -1       522 7.46578E+07 4.01922E+04 2.50640E+06-5.35557E+06-3.32758E+08-3.45025E+07
 -1       523 1.44429E+07 3.34172E+04 2.62592E+06-5.12897E+06-3.53886E+08-3.28983E+07
 -1       525 1.44429E+07 3.34172E+04 2.62592E+06-5.12897E+06-3.53886E+08-3.28983E+07
 -1       526-4.48115E+07 7.85086E+04 2.82014E+06-4.88588E+06-3.74524E+08-3.14263E+07
 -1       528-4.48115E+07 7.85086E+04 2.82014E+06-4.88588E+06-3.74524E+08-3.14263E+07
 -1       529-1.02661E+08 6.86030E+04 2.92338E+06-4.62936E+06-3.93756E+08-2.97207E+07
 -1       531-1.02661E+08 6.86030E+04 2.92338E+06-4.62936E+06-3.93756E+08-2.97207E+07
 -1       532-1.58634E+08 1.23634E+05 3.10707E+06-4.35462E+06-4.12226E+08-2.80189E+07
 -1       534-1.58634E+08 1.23634E+05 3.10707E+06-4.35462E+06-4.12226E+08-2.80189E+07
 -1       535-2.12304E+08 9.12082E+04 3.18482E+06-4.06706E+06-4.29309E+08-2.61764E+07
 -1       537-2.12304E+08 9.12082E+04 3.18482E+06-4.06706E+06-4.29309E+08-2.61764E+07
 -1       538-2.63193E+08 1.88883E+05 3.36403E+06-3.74506E+06-4.45425E+08-2.43000E+07
 -1       540-2.63193E+08 1.88883E+05 3.36403E+06-3.74506E+06-4.45425E+08-2.43000E+07
 -1       541-3.10852E+08 8.85669E+04 3.40673E+06-3.39949E+06-4.60136E+08-2.23160E+07
 -1       543-3.10852E+08 8.85669E+04 3.40673E+06-3.39949E+06-4.60136E+08-2.23160E+07
 -1       544-3.54653E+08 3.29531E+05 3.58799E+06-2.94044E+06-4.73727E+08-2.03036E+07
 -1       546-3.54653E+08 3.29531E+05 3.58799E+06-2.94044E+06-4.73727E+08-2.03036E+07
 -1       547-3.93859E+08 2.86327E+04 3.58694E+06-2.38717E+06-4.85875E+08-1.81857E+07
 -1       549-3.93859E+08 2.86327E+04 3.58694E+06-2.38717E+06-4.85875E+08-1.81857E+07
 -1       550-4.27011E+08 7.57293E+05 3.77223E+06-1.37005E+06-4.96778E+08-1.60662E+07
 -1       552-4.27011E+08 7.57293E+05 3.77223E+06-1.37005E+06-4.96778E+08-1.60662E+07
 -1       553-4.52224E+08-2.24130E+05 3.72993E+06-5.29909E+04-5.06206E+08-1.38417E+07
 -1       555-4.52224E+08-2.24130E+05 3.72993E+06-5.29909E+04-5.06206E+08-1.38417E+07
 -1       556-4.64774E+08 2.15603E+06 3.89490E+06 2.91548E+06-5.14249E+08-1.16007E+07
 -1       558-4.64774E+08 2.15603E+06 3.89490E+06 2.91548E+06-5.14249E+08-1.16007E+07
 -1       559-4.58632E+08-6.36136E+05 3.84998E+06 7.88342E+06-5.20848E+08-9.46924E+06
 -1       561-4.58632E+08-6.36136E+05 3.84998E+06 7.88342E+06-5.20848E+08-9.46924E+06
 -1       562-4.31539E+08 1.86121E+06 3.95054E+06 7.86607E+06-5.25894E+08-6.84093E+06
 -1       564-4.31539E+08 1.86121E+06 3.95054E+06 7.86607E+06-5.25894E+08-6.84093E+06
 -1       565-3.57061E+08 8.93031E+06 3.86300E+06 3.47279E+07-5.29723E+08-6.08692E+06
 -1       567-3.57061E+08 8.93031E+06 3.86300E+06 3.47279E+07-5.29723E+08-6.08692E+06
 -1       568-1.87507E+08-4.29626E+06 3.74938E+06 4.81952E+07-5.32155E+08-1.42572E+06
 -1       570-1.87507E+08-4.29626E+06 3.74938E+06 4.81952E+07-5.32155E+08-1.42572E+06
 -1       571-1.88545E+08-5.28465E+07-3.97056E+06 1.05693E+08-9.03813E+08 3.88517E+06
 -1       573-1.88545E+08-5.28465E+07-3.97056E+06 1.05693E+08-9.03813E+08 3.88517E+06
 -1       574 6.49254E+08 3.55511E+07 2.82419E+05-1.40719E-01 2.55704E-04 5.40603E+07
 -1       576 6.49254E+08 3.55511E+07 2.82419E+05-1.40719E-01 2.55704E-04 5.40603E+07
 -1       577 7.68176E+08-1.10653E+06 1.13128E+08-2.72378E-03-9.55307E-04 2.81668E+07
 -1       579 7.68176E+08-1.10653E+06 1.13128E+08-2.72378E-03-9.55307E-04 2.81668E+07
 -1       588 6.32909E+08-1.19598E+07-1.37559E+06-1.17760E-01 5.43073E-04 3.17916E+07
 -1       590 6.32909E+08-1.19598E+07-1.37559E+06-1.17760E-01 5.43073E-04 3.17916E+07
 -1       591 8.11418E+08 2.08608E+06 3.84535E+08-6.48612E-04-1.38806E-04-4.61888E+07
 -1       593 8.11418E+08 2.08608E+06 3.84535E+08-6.48612E-04-1.38806E-04-4.61888E+07
 -1       602 6.07759E+08-2.20815E+06-1.91737E+06-8.52261E-02 2.06247E-04 5.29576E+07
 -1       604 6.07759E+08-2.20815E+06-1.91737E+06-8.52261E-02 2.06247E-04 5.29576E+07
 -1       605 8.39299E+08 2.80190E+06 6.72710E+08-1.82566E-03 5.28037E-04 3.59727E+07
 -1       607 8.39299E+08 2.80190E+06 6.72710E+08-1.82566E-03 5.28037E-04 3.59727E+07
 -1       616 5.73367E+08-7.17767E+05-2.21087E+06-6.16479E-02-1.41458E-03 3.51364E+07
 -1       618 5.73367E+08-7.17767E+05-2.21087E+06-6.16479E-02-1.41458E-03 3.51364E+07
 -1       619 8.55665E+08 2.98370E+06 8.90168E+08-8.11179E-04-9.61009E-04 3.92129E+07
 -1       621 8.55665E+08 2.98370E+06 8.90168E+08-8.11179E-04-9.61009E-04 3.92129E+07
 -1       630 5.29106E+08-1.41476E+06-3.19247E+06-2.17263E-02-2.14428E-03 4.75219E+07
 -1       632 5.29106E+08-1.41476E+06-3.19247E+06-2.17263E-02-2.14428E-03 4.75219E+07
 -1       633 8.76141E+08 4.65062E+06 1.13297E+09-6.08786E-04-2.00322E-03 5.24531E+07
 -1       635 8.76141E+08 4.65062E+06 1.13297E+09-6.08786E-04-2.00322E-03 5.24531E+07
 -1       644 4.80147E+08-2.85968E+05-3.49906E+06 1.96053E-02-1.88982E-03 3.79443E+07
 -1       646 4.80147E+08-2.85968E+05-3.49906E+06 1.96053E-02-1.88982E-03 3.79443E+07
 -1       647 8.90752E+08 4.83465E+06 1.36040E+09 3.73050E-04-1.97079E-03 5.78922E+07
 -1       649 8.90752E+08 4.83465E+06 1.36040E+09 3.73050E-04-1.97079E-03 5.78922E+07
 -1       658 4.26897E+08-4.17705E+05-4.30456E+06 4.82184E-02-2.00419E-03 4.33460E+07
 -1       660 4.26897E+08-4.17705E+05-4.30456E+06 4.82184E-02-2.00419E-03 4.33460E+07
 -1       661 9.03474E+08 6.16682E+06 1.58632E+09 6.84519E-04-1.72181E-03 5.73956E+07
 -1       663 9.03474E+08 6.16682E+06 1.58632E+09 6.84519E-04-1.72181E-03 5.73956E+07
 -1       672 3.71108E+08-9.96141E+04-4.75273E+06 6.52226E-02-2.28214E-03 3.84600E+07
 -1       674 3.71108E+08-9.96141E+04-4.75273E+06 6.52226E-02-2.28214E-03 3.84600E+07
 -1       675 9.12514E+08 6.65196E+06 1.80725E+09 1.24798E-03-1.63683E-03 5.91162E+07
 -1       677 9.12514E+08 6.65196E+06 1.80725E+09 1.24798E-03-1.63683E-03 5.91162E+07
 -1       686 3.13024E+08-1.04569E+05-5.41087E+06 7.34646E-02-3.10487E-03 4.02071E+07
 -1       688 3.13024E+08-1.04569E+05-5.41087E+06 7.34646E-02-3.10487E-03 4.02071E+07
 -1       689 9.18541E+08 7.68784E+06 2.02267E+09 1.48582E-03-2.27040E-03 5.68318E+07
 -1       691 9.18541E+08 7.68784E+06 2.02267E+09 1.48582E-03-2.27040E-03 5.68318E+07
 -1       700 2.53573E+08 3.06195E+04-5.91750E+06 6.19099E-02-2.90984E-03 3.74147E+07
 -1       702 2.53573E+08 3.06195E+04-5.91750E+06 6.19099E-02-2.90984E-03 3.74147E+07
 -1       703 9.21598E+08 8.32705E+06 2.23323E+09 1.48071E-03-2.08287E-03 5.64846E+07
 -1       705 9.21598E+08 8.32705E+06 2.23323E+09 1.48071E-03-2.08287E-03 5.64846E+07
 -1       714 1.93054E+08 6.05383E+04-6.49140E+06 3.05626E-02-8.42929E-04 3.73968E+07
 -1       716 1.93054E+08 6.05383E+04-6.49140E+06 3.05626E-02-8.42929E-04 3.73968E+07
 -1       717 9.21953E+08 9.18811E+06 2.43727E+09 1.30585E-03-4.41961E-04 5.41890E+07
 -1       719 9.21953E+08 9.18811E+06 2.43727E+09 1.30585E-03-4.41961E-04 5.41890E+07
 -1       728 1.32120E+08 1.46260E+05-6.99697E+06 7.11323E-03 1.73962E-03 3.54057E+07
 -1       730 1.32120E+08 1.46260E+05-6.99697E+06 7.11323E-03 1.73962E-03 3.54057E+07
 -1       731 9.19921E+08 9.87048E+06 2.63514E+09 4.91795E-04 1.80208E-03 5.28163E+07
 -1       733 9.19921E+08 9.87048E+06 2.63514E+09 4.91795E-04 1.80208E-03 5.28163E+07
 -1       742 7.11554E+07 1.89948E+05-7.51788E+06 5.93520E-03 4.05318E-03 3.45147E+07
 -1       744 7.11554E+07 1.89948E+05-7.51788E+06 5.93520E-03 4.05318E-03 3.45147E+07
 -1       745 9.15772E+08 1.06199E+07 2.82563E+09 4.60410E-04 5.34524E-03 5.05242E+07
 -1       747 9.15772E+08 1.06199E+07 2.82563E+09 4.60410E-04 5.34524E-03 5.05242E+07
 -1       756 1.07101E+07 2.61586E+05-7.99037E+06-1.28446E-03 5.34889E-03 3.27525E+07
 -1       758 1.07101E+07 2.61586E+05-7.99037E+06-1.28446E-03 5.34889E-03 3.27525E+07
 -1       759 9.09838E+08 1.12877E+07 3.00864E+09 3.22354E-06 9.52464E-03 4.85698E+07
 -1       761 9.09838E+08 1.12877E+07 3.00864E+09 3.22354E-06 9.52464E-03 4.85698E+07
 -1       770-4.87963E+07 3.05722E+05-8.47061E+06-1.77683E-02 5.64486E-03 3.13894E+07
 -1       772-4.87963E+07 3.05722E+05-8.47061E+06-1.77683E-02 5.64486E-03 3.13894E+07
 -1       773 9.02417E+08 1.19500E+07 3.18334E+09-1.18367E-03 1.09615E-02 4.61496E+07
 -1       775 9.02417E+08 1.19500E+07 3.18334E+09-1.18367E-03 1.09615E-02 4.61496E+07
 -1       784-1.06859E+08 3.77039E+05-8.89090E+06-3.47817E-02 3.88286E-03 2.96196E+07
 -1       786-1.06859E+08 3.77039E+05-8.89090E+06-3.47817E-02 3.88286E-03 2.96196E+07
 -1       787 8.93820E+08 1.25731E+07 3.34943E+09-8.08588E-04 9.65130E-03 4.37963E+07
 -1       789 8.93820E+08 1.25731E+07 3.34943E+09-8.08588E-04 9.65130E-03 4.37963E+07
 -1       798-1.63066E+08 4.12200E+05-9.33605E+06-5.59947E-02 2.18350E-03 2.79666E+07
 -1       800-1.63066E+08 4.12200E+05-9.33605E+06-5.59947E-02 2.18350E-03 2.79666E+07
 -1       801 8.84358E+08 1.31560E+07 3.50629E+09-1.58369E-03 9.57788E-03 4.11588E+07
 -1       803 8.84358E+08 1.31560E+07 3.50629E+09-1.58369E-03 9.57788E-03 4.11588E+07
 -1       812-2.16930E+08 5.00236E+05-9.68889E+06-6.27132E-02 2.82013E-03 2.60998E+07
 -1       814-2.16930E+08 5.00236E+05-9.68889E+06-6.27132E-02 2.82013E-03 2.60998E+07
 -1       815 8.74294E+08 1.37159E+07 3.65358E+09-1.22414E-03 1.08215E-02 3.84342E+07
 -1       817 8.74294E+08 1.37159E+07 3.65358E+09-1.22414E-03 1.08215E-02 3.84342E+07
 -1       826-2.68071E+08 5.21513E+05-1.01044E+07-5.28374E-02 3.13842E-03 2.42480E+07
 -1       828-2.68071E+08 5.21513E+05-1.01044E+07-5.28374E-02 3.13842E-03 2.42480E+07
 -1       829 8.63941E+08 1.42216E+07 3.79085E+09-1.54810E-03 1.08419E-02 3.53965E+07
 -1       831 8.63941E+08 1.42216E+07 3.79085E+09-1.54810E-03 1.08419E-02 3.53965E+07
 -1       840-3.15948E+08 6.82345E+05-1.03740E+07-3.53726E-02 3.16095E-03 2.22573E+07
 -1       842-3.15948E+08 6.82345E+05-1.03740E+07-3.53726E-02 3.16095E-03 2.22573E+07
 -1       843 8.53447E+08 1.47032E+07 3.91782E+09-1.53551E-03 1.02591E-02 3.19524E+07
 -1       845 8.53447E+08 1.47032E+07 3.91782E+09-1.53551E-03 1.02591E-02 3.19524E+07
 -1       854-3.60166E+08 7.10419E+05-1.07679E+07-1.16301E-02 3.05784E-03 2.02636E+07
 -1       856-3.60166E+08 7.10419E+05-1.07679E+07-1.16301E-02 3.05784E-03 2.02636E+07
 -1       857 8.43090E+08 1.51337E+07 4.03435E+09-1.29920E-03 1.04388E-02 2.75865E+07
 -1       859 8.43090E+08 1.51337E+07 4.03435E+09-1.29920E-03 1.04388E-02 2.75865E+07
 -1       868-3.99836E+08 1.14645E+06-1.09377E+07 1.27534E-02 3.57789E-03 1.81440E+07
 -1       870-3.99836E+08 1.14645E+06-1.09377E+07 1.27534E-02 3.57789E-03 1.81440E+07
 -1       871 8.32677E+08 1.55229E+07 4.14044E+09-6.45882E-04 1.22064E-02 2.14062E+07
 -1       873 8.32677E+08 1.55229E+07 4.14044E+09-6.45882E-04 1.22064E-02 2.14062E+07
 -1       882-4.34201E+08 1.38111E+06-1.13160E+07 3.50511E-02 4.94093E-03 1.60614E+07
 -1       884-4.34201E+08 1.38111E+06-1.13160E+07 3.50511E-02 4.94093E-03 1.60614E+07
 -1       885 8.22237E+08 1.58774E+07 4.23668E+09-5.01628E-04 1.54534E-02 1.13728E+07
 -1       887 8.22237E+08 1.58774E+07 4.23668E+09-5.01628E-04 1.54534E-02 1.13728E+07
 -1       896-4.60866E+08 2.43966E+06-1.13783E+07 4.34777E-02 6.28597E-03 1.37947E+07
 -1       898-4.60866E+08 2.43966E+06-1.13783E+07 4.34777E-02 6.28597E-03 1.37947E+07
 -1       899 8.10785E+08 1.61686E+07 4.32390E+09 4.86365E-04 1.96830E-02-6.12175E+06
 -1       901 8.10785E+08 1.61686E+07 4.32390E+09 4.86365E-04 1.96830E-02-6.12175E+06
 -1       910-4.77015E+08 4.31302E+06-1.17306E+07 3.11575E-02 6.43402E-03 1.17009E+07
 -1       912-4.77015E+08 4.31302E+06-1.17306E+07 3.11575E-02 6.43402E-03 1.17009E+07
 -1       913 7.96571E+08 1.64352E+07 4.40382E+09 6.49070E-05 2.19639E-02-3.78459E+07
 -1       915 7.96571E+08 1.64352E+07 4.40382E+09 6.49070E-05 2.19639E-02-3.78459E+07
 -1       924-4.77405E+08 5.88966E+06-1.16720E+07 1.55680E-02 7.64006E-03 9.13560E+06
 -1       926-4.77405E+08 5.88966E+06-1.16720E+07 1.55680E-02 7.64006E-03 9.13560E+06
 -1       927 7.78379E+08 1.66182E+07 4.47668E+09 5.05911E-04 2.45875E-02-9.25136E+07
 -1       929 7.78379E+08 1.66182E+07 4.47668E+09 5.05911E-04 2.45875E-02-9.25136E+07
 -1       938-4.45917E+08 2.30464E+06-1.20330E+07 5.04977E-03 1.04154E-02 7.16257E+06
 -1       940-4.45917E+08 2.30464E+06-1.20330E+07 5.04977E-03 1.04154E-02 7.16257E+06
 -1       941 7.52146E+08 1.68714E+07 4.54000E+09 5.78454E-04 2.92967E-02-1.81421E+08
 -1       943 7.52146E+08 1.68714E+07 4.54000E+09 5.78454E-04 2.92967E-02-1.81421E+08
 -1       952-3.87920E+08 3.90176E+07-1.17842E+07-3.35474E-03 1.17605E-02 3.49979E+06
 -1       954-3.87920E+08 3.90176E+07-1.17842E+07-3.35474E-03 1.17605E-02 3.49979E+06
 -1       955 7.05973E+08 1.69576E+07 4.56821E+09 5.41360E-04 3.31092E-02-2.88943E+08
 -1       957 7.05973E+08 1.69576E+07 4.56821E+09 5.41360E-04 3.31092E-02-2.88943E+08
 -1       966-3.29962E+08-5.39666E+06-1.12996E+07-2.27494E-02 8.45605E-03 1.90653E+06
 -1       968-3.29962E+08-5.39666E+06-1.12996E+07-2.27494E-02 8.45605E-03 1.90653E+06
 -1       969 5.81183E+08 1.68869E+07 4.45490E+09 1.50995E-03 2.84137E-02-3.33602E+08
 -1       971 5.81183E+08 1.68869E+07 4.45490E+09 1.50995E-03 2.84137E-02-3.33602E+08
 -1       980 6.56329E+08 7.69041E+07 2.79135E+05-3.36520E+07 3.11446E+07-1.13173E+08
 -1       982 6.56329E+08 7.69041E+07 2.79135E+05-3.36520E+07 3.11446E+07-1.13173E+08
 -1       983-1.88545E+08-5.28465E+07-3.97056E+06-1.05693E+08 9.03813E+08 3.88517E+06
 -1       985-1.88545E+08-5.28465E+07-3.97056E+06-1.05693E+08 9.03813E+08 3.88517E+06
 -1       986 6.40798E+08 1.95074E+07-3.13008E+05 1.15121E+07 3.19826E+07-1.30058E+08
 -1       988 6.40798E+08 1.95074E+07-3.13008E+05 1.15121E+07 3.19826E+07-1.30058E+08
 -1       989 6.22012E+08-8.59591E+06 4.77354E+05-5.21022E+06 5.83401E+07-2.29132E+06
 -1       991 6.22012E+08-8.59591E+06 4.77354E+05-5.21022E+06 5.83401E+07-2.29132E+06
 -1       992 6.06151E+08 2.14540E+06 6.82649E+05 5.53950E+06 7.89392E+07-6.26331E+07
 -1       994 6.06151E+08 2.14540E+06 6.82649E+05 5.53950E+06 7.89392E+07-6.26331E+07
 -1       995 5.71344E+08-1.34938E+06 6.86083E+05 4.44322E+06 1.09416E+08-3.29809E+07
 -1       997 5.71344E+08-1.34938E+06 6.86083E+05 4.44322E+06 1.09416E+08-3.29809E+07
 -1       998 5.29226E+08 1.81076E+05 1.10539E+06 5.86499E+06 1.34160E+08-4.73401E+07
 -1      1000 5.29226E+08 1.81076E+05 1.10539E+06 5.86499E+06 1.34160E+08-4.73401E+07
 -1      1001 4.80995E+08-3.95113E+05 1.12002E+06 6.06303E+06 1.61729E+08-3.89222E+07
 -1      1003 4.80995E+08-3.95113E+05 1.12002E+06 6.06303E+06 1.61729E+08-3.89222E+07
 -1      1004 4.28539E+08 8.38901E+03 1.46138E+06 6.22161E+06 1.87754E+08-4.25704E+07
 -1      1006 4.28539E+08 8.38901E+03 1.46138E+06 6.22161E+06 1.87754E+08-4.25704E+07
 -1      1007 3.73060E+08-1.60991E+05 1.54343E+06 6.17216E+06 2.13358E+08-3.92418E+07
 -1      1009 3.73060E+08-1.60991E+05 1.54343E+06 6.17216E+06 2.13358E+08-3.92418E+07
 -1      1010 3.15433E+08-1.04361E+04 1.81870E+06 6.07722E+06 2.38928E+08-3.98094E+07
 -1      1012 3.15433E+08-1.04361E+04 1.81870E+06 6.07722E+06 2.38928E+08-3.98094E+07
 -1      1013 2.56223E+08-6.71591E+04 1.93490E+06 5.93173E+06 2.63111E+08-3.78471E+07
 -1      1015 2.56223E+08-6.71591E+04 1.93490E+06 5.93173E+06 2.63111E+08-3.78471E+07
 -1      1016 1.96037E+08 8.20005E+03 2.17033E+06 5.75938E+06 2.87401E+08-3.72616E+07
 -1      1018 1.96037E+08 8.20005E+03 2.17033E+06 5.75938E+06 2.87401E+08-3.72616E+07
 -1      1019 1.35341E+08-1.04980E+04 2.29571E+06 5.56707E+06 3.10163E+08-3.56438E+07
 -1      1021 1.35341E+08-1.04980E+04 2.29571E+06 5.56707E+06 3.10163E+08-3.56438E+07
 -1      1022 7.46578E+07 4.01922E+04 2.50640E+06 5.35557E+06 3.32758E+08-3.45025E+07
 -1      1024 7.46578E+07 4.01922E+04 2.50640E+06 5.35557E+06 3.32758E+08-3.45025E+07
 -1      1025 1.44429E+07 3.34172E+04 2.62592E+06 5.12897E+06 3.53886E+08-3.28983E+07
 -1      1027 1.44429E+07 3.34172E+04 2.62592E+06 5.12897E+06 3.53886E+08-3.28983E+07
 -1      1028-4.48115E+07 7.85086E+04 2.82014E+06 4.88588E+06 3.74524E+08-3.14263E+07
 -1      1030-4.48115E+07 7.85086E+04 2.82014E+06 4.88588E+06 3.74524E+08-3.14263E+07
 -1      1031-1.02661E+08 6.86030E+04 2.92338E+06 4.62936E+06 3.93756E+08-2.97207E+07
 -1      1033-1.02661E+08 6.86030E+04 2.92338E+06 4.62936E+06 3.93756E+08-2.97207E+07
 -1      1034-1.58634E+08 1.23634E+05 3.10707E+06 4.35462E+06 4.12226E+08-2.80189E+07
 -1      1036-1.58634E+08 1.23634E+05 3.10707E+06 4.35462E+06 4.12226E+08-2.80189E+07
 -1      1037-2.12304E+08 9.12082E+04 3.18482E+06 4.06706E+06 4.29309E+08-2.61764E+07
 -1      1039-2.12304E+08 9.12082E+04 3.18482E+06 4.06706E+06 4.29309E+08-2.61764E+07
 -1      1040-2.63193E+08 1.88883E+05 3.36403E+06 3.74506E+06 4.45425E+08-2.43000E+07
 -1      1042-2.63193E+08 1.88883E+05 3.36403E+06 3.74506E+06 4.45425E+08-2.43000E+07
 -1      1043-3.10852E+08 8.85669E+04 3.40673E+06 3.39949E+06 4.60136E+08-2.23160E+07
 -1      1045-3.10852E+08 8.85669E+04 3.40673E+06 3.39949E+06 4.60136E+08-2.23160E+07
 -1      1046-3.54653E+08 3.29531E+05 3.58799E+06 2.94044E+06 4.73727E+08-2.03036E+07
 -1      1048-3.54653E+08 3.29531E+05 3.58799E+06 2.94044E+06 4.73727E+08-2.03036E+07
 -1      1049-3.93859E+08 2.86327E+04 3.58694E+06 2.38717E+06 4.85875E+08-1.81857E+07
 -1      1051-3.93859E+08 2.86327E+04 3.58694E+06 2.38717E+06 4.85875E+08-1.81857E+07
 -1      1052-4.27011E+08 7.57293E+05 3.77223E+06 1.37005E+06 4.96778E+08-1.60662E+07
 -1      1054-4.27011E+08 7.57293E+05 3.77223E+06 1.37005E+06 4.96778E+08-1.60662E+07
 -1      1055-4.52224E+08-2.24130E+05 3.72993E+06 5.29909E+04 5.06206E+08-1.38417E+07
 -1      1057-4.52224E+08-2.24130E+05 3.72993E+06 5.29909E+04 5.06206E+08-1.38417E+07
 -1      1058-4.64774E+08 2.15603E+06 3.89490E+06-2.91548E+06 5.14249E+08-1.16007E+07
 -1      1060-4.64774E+08 2.15603E+06 3.89490E+06-2.91548E+06 5.14249E+08-1.16007E+07
 -1      1061-4.58632E+08-6.36136E+05 3.84998E+06-7.88342E+06 5.20848E+08-9.46924E+06
 -1      1063-4.58632E+08-6.36136E+05 3.84998E+06-7.88342E+06 5.20848E+08-9.46924E+06
 -1      1064-4.31539E+08 1.86121E+06 3.95054E+06-7.86607E+06 5.25894E+08-6.84093E+06
 -1      1066-4.31539E+08 1.86121E+06 3.95054E+06-7.86607E+06 5.25894E+08-6.84093E+06
 -1      1067-3.57061E+08 8.93031E+06 3.86300E+06-3.47279E+07 5.29723E+08-6.08692E+06
 -1      1069-3.57061E+08 8.93031E+06 3.86300E+06-3.47279E+07 5.29723E+08-6.08692E+06
 -1      1070-1.87507E+08-4.29626E+06 3.74938E+06-4.81952E+07 5.32155E+08-1.42572E+06
 -1      1072-1.87507E+08-4.29626E+06 3.74938E+06-4.81952E+07 5.32155E+08-1.42572E+06
 -1      1073 6.56329E+08 7.69041E+07 2.79135E+05 3.36520E+07-3.11446E+07-1.13173E+08
 -1      1075 6.56329E+08 7.69041E+07 2.79135E+05 3.36520E+07-3.11446E+07-1.13173E+08
 -1      1076 8.33018E+08 3.79490E+04 1.10987E+08-7.21684E-03-2.10863E-04 1.13365E+08
 -1      1078 8.33018E+08 3.79490E+04 1.10987E+08-7.21684E-03-2.10863E-04 1.13365E+08
 -1      1079 9.16290E+08 2.89178E+05 1.81268E+08-4.74213E-03-2.45544E-04 5.34953E-02
 -1      1081 9.16290E+08 2.89178E+05 1.81268E+08-4.74213E-03-2.45544E-04 5.34953E-02
 -1      1082 8.33018E+08 3.79490E+04 1.10987E+08-1.97070E-04-3.55345E-04-1.13365E+08
 -1      1084 8.33018E+08 3.79490E+04 1.10987E+08-1.97070E-04-3.55345E-04-1.13365E+08
 -1      1085 7.68176E+08-1.10653E+06 1.13128E+08 1.30276E-03-2.55227E-03-2.81668E+07
 -1      1087 7.68176E+08-1.10653E+06 1.13128E+08 1.30276E-03-2.55227E-03-2.81668E+07
 -1      1088 6.49254E+08 3.55511E+07 2.82419E+05 5.03154E-02-6.32748E-04-5.40603E+07
 -1      1090 6.49254E+08 3.55511E+07 2.82419E+05 5.03154E-02-6.32748E-04-5.40603E+07
 -1      1099 8.11418E+08 2.08608E+06 3.84535E+08 1.06962E-03-8.17765E-03 4.61888E+07
 -1      1101 8.11418E+08 2.08608E+06 3.84535E+08 1.06962E-03-8.17765E-03 4.61888E+07
 -1      1102 6.32909E+08-1.19598E+07-1.37559E+06 4.57138E-02-5.53668E-03-3.17916E+07
 -1      1104 6.32909E+08-1.19598E+07-1.37559E+06 4.57138E-02-5.53668E-03-3.17916E+07
 -1      1113 8.39299E+08 2.80190E+06 6.72710E+08 1.37380E-03-1.12406E-02-3.59727E+07
 -1      1115 8.39299E+08 2.80190E+06 6.72710E+08 1.37380E-03-1.12406E-02-3.59727E+07
 -1      1116 6.07759E+08-2.20815E+06-1.91737E+06 3.12875E-02-7.40635E-03-5.29576E+07
 -1      1118 6.07759E+08-2.20815E+06-1.91737E+06 3.12875E-02-7.40635E-03-5.29576E+07
 -1      1127 8.55665E+08 2.98370E+06 8.90168E+08 4.24051E-04-1.00698E-02-3.92129E+07
 -1      1129 8.55665E+08 2.98370E+06 8.90168E+08 4.24051E-04-1.00698E-02-3.92129E+07
 -1      1130 5.73367E+08-7.17767E+05-2.21087E+06 1.01266E-02-6.97535E-03-3.51364E+07
 -1      1132 5.73367E+08-7.17767E+05-2.21087E+06 1.01266E-02-6.97535E-03-3.51364E+07
 -1      1141 8.76141E+08 4.65062E+06 1.13297E+09 2.11781E-04-7.24020E-03-5.24531E+07
 -1      1143 8.76141E+08 4.65062E+06 1.13297E+09 2.11781E-04-7.24020E-03-5.24531E+07
 -1      1144 5.29106E+08-1.41476E+06-3.19247E+06-3.28135E-03-5.25476E-03-4.75219E+07
 -1      1146 5.29106E+08-1.41476E+06-3.19247E+06-3.28135E-03-5.25476E-03-4.75219E+07
 -1      1155 8.90752E+08 4.83465E+06 1.36040E+09-3.91543E-04-5.33124E-03-5.78922E+07
 -1      1157 8.90752E+08 4.83465E+06 1.36040E+09-3.91543E-04-5.33124E-03-5.78922E+07
 -1      1158 4.80147E+08-2.85968E+05-3.49906E+06-9.81145E-03-3.88727E-03-3.79443E+07
 -1      1160 4.80147E+08-2.85968E+05-3.49906E+06-9.81145E-03-3.88727E-03-3.79443E+07
 -1      1169 9.03474E+08 6.16682E+06 1.58632E+09-9.49470E-04-4.23941E-03-5.73956E+07
 -1      1171 9.03474E+08 6.16682E+06 1.58632E+09-9.49470E-04-4.23941E-03-5.73956E+07
 -1      1172 4.26897E+08-4.17705E+05-4.30456E+06-1.34376E-02-2.84258E-03-4.33460E+07
 -1      1174 4.26897E+08-4.17705E+05-4.30456E+06-1.34376E-02-2.84258E-03-4.33460E+07
 -1      1183 9.12514E+08 6.65196E+06 1.80725E+09-9.48070E-04-4.09019E-03-5.91162E+07
 -1      1185 9.12514E+08 6.65196E+06 1.80725E+09-9.48070E-04-4.09019E-03-5.91162E+07
 -1      1186 3.71108E+08-9.96142E+04-4.75273E+06-9.97875E-03-2.67002E-03-3.84600E+07
 -1      1188 3.71108E+08-9.96142E+04-4.75273E+06-9.97875E-03-2.67002E-03-3.84600E+07
 -1      1197 9.18541E+08 7.68784E+06 2.02267E+09-1.18171E-03-4.15900E-03-5.68318E+07
 -1      1199 9.18541E+08 7.68784E+06 2.02267E+09-1.18171E-03-4.15900E-03-5.68318E+07
 -1      1200 3.13024E+08-1.04569E+05-5.41087E+06-1.15310E-02-2.75743E-03-4.02071E+07
 -1      1202 3.13024E+08-1.04569E+05-5.41087E+06-1.15310E-02-2.75743E-03-4.02071E+07
 -1      1211 9.21598E+08 8.32705E+06 2.23323E+09-1.22803E-03-4.44250E-03-5.64846E+07
 -1      1213 9.21598E+08 8.32705E+06 2.23323E+09-1.22803E-03-4.44250E-03-5.64846E+07
 -1      1214 2.53573E+08 3.06195E+04-5.91750E+06-2.43668E-02-1.84503E-03-3.74147E+07
 -1      1216 2.53573E+08 3.06195E+04-5.91750E+06-2.43668E-02-1.84503E-03-3.74147E+07
 -1      1225 9.21953E+08 9.18811E+06 2.43727E+09-1.26311E-03-3.51506E-03-5.41890E+07
 -1      1227 9.21953E+08 9.18811E+06 2.43727E+09-1.26311E-03-3.51506E-03-5.41890E+07
 -1      1228 1.93054E+08 6.05383E+04-6.49140E+06-4.38477E-02-6.76990E-04-3.73968E+07
 -1      1230 1.93054E+08 6.05383E+04-6.49140E+06-4.38477E-02-6.76990E-04-3.73968E+07
 -1      1239 9.19921E+08 9.87048E+06 2.63514E+09-1.47153E-03 3.77999E-04-5.28163E+07
 -1      1241 9.19921E+08 9.87048E+06 2.63514E+09-1.47153E-03 3.77999E-04-5.28163E+07
 -1      1242 1.32120E+08 1.46260E+05-6.99697E+06-3.58421E-02 1.90103E-03-3.54057E+07
 -1      1244 1.32120E+08 1.46260E+05-6.99697E+06-3.58421E-02 1.90103E-03-3.54057E+07
 -1      1253 9.15772E+08 1.06199E+07 2.82563E+09-1.39271E-04-5.86355E-04-5.05242E+07
 -1      1255 9.15772E+08 1.06199E+07 2.82563E+09-1.39271E-04-5.86355E-04-5.05242E+07
 -1      1256 7.11554E+07 1.89948E+05-7.51788E+06-2.18352E-04 2.11176E-03-3.45147E+07
 -1      1258 7.11554E+07 1.89948E+05-7.51788E+06-2.18352E-04 2.11176E-03-3.45147E+07
 -1      1267 9.09838E+08 1.12877E+07 3.00864E+09 1.88632E-05-5.44200E-03-4.85698E+07
 -1      1269 9.09838E+08 1.12877E+07 3.00864E+09 1.88632E-05-5.44200E-03-4.85698E+07
 -1      1270 1.07101E+07 2.61586E+05-7.99037E+06 1.03614E-02 4.30405E-04-3.27525E+07
 -1      1272 1.07101E+07 2.61586E+05-7.99037E+06 1.03614E-02 4.30405E-04-3.27525E+07
 -1      1281 9.02417E+08 1.19500E+07 3.18334E+09 2.75951E-04-9.06795E-03-4.61496E+07
 -1      1283 9.02417E+08 1.19500E+07 3.18334E+09 2.75951E-04-9.06795E-03-4.61496E+07
 -1      1284-4.87963E+07 3.05722E+05-8.47061E+06-2.17520E-04-1.62756E-03-3.13894E+07
 -1      1286-4.87963E+07 3.05722E+05-8.47061E+06-2.17520E-04-1.62756E-03-3.13894E+07
 -1      1295 8.93820E+08 1.25731E+07 3.34943E+09 1.05806E-03-1.27011E-02-4.37963E+07
 -1      1297 8.93820E+08 1.25731E+07 3.34943E+09 1.05806E-03-1.27011E-02-4.37963E+07
 -1      1298-1.06859E+08 3.77039E+05-8.89090E+06-3.19535E-03-5.05745E-03-2.96196E+07
 -1      1300-1.06859E+08 3.77039E+05-8.89090E+06-3.19535E-03-5.05745E-03-2.96196E+07
 -1      1309 8.84358E+08 1.31560E+07 3.50629E+09 1.02363E-03-1.59923E-02-4.11588E+07
 -1      1311 8.84358E+08 1.31560E+07 3.50629E+09 1.02363E-03-1.59923E-02-4.11588E+07
 -1      1312-1.63066E+08 4.12200E+05-9.33605E+06 4.27100E-03-8.21847E-03-2.79666E+07
 -1      1314-1.63066E+08 4.12200E+05-9.33605E+06 4.27100E-03-8.21847E-03-2.79666E+07
 -1      1323 8.74294E+08 1.37159E+07 3.65358E+09 1.36967E-03-1.95249E-02-3.84342E+07
 -1      1325 8.74294E+08 1.37159E+07 3.65358E+09 1.36967E-03-1.95249E-02-3.84342E+07
 -1      1326-2.16930E+08 5.00236E+05-9.68889E+06 1.84363E-02-1.18366E-02-2.60998E+07
 -1      1328-2.16930E+08 5.00236E+05-9.68889E+06 1.84363E-02-1.18366E-02-2.60998E+07
 -1      1337 8.63941E+08 1.42216E+07 3.79085E+09 8.17380E-04-2.00327E-02-3.53965E+07
 -1      1339 8.63941E+08 1.42216E+07 3.79085E+09 8.17380E-04-2.00327E-02-3.53965E+07
 -1      1340-2.68071E+08 5.21513E+05-1.01044E+07 3.39592E-02-1.23613E-02-2.42480E+07
 -1      1342-2.68071E+08 5.21513E+05-1.01044E+07 3.39592E-02-1.23613E-02-2.42480E+07
 -1      1351 8.53447E+08 1.47032E+07 3.91782E+09 5.20456E-04-1.64908E-02-3.19524E+07
 -1      1353 8.53447E+08 1.47032E+07 3.91782E+09 5.20456E-04-1.64908E-02-3.19524E+07
 -1      1354-3.15948E+08 6.82345E+05-1.03740E+07 4.82395E-02-1.06083E-02-2.22573E+07
 -1      1356-3.15948E+08 6.82345E+05-1.03740E+07 4.82395E-02-1.06083E-02-2.22573E+07
 -1      1365 8.43090E+08 1.51337E+07 4.03435E+09 2.52412E-04-1.41502E-02-2.75865E+07
 -1      1367 8.43090E+08 1.51337E+07 4.03435E+09 2.52412E-04-1.41502E-02-2.75865E+07
 -1      1368-3.60166E+08 7.10419E+05-1.07679E+07 4.56894E-02-9.50962E-03-2.02636E+07
 -1      1370-3.60166E+08 7.10419E+05-1.07679E+07 4.56894E-02-9.50962E-03-2.02636E+07
 -1      1379 8.32677E+08 1.55229E+07 4.14044E+09-7.59594E-04-1.31948E-02-2.14062E+07
 -1      1381 8.32677E+08 1.55229E+07 4.14044E+09-7.59594E-04-1.31948E-02-2.14062E+07
 -1      1382-3.99836E+08 1.14645E+06-1.09377E+07 2.74871E-02-8.52334E-03-1.81440E+07
 -1      1384-3.99836E+08 1.14645E+06-1.09377E+07 2.74871E-02-8.52334E-03-1.81440E+07
 -1      1393 8.22237E+08 1.58774E+07 4.23668E+09-1.07967E-03-1.34863E-02-1.13728E+07
 -1      1395 8.22237E+08 1.58774E+07 4.23668E+09-1.07967E-03-1.34863E-02-1.13728E+07
 -1      1396-4.34201E+08 1.38111E+06-1.13160E+07 2.00649E-02-9.02545E-03-1.60614E+07
 -1      1398-4.34201E+08 1.38111E+06-1.13160E+07 2.00649E-02-9.02545E-03-1.60614E+07
 -1      1407 8.10785E+08 1.61686E+07 4.32390E+09-1.43879E-03-1.35986E-02 6.12175E+06
 -1      1409 8.10785E+08 1.61686E+07 4.32390E+09-1.43879E-03-1.35986E-02 6.12175E+06
 -1      1410-4.60866E+08 2.43966E+06-1.13783E+07 1.63848E-02-8.41123E-03-1.37947E+07
 -1      1412-4.60866E+08 2.43966E+06-1.13783E+07 1.63848E-02-8.41123E-03-1.37947E+07
 -1      1421 7.96571E+08 1.64352E+07 4.40382E+09-1.66254E-03-1.00361E-02 3.78459E+07
 -1      1423 7.96571E+08 1.64352E+07 4.40382E+09-1.66254E-03-1.00361E-02 3.78459E+07
 -1      1424-4.77015E+08 4.31302E+06-1.17306E+07-5.55334E-03-4.86022E-03-1.17009E+07
 -1      1426-4.77015E+08 4.31302E+06-1.17306E+07-5.55334E-03-4.86022E-03-1.17009E+07
 -1      1435 7.78379E+08 1.66182E+07 4.47668E+09-2.21846E-03-5.44953E-03 9.25136E+07
 -1      1437 7.78379E+08 1.66182E+07 4.47668E+09-2.21846E-03-5.44953E-03 9.25136E+07
 -1      1438-4.77405E+08 5.88966E+06-1.16720E+07-3.49227E-02-1.27333E-03-9.13560E+06
 -1      1440-4.77405E+08 5.88966E+06-1.16720E+07-3.49227E-02-1.27333E-03-9.13560E+06
 -1      1449 7.52146E+08 1.68714E+07 4.54000E+09-1.77913E-03-4.76819E-03 1.81421E+08
 -1      1451 7.52146E+08 1.68714E+07 4.54000E+09-1.77913E-03-4.76819E-03 1.81421E+08
 -1      1452-4.45917E+08 2.30464E+06-1.20330E+07-4.97920E-02-1.04475E-03-7.16257E+06
 -1      1454-4.45917E+08 2.30464E+06-1.20330E+07-4.97920E-02-1.04475E-03-7.16257E+06
 -1      1463 7.05973E+08 1.69576E+07 4.56821E+09-1.99250E-03-2.46889E-03 2.88943E+08
 -1      1465 7.05973E+08 1.69576E+07 4.56821E+09-1.99250E-03-2.46889E-03 2.88943E+08
 -1      1466-3.87920E+08 3.90176E+07-1.17842E+07-4.43513E-02 2.33054E-04-3.49979E+06
 -1      1468-3.87920E+08 3.90176E+07-1.17842E+07-4.43513E-02 2.33054E-04-3.49979E+06
 -1      1477 5.81183E+08 1.68869E+07 4.45490E+09-1.48210E-03-4.61139E-04 3.33602E+08
 -1      1479 5.81183E+08 1.68869E+07 4.45490E+09-1.48210E-03-4.61139E-04 3.33602E+08
 -1      1480-3.29962E+08-5.39666E+06-1.12996E+07-1.34614E-02 1.51998E-03-1.90653E+06
 -1      1482-3.29962E+08-5.39666E+06-1.12996E+07-1.34614E-02 1.51998E-03-1.90653E+06
 -1      1491 2.67494E+08 4.94328E+06 4.24308E+09-1.91608E-03 1.03631E-02-1.85682E+08
 -1      1493 2.67494E+08 4.94328E+06 4.24308E+09-1.91608E-03 1.03631E-02-1.85682E+08
 -1      1494 4.83005E+07-6.80608E+06 4.14385E+09-1.55104E-03-7.78338E-03 7.22391E-03
 -1      1496 4.83005E+07-6.80608E+06 4.14385E+09-1.55104E-03-7.78338E-03 7.22391E-03
 -1      1497 2.67494E+08 4.94328E+06 4.24308E+09 1.04237E-04-8.17567E-03 1.85682E+08
 -1      1499 2.67494E+08 4.94328E+06 4.24308E+09 1.04237E-04-8.17567E-03 1.85682E+08
 -1      1500 6.40798E+08 1.95074E+07-3.13008E+05 1.15121E+07-3.19826E+07 1.30058E+08
 -1      1502 6.40798E+08 1.95074E+07-3.13008E+05 1.15121E+07-3.19826E+07 1.30058E+08
 -1      1503 6.22012E+08-8.59591E+06 4.77354E+05-5.21021E+06-5.83401E+07 2.29132E+06
 -1      1505 6.22012E+08-8.59591E+06 4.77354E+05-5.21021E+06-5.83401E+07 2.29132E+06
 -1      1506 6.06151E+08 2.14540E+06 6.82649E+05 5.53950E+06-7.89392E+07 6.26331E+07
 -1      1508 6.06151E+08 2.14540E+06 6.82649E+05 5.53950E+06-7.89392E+07 6.26331E+07
 -1      1509 5.71344E+08-1.34938E+06 6.86083E+05 4.44322E+06-1.09416E+08 3.29809E+07
 -1      1511 5.71344E+08-1.34938E+06 6.86083E+05 4.44322E+06-1.09416E+08 3.29809E+07
 -1      1512 5.29226E+08 1.81076E+05 1.10539E+06 5.86499E+06-1.34160E+08 4.73401E+07
 -1      1514 5.29226E+08 1.81076E+05 1.10539E+06 5.86499E+06-1.34160E+08 4.73401E+07
 -1      1515 4.80995E+08-3.95113E+05 1.12002E+06 6.06303E+06-1.61729E+08 3.89222E+07
 -1      1517 4.80995E+08-3.95113E+05 1.12002E+06 6.06303E+06-1.61729E+08 3.89222E+07
 -1      1518 4.28539E+08 8.38900E+03 1.46138E+06 6.22161E+06-1.87754E+08 4.25704E+07
 -1      1520 4.28539E+08 8.38900E+03 1.46138E+06 6.22161E+06-1.87754E+08 4.25704E+07
 -1      1521 3.73060E+08-1.60991E+05 1.54343E+06 6.17216E+06-2.13358E+08 3.92418E+07
 -1      1523 3.73060E+08-1.60991E+05 1.54343E+06 6.17216E+06-2.13358E+08 3.92418E+07
 -1      1524 3.15433E+08-1.04361E+04 1.81870E+06 6.07722E+06-2.38928E+08 3.98094E+07
 -1      1526 3.15433E+08-1.04361E+04 1.81870E+06 6.07722E+06-2.38928E+08 3.98094E+07
 -1      1527 2.56223E+08-6.71591E+04 1.93490E+06 5.93173E+06-2.63111E+08 3.78471E+07
 -1      1529 2.56223E+08-6.71591E+04 1.93490E+06 5.93173E+06-2.63111E+08 3.78471E+07
 -1      1530 1.96037E+08 8.20005E+03 2.17033E+06 5.75938E+06-2.87401E+08 3.72616E+07
 -1      1532 1.96037E+08 8.20005E+03 2.17033E+06 5.75938E+06-2.87401E+08 3.72616E+07
 -1      1533 1.35341E+08-1.04980E+04 2.29571E+06 5.56707E+06-3.10163E+08 3.56438E+07
 -1      1535 1.35341E+08-1.04980E+04 2.29571E+06 5.56707E+06-3.10163E+08 3.56438E+07
 -1      1536 7.46578E+07 4.01922E+04 2.50640E+06 5.35557E+06-3.32758E+08 3.45025E+07
 -1      1538 7.46578E+07 4.01922E+04 2.50640E+06 5.35557E+06-3.32758E+08 3.45025E+07
 -1      1539 1.44429E+07 3.34172E+04 2.62592E+06 5.12897E+06-3.53886E+08 3.28983E+07
 -1      1541 1.44429E+07 3.34172E+04 2.62592E+06 5.12897E+06-3.53886E+08 3.28983E+07
 -1      1542-4.48115E+07 7.85086E+04 2.82014E+06 4.88588E+06-3.74524E+08 3.14263E+07
 -1      1544-4.48115E+07 7.85086E+04 2.82014E+06 4.88588E+06-3.74524E+08 3.14263E+07
 -1      1545-1.02661E+08 6.86030E+04 2.92338E+06 4.62936E+06-3.93756E+08 2.97207E+07
 -1      1547-1.02661E+08 6.86030E+04 2.92338E+06 4.62936E+06-3.93756E+08 2.97207E+07
 -1      1548-1.58634E+08 1.23634E+05 3.10707E+06 4.35462E+06-4.12226E+08 2.80189E+07
 -1      1550-1.58634E+08 1.23634E+05 3.10707E+06 4.35462E+06-4.12226E+08 2.80189E+07
 -1      1551-2.12304E+08 9.12082E+04 3.18482E+06 4.06706E+06-4.29309E+08 2.61764E+07
 -1      1553-2.12304E+08 9.12082E+04 3.18482E+06 4.06706E+06-4.29309E+08 2.61764E+07
 -1      1554-2.63193E+08 1.88883E+05 3.36403E+06 3.74506E+06-4.45425E+08 2.43000E+07
 -1      1556-2.63193E+08 1.88883E+05 3.36403E+06 3.74506E+06-4.45425E+08 2.43000E+07
 -1      1557-3.10852E+08 8.85669E+04 3.40673E+06 3.39949E+06-4.60136E+08 2.23160E+07
 -1      1559-3.10852E+08 8.85669E+04 3.40673E+06 3.39949E+06-4.60136E+08 2.23160E+07
 -1      1560-3.54653E+08 3.29531E+05 3.58799E+06 2.94044E+06-4.73727E+08 2.03036E+07
 -1      1562-3.54653E+08 3.29531E+05 3.58799E+06 2.94044E+06-4.73727E+08 2.03036E+07
 -1      1563-3.93859E+08 2.86327E+04 3.58694E+06 2.38717E+06-4.85875E+08 1.81857E+07
 -1      1565-3.93859E+08 2.86327E+04 3.58694E+06 2.38717E+06-4.85875E+08 1.81857E+07
 -1      1566-4.27011E+08 7.57293E+05 3.77223E+06 1.37005E+06-4.96778E+08 1.60662E+07
 -1      1568-4.27011E+08 7.57293E+05 3.77223E+06 1.37005E+06-4.96778E+08 1.60662E+07
 -1      1569-4.52224E+08-2.24130E+05 3.72993E+06 5.29909E+04-5.06206E+08 1.38417E+07
 -1      1571-4.52224E+08-2.24130E+05 3.72993E+06 5.29909E+04-5.06206E+08 1.38417E+07
 -1      1572-4.64774E+08 2.15603E+06 3.89490E+06-2.91548E+06-5.14249E+08 1.16007E+07
 -1      1574-4.64774E+08 2.15603E+06 3.89490E+06-2.91548E+06-5.14249E+08 1.16007E+07
 -1      1575-4.58632E+08-6.36136E+05 3.84998E+06-7.88342E+06-5.20848E+08 9.46924E+06
 -1      1577-4.58632E+08-6.36136E+05 3.84998E+06-7.88342E+06-5.20848E+08 9.46924E+06
 -1      1578-4.31539E+08 1.86121E+06 3.95054E+06-7.86607E+06-5.25894E+08 6.84093E+06
 -1      1580-4.31539E+08 1.86121E+06 3.95054E+06-7.86607E+06-5.25894E+08 6.84093E+06
 -1      1581-3.57061E+08 8.93031E+06 3.86300E+06-3.47279E+07-5.29723E+08 6.08692E+06
 -1      1583-3.57061E+08 8.93031E+06 3.86300E+06-3.47279E+07-5.29723E+08 6.08692E+06
 -1      1584-1.87507E+08-4.29626E+06 3.74938E+06-4.81952E+07-5.32155E+08 1.42572E+06
 -1      1586-1.87507E+08-4.29626E+06 3.74938E+06-4.81952E+07-5.32155E+08 1.42572E+06
 -1      1587-1.88545E+08-5.28465E+07-3.97056E+06-1.05693E+08-9.03813E+08-3.88517E+06
 -1      1589-1.88545E+08-5.28465E+07-3.97056E+06-1.05693E+08-9.03813E+08-3.88517E+06
 -1      1590 6.56329E+08 7.69041E+07 2.79135E+05 3.36520E+07 3.11446E+07 1.13173E+08
 -1      1592 6.56329E+08 7.69041E+07 2.79135E+05 3.36520E+07 3.11446E+07 1.13173E+08
 -1      1593-1.88545E+08-5.28465E+07-3.97056E+06 1.05693E+08 9.03813E+08-3.88517E+06
 -1      1595-1.88545E+08-5.28465E+07-3.97056E+06 1.05693E+08 9.03813E+08-3.88517E+06
 -1      1596 6.40798E+08 1.95074E+07-3.13008E+05-1.15121E+07 3.19826E+07 1.30058E+08
 -1      1598 6.40798E+08 1.95074E+07-3.13008E+05-1.15121E+07 3.19826E+07 1.30058E+08
 -1      1599 6.22012E+08-8.59591E+06 4.77354E+05 5.21021E+06 5.83401E+07 2.29132E+06
 -1      1601 6.22012E+08-8.59591E+06 4.77354E+05 5.21021E+06 5.83401E+07 2.29132E+06
 -1      1602 6.06151E+08 2.14540E+06 6.82649E+05-5.53950E+06 7.89392E+07 6.26331E+07
 -1      1604 6.06151E+08 2.14540E+06 6.82649E+05-5.53950E+06 7.89392E+07 6.26331E+07
 -1      1605 5.71344E+08-1.34938E+06 6.86083E+05-4.44322E+06 1.09416E+08 3.29809E+07
 -1      1607 5.71344E+08-1.34938E+06 6.86083E+05-4.44322E+06 1.09416E+08 3.29809E+07
 -1      1608 5.29226E+08 1.81076E+05 1.10539E+06-5.86499E+06 1.34160E+08 4.73401E+07
 -1      1610 5.29226E+08 1.81076E+05 1.10539E+06-5.86499E+06 1.34160E+08 4.73401E+07
 -1      1611 4.80995E+08-3.95113E+05 1.12002E+06-6.06303E+06 1.61729E+08 3.89222E+07
 -1      1613 4.80995E+08-3.95113E+05 1.12002E+06-6.06303E+06 1.61729E+08 3.89222E+07
 -1      1614 4.28539E+08 8.38901E+03 1.46138E+06-6.22161E+06 1.87754E+08 4.25704E+07
 -1      1616 4.28539E+08 8.38901E+03 1.46138E+06-6.22161E+06 1.87754E+08 4.25704E+07
 -1      1617 3.73060E+08-1.60991E+05 1.54343E+06-6.17216E+06 2.13358E+08 3.92418E+07
 -1      1619 3.73060E+08-1.60991E+05 1.54343E+06-6.17216E+06 2.13358E+08 3.92418E+07
 -1      1620 3.15433E+08-1.04361E+04 1.81870E+06-6.07722E+06 2.38928E+08 3.98094E+07
 -1      1622 3.15433E+08-1.04361E+04 1.81870E+06-6.07722E+06 2.38928E+08 3.98094E+07
 -1      1623 2.56223E+08-6.71591E+04 1.93490E+06-5.93173E+06 2.63111E+08 3.78471E+07
 -1      1625 2.56223E+08-6.71591E+04 1.93490E+06-5.93173E+06 2.63111E+08 3.78471E+07
 -1      1626 1.96037E+08 8.20005E+03 2.17033E+06-5.75938E+06 2.87401E+08 3.72616E+07
 -1      1628 1.96037E+08 8.20005E+03 2.17033E+06-5.75938E+06 2.87401E+08 3.72616E+07
 -1      1629 1.35341E+08-1.04980E+04 2.29571E+06-5.56707E+06 3.10163E+08 3.56438E+07
 -1      1631 1.35341E+08-1.04980E+04 2.29571E+06-5.56707E+06 3.10163E+08 3.56438E+07
 -1      1632 7.46578E+07 4.01922E+04 2.50640E+06-5.35557E+06 3.32758E+08 3.45025E+07
 -1      1634 7.46578E+07 4.01922E+04 2.50640E+06-5.35557E+06 3.32758E+08 3.45025E+07
 -1      1635 1.44429E+07 3.34172E+04 2.62592E+06-5.12897E+06 3.53886E+08 3.28983E+07
 -1      1637 1.44429E+07 3.34172E+04 2.62592E+06-5.12897E+06 3.53886E+08 3.28983E+07
 -1      1638-4.48115E+07 7.85086E+04 2.82014E+06-4.88588E+06 3.74524E+08 3.14263E+07
 -1      1640-4.48115E+07 7.85086E+04 2.82014E+06-4.88588E+06 3.74524E+08 3.14263E+07
 -1      1641-1.02661E+08 6.86030E+04 2.92338E+06-4.62936E+06 3.93756E+08 2.97207E+07
 -1      1643-1.02661E+08 6.86030E+04 2.92338E+06-4.62936E+06 3.93756E+08 2.97207E+07
 -1      1644-1.58634E+08 1.23634E+05 3.10707E+06-4.35462E+06 4.12226E+08 2.80189E+07
 -1      1646-1.58634E+08 1.23634E+05 3.10707E+06-4.35462E+06 4.12226E+08 2.80189E+07
 -1      1647-2.12304E+08 9.12082E+04 3.18482E+06-4.06706E+06 4.29309E+08 2.61764E+07
 -1      1649-2.12304E+08 9.12082E+04 3.18482E+06-4.06706E+06 4.29309E+08 2.61764E+07
 -1      1650-2.63193E+08 1.88883E+05 3.36403E+06-3.74506E+06 4.45425E+08 2.43000E+07
 -1      1652-2.63193E+08 1.88883E+05 3.36403E+06-3.74506E+06 4.45425E+08 2.43000E+07
 -1      1653-3.10852E+08 8.85669E+04 3.40673E+06-3.39949E+06 4.60136E+08 2.23160E+07
 -1      1655-3.10852E+08 8.85669E+04 3.40673E+06-3.39949E+06 4.60136E+08 2.23160E+07
 -1      1656-3.54653E+08 3.29531E+05 3.58799E+06-2.94044E+06 4.73727E+08 2.03036E+07
 -1      1658-3.54653E+08 3.29531E+05 3.58799E+06-2.94044E+06 4.73727E+08 2.03036E+07
 -1      1659-3.93859E+08 2.86327E+04 3.58694E+06-2.38717E+06 4.85875E+08 1.81857E+07
 -1      1661-3.93859E+08 2.86327E+04 3.58694E+06-2.38717E+06 4.85875E+08 1.81857E+07
 -1      1662-4.27011E+08 7.57293E+05 3.77223E+06-1.37005E+06 4.96778E+08 1.60662E+07
 -1      1664-4.27011E+08 7.57293E+05 3.77223E+06-1.37005E+06 4.96778E+08 1.60662E+07
 -1      1665-4.52224E+08-2.24130E+05 3.72993E+06-5.29909E+04 5.06206E+08 1.38417E+07
 -1      1667-4.52224E+08-2.24130E+05 3.72993E+06-5.29909E+04 5.06206E+08 1.38417E+07
 -1      1668-4.64774E+08 2.15603E+06 3.89490E+06 2.91548E+06 5.14249E+08 1.16007E+07
 -1      1670-4.64774E+08 2.15603E+06 3.89490E+06 2.91548E+06 5.14249E+08 1.16007E+07
 -1      1671-4.58632E+08-6.36136E+05 3.84998E+06 7.88342E+06 5.20848E+08 9.46924E+06
 -1      1673-4.58632E+08-6.36136E+05 3.84998E+06 7.88342E+06 5.20848E+08 9.46924E+06
 -1      1674-4.31539E+08 1.86121E+06 3.95054E+06 7.86607E+06 5.25894E+08 6.84093E+06
 -1      1676-4.31539E+08 1.86121E+06 3.95054E+06 7.86607E+06 5.25894E+08 6.84093E+06
 -1      1677-3.57061E+08 8.93031E+06 3.86300E+06 3.47279E+07 5.29723E+08 6.08692E+06
 -1      1679-3.57061E+08 8.93031E+06 3.86300E+06 3.47279E+07 5.29723E+08 6.08692E+06
 -1      1680-1.87507E+08-4.29626E+06 3.74938E+06 4.81952E+07 5.32155E+08 1.42572E+06
 -1      1682-1.87507E+08-4.29626E+06 3.74938E+06 4.81952E+07 5.32155E+08 1.42572E+06
 -1      1683 6.56329E+08 7.69041E+07 2.79135E+05-3.36520E+07-3.11446E+07 1.13173E+08
 -1      1685 6.56329E+08 7.69041E+07 2.79135E+05-3.36520E+07-3.11446E+07 1.13173E+08
 -1      1686 6.45026E+08 2.75292E+07-1.52949E+04-1.27637E+07-1.76122E+07-3.79988E+07
 -1      1688 6.45026E+08 2.75292E+07-1.52949E+04-1.27637E+07-1.76122E+07-3.79988E+07
 -1      1689 6.27460E+08-1.02778E+07-4.49116E+05 1.46370E+06-9.25324E+07 1.47502E+07
 -1      1691 6.27460E+08-1.02778E+07-4.49116E+05 1.46370E+06-9.25324E+07 1.47502E+07
 -1      1692 6.06955E+08-3.13737E+04-6.17360E+05-7.70837E+06-1.33708E+08-4.83775E+06
 -1      1694 6.06955E+08-3.13737E+04-6.17360E+05-7.70837E+06-1.33708E+08-4.83775E+06
 -1      1695 5.72355E+08-1.03358E+06-7.62394E+05-1.03535E+07-1.80753E+08 1.07776E+06
 -1      1697 5.72355E+08-1.03358E+06-7.62394E+05-1.03535E+07-1.80753E+08 1.07776E+06
 -1      1698 5.29166E+08-6.16842E+05-1.04354E+06-1.14331E+07-2.28082E+08 9.08867E+04
 -1      1700 5.29166E+08-6.16842E+05-1.04354E+06-1.14331E+07-2.28082E+08 9.08867E+04
 -1      1701 4.80571E+08-3.40540E+05-1.18952E+06-1.23584E+07-2.71793E+08-4.88905E+05
 -1      1703 4.80571E+08-3.40540E+05-1.18952E+06-1.23584E+07-2.71793E+08-4.88905E+05
 -1      1704 4.27718E+08-2.04658E+05-1.42159E+06-1.24291E+07-3.17796E+08 3.87792E+05
 -1      1706 4.27718E+08-2.04658E+05-1.42159E+06-1.24291E+07-3.17796E+08 3.87792E+05
 -1      1707 3.72084E+08-1.30303E+05-1.60465E+06-1.24010E+07-3.60485E+08-3.90915E+05
 -1      1709 3.72084E+08-1.30303E+05-1.60465E+06-1.24010E+07-3.60485E+08-3.90915E+05
 -1      1710 3.14229E+08-5.75026E+04-1.79608E+06-1.21714E+07-4.04152E+08 1.98823E+05
 -1      1712 3.14229E+08-5.75026E+04-1.79608E+06-1.21714E+07-4.04152E+08 1.98823E+05
 -1      1713 2.54898E+08-1.82698E+04-1.99130E+06-1.18886E+07-4.45300E+08-2.16196E+05
 -1      1715 2.54898E+08-1.82698E+04-1.99130E+06-1.18886E+07-4.45300E+08-2.16196E+05
 -1      1716 1.94546E+08 3.43692E+04-2.16053E+06-1.15384E+07-4.86353E+08 6.76105E+04
 -1      1718 1.94546E+08 3.43692E+04-2.16053E+06-1.15384E+07-4.86353E+08 6.76105E+04
 -1      1719 1.33731E+08 6.78810E+04-2.35063E+06-1.11533E+07-5.25281E+08-1.19085E+05
 -1      1721 1.33731E+08 6.78810E+04-2.35063E+06-1.11533E+07-5.25281E+08-1.19085E+05
 -1      1722 7.29066E+07 1.15070E+05-2.50574E+06-1.07299E+07-5.63420E+08 6.12487E+03
 -1      1724 7.29066E+07 1.15070E+05-2.50574E+06-1.07299E+07-5.63420E+08 6.12487E+03
 -1      1725 1.25765E+07 1.47501E+05-2.68222E+06-1.02748E+07-5.99553E+08-7.28750E+04
 -1      1727 1.25765E+07 1.47501E+05-2.68222E+06-1.02748E+07-5.99553E+08-7.28750E+04
 -1      1728-4.68039E+07 1.92115E+05-2.82524E+06-9.78987E+06-6.34428E+08-1.84736E+04
 -1      1730-4.68039E+07 1.92115E+05-2.82524E+06-9.78987E+06-6.34428E+08-1.84736E+04
 -1      1731-1.04760E+08 2.22821E+05-2.98376E+06-9.27271E+06-6.67281E+08-5.05910E+04
 -1      1733-1.04760E+08 2.22821E+05-2.98376E+06-9.27271E+06-6.67281E+08-5.05910E+04
 -1      1734-1.60850E+08 2.67917E+05-3.11449E+06-8.72917E+06-6.98539E+08-2.61875E+04
 -1      1736-1.60850E+08 2.67917E+05-3.11449E+06-8.72917E+06-6.98539E+08-2.61875E+04
 -1      1737-2.14617E+08 2.95722E+05-3.25204E+06-8.14354E+06-7.27691E+08-3.82804E+04
 -1      1739-2.14617E+08 2.95722E+05-3.25204E+06-8.14354E+06-7.27691E+08-3.82804E+04
 -1      1740-2.65632E+08 3.55198E+05-3.37019E+06-7.52225E+06-7.55001E+08-2.59817E+04
 -1      1742-2.65632E+08 3.55198E+05-3.37019E+06-7.52225E+06-7.55001E+08-2.59817E+04
 -1      1743-3.13400E+08 3.85456E+05-3.48362E+06-6.80249E+06-7.80086E+08-2.93422E+04
 -1      1745-3.13400E+08 3.85456E+05-3.48362E+06-6.80249E+06-7.80086E+08-2.93422E+04
 -1      1746-3.57409E+08 5.19975E+05-3.58994E+06-5.96663E+06-8.03157E+08-1.99809E+04
 -1      1748-3.57409E+08 5.19975E+05-3.58994E+06-5.96663E+06-8.03157E+08-1.99809E+04
 -1      1749-3.96848E+08 5.87542E+05-3.67537E+06-4.77799E+06-8.23859E+08-2.08456E+04
 -1      1751-3.96848E+08 5.87542E+05-3.67537E+06-4.77799E+06-8.23859E+08-2.08456E+04
 -1      1752-4.30606E+08 1.06920E+06-3.77191E+06-3.03514E+06-8.42460E+08-2.37038E+03
 -1      1754-4.30606E+08 1.06920E+06-3.77191E+06-3.03514E+06-8.42460E+08-2.37038E+03
 -1      1755-4.56545E+08 1.10777E+06-3.82416E+06-1.67182E+05-8.58512E+08-2.35072E+04
 -1      1757-4.56545E+08 1.10777E+06-3.82416E+06-1.67182E+05-8.58512E+08-2.35072E+04
 -1      1758-4.70894E+08 3.23452E+06-3.91786E+06 5.25469E+06-8.72486E+08 5.00910E+04
 -1      1760-4.70894E+08 3.23452E+06-3.91786E+06 5.25469E+06-8.72486E+08 5.00910E+04
 -1      1761-4.68019E+08 2.62676E+06-3.91102E+06 1.35450E+07-8.83670E+08-1.66818E+05
 -1      1763-4.68019E+08 2.62676E+06-3.91102E+06 1.35450E+07-8.83670E+08-1.66818E+05
 -1      1764-4.38728E+08 2.08292E+06-4.04124E+06 2.27697E+07-8.92807E+08 1.60818E+05
 -1      1766-4.38728E+08 2.08292E+06-4.04124E+06 2.27697E+07-8.92807E+08 1.60818E+05
 -1      1767-3.72490E+08 2.39739E+07-3.96061E+06 5.12780E+07-8.98980E+08-1.29357E+06
 -1      1769-3.72490E+08 2.39739E+07-3.96061E+06 5.12780E+07-8.98980E+08-1.29357E+06
 -1      1770-2.58734E+08-4.84646E+06-3.77512E+06 9.05064E+07-9.02110E+08 2.40403E+05
 -1      1772-2.58734E+08-4.84646E+06-3.77512E+06 9.05064E+07-9.02110E+08 2.40403E+05
 -1      1773 6.45026E+08 2.75292E+07-1.52949E+04 1.27637E+07 1.76122E+07-3.79988E+07
 -1      1775 6.45026E+08 2.75292E+07-1.52949E+04 1.27637E+07 1.76122E+07-3.79988E+07
 -1      1776 6.27460E+08-1.02778E+07-4.49116E+05-1.46370E+06 9.25324E+07 1.47502E+07
 -1      1778 6.27460E+08-1.02778E+07-4.49116E+05-1.46370E+06 9.25324E+07 1.47502E+07
 -1      1779 6.06955E+08-3.13737E+04-6.17360E+05 7.70837E+06 1.33708E+08-4.83775E+06
 -1      1781 6.06955E+08-3.13737E+04-6.17360E+05 7.70837E+06 1.33708E+08-4.83775E+06
 -1      1782 5.72355E+08-1.03358E+06-7.62394E+05 1.03535E+07 1.80753E+08 1.07776E+06
 -1      1784 5.72355E+08-1.03358E+06-7.62394E+05 1.03535E+07 1.80753E+08 1.07776E+06
 -1      1785 5.29166E+08-6.16842E+05-1.04354E+06 1.14331E+07 2.28082E+08 9.08867E+04
 -1      1787 5.29166E+08-6.16842E+05-1.04354E+06 1.14331E+07 2.28082E+08 9.08867E+04
 -1      1788 4.80571E+08-3.40540E+05-1.18952E+06 1.23584E+07 2.71793E+08-4.88905E+05
 -1      1790 4.80571E+08-3.40540E+05-1.18952E+06 1.23584E+07 2.71793E+08-4.88905E+05
 -1      1791 4.27718E+08-2.04658E+05-1.42159E+06 1.24291E+07 3.17796E+08 3.87792E+05
 -1      1793 4.27718E+08-2.04658E+05-1.42159E+06 1.24291E+07 3.17796E+08 3.87792E+05
 -1      1794 3.72084E+08-1.30303E+05-1.60465E+06 1.24010E+07 3.60485E+08-3.90915E+05
 -1      1796 3.72084E+08-1.30303E+05-1.60465E+06 1.24010E+07 3.60485E+08-3.90915E+05
 -1      1797 3.14229E+08-5.75026E+04-1.79608E+06 1.21714E+07 4.04152E+08 1.98823E+05
 -1      1799 3.14229E+08-5.75026E+04-1.79608E+06 1.21714E+07 4.04152E+08 1.98823E+05
 -1      1800 2.54898E+08-1.82698E+04-1.99130E+06 1.18886E+07 4.45300E+08-2.16196E+05
 -1      1802 2.54898E+08-1.82698E+04-1.99130E+06 1.18886E+07 4.45300E+08-2.16196E+05
 -1      1803 1.94546E+08 3.43692E+04-2.16053E+06 1.15384E+07 4.86353E+08 6.76105E+04
 -1      1805 1.94546E+08 3.43692E+04-2.16053E+06 1.15384E+07 4.86353E+08 6.76105E+04
 -1      1806 1.33731E+08 6.78810E+04-2.35063E+06 1.11533E+07 5.25281E+08-1.19085E+05
 -1      1808 1.33731E+08 6.78810E+04-2.35063E+06 1.11533E+07 5.25281E+08-1.19085E+05
 -1      1809 7.29066E+07 1.15070E+05-2.50574E+06 1.07299E+07 5.63420E+08 6.12487E+03
 -1      1811 7.29066E+07 1.15070E+05-2.50574E+06 1.07299E+07 5.63420E+08 6.12487E+03
 -1      1812 1.25765E+07 1.47501E+05-2.68222E+06 1.02748E+07 5.99553E+08-7.28750E+04
 -1      1814 1.25765E+07 1.47501E+05-2.68222E+06 1.02748E+07 5.99553E+08-7.28750E+04
 -1      1815-4.68039E+07 1.92115E+05-2.82524E+06 9.78987E+06 6.34428E+08-1.84736E+04
 -1      1817-4.68039E+07 1.92115E+05-2.82524E+06 9.78987E+06 6.34428E+08-1.84736E+04
 -1      1818-1.04760E+08 2.22821E+05-2.98376E+06 9.27271E+06 6.67281E+08-5.05910E+04
 -1      1820-1.04760E+08 2.22821E+05-2.98376E+06 9.27271E+06 6.67281E+08-5.05910E+04
 -1      1821-1.60850E+08 2.67917E+05-3.11449E+06 8.72917E+06 6.98539E+08-2.61875E+04
 -1      1823-1.60850E+08 2.67917E+05-3.11449E+06 8.72917E+06 6.98539E+08-2.61875E+04
 -1      1824-2.14617E+08 2.95722E+05-3.25204E+06 8.14354E+06 7.27691E+08-3.82804E+04
 -1      1826-2.14617E+08 2.95722E+05-3.25204E+06 8.14354E+06 7.27691E+08-3.82804E+04
 -1      1827-2.65632E+08 3.55198E+05-3.37019E+06 7.52225E+06 7.55001E+08-2.59817E+04
 -1      1829-2.65632E+08 3.55198E+05-3.37019E+06 7.52225E+06 7.55001E+08-2.59817E+04
 -1      1830-3.13400E+08 3.85456E+05-3.48362E+06 6.80249E+06 7.80086E+08-2.93422E+04
 -1      1832-3.13400E+08 3.85456E+05-3.48362E+06 6.80249E+06 7.80086E+08-2.93422E+04
 -1      1833-3.57409E+08 5.19975E+05-3.58994E+06 5.96663E+06 8.03157E+08-1.99809E+04
 -1      1835-3.57409E+08 5.19975E+05-3.58994E+06 5.96663E+06 8.03157E+08-1.99809E+04
 -1      1836-3.96848E+08 5.87542E+05-3.67537E+06 4.77799E+06 8.23859E+08-2.08456E+04
 -1      1838-3.96848E+08 5.87542E+05-3.67537E+06 4.77799E+06 8.23859E+08-2.08456E+04
 -1      1839-4.30606E+08 1.06920E+06-3.77191E+06 3.03514E+06 8.42460E+08-2.37038E+03
 -1      1841-4.30606E+08 1.06920E+06-3.77191E+06 3.03514E+06 8.42460E+08-2.37038E+03
 -1      1842-4.56545E+08 1.10777E+06-3.82416E+06 1.67182E+05 8.58512E+08-2.35072E+04
 -1      1844-4.56545E+08 1.10777E+06-3.82416E+06 1.67182E+05 8.58512E+08-2.35072E+04
 -1      1845-4.70894E+08 3.23452E+06-3.91786E+06-5.25469E+06 8.72486E+08 5.00910E+04
 -1      1847-4.70894E+08 3.23452E+06-3.91786E+06-5.25469E+06 8.72486E+08 5.00910E+04
 -1      1848-4.68019E+08 2.62676E+06-3.91102E+06-1.35450E+07 8.83670E+08-1.66818E+05
 -1      1850-4.68019E+08 2.62676E+06-3.91102E+06-1.35450E+07 8.83670E+08-1.66818E+05
 -1      1851-4.38728E+08 2.08292E+06-4.04124E+06-2.27697E+07 8.92807E+08 1.60818E+05
 -1      1853-4.38728E+08 2.08292E+06-4.04124E+06-2.27697E+07 8.92807E+08 1.60818E+05
 -1      1854-3.72490E+08 2.39739E+07-3.96061E+06-5.12780E+07 8.98980E+08-1.29357E+06
 -1      1856-3.72490E+08 2.39739E+07-3.96061E+06-5.12780E+07 8.98980E+08-1.29357E+06
 -1      1857-2.58734E+08-4.84646E+06-3.77512E+06-9.05064E+07 9.02110E+08 2.40403E+05
 -1      1859-2.58734E+08-4.84646E+06-3.77512E+06-9.05064E+07 9.02110E+08 2.40403E+05
 -1      1860 8.43329E+08-3.63695E+05 1.62765E+08-1.74188E-03-3.50804E-04 1.64981E+07
 -1      1862 8.43329E+08-3.63695E+05 1.62765E+08-1.74188E-03-3.50804E-04 1.64981E+07
 -1      1863 8.51287E+08 6.96972E+05 3.81135E+08 5.36176E-04-4.45758E-04-3.33709E+07
 -1      1865 8.51287E+08 6.96972E+05 3.81135E+08 5.36176E-04-4.45758E-04-3.33709E+07
 -1      1866 8.52607E+08 9.34301E+05 6.56107E+08-3.44255E-04-3.29344E-04 1.92271E+07
 -1      1868 8.52607E+08 9.34301E+05 6.56107E+08-3.44255E-04-3.29344E-04 1.92271E+07
 -1      1869 8.63724E+08 1.00560E+06 8.89698E+08-1.27151E-04-2.60918E-04 2.56699E+07
 -1      1871 8.63724E+08 1.00560E+06 8.89698E+08-1.27151E-04-2.60918E-04 2.56699E+07
 -1      1872 8.77608E+08 1.55587E+06 1.13208E+09-1.30164E-04-1.53441E-04 3.43541E+07
 -1      1874 8.77608E+08 1.55587E+06 1.13208E+09-1.30164E-04-1.53441E-04 3.43541E+07
 -1      1875 8.90553E+08 1.62130E+06 1.36327E+09 4.90744E-04 9.37509E-05 3.84158E+07
 -1      1877 8.90553E+08 1.62130E+06 1.36327E+09 4.90744E-04 9.37509E-05 3.84158E+07
 -1      1878 9.01773E+08 2.06723E+06 1.59042E+09 2.24320E-04 1.70917E-04 3.83429E+07
 -1      1880 9.01773E+08 2.06723E+06 1.59042E+09 2.24320E-04 1.70917E-04 3.83429E+07
 -1      1881 9.10059E+08 2.22784E+06 1.81249E+09 5.08590E-04 1.02104E-04 3.93971E+07
 -1      1883 9.10059E+08 2.22784E+06 1.81249E+09 5.08590E-04 1.02104E-04 3.93971E+07
 -1      1884 9.15534E+08 2.57743E+06 2.02896E+09 4.27448E-04-2.16704E-04 3.80320E+07
 -1      1886 9.15534E+08 2.57743E+06 2.02896E+09 4.27448E-04-2.16704E-04 3.80320E+07
 -1      1887 9.18086E+08 2.78895E+06 2.24024E+09 2.86517E-04-4.03453E-04 3.77088E+07
 -1      1889 9.18086E+08 2.78895E+06 2.24024E+09 2.86517E-04-4.03453E-04 3.77088E+07
 -1      1890 9.18036E+08 3.07904E+06 2.44514E+09 3.85204E-04 4.69396E-04 3.62496E+07
 -1      1892 9.18036E+08 3.07904E+06 2.44514E+09 3.85204E-04 4.69396E-04 3.62496E+07
 -1      1893 9.15576E+08 3.30706E+06 2.64367E+09-8.73008E-04 1.63548E-03 3.52851E+07
 -1      1895 9.15576E+08 3.30706E+06 2.64367E+09-8.73008E-04 1.63548E-03 3.52851E+07
 -1      1896 9.11048E+08 3.55695E+06 2.83490E+09 4.46819E-04 2.45530E-03 3.37856E+07
 -1      1898 9.11048E+08 3.55695E+06 2.83490E+09 4.46819E-04 2.45530E-03 3.37856E+07
 -1      1899 9.04729E+08 3.78341E+06 3.01855E+09 4.37536E-04 2.97705E-03 3.24581E+07
 -1      1901 9.04729E+08 3.78341E+06 3.01855E+09 4.37536E-04 2.97705E-03 3.24581E+07
 -1      1902 8.96951E+08 4.00039E+06 3.19392E+09-6.63991E-04 3.12875E-03 3.08541E+07
 -1      1904 8.96951E+08 4.00039E+06 3.19392E+09-6.63991E-04 3.12875E-03 3.08541E+07
 -1      1905 8.88006E+08 4.21600E+06 3.36061E+09 9.23796E-04 3.19184E-03 2.92714E+07
 -1      1907 8.88006E+08 4.21600E+06 3.36061E+09 9.23796E-04 3.19184E-03 2.92714E+07
 -1      1908 8.78209E+08 4.40188E+06 3.51807E+09-6.09839E-04 3.01260E-03 2.75129E+07
 -1      1910 8.78209E+08 4.40188E+06 3.51807E+09-6.09839E-04 3.01260E-03 2.75129E+07
 -1      1911 8.67822E+08 4.60123E+06 3.66593E+09-2.78604E-04 2.86085E-03 2.56829E+07
 -1      1913 8.67822E+08 4.60123E+06 3.66593E+09-2.78604E-04 2.86085E-03 2.56829E+07
 -1      1914 8.57111E+08 4.75585E+06 3.80380E+09-3.95292E-04 3.66246E-03 2.36434E+07
 -1      1916 8.57111E+08 4.75585E+06 3.80380E+09-3.95292E-04 3.66246E-03 2.36434E+07
 -1      1917 8.46204E+08 4.93499E+06 3.93145E+09-2.50360E-04 4.87163E-03 2.13074E+07
 -1      1919 8.46204E+08 4.93499E+06 3.93145E+09-2.50360E-04 4.87163E-03 2.13074E+07
 -1      1920 8.35156E+08 5.05767E+06 4.04886E+09 1.21539E-04 6.13520E-03 1.83173E+07
 -1      1922 8.35156E+08 5.05767E+06 4.04886E+09 1.21539E-04 6.13520E-03 1.83173E+07
 -1      1923 8.23542E+08 5.21361E+06 4.15638E+09-3.89466E-05 7.62008E-03 1.40097E+07
 -1      1925 8.23542E+08 5.21361E+06 4.15638E+09-3.89466E-05 7.62008E-03 1.40097E+07
 -1      1926 8.10462E+08 5.30198E+06 4.25503E+09-1.52661E-04 8.69578E-03 6.92461E+06
 -1      1928 8.10462E+08 5.30198E+06 4.25503E+09-1.52661E-04 8.69578E-03 6.92461E+06
 -1      1929 7.93495E+08 5.43544E+06 4.34662E+09 7.97861E-04 9.95704E-03-5.56774E+06
 -1      1931 7.93495E+08 5.43544E+06 4.34662E+09 7.97861E-04 9.95704E-03-5.56774E+06
 -1      1932 7.67862E+08 5.48254E+06 4.43388E+09-4.87416E-05 1.10499E-02-2.83418E+07
 -1      1934 7.67862E+08 5.48254E+06 4.43388E+09-4.87416E-05 1.10499E-02-2.83418E+07
 -1      1935 7.26082E+08 5.59430E+06 4.51787E+09 4.57721E-04 1.24315E-02-6.77256E+07
 -1      1937 7.26082E+08 5.59430E+06 4.51787E+09 4.57721E-04 1.24315E-02-6.77256E+07
 -1      1938 6.55587E+08 5.62113E+06 4.59067E+09 2.13076E-04 1.32389E-02-1.30269E+08
 -1      1940 6.55587E+08 5.62113E+06 4.59067E+09 2.13076E-04 1.32389E-02-1.30269E+08
 -1      1941 5.41831E+08 5.72087E+06 4.60570E+09 1.04314E-04 1.40931E-02-2.00333E+08
 -1      1943 5.41831E+08 5.72087E+06 4.60570E+09 1.04314E-04 1.40931E-02-2.00333E+08
 -1      1944 3.69978E+08 5.60962E+06 4.41605E+09 6.77143E-04 1.28315E-02-2.09081E+08
 -1      1946 3.69978E+08 5.60962E+06 4.41605E+09 6.77143E-04 1.28315E-02-2.09081E+08
 -1      1947 9.18482E+08 3.79137E+05 2.12403E+08-1.35954E-03 3.14450E-04 5.43010E-02
 -1      1949 9.18482E+08 3.79137E+05 2.12403E+08-1.35954E-03 3.14450E-04 5.43010E-02
 -1      1950 8.91156E+08-6.92139E+05 3.77736E+08 5.79697E-04 1.39883E-03 5.04581E-02
 -1      1952 8.91156E+08-6.92139E+05 3.77736E+08 5.79697E-04 1.39883E-03 5.04581E-02
 -1      1953 8.65915E+08-9.33293E+05 6.39505E+08 5.69557E-05 1.80856E-03 4.25919E-02
 -1      1955 8.65915E+08-9.33293E+05 6.39505E+08 5.69557E-05 1.80856E-03 4.25919E-02
 -1      1956 8.71783E+08-9.72502E+05 8.89228E+08-3.81070E-04 1.83442E-03 3.30597E-02
 -1      1958 8.71783E+08-9.72502E+05 8.89228E+08-3.81070E-04 1.83442E-03 3.30597E-02
 -1      1959 8.79075E+08-1.53888E+06 1.13118E+09-1.24314E-04 1.56389E-03 1.87087E-02
 -1      1961 8.79075E+08-1.53888E+06 1.13118E+09-1.24314E-04 1.56389E-03 1.87087E-02
 -1      1962 8.90354E+08-1.59204E+06 1.36613E+09 6.41329E-04 9.60570E-04 6.71370E-03
 -1      1964 8.90354E+08-1.59204E+06 1.36613E+09 6.41329E-04 9.60570E-04 6.71370E-03
 -1      1965 9.00071E+08-2.03237E+06 1.59452E+09 1.33947E-04 5.83577E-04-1.53113E-03
 -1      1967 9.00071E+08-2.03237E+06 1.59452E+09 1.33947E-04 5.83577E-04-1.53113E-03
 -1      1968 9.07604E+08-2.19629E+06 1.81773E+09 4.70497E-04 4.45953E-04-1.47681E-02
 -1      1970 9.07604E+08-2.19629E+06 1.81773E+09 4.70497E-04 4.45953E-04-1.47681E-02
 -1      1971 9.12528E+08-2.53298E+06 2.03525E+09 1.51706E-04 1.37521E-04-3.62744E-02
 -1      1973 9.12528E+08-2.53298E+06 2.03525E+09 1.51706E-04 1.37521E-04-3.62744E-02
 -1      1974 9.14574E+08-2.74915E+06 2.24724E+09 2.44005E-04-3.14225E-04-5.53105E-02
 -1      1976 9.14574E+08-2.74915E+06 2.24724E+09 2.44005E-04-3.14225E-04-5.53105E-02
 -1      1977 9.14119E+08-3.03003E+06 2.45301E+09 4.31966E-04-8.65275E-04-5.94903E-02
 -1      1979 9.14119E+08-3.03003E+06 2.45301E+09 4.31966E-04-8.65275E-04-5.94903E-02
 -1      1980 9.11230E+08-3.25635E+06 2.65220E+09-1.63063E-03-1.79206E-03-5.26122E-02
 -1      1982 9.11230E+08-3.25635E+06 2.65220E+09-1.63063E-03-1.79206E-03-5.26122E-02
 -1      1983 9.06325E+08-3.50600E+06 2.84418E+09 1.19348E-03-1.92406E-03-4.30208E-02
 -1      1985 9.06325E+08-3.50600E+06 2.84418E+09 1.19348E-03-1.92406E-03-4.30208E-02
 -1      1986 8.99620E+08-3.72084E+06 3.02847E+09 6.76532E-04-1.86669E-03-3.14307E-02
 -1      1988 8.99620E+08-3.72084E+06 3.02847E+09 6.76532E-04-1.86669E-03-3.14307E-02
 -1      1989 8.91486E+08-3.94922E+06 3.20449E+09-8.44141E-04-1.60039E-03-2.00389E-02
 -1      1991 8.91486E+08-3.94922E+06 3.20449E+09-8.44141E-04-1.60039E-03-2.00389E-02
 -1      1992 8.82193E+08-4.14112E+06 3.37179E+09 1.30185E-03-9.52478E-04-1.39334E-02
 -1      1994 8.82193E+08-4.14112E+06 3.37179E+09 1.30185E-03-9.52478E-04-1.39334E-02
 -1      1995 8.72061E+08-4.35220E+06 3.52985E+09-1.25844E-03-1.01651E-03-1.35661E-02
 -1      1997 8.72061E+08-4.35220E+06 3.52985E+09-1.25844E-03-1.01651E-03-1.35661E-02
 -1      1998 8.61350E+08-4.51345E+06 3.67829E+09-2.50522E-04-7.84039E-04-1.48616E-02
 -1      2000 8.61350E+08-4.51345E+06 3.67829E+09-2.50522E-04-7.84039E-04-1.48616E-02
 -1      2001 8.50282E+08-4.70985E+06 3.81674E+09 1.62022E-04-4.17776E-04-1.40220E-02
 -1      2003 8.50282E+08-4.70985E+06 3.81674E+09 1.62022E-04-4.17776E-04-1.40220E-02
 -1      2004 8.38961E+08-4.83318E+06 3.94508E+09 4.23480E-04-7.36045E-04-5.58175E-03
 -1      2006 8.38961E+08-4.83318E+06 3.94508E+09 4.23480E-04-7.36045E-04-5.58175E-03
 -1      2007 8.27222E+08-5.01834E+06 4.06338E+09 1.26829E-03-7.73225E-04 1.14237E-02
 -1      2009 8.27222E+08-5.01834E+06 4.06338E+09 1.26829E-03-7.73225E-04 1.14237E-02
 -1      2010 8.14407E+08-5.09569E+06 4.17232E+09 7.22744E-04-6.43557E-04 2.54475E-02
 -1      2012 8.14407E+08-5.09569E+06 4.17232E+09 7.22744E-04-6.43557E-04 2.54475E-02
 -1      2013 7.98686E+08-5.27343E+06 4.27338E+09 8.29014E-04-8.98689E-04 2.55545E-02
 -1      2015 7.98686E+08-5.27343E+06 4.27338E+09 8.29014E-04-8.98689E-04 2.55545E-02
 -1      2016 7.76206E+08-5.29776E+06 4.36933E+09 1.88074E-03-1.37056E-03 1.86080E-02
 -1      2018 7.76206E+08-5.29776E+06 4.36933E+09 1.88074E-03-1.37056E-03 1.86080E-02
 -1      2019 7.39152E+08-5.47014E+06 4.46394E+09 8.79835E-04-2.46119E-03 1.79132E-02
 -1      2021 7.39152E+08-5.47014E+06 4.46394E+09 8.79835E-04-2.46119E-03 1.79132E-02
 -1      2022 6.73784E+08-5.42959E+06 4.55907E+09 7.05469E-04-3.90531E-03 2.41540E-02
 -1      2024 6.73784E+08-5.42959E+06 4.55907E+09 7.05469E-04-3.90531E-03 2.41540E-02
 -1      2025 5.59028E+08-5.62913E+06 4.64134E+09 3.37714E-04-5.52336E-03 2.36285E-02
 -1      2027 5.59028E+08-5.62913E+06 4.64134E+09 3.37714E-04-5.52336E-03 2.36285E-02
 -1      2028 3.77688E+08-5.51587E+06 4.64319E+09 3.80316E-05-7.19455E-03 1.43677E-02
 -1      2030 3.77688E+08-5.51587E+06 4.64319E+09 3.80316E-05-7.19455E-03 1.43677E-02
 -1      2031 1.58772E+08-5.66770E+06 4.37719E+09 4.17079E-04-7.86173E-03 8.49225E-03
 -1      2033 1.58772E+08-5.66770E+06 4.37719E+09 4.17079E-04-7.86173E-03 8.49225E-03
 -1      2034 8.43329E+08-3.63695E+05 1.62765E+08-3.28178E-04-1.08853E-03-1.64981E+07
 -1      2036 8.43329E+08-3.63695E+05 1.62765E+08-3.28178E-04-1.08853E-03-1.64981E+07
 -1      2037 8.51287E+08 6.96972E+05 3.81135E+08 2.54025E-04-2.31364E-03 3.33709E+07
 -1      2039 8.51287E+08 6.96972E+05 3.81135E+08 2.54025E-04-2.31364E-03 3.33709E+07
 -1      2040 8.52607E+08 9.34301E+05 6.56107E+08 1.75281E-04-3.21837E-03-1.92271E+07
 -1      2042 8.52607E+08 9.34301E+05 6.56107E+08 1.75281E-04-3.21837E-03-1.92271E+07
 -1      2043 8.63724E+08 1.00560E+06 8.89698E+08-4.47483E-04-3.42005E-03-2.56699E+07
 -1      2045 8.63724E+08 1.00560E+06 8.89698E+08-4.47483E-04-3.42005E-03-2.56699E+07
 -1      2046 8.77608E+08 1.55587E+06 1.13208E+09-1.92654E-04-2.90437E-03-3.43541E+07
 -1      2048 8.77608E+08 1.55587E+06 1.13208E+09-1.92654E-04-2.90437E-03-3.43541E+07
 -1      2049 8.90553E+08 1.62130E+06 1.36327E+09 1.41339E-04-2.78419E-03-3.84158E+07
 -1      2051 8.90553E+08 1.62130E+06 1.36327E+09 1.41339E-04-2.78419E-03-3.84158E+07
 -1      2052 9.01773E+08 2.06723E+06 1.59042E+09-2.22848E-04-2.56795E-03-3.83429E+07
 -1      2054 9.01773E+08 2.06723E+06 1.59042E+09-2.22848E-04-2.56795E-03-3.83429E+07
 -1      2055 9.10059E+08 2.22784E+06 1.81249E+09 1.11862E-04-2.51966E-03-3.93971E+07
 -1      2057 9.10059E+08 2.22784E+06 1.81249E+09 1.11862E-04-2.51966E-03-3.93971E+07
 -1      2058 9.15534E+08 2.57743E+06 2.02896E+09-1.23685E-04-2.86048E-03-3.80320E+07
 -1      2060 9.15534E+08 2.57743E+06 2.02896E+09-1.23685E-04-2.86048E-03-3.80320E+07
 -1      2061 9.18086E+08 2.78895E+06 2.24024E+09 8.38265E-05-3.17345E-03-3.77088E+07
 -1      2063 9.18086E+08 2.78895E+06 2.24024E+09 8.38265E-05-3.17345E-03-3.77088E+07
 -1      2064 9.18036E+08 3.07904E+06 2.44514E+09 6.81301E-05-3.31318E-03-3.62496E+07
 -1      2066 9.18036E+08 3.07904E+06 2.44514E+09 6.81301E-05-3.31318E-03-3.62496E+07
 -1      2067 9.15576E+08 3.30706E+06 2.64367E+09-1.24748E-03-2.33750E-03-3.52851E+07
 -1      2069 9.15576E+08 3.30706E+06 2.64367E+09-1.24748E-03-2.33750E-03-3.52851E+07
 -1      2070 9.11048E+08 3.55695E+06 2.83490E+09 9.07228E-04-1.99992E-03-3.37856E+07
 -1      2072 9.11048E+08 3.55695E+06 2.83490E+09 9.07228E-04-1.99992E-03-3.37856E+07
 -1      2073 9.04729E+08 3.78341E+06 3.01855E+09 2.50039E-04-2.80242E-03-3.24581E+07
 -1      2075 9.04729E+08 3.78341E+06 3.01855E+09 2.50039E-04-2.80242E-03-3.24581E+07
 -1      2076 8.96951E+08 4.00039E+06 3.19392E+09-6.34008E-04-3.78237E-03-3.08541E+07
 -1      2078 8.96951E+08 4.00039E+06 3.19392E+09-6.34008E-04-3.78237E-03-3.08541E+07
 -1      2079 8.88006E+08 4.21600E+06 3.36061E+09 5.02793E-04-5.66919E-03-2.92714E+07
 -1      2081 8.88006E+08 4.21600E+06 3.36061E+09 5.02793E-04-5.66919E-03-2.92714E+07
 -1      2082 8.78209E+08 4.40188E+06 3.51807E+09-9.28629E-04-7.23633E-03-2.75129E+07
 -1      2084 8.78209E+08 4.40188E+06 3.51807E+09-9.28629E-04-7.23633E-03-2.75129E+07
 -1      2085 8.67822E+08 4.60123E+06 3.66593E+09 1.00845E-04-7.99657E-03-2.56829E+07
 -1      2087 8.67822E+08 4.60123E+06 3.66593E+09 1.00845E-04-7.99657E-03-2.56829E+07
 -1      2088 8.57111E+08 4.75585E+06 3.80380E+09 1.91954E-04-8.67560E-03-2.36434E+07
 -1      2090 8.57111E+08 4.75585E+06 3.80380E+09 1.91954E-04-8.67560E-03-2.36434E+07
 -1      2091 8.46204E+08 4.93499E+06 3.93145E+09 1.66314E-04-8.72353E-03-2.13074E+07
 -1      2093 8.46204E+08 4.93499E+06 3.93145E+09 1.66314E-04-8.72353E-03-2.13074E+07
 -1      2094 8.35156E+08 5.05767E+06 4.04886E+09 6.23360E-04-8.76414E-03-1.83173E+07
 -1      2096 8.35156E+08 5.05767E+06 4.04886E+09 6.23360E-04-8.76414E-03-1.83173E+07
 -1      2097 8.23542E+08 5.21361E+06 4.15638E+09 5.89524E-05-8.75785E-03-1.40097E+07
 -1      2099 8.23542E+08 5.21361E+06 4.15638E+09 5.89524E-05-8.75785E-03-1.40097E+07
 -1      2100 8.10462E+08 5.30198E+06 4.25503E+09 1.91025E-04-8.61092E-03-6.92461E+06
 -1      2102 8.10462E+08 5.30198E+06 4.25503E+09 1.91025E-04-8.61092E-03-6.92461E+06
 -1      2103 7.93495E+08 5.43544E+06 4.34662E+09 6.06668E-04-8.28541E-03 5.56774E+06
 -1      2105 7.93495E+08 5.43544E+06 4.34662E+09 6.06668E-04-8.28541E-03 5.56774E+06
 -1      2106 7.67862E+08 5.48254E+06 4.43388E+09 1.29762E-04-7.54716E-03 2.83418E+07
 -1      2108 7.67862E+08 5.48254E+06 4.43388E+09 1.29762E-04-7.54716E-03 2.83418E+07
 -1      2109 7.26082E+08 5.59430E+06 4.51787E+09-6.08525E-04-6.76781E-03 6.77256E+07
 -1      2111 7.26082E+08 5.59430E+06 4.51787E+09-6.08525E-04-6.76781E-03 6.77256E+07
 -1      2112 6.55587E+08 5.62113E+06 4.59067E+09-4.75699E-04-6.49803E-03 1.30269E+08
 -1      2114 6.55587E+08 5.62113E+06 4.59067E+09-4.75699E-04-6.49803E-03 1.30269E+08
 -1      2115 5.41831E+08 5.72087E+06 4.60570E+09-7.91852E-04-5.96745E-03 2.00333E+08
 -1      2117 5.41831E+08 5.72087E+06 4.60570E+09-7.91852E-04-5.96745E-03 2.00333E+08
 -1      2118 3.69978E+08 5.60962E+06 4.41605E+09-2.46136E-04-6.71689E-03 2.09081E+08
 -1      2120 3.69978E+08 5.60962E+06 4.41605E+09-2.46136E-04-6.71689E-03 2.09081E+08
 -1      2121 6.45026E+08 2.75292E+07-1.52949E+04 1.27637E+07-1.76122E+07 3.79988E+07
 -1      2123 6.45026E+08 2.75292E+07-1.52949E+04 1.27637E+07-1.76122E+07 3.79988E+07
 -1      2124 6.27460E+08-1.02778E+07-4.49116E+05-1.46370E+06-9.25324E+07-1.47502E+07
 -1      2126 6.27460E+08-1.02778E+07-4.49116E+05-1.46370E+06-9.25324E+07-1.47502E+07
 -1      2127 6.06955E+08-3.13737E+04-6.17360E+05 7.70837E+06-1.33708E+08 4.83775E+06
 -1      2129 6.06955E+08-3.13737E+04-6.17360E+05 7.70837E+06-1.33708E+08 4.83775E+06
 -1      2130 5.72355E+08-1.03358E+06-7.62394E+05 1.03535E+07-1.80753E+08-1.07776E+06
 -1      2132 5.72355E+08-1.03358E+06-7.62394E+05 1.03535E+07-1.80753E+08-1.07776E+06
 -1      2133 5.29166E+08-6.16842E+05-1.04354E+06 1.14331E+07-2.28082E+08-9.08867E+04
 -1      2135 5.29166E+08-6.16842E+05-1.04354E+06 1.14331E+07-2.28082E+08-9.08867E+04
 -1      2136 4.80571E+08-3.40540E+05-1.18952E+06 1.23584E+07-2.71793E+08 4.88905E+05
 -1      2138 4.80571E+08-3.40540E+05-1.18952E+06 1.23584E+07-2.71793E+08 4.88905E+05
 -1      2139 4.27718E+08-2.04658E+05-1.42159E+06 1.24291E+07-3.17796E+08-3.87792E+05
 -1      2141 4.27718E+08-2.04658E+05-1.42159E+06 1.24291E+07-3.17796E+08-3.87792E+05
 -1      2142 3.72084E+08-1.30303E+05-1.60465E+06 1.24010E+07-3.60485E+08 3.90915E+05
 -1      2144 3.72084E+08-1.30303E+05-1.60465E+06 1.24010E+07-3.60485E+08 3.90915E+05
 -1      2145 3.14229E+08-5.75026E+04-1.79608E+06 1.21714E+07-4.04152E+08-1.98823E+05
 -1      2147 3.14229E+08-5.75026E+04-1.79608E+06 1.21714E+07-4.04152E+08-1.98823E+05
 -1      2148 2.54898E+08-1.82698E+04-1.99130E+06 1.18886E+07-4.45300E+08 2.16196E+05
 -1      2150 2.54898E+08-1.82698E+04-1.99130E+06 1.18886E+07-4.45300E+08 2.16196E+05
 -1      2151 1.94546E+08 3.43692E+04-2.16053E+06 1.15384E+07-4.86353E+08-6.76105E+04
 -1      2153 1.94546E+08 3.43692E+04-2.16053E+06 1.15384E+07-4.86353E+08-6.76105E+04
 -1      2154 1.33731E+08 6.78810E+04-2.35063E+06 1.11533E+07-5.25281E+08 1.19085E+05
 -1      2156 1.33731E+08 6.78810E+04-2.35063E+06 1.11533E+07-5.25281E+08 1.19085E+05
 -1      2157 7.29066E+07 1.15070E+05-2.50574E+06 1.07299E+07-5.63420E+08-6.12487E+03
 -1      2159 7.29066E+07 1.15070E+05-2.50574E+06 1.07299E+07-5.63420E+08-6.12487E+03
 -1      2160 1.25765E+07 1.47501E+05-2.68222E+06 1.02748E+07-5.99553E+08 7.28750E+04
 -1      2162 1.25765E+07 1.47501E+05-2.68222E+06 1.02748E+07-5.99553E+08 7.28750E+04
 -1      2163-4.68039E+07 1.92115E+05-2.82524E+06 9.78987E+06-6.34428E+08 1.84736E+04
 -1      2165-4.68039E+07 1.92115E+05-2.82524E+06 9.78987E+06-6.34428E+08 1.84736E+04
 -1      2166-1.04760E+08 2.22821E+05-2.98376E+06 9.27271E+06-6.67281E+08 5.05910E+04
 -1      2168-1.04760E+08 2.22821E+05-2.98376E+06 9.27271E+06-6.67281E+08 5.05910E+04
 -1      2169-1.60850E+08 2.67917E+05-3.11449E+06 8.72917E+06-6.98539E+08 2.61875E+04
 -1      2171-1.60850E+08 2.67917E+05-3.11449E+06 8.72917E+06-6.98539E+08 2.61875E+04
 -1      2172-2.14617E+08 2.95722E+05-3.25204E+06 8.14354E+06-7.27691E+08 3.82804E+04
 -1      2174-2.14617E+08 2.95722E+05-3.25204E+06 8.14354E+06-7.27691E+08 3.82804E+04
 -1      2175-2.65632E+08 3.55198E+05-3.37019E+06 7.52225E+06-7.55001E+08 2.59817E+04
 -1      2177-2.65632E+08 3.55198E+05-3.37019E+06 7.52225E+06-7.55001E+08 2.59817E+04
 -1      2178-3.13400E+08 3.85456E+05-3.48362E+06 6.80249E+06-7.80086E+08 2.93422E+04
 -1      2180-3.13400E+08 3.85456E+05-3.48362E+06 6.80249E+06-7.80086E+08 2.93422E+04
 -1      2181-3.57409E+08 5.19975E+05-3.58994E+06 5.96663E+06-8.03157E+08 1.99809E+04
 -1      2183-3.57409E+08 5.19975E+05-3.58994E+06 5.96663E+06-8.03157E+08 1.99809E+04
 -1      2184-3.96848E+08 5.87542E+05-3.67537E+06 4.77799E+06-8.23859E+08 2.08456E+04
 -1      2186-3.96848E+08 5.87542E+05-3.67537E+06 4.77799E+06-8.23859E+08 2.08456E+04
 -1      2187-4.30606E+08 1.06920E+06-3.77191E+06 3.03514E+06-8.42460E+08 2.37038E+03
 -1      2189-4.30606E+08 1.06920E+06-3.77191E+06 3.03514E+06-8.42460E+08 2.37038E+03
 -1      2190-4.56545E+08 1.10777E+06-3.82416E+06 1.67182E+05-8.58512E+08 2.35072E+04
 -1      2192-4.56545E+08 1.10777E+06-3.82416E+06 1.67182E+05-8.58512E+08 2.35072E+04
 -1      2193-4.70894E+08 3.23452E+06-3.91786E+06-5.25469E+06-8.72486E+08-5.00910E+04
 -1      2195-4.70894E+08 3.23452E+06-3.91786E+06-5.25469E+06-8.72486E+08-5.00910E+04
 -1      2196-4.68019E+08 2.62676E+06-3.91102E+06-1.35450E+07-8.83670E+08 1.66818E+05
 -1      2198-4.68019E+08 2.62676E+06-3.91102E+06-1.35450E+07-8.83670E+08 1.66818E+05
 -1      2199-4.38728E+08 2.08292E+06-4.04124E+06-2.27697E+07-8.92807E+08-1.60818E+05
 -1      2201-4.38728E+08 2.08292E+06-4.04124E+06-2.27697E+07-8.92807E+08-1.60818E+05
 -1      2202-3.72490E+08 2.39739E+07-3.96061E+06-5.12780E+07-8.98980E+08 1.29357E+06
 -1      2204-3.72490E+08 2.39739E+07-3.96061E+06-5.12780E+07-8.98980E+08 1.29357E+06
 -1      2205-2.58734E+08-4.84646E+06-3.77512E+06-9.05064E+07-9.02110E+08-2.40403E+05
 -1      2207-2.58734E+08-4.84646E+06-3.77512E+06-9.05064E+07-9.02110E+08-2.40403E+05
 -1      2208 6.45026E+08 2.75292E+07-1.52949E+04-1.27637E+07 1.76122E+07 3.79988E+07
 -1      2210 6.45026E+08 2.75292E+07-1.52949E+04-1.27637E+07 1.76122E+07 3.79988E+07
 -1      2211 6.27460E+08-1.02778E+07-4.49116E+05 1.46370E+06 9.25324E+07-1.47502E+07
 -1      2213 6.27460E+08-1.02778E+07-4.49116E+05 1.46370E+06 9.25324E+07-1.47502E+07
 -1      2214 6.06955E+08-3.13737E+04-6.17360E+05-7.70837E+06 1.33708E+08 4.83775E+06
 -1      2216 6.06955E+08-3.13737E+04-6.17360E+05-7.70837E+06 1.33708E+08 4.83775E+06
 -1      2217 5.72355E+08-1.03358E+06-7.62394E+05-1.03535E+07 1.80753E+08-1.07776E+06
 -1      2219 5.72355E+08-1.03358E+06-7.62394E+05-1.03535E+07 1.80753E+08-1.07776E+06
 -1      2220 5.29166E+08-6.16842E+05-1.04354E+06-1.14331E+07 2.28082E+08-9.08867E+04
 -1      2222 5.29166E+08-6.16842E+05-1.04354E+06-1.14331E+07 2.28082E+08-9.08867E+04
 -1      2223 4.80571E+08-3.40540E+05-1.18952E+06-1.23584E+07 2.71793E+08 4.88905E+05
 -1      2225 4.80571E+08-3.40540E+05-1.18952E+06-1.23584E+07 2.71793E+08 4.88905E+05
 -1      2226 4.27718E+08-2.04658E+05-1.42159E+06-1.24291E+07 3.17796E+08-3.87792E+05
 -1      2228 4.27718E+08-2.04658E+05-1.42159E+06-1.24291E+07 3.17796E+08-3.87792E+05
 -1      2229 3.72084E+08-1.30303E+05-1.60465E+06-1.24010E+07 3.60485E+08 3.90915E+05
 -1      2231 3.72084E+08-1.30303E+05-1.60465E+06-1.24010E+07 3.60485E+08 3.90915E+05
 -1      2232 3.14229E+08-5.75026E+04-1.79608E+06-1.21714E+07 4.04152E+08-1.98823E+05
 -1      2234 3.14229E+08-5.75026E+04-1.79608E+06-1.21714E+07 4.04152E+08-1.98823E+05
 -1      2235 2.54898E+08-1.82698E+04-1.99130E+06-1.18886E+07 4.45300E+08 2.16196E+05
 -1      2237 2.54898E+08-1.82698E+04-1.99130E+06-1.18886E+07 4.45300E+08 2.16196E+05
 -1      2238 1.94546E+08 3.43692E+04-2.16053E+06-1.15384E+07 4.86353E+08-6.76105E+04
 -1      2240 1.94546E+08 3.43692E+04-2.16053E+06-1.15384E+07 4.86353E+08-6.76105E+04
 -1      2241 1.33731E+08 6.78810E+04-2.35063E+06-1.11533E+07 5.25281E+08 1.19085E+05
 -1      2243 1.33731E+08 6.78810E+04-2.35063E+06-1.11533E+07 5.25281E+08 1.19085E+05
 -1      2244 7.29066E+07 1.15070E+05-2.50574E+06-1.07299E+07 5.63420E+08-6.12487E+03
 -1      2246 7.29066E+07 1.15070E+05-2.50574E+06-1.07299E+07 5.63420E+08-6.12487E+03
 -1      2247 1.25765E+07 1.47501E+05-2.68222E+06-1.02748E+07 5.99553E+08 7.28750E+04
 -1      2249 1.25765E+07 1.47501E+05-2.68222E+06-1.02748E+07 5.99553E+08 7.28750E+04
 -1      2250-4.68039E+07 1.92115E+05-2.82524E+06-9.78987E+06 6.34428E+08 1.84736E+04
 -1      2252-4.68039E+07 1.92115E+05-2.82524E+06-9.78987E+06 6.34428E+08 1.84736E+04
 -1      2253-1.04760E+08 2.22821E+05-2.98376E+06-9.27271E+06 6.67281E+08 5.05910E+04
 -1      2255-1.04760E+08 2.22821E+05-2.98376E+06-9.27271E+06 6.67281E+08 5.05910E+04
 -1      2256-1.60850E+08 2.67917E+05-3.11449E+06-8.72917E+06 6.98539E+08 2.61875E+04
 -1      2258-1.60850E+08 2.67917E+05-3.11449E+06-8.72917E+06 6.98539E+08 2.61875E+04
 -1      2259-2.14617E+08 2.95722E+05-3.25204E+06-8.14354E+06 7.27691E+08 3.82804E+04
 -1      2261-2.14617E+08 2.95722E+05-3.25204E+06-8.14354E+06 7.27691E+08 3.82804E+04
 -1      2262-2.65632E+08 3.55198E+05-3.37019E+06-7.52225E+06 7.55001E+08 2.59817E+04
 -1      2264-2.65632E+08 3.55198E+05-3.37019E+06-7.52225E+06 7.55001E+08 2.59817E+04
 -1      2265-3.13400E+08 3.85456E+05-3.48362E+06-6.80249E+06 7.80086E+08 2.93422E+04
 -1      2267-3.13400E+08 3.85456E+05-3.48362E+06-6.80249E+06 7.80086E+08 2.93422E+04
 -1      2268-3.57409E+08 5.19975E+05-3.58994E+06-5.96663E+06 8.03157E+08 1.99809E+04
 -1      2270-3.57409E+08 5.19975E+05-3.58994E+06-5.96663E+06 8.03157E+08 1.99809E+04
 -1      2271-3.96848E+08 5.87542E+05-3.67537E+06-4.77799E+06 8.23859E+08 2.08456E+04
 -1      2273-3.96848E+08 5.87542E+05-3.67537E+06-4.77799E+06 8.23859E+08 2.08456E+04
 -1      2274-4.30606E+08 1.06920E+06-3.77191E+06-3.03514E+06 8.42460E+08 2.37038E+03
 -1      2276-4.30606E+08 1.06920E+06-3.77191E+06-3.03514E+06 8.42460E+08 2.37038E+03
 -1      2277-4.56545E+08 1.10777E+06-3.82416E+06-1.67182E+05 8.58512E+08 2.35072E+04
 -1      2279-4.56545E+08 1.10777E+06-3.82416E+06-1.67182E+05 8.58512E+08 2.35072E+04
 -1      2280-4.70894E+08 3.23452E+06-3.91786E+06 5.25469E+06 8.72486E+08-5.00910E+04
 -1      2282-4.70894E+08 3.23452E+06-3.91786E+06 5.25469E+06 8.72486E+08-5.00910E+04
 -1      2283-4.68019E+08 2.62676E+06-3.91102E+06 1.35450E+07 8.83670E+08 1.66818E+05
 -1      2285-4.68019E+08 2.62676E+06-3.91102E+06 1.35450E+07 8.83670E+08 1.66818E+05
 -1      2286-4.38728E+08 2.08292E+06-4.04124E+06 2.27697E+07 8.92807E+08-1.60818E+05
 -1      2288-4.38728E+08 2.08292E+06-4.04124E+06 2.27697E+07 8.92807E+08-1.60818E+05
 -1      2289-3.72490E+08 2.39739E+07-3.96061E+06 5.12780E+07 8.98980E+08 1.29357E+06
 -1      2291-3.72490E+08 2.39739E+07-3.96061E+06 5.12780E+07 8.98980E+08 1.29357E+06
 -1      2292-2.58734E+08-4.84646E+06-3.77512E+06 9.05064E+07 9.02110E+08-2.40403E+05
 -1      2294-2.58734E+08-4.84646E+06-3.77512E+06 9.05064E+07 9.02110E+08-2.40403E+05
 -3
    1PSTEP                        67           1           1          
    1PGM                1.000000E+00                                  
    1PGK                1.786382E+07                                  
    1PHID                         -1                                  
    1PSUBC                         0                                  
    1PMODE                        17                                  
  100CL  117 672.6781674         930                     2   17MODAL      1
 -4  FORC        4    1
 -5  F1          1    2    1    0
 -5  F2          1    2    2    0
 -5  F3          1    2    3    0
 -5  ALL         1    2    0    0    1ALL
 -1       404 4.11299E+05 1.74841E+05 4.99936E+05
 -1       406-6.41750E+05-1.12476E+05 4.99936E+05
 -1       407 4.64653E+02 1.51891E+00-1.93420E+05
 -1       409 4.64653E+02 1.51892E+00-1.93420E+05
 -1       410-2.31659E+05-8.01202E-05 9.12086E+05
 -1       412-2.31659E+05 1.43201E-05 8.41279E+05
 -1       413 2.32183E+05-5.55753E+04-9.79436E+05
 -1       415 2.32183E+05 5.55753E+04-9.79436E+05
 -1       424-4.83817E+05 2.48693E-05-4.52253E+05
 -1       426 1.20109E+05 2.39405E-05-4.51429E+05
 -1       427-1.84110E+05 6.47095E+02-7.72108E+04
 -1       429-1.84110E+05-6.47095E+02-7.72108E+04
 -1       438 4.64653E+02-1.51892E+00-1.93420E+05
 -1       440 4.64653E+02-1.51891E+00-1.93420E+05
 -1       441 4.11299E+05-1.74841E+05 4.99936E+05
 -1       443-6.41750E+05 1.12476E+05 4.99936E+05
 -1       444-1.84110E+05 6.47095E+02 7.72108E+04
 -1       446-1.84110E+05-6.47095E+02 7.72108E+04
 -1       447-4.83817E+05-5.13767E-06 4.52253E+05
 -1       449 1.20109E+05-5.55368E-06 4.51429E+05
 -1       458 2.32183E+05-5.55753E+04 9.79436E+05
 -1       460 2.32183E+05 5.55753E+04 9.79436E+05
 -1       461-2.31659E+05 1.23113E-05-9.12086E+05
 -1       463-2.31659E+05 3.84898E-05-8.41279E+05
 -1       472 4.11299E+05-1.74841E+05-4.99936E+05
 -1       474-6.41750E+05 1.12476E+05-4.99936E+05
 -1       475 4.64653E+02-1.51892E+00 1.93420E+05
 -1       477 4.64653E+02-1.51892E+00 1.93420E+05
 -1       478 4.64653E+02 1.51891E+00 1.93420E+05
 -1       480 4.64653E+02 1.51891E+00 1.93420E+05
 -1       481 4.11299E+05 1.74841E+05-4.99936E+05
 -1       483-6.41750E+05-1.12476E+05-4.99936E+05
 -1       484 6.46464E+02-1.12099E+02-1.74489E+04
 -1       486 6.46464E+02-1.12099E+02-1.74489E+04
 -1       487 1.28513E+03-1.36498E+02-3.73938E+04
 -1       489 1.28513E+03-1.36498E+02-3.73938E+04
 -1       490 1.90872E+03-1.25008E+02-5.76343E+04
 -1       492 1.90872E+03-1.25008E+02-5.76343E+04
 -1       493 2.50548E+03-1.17993E+02-7.74339E+04
 -1       495 2.50548E+03-1.17993E+02-7.74339E+04
 -1       496 3.06347E+03-1.08913E+02-9.71387E+04
 -1       498 3.06347E+03-1.08913E+02-9.71387E+04
 -1       499 3.57543E+03-9.84838E+01-1.16545E+05
 -1       501 3.57543E+03-9.84838E+01-1.16545E+05
 -1       502 4.03631E+03-8.74834E+01-1.35671E+05
 -1       504 4.03631E+03-8.74834E+01-1.35671E+05
 -1       505 4.44235E+03-7.58851E+01-1.54437E+05
 -1       507 4.44235E+03-7.58851E+01-1.54437E+05
 -1       508 4.79099E+03-6.38843E+01-1.72801E+05
 -1       510 4.79099E+03-6.38843E+01-1.72801E+05
 -1       511 5.08031E+03-5.15812E+01-1.90709E+05
 -1       513 5.08031E+03-5.15812E+01-1.90709E+05
 -1       514 5.30903E+03-3.90820E+01-2.08109E+05
 -1       516 5.30903E+03-3.90820E+01-2.08109E+05
 -1       517 5.47639E+03-2.64888E+01-2.24951E+05
 -1       519 5.47639E+03-2.64888E+01-2.24951E+05
 -1       520 5.58214E+03-1.38993E+01-2.41188E+05
 -1       522 5.58214E+03-1.38993E+01-2.41188E+05
 -1       523 5.62653E+03-1.41383E+00-2.56771E+05
 -1       525 5.62653E+03-1.41383E+00-2.56771E+05
 -1       526 5.61029E+03 1.08726E+01-2.71656E+05
 -1       528 5.61029E+03 1.08726E+01-2.71656E+05
 -1       529 5.53461E+03 2.28630E+01-2.85799E+05
 -1       531 5.53461E+03 2.28630E+01-2.85799E+05
 -1       532 5.40116E+03 3.44673E+01-2.99159E+05
 -1       534 5.40116E+03 3.44673E+01-2.99159E+05
 -1       535 5.21208E+03 4.55917E+01-3.11698E+05
 -1       537 5.21208E+03 4.55917E+01-3.11698E+05
 -1       538 4.96992E+03 5.61539E+01-3.23378E+05
 -1       540 4.96992E+03 5.61539E+01-3.23378E+05
 -1       541 4.67776E+03 6.60560E+01-3.34167E+05
 -1       543 4.67776E+03 6.60560E+01-3.34167E+05
 -1       544 4.33916E+03 7.52178E+01-3.44033E+05
 -1       546 4.33916E+03 7.52178E+01-3.44033E+05
 -1       547 3.95846E+03 8.34867E+01-3.52948E+05
 -1       549 3.95846E+03 8.34867E+01-3.52948E+05
 -1       550 3.54097E+03 9.07736E+01-3.60891E+05
 -1       552 3.54097E+03 9.07736E+01-3.60891E+05
 -1       553 3.09390E+03 9.64210E+01-3.67842E+05
 -1       555 3.09390E+03 9.64210E+01-3.67842E+05
 -1       556 2.62745E+03 1.00926E+02-3.73789E+05
 -1       558 2.62745E+03 1.00926E+02-3.73789E+05
 -1       559 2.15779E+03 1.00637E+02-3.78717E+05
 -1       561 2.15779E+03 1.00637E+02-3.78717E+05
 -1       562 1.70503E+03 9.34470E+01-3.82600E+05
 -1       564 1.70503E+03 9.34470E+01-3.82600E+05
 -1       565 1.30231E+03 9.87479E+01-3.85323E+05
 -1       567 1.30231E+03 9.87479E+01-3.85323E+05
 -1       568 1.02431E+03 5.58593E+01-3.86605E+05
 -1       570 1.02431E+03 5.58593E+01-3.86605E+05
 -1       571 8.24035E+02 1.91787E+00-2.42561E+05
 -1       573 8.24035E+02 1.91787E+00-2.42561E+05
 -1       574 2.35956E+04-1.72629E-05-1.07101E+05
 -1       576 2.35956E+04-2.03471E-05-1.03099E+05
 -1       577-2.12558E+04 3.14120E+03 9.74974E+04
 -1       579-2.12558E+04-3.14120E+03 9.74974E+04
 -1       588 7.50463E+03-2.21482E-05 2.30353E+05
 -1       590 7.50463E+03-2.12164E-05 2.13851E+05
 -1       591-2.84487E+03-1.29521E+04-2.40394E+05
 -1       593-2.84487E+03 1.29521E+04-2.40394E+05
 -1       602 2.31305E+04 2.36138E-06 2.63851E+05
 -1       604 2.31305E+04 4.26498E-06 2.40592E+05
 -1       605-1.62509E+04-1.82562E+04-2.81648E+05
 -1       607-1.62509E+04 1.82562E+04-2.81648E+05
 -1       616 3.44104E+04 5.96109E-06 3.54292E+05
 -1       618 3.44104E+04-5.19953E-06 3.27611E+05
 -1       619-2.54520E+04-2.09416E+04-3.81002E+05
 -1       621-2.54520E+04 2.09416E+04-3.81002E+05
 -1       630 3.70629E+04 2.40822E-06 4.66481E+05
 -1       632 3.70629E+04-1.70837E-05 4.27985E+05
 -1       633-2.61782E+04-3.02144E+04-4.97903E+05
 -1       635-2.61782E+04 3.02144E+04-4.97903E+05
 -1       644 4.11214E+04 5.00865E-06 5.37489E+05
 -1       646 4.11214E+04-1.30887E-05 4.95371E+05
 -1       647-2.84813E+04-3.30578E+04-5.77510E+05
 -1       649-2.84813E+04 3.30578E+04-5.77510E+05
 -1       658 4.15684E+04 1.41619E-05 6.43478E+05
 -1       660 4.15684E+04-5.13055E-06 5.91555E+05
 -1       661-2.73547E+04-4.07537E+04-6.88856E+05
 -1       663-2.73547E+04 4.07537E+04-6.88856E+05
 -1       672 4.26771E+04 1.48896E-05 7.19972E+05
 -1       674 4.26771E+04-7.75154E-06 6.62798E+05
 -1       675-2.70812E+04-4.48746E+04-7.72789E+05
 -1       677-2.70812E+04 4.48746E+04-7.72789E+05
 -1       686 4.24391E+04 1.77438E-05 8.14310E+05
 -1       688 4.24391E+04-1.22668E-05 7.49068E+05
 -1       689-2.56596E+04-5.12075E+04-8.72942E+05
 -1       691-2.56596E+04 5.12075E+04-8.72942E+05
 -1       700 4.24344E+04 1.99526E-05 8.93061E+05
 -1       702 4.24344E+04-4.76082E-06 8.21850E+05
 -1       703-2.46759E+04-5.58924E+04-9.58317E+05
 -1       705-2.46759E+04 5.58924E+04-9.58317E+05
 -1       714 4.18146E+04 1.36324E-05 9.78381E+05
 -1       716 4.18146E+04 8.86888E-06 9.00163E+05
 -1       717-2.32855E+04-6.13923E+04-1.04947E+06
 -1       719-2.32855E+04 6.13923E+04-1.04947E+06
 -1       728 4.11849E+04-2.00972E-05 1.05520E+06
 -1       730 4.11849E+04 7.61938E-07 9.70957E+05
 -1       731-2.20963E+04-6.61238E+04-1.13233E+06
 -1       733-2.20963E+04 6.61238E+04-1.13233E+06
 -1       742 4.01996E+04-4.52374E-05 1.13301E+06
 -1       744 4.01996E+04 5.50504E-06 1.04249E+06
 -1       745-2.07632E+04-7.10530E+04-1.21572E+06
 -1       747-2.07632E+04 7.10530E+04-1.21572E+06
 -1       756 3.90857E+04-3.25648E-05 1.20527E+06
 -1       758 3.90857E+04 4.43084E-05 1.10901E+06
 -1       759-1.95123E+04-7.55532E+04-1.29348E+06
 -1       761-1.95123E+04 7.55532E+04-1.29348E+06
 -1       770 3.77255E+04-4.00039E-05 1.27586E+06
 -1       772 3.77255E+04 4.44567E-05 1.17392E+06
 -1       773-1.82235E+04-8.00054E+04-1.36923E+06
 -1       775-1.82235E+04 8.00054E+04-1.36923E+06
 -1       784 3.61784E+04-3.30959E-05 1.34190E+06
 -1       786 3.61784E+04 4.26223E-05 1.23473E+06
 -1       787-1.69519E+04-8.41176E+04-1.44027E+06
 -1       789-1.69519E+04 8.41176E+04-1.44027E+06
 -1       798 3.44492E+04-1.90563E-05 1.40498E+06
 -1       800 3.44492E+04 5.09964E-05 1.29272E+06
 -1       801-1.56967E+04-8.81177E+04-1.50798E+06
 -1       803-1.56967E+04 8.81177E+04-1.50798E+06
 -1       812 3.24715E+04-3.62082E-05 1.46370E+06
 -1       814 3.24715E+04 4.47014E-05 1.34683E+06
 -1       815-1.43841E+04-9.17314E+04-1.57115E+06
 -1       817-1.43841E+04 9.17314E+04-1.57115E+06
 -1       826 3.03533E+04-4.56212E-05 1.51878E+06
 -1       828 3.03533E+04 4.25793E-05 1.39737E+06
 -1       829-1.31134E+04-9.52898E+04-1.63024E+06
 -1       831-1.31134E+04 9.52898E+04-1.63024E+06
 -1       840 2.77913E+04-4.82586E-05 1.56931E+06
 -1       842 2.77913E+04 4.49351E-05 1.44407E+06
 -1       843-1.15714E+04-9.83037E+04-1.68467E+06
 -1       845-1.15714E+04 9.83037E+04-1.68467E+06
 -1       854 2.50085E+04-4.94385E-05 1.61587E+06
 -1       856 2.50085E+04 5.35743E-05 1.48663E+06
 -1       857-9.96941E+03-1.01438E+05-1.73455E+06
 -1       859-9.96941E+03 1.01438E+05-1.73455E+06
 -1       868 2.10052E+04-5.48407E-05 1.65757E+06
 -1       870 2.10052E+04 6.57377E-05 1.52538E+06
 -1       871-7.29496E+03-1.03752E+05-1.77960E+06
 -1       873-7.29496E+03 1.03752E+05-1.77960E+06
 -1       882 1.60037E+04-6.84773E-05 1.69512E+06
 -1       884 1.60037E+04 7.71051E-05 1.55948E+06
 -1       885-3.75614E+03-1.06463E+05-1.81973E+06
 -1       887-3.75614E+03 1.06463E+05-1.81973E+06
 -1       896 7.20394E+03-6.70132E-05 1.72765E+06
 -1       898 7.20394E+03 1.06874E-04 1.59003E+06
 -1       899 3.46342E+03-1.08018E+05-1.85508E+06
 -1       901 3.46342E+03 1.08018E+05-1.85508E+06
 -1       910-6.65619E+03-6.85772E-05 1.75558E+06
 -1       912-6.65619E+03 1.19578E-04 1.61518E+06
 -1       913 1.56446E+04-1.10193E+05-1.88496E+06
 -1       915 1.56446E+04 1.10193E+05-1.88496E+06
 -1       924-2.89982E+04-8.53551E-05 1.77942E+06
 -1       926-2.89982E+04 1.23903E-04 1.63819E+06
 -1       927 3.62336E+04-1.10849E+05-1.91124E+06
 -1       929 3.62336E+04 1.10849E+05-1.91124E+06
 -1       938-6.52606E+04-1.07551E-04 1.79585E+06
 -1       940-6.52606E+04 1.39138E-04 1.65231E+06
 -1       941 7.07141E+04-1.12656E+05-1.92887E+06
 -1       943 7.07141E+04 1.12656E+05-1.92887E+06
 -1       952-1.13573E+05-1.09177E-04 1.81428E+06
 -1       954-1.13573E+05 1.50394E-04 1.67200E+06
 -1       955 1.17254E+05-1.11668E+05-1.94949E+06
 -1       957 1.17254E+05 1.11668E+05-1.94949E+06
 -1       966-1.76426E+05-8.79448E-05 1.80381E+06
 -1       968-1.76426E+05 1.39858E-04 1.66510E+06
 -1       969 1.78348E+05-1.08865E+05-1.94064E+06
 -1       971 1.78348E+05 1.08865E+05-1.94064E+06
 -1       980 1.82977E+05 1.35795E+05-2.05263E+05
 -1       982-5.68110E+05-1.00311E+05-2.05263E+05
 -1       983 8.24035E+02-1.91787E+00-2.42561E+05
 -1       985 8.24035E+02-1.91787E+00-2.42561E+05
 -1       986 6.46464E+02 1.12099E+02-1.74489E+04
 -1       988 6.46464E+02 1.12099E+02-1.74489E+04
 -1       989 1.28513E+03 1.36498E+02-3.73938E+04
 -1       991 1.28513E+03 1.36498E+02-3.73938E+04
 -1       992 1.90872E+03 1.25008E+02-5.76343E+04
 -1       994 1.90872E+03 1.25008E+02-5.76343E+04
 -1       995 2.50548E+03 1.17993E+02-7.74339E+04
 -1       997 2.50548E+03 1.17993E+02-7.74339E+04
 -1       998 3.06347E+03 1.08913E+02-9.71387E+04
 -1      1000 3.06347E+03 1.08913E+02-9.71387E+04
 -1      1001 3.57543E+03 9.84838E+01-1.16545E+05
 -1      1003 3.57543E+03 9.84838E+01-1.16545E+05
 -1      1004 4.03631E+03 8.74834E+01-1.35671E+05
 -1      1006 4.03631E+03 8.74834E+01-1.35671E+05
 -1      1007 4.44235E+03 7.58851E+01-1.54437E+05
 -1      1009 4.44235E+03 7.58851E+01-1.54437E+05
 -1      1010 4.79099E+03 6.38843E+01-1.72801E+05
 -1      1012 4.79099E+03 6.38843E+01-1.72801E+05
 -1      1013 5.08031E+03 5.15812E+01-1.90709E+05
 -1      1015 5.08031E+03 5.15812E+01-1.90709E+05
 -1      1016 5.30903E+03 3.90820E+01-2.08109E+05
 -1      1018 5.30903E+03 3.90820E+01-2.08109E+05
 -1      1019 5.47639E+03 2.64888E+01-2.24951E+05
 -1      1021 5.47639E+03 2.64888E+01-2.24951E+05
 -1      1022 5.58214E+03 1.38993E+01-2.41188E+05
 -1      1024 5.58214E+03 1.38993E+01-2.41188E+05
 -1      1025 5.62653E+03 1.41383E+00-2.56771E+05
 -1      1027 5.62653E+03 1.41383E+00-2.56771E+05
 -1      1028 5.61029E+03-1.08726E+01-2.71656E+05
 -1      1030 5.61029E+03-1.08726E+01-2.71656E+05
 -1      1031 5.53461E+03-2.28630E+01-2.85799E+05
 -1      1033 5.53461E+03-2.28630E+01-2.85799E+05
 -1      1034 5.40116E+03-3.44673E+01-2.99159E+05
 -1      1036 5.40116E+03-3.44673E+01-2.99159E+05
 -1      1037 5.21208E+03-4.55917E+01-3.11698E+05
 -1      1039 5.21208E+03-4.55917E+01-3.11698E+05
 -1      1040 4.96992E+03-5.61539E+01-3.23378E+05
 -1      1042 4.96992E+03-5.61539E+01-3.23378E+05
 -1      1043 4.67776E+03-6.60560E+01-3.34167E+05
 -1      1045 4.67776E+03-6.60560E+01-3.34167E+05
 -1      1046 4.33916E+03-7.52178E+01-3.44033E+05
 -1      1048 4.33916E+03-7.52178E+01-3.44033E+05
 -1      1049 3.95846E+03-8.34867E+01-3.52948E+05
 -1      1051 3.95846E+03-8.34867E+01-3.52948E+05
 -1      1052 3.54097E+03-9.07736E+01-3.60891E+05
 -1      1054 3.54097E+03-9.07736E+01-3.60891E+05
 -1      1055 3.09390E+03-9.64210E+01-3.67842E+05
 -1      1057 3.09390E+03-9.64210E+01-3.67842E+05
 -1      1058 2.62745E+03-1.00926E+02-3.73789E+05
 -1      1060 2.62745E+03-1.00926E+02-3.73789E+05
 -1      1061 2.15779E+03-1.00637E+02-3.78717E+05
 -1      1063 2.15779E+03-1.00637E+02-3.78717E+05
 -1      1064 1.70503E+03-9.34470E+01-3.82600E+05
 -1      1066 1.70503E+03-9.34470E+01-3.82600E+05
 -1      1067 1.30231E+03-9.87479E+01-3.85323E+05
 -1      1069 1.30231E+03-9.87480E+01-3.85323E+05
 -1      1070 1.02431E+03-5.58593E+01-3.86605E+05
 -1      1072 1.02431E+03-5.58593E+01-3.86605E+05
 -1      1073 1.82977E+05-1.35795E+05-2.05263E+05
 -1      1075-5.68110E+05 1.00311E+05-2.05263E+05
 -1      1076-3.41382E+05 1.11748E-05-6.46004E+04
 -1      1078-3.41382E+05 1.30497E-05-6.46004E+04
 -1      1079-3.81806E+05-1.99589E-06-2.27818E-05
 -1      1081-3.81806E+05 6.05432E-07-1.93321E-05
 -1      1082-3.41382E+05 9.09823E-06 6.46004E+04
 -1      1084-3.41382E+05 1.06301E-05 6.46004E+04
 -1      1085-2.12558E+04 3.14120E+03-9.74974E+04
 -1      1087-2.12558E+04-3.14120E+03-9.74974E+04
 -1      1088 2.35956E+04-2.39364E-07 1.07101E+05
 -1      1090 2.35956E+04 2.24892E-05 1.03099E+05
 -1      1099-2.84487E+03-1.29521E+04 2.40394E+05
 -1      1101-2.84487E+03 1.29521E+04 2.40394E+05
 -1      1102 7.50463E+03-3.24142E-05-2.30353E+05
 -1      1104 7.50463E+03 4.04969E-05-2.13851E+05
 -1      1113-1.62509E+04-1.82562E+04 2.81648E+05
 -1      1115-1.62509E+04 1.82562E+04 2.81648E+05
 -1      1116 2.31305E+04-3.74879E-05-2.63851E+05
 -1      1118 2.31305E+04 6.19515E-05-2.40592E+05
 -1      1127-2.54520E+04-2.09416E+04 3.81002E+05
 -1      1129-2.54520E+04 2.09416E+04 3.81002E+05
 -1      1130 3.44104E+04-4.53515E-05-3.54292E+05
 -1      1132 3.44104E+04 5.01759E-05-3.27611E+05
 -1      1141-2.61782E+04-3.02144E+04 4.97903E+05
 -1      1143-2.61782E+04 3.02144E+04 4.97903E+05
 -1      1144 3.70629E+04-5.49176E-05-4.66481E+05
 -1      1146 3.70629E+04 2.22336E-05-4.27985E+05
 -1      1155-2.84813E+04-3.30578E+04 5.77510E+05
 -1      1157-2.84813E+04 3.30578E+04 5.77510E+05
 -1      1158 4.11214E+04-4.31818E-05-5.37489E+05
 -1      1160 4.11214E+04 2.17944E-05-4.95371E+05
 -1      1169-2.73547E+04-4.07537E+04 6.88856E+05
 -1      1171-2.73547E+04 4.07537E+04 6.88856E+05
 -1      1172 4.15684E+04-3.82635E-05-6.43478E+05
 -1      1174 4.15684E+04 1.94006E-05-5.91555E+05
 -1      1183-2.70812E+04-4.48746E+04 7.72789E+05
 -1      1185-2.70812E+04 4.48746E+04 7.72789E+05
 -1      1186 4.26771E+04-3.68442E-05-7.19972E+05
 -1      1188 4.26771E+04 2.18624E-05-6.62798E+05
 -1      1197-2.56596E+04-5.12075E+04 8.72942E+05
 -1      1199-2.56596E+04 5.12075E+04 8.72942E+05
 -1      1200 4.24391E+04-2.78278E-05-8.14310E+05
 -1      1202 4.24391E+04 3.17632E-05-7.49068E+05
 -1      1211-2.46759E+04-5.58924E+04 9.58317E+05
 -1      1213-2.46759E+04 5.58924E+04 9.58317E+05
 -1      1214 4.24344E+04-1.58914E-05-8.93061E+05
 -1      1216 4.24344E+04 3.99226E-05-8.21850E+05
 -1      1225-2.32855E+04-6.13923E+04 1.04947E+06
 -1      1227-2.32855E+04 6.13923E+04 1.04947E+06
 -1      1228 4.18146E+04 1.64584E-06-9.78381E+05
 -1      1230 4.18146E+04 4.52721E-05-9.00163E+05
 -1      1239-2.20963E+04-6.61238E+04 1.13233E+06
 -1      1241-2.20963E+04 6.61238E+04 1.13233E+06
 -1      1242 4.11849E+04-2.49327E-05-1.05520E+06
 -1      1244 4.11849E+04-1.09825E-06-9.70957E+05
 -1      1253-2.07632E+04-7.10530E+04 1.21572E+06
 -1      1255-2.07632E+04 7.10530E+04 1.21572E+06
 -1      1256 4.01996E+04-2.88233E-05-1.13301E+06
 -1      1258 4.01996E+04-3.42252E-06-1.04249E+06
 -1      1267-1.95123E+04-7.55532E+04 1.29348E+06
 -1      1269-1.95123E+04 7.55532E+04 1.29348E+06
 -1      1270 3.90857E+04-1.07053E-05-1.20527E+06
 -1      1272 3.90857E+04 5.00640E-05-1.10901E+06
 -1      1281-1.82235E+04-8.00054E+04 1.36923E+06
 -1      1283-1.82235E+04 8.00054E+04 1.36923E+06
 -1      1284 3.77255E+04-2.41718E-05-1.27586E+06
 -1      1286 3.77255E+04 6.79471E-05-1.17392E+06
 -1      1295-1.69519E+04-8.41176E+04 1.44027E+06
 -1      1297-1.69519E+04 8.41176E+04 1.44027E+06
 -1      1298 3.61784E+04-5.21722E-05-1.34190E+06
 -1      1300 3.61784E+04 8.16622E-05-1.23473E+06
 -1      1309-1.56967E+04-8.81177E+04 1.50798E+06
 -1      1311-1.56967E+04 8.81177E+04 1.50798E+06
 -1      1312 3.44492E+04-8.12287E-05-1.40498E+06
 -1      1314 3.44492E+04 9.00530E-05-1.29272E+06
 -1      1323-1.43841E+04-9.17314E+04 1.57115E+06
 -1      1325-1.43841E+04 9.17314E+04 1.57115E+06
 -1      1326 3.24715E+04-1.09733E-04-1.46370E+06
 -1      1328 3.24715E+04 9.54876E-05-1.34683E+06
 -1      1337-1.31134E+04-9.52898E+04 1.63024E+06
 -1      1339-1.31134E+04 9.52898E+04 1.63024E+06
 -1      1340 3.03533E+04-1.13545E-04-1.51878E+06
 -1      1342 3.03533E+04 9.68252E-05-1.39737E+06
 -1      1351-1.15714E+04-9.83037E+04 1.68467E+06
 -1      1353-1.15714E+04 9.83037E+04 1.68467E+06
 -1      1354 2.77913E+04-1.10957E-04-1.56931E+06
 -1      1356 2.77913E+04 8.05272E-05-1.44407E+06
 -1      1365-9.96941E+03-1.01438E+05 1.73455E+06
 -1      1367-9.96941E+03 1.01438E+05 1.73455E+06
 -1      1368 2.50085E+04-8.92663E-05-1.61587E+06
 -1      1370 2.50085E+04 8.63337E-05-1.48663E+06
 -1      1379-7.29496E+03-1.03752E+05 1.77960E+06
 -1      1381-7.29496E+03 1.03752E+05 1.77960E+06
 -1      1382 2.10052E+04-8.40199E-05-1.65757E+06
 -1      1384 2.10052E+04 7.98353E-05-1.52538E+06
 -1      1393-3.75614E+03-1.06463E+05 1.81973E+06
 -1      1395-3.75614E+03 1.06463E+05 1.81973E+06
 -1      1396 1.60037E+04-9.46950E-05-1.69512E+06
 -1      1398 1.60037E+04 6.90581E-05-1.55948E+06
 -1      1407 3.46342E+03-1.08018E+05 1.85508E+06
 -1      1409 3.46342E+03 1.08018E+05 1.85508E+06
 -1      1410 7.20394E+03-7.48310E-05-1.72765E+06
 -1      1412 7.20394E+03 7.93122E-05-1.59003E+06
 -1      1421 1.56446E+04-1.10193E+05 1.88496E+06
 -1      1423 1.56446E+04 1.10193E+05 1.88496E+06
 -1      1424-6.65619E+03-3.87928E-05-1.75558E+06
 -1      1426-6.65619E+03 8.12587E-05-1.61518E+06
 -1      1435 3.62336E+04-1.10849E+05 1.91124E+06
 -1      1437 3.62336E+04 1.10849E+05 1.91124E+06
 -1      1438-2.89982E+04-2.29077E-05-1.77942E+06
 -1      1440-2.89982E+04 5.52348E-05-1.63819E+06
 -1      1449 7.07141E+04-1.12656E+05 1.92887E+06
 -1      1451 7.07141E+04 1.12656E+05 1.92887E+06
 -1      1452-6.52606E+04-2.21450E-05-1.79585E+06
 -1      1454-6.52606E+04 4.73397E-05-1.65231E+06
 -1      1463 1.17254E+05-1.11668E+05 1.94949E+06
 -1      1465 1.17254E+05 1.11668E+05 1.94949E+06
 -1      1466-1.13573E+05-2.28935E-05-1.81428E+06
 -1      1468-1.13573E+05 2.98874E-05-1.67200E+06
 -1      1477 1.78348E+05-1.08865E+05 1.94064E+06
 -1      1479 1.78348E+05 1.08865E+05 1.94064E+06
 -1      1480-1.76426E+05-2.67090E-05-1.80381E+06
 -1      1482-1.76426E+05 1.46161E-05-1.66510E+06
 -1      1491-1.16666E+03 4.32379E-05-5.95294E+03
 -1      1493-1.16666E+03-3.24248E-05-5.95294E+03
 -1      1494-1.94314E+03 4.30158E-05 3.34116E-06
 -1      1496-1.94314E+03-5.69356E-05-1.28557E-06
 -1      1497-1.16666E+03 2.77326E-05 5.95294E+03
 -1      1499-1.16666E+03-2.70765E-05 5.95294E+03
 -1      1500 6.46464E+02 1.12099E+02 1.74489E+04
 -1      1502 6.46464E+02 1.12099E+02 1.74489E+04
 -1      1503 1.28513E+03 1.36498E+02 3.73938E+04
 -1      1505 1.28513E+03 1.36498E+02 3.73938E+04
 -1      1506 1.90872E+03 1.25008E+02 5.76343E+04
 -1      1508 1.90872E+03 1.25008E+02 5.76343E+04
 -1      1509 2.50548E+03 1.17993E+02 7.74339E+04
 -1      1511 2.50548E+03 1.17993E+02 7.74339E+04
 -1      1512 3.06347E+03 1.08913E+02 9.71387E+04
 -1      1514 3.06347E+03 1.08913E+02 9.71387E+04
 -1      1515 3.57543E+03 9.84838E+01 1.16545E+05
 -1      1517 3.57543E+03 9.84838E+01 1.16545E+05
 -1      1518 4.03631E+03 8.74834E+01 1.35671E+05
 -1      1520 4.03631E+03 8.74834E+01 1.35671E+05
 -1      1521 4.44235E+03 7.58851E+01 1.54437E+05
 -1      1523 4.44235E+03 7.58851E+01 1.54437E+05
 -1      1524 4.79099E+03 6.38843E+01 1.72801E+05
 -1      1526 4.79099E+03 6.38843E+01 1.72801E+05
 -1      1527 5.08031E+03 5.15812E+01 1.90709E+05
 -1      1529 5.08031E+03 5.15812E+01 1.90709E+05
 -1      1530 5.30903E+03 3.90820E+01 2.08109E+05
 -1      1532 5.30903E+03 3.90820E+01 2.08109E+05
 -1      1533 5.47639E+03 2.64888E+01 2.24951E+05
 -1      1535 5.47639E+03 2.64888E+01 2.24951E+05
 -1      1536 5.58214E+03 1.38993E+01 2.41188E+05
 -1      1538 5.58214E+03 1.38993E+01 2.41188E+05
 -1      1539 5.62653E+03 1.41383E+00 2.56771E+05
 -1      1541 5.62653E+03 1.41383E+00 2.56771E+05
 -1      1542 5.61029E+03-1.08726E+01 2.71656E+05
 -1      1544 5.61029E+03-1.08726E+01 2.71656E+05
 -1      1545 5.53461E+03-2.28630E+01 2.85799E+05
 -1      1547 5.53461E+03-2.28630E+01 2.85799E+05
 -1      1548 5.40116E+03-3.44673E+01 2.99159E+05
 -1      1550 5.40116E+03-3.44673E+01 2.99159E+05
 -1      1551 5.21208E+03-4.55917E+01 3.11698E+05
 -1      1553 5.21208E+03-4.55917E+01 3.11698E+05
 -1      1554 4.96992E+03-5.61539E+01 3.23378E+05
 -1      1556 4.96992E+03-5.61539E+01 3.23378E+05
 -1      1557 4.67776E+03-6.60560E+01 3.34167E+05
 -1      1559 4.67776E+03-6.60560E+01 3.34167E+05
 -1      1560 4.33916E+03-7.52178E+01 3.44033E+05
 -1      1562 4.33916E+03-7.52178E+01 3.44033E+05
 -1      1563 3.95846E+03-8.34867E+01 3.52948E+05
 -1      1565 3.95846E+03-8.34867E+01 3.52948E+05
 -1      1566 3.54097E+03-9.07736E+01 3.60891E+05
 -1      1568 3.54097E+03-9.07736E+01 3.60891E+05
 -1      1569 3.09390E+03-9.64210E+01 3.67842E+05
 -1      1571 3.09390E+03-9.64210E+01 3.67842E+05
 -1      1572 2.62745E+03-1.00926E+02 3.73789E+05
 -1      1574 2.62745E+03-1.00926E+02 3.73789E+05
 -1      1575 2.15779E+03-1.00637E+02 3.78717E+05
 -1      1577 2.15779E+03-1.00637E+02 3.78717E+05
 -1      1578 1.70503E+03-9.34470E+01 3.82600E+05
 -1      1580 1.70503E+03-9.34470E+01 3.82600E+05
 -1      1581 1.30231E+03-9.87480E+01 3.85323E+05
 -1      1583 1.30231E+03-9.87480E+01 3.85323E+05
 -1      1584 1.02431E+03-5.58593E+01 3.86605E+05
 -1      1586 1.02431E+03-5.58593E+01 3.86605E+05
 -1      1587 8.24035E+02-1.91788E+00 2.42561E+05
 -1      1589 8.24035E+02-1.91788E+00 2.42561E+05
 -1      1590 1.82977E+05-1.35795E+05 2.05263E+05
 -1      1592-5.68110E+05 1.00311E+05 2.05263E+05
 -1      1593 8.24035E+02 1.91787E+00 2.42561E+05
 -1      1595 8.24035E+02 1.91787E+00 2.42561E+05
 -1      1596 6.46464E+02-1.12099E+02 1.74489E+04
 -1      1598 6.46464E+02-1.12099E+02 1.74489E+04
 -1      1599 1.28513E+03-1.36498E+02 3.73938E+04
 -1      1601 1.28513E+03-1.36498E+02 3.73938E+04
 -1      1602 1.90872E+03-1.25008E+02 5.76343E+04
 -1      1604 1.90872E+03-1.25008E+02 5.76343E+04
 -1      1605 2.50548E+03-1.17993E+02 7.74339E+04
 -1      1607 2.50548E+03-1.17993E+02 7.74339E+04
 -1      1608 3.06347E+03-1.08913E+02 9.71387E+04
 -1      1610 3.06347E+03-1.08913E+02 9.71387E+04
 -1      1611 3.57543E+03-9.84838E+01 1.16545E+05
 -1      1613 3.57543E+03-9.84838E+01 1.16545E+05
 -1      1614 4.03631E+03-8.74834E+01 1.35671E+05
 -1      1616 4.03631E+03-8.74834E+01 1.35671E+05
 -1      1617 4.44235E+03-7.58851E+01 1.54437E+05
 -1      1619 4.44235E+03-7.58851E+01 1.54437E+05
 -1      1620 4.79099E+03-6.38843E+01 1.72801E+05
 -1      1622 4.79099E+03-6.38843E+01 1.72801E+05
 -1      1623 5.08031E+03-5.15812E+01 1.90709E+05
 -1      1625 5.08031E+03-5.15812E+01 1.90709E+05
 -1      1626 5.30903E+03-3.90820E+01 2.08109E+05
 -1      1628 5.30903E+03-3.90820E+01 2.08109E+05
 -1      1629 5.47639E+03-2.64888E+01 2.24951E+05
 -1      1631 5.47639E+03-2.64888E+01 2.24951E+05
 -1      1632 5.58214E+03-1.38993E+01 2.41188E+05
 -1      1634 5.58214E+03-1.38993E+01 2.41188E+05
 -1      1635 5.62653E+03-1.41383E+00 2.56771E+05
 -1      1637 5.62653E+03-1.41383E+00 2.56771E+05
 -1      1638 5.61029E+03 1.08726E+01 2.71656E+05
 -1      1640 5.61029E+03 1.08726E+01 2.71656E+05
 -1      1641 5.53461E+03 2.28630E+01 2.85799E+05
 -1      1643 5.53461E+03 2.28630E+01 2.85799E+05
 -1      1644 5.40116E+03 3.44673E+01 2.99159E+05
 -1      1646 5.40116E+03 3.44672E+01 2.99159E+05
 -1      1647 5.21208E+03 4.55917E+01 3.11698E+05
 -1      1649 5.21208E+03 4.55917E+01 3.11698E+05
 -1      1650 4.96992E+03 5.61539E+01 3.23378E+05
 -1      1652 4.96992E+03 5.61539E+01 3.23378E+05
 -1      1653 4.67776E+03 6.60560E+01 3.34167E+05
 -1      1655 4.67776E+03 6.60560E+01 3.34167E+05
 -1      1656 4.33916E+03 7.52178E+01 3.44033E+05
 -1      1658 4.33916E+03 7.52178E+01 3.44033E+05
 -1      1659 3.95846E+03 8.34867E+01 3.52948E+05
 -1      1661 3.95846E+03 8.34867E+01 3.52948E+05
 -1      1662 3.54097E+03 9.07736E+01 3.60891E+05
 -1      1664 3.54097E+03 9.07736E+01 3.60891E+05
 -1      1665 3.09390E+03 9.64210E+01 3.67842E+05
 -1      1667 3.09390E+03 9.64210E+01 3.67842E+05
 -1      1668 2.62745E+03 1.00926E+02 3.73789E+05
 -1      1670 2.62745E+03 1.00926E+02 3.73789E+05
 -1      1671 2.15779E+03 1.00637E+02 3.78717E+05
 -1      1673 2.15779E+03 1.00637E+02 3.78717E+05
 -1      1674 1.70503E+03 9.34470E+01 3.82600E+05
 -1      1676 1.70503E+03 9.34470E+01 3.82600E+05
 -1      1677 1.30231E+03 9.87479E+01 3.85323E+05
 -1      1679 1.30231E+03 9.87479E+01 3.85323E+05
 -1      1680 1.02431E+03 5.58593E+01 3.86605E+05
 -1      1682 1.02431E+03 5.58593E+01 3.86605E+05
 -1      1683 1.82977E+05 1.35795E+05 2.05263E+05
 -1      1685-5.68110E+05-1.00311E+05 2.05263E+05
 -1      1686 1.28794E+03-1.48452E+02-2.13378E+04
 -1      1688 1.28794E+03-1.48452E+02-2.13378E+04
 -1      1689 2.57335E+03-1.82460E+02-4.64103E+04
 -1      1691 2.57335E+03-1.82460E+02-4.64103E+04
 -1      1692 3.82872E+03-1.66985E+02-7.19240E+04
 -1      1694 3.82872E+03-1.66985E+02-7.19240E+04
 -1      1695 5.02549E+03-1.57256E+02-9.67815E+04
 -1      1697 5.02549E+03-1.57256E+02-9.67815E+04
 -1      1698 6.14367E+03-1.45238E+02-1.21539E+05
 -1      1700 6.14367E+03-1.45238E+02-1.21539E+05
 -1      1701 7.16869E+03-1.31179E+02-1.45904E+05
 -1      1703 7.16869E+03-1.31179E+02-1.45904E+05
 -1      1704 8.09081E+03-1.16508E+02-1.69918E+05
 -1      1706 8.09081E+03-1.16508E+02-1.69918E+05
 -1      1707 8.90296E+03-1.00987E+02-1.93479E+05
 -1      1709 8.90296E+03-1.00987E+02-1.93479E+05
 -1      1710 9.60009E+03-8.49663E+01-2.16537E+05
 -1      1712 9.60009E+03-8.49663E+01-2.16537E+05
 -1      1713 1.01785E+04-6.85278E+01-2.39021E+05
 -1      1715 1.01785E+04-6.85278E+01-2.39021E+05
 -1      1716 1.06355E+04-5.18397E+01-2.60870E+05
 -1      1718 1.06355E+04-5.18397E+01-2.60870E+05
 -1      1719 1.09698E+04-3.50209E+01-2.82020E+05
 -1      1721 1.09698E+04-3.50209E+01-2.82020E+05
 -1      1722 1.11808E+04-1.82124E+01-3.02409E+05
 -1      1724 1.11808E+04-1.82124E+01-3.02409E+05
 -1      1725 1.12690E+04-1.54032E+00-3.21980E+05
 -1      1727 1.12690E+04-1.54032E+00-3.21980E+05
 -1      1728 1.12358E+04 1.48627E+01-3.40674E+05
 -1      1730 1.12358E+04 1.48627E+01-3.40674E+05
 -1      1731 1.10838E+04 3.08729E+01-3.58437E+05
 -1      1733 1.10838E+04 3.08729E+01-3.58437E+05
 -1      1734 1.08161E+04 4.63634E+01-3.75218E+05
 -1      1736 1.08161E+04 4.63634E+01-3.75218E+05
 -1      1737 1.04371E+04 6.12194E+01-3.90967E+05
 -1      1739 1.04371E+04 6.12194E+01-3.90967E+05
 -1      1740 9.95185E+03 7.53159E+01-4.05640E+05
 -1      1742 9.95185E+03 7.53159E+01-4.05640E+05
 -1      1743 9.36647E+03 8.85506E+01-4.19192E+05
 -1      1745 9.36647E+03 8.85506E+01-4.19192E+05
 -1      1746 8.68803E+03 1.00773E+02-4.31587E+05
 -1      1748 8.68803E+03 1.00773E+02-4.31587E+05
 -1      1749 7.92496E+03 1.11868E+02-4.42792E+05
 -1      1751 7.92496E+03 1.11868E+02-4.42792E+05
 -1      1752 7.08754E+03 1.21587E+02-4.52779E+05
 -1      1754 7.08754E+03 1.21587E+02-4.52779E+05
 -1      1755 6.18947E+03 1.29306E+02-4.61531E+05
 -1      1757 6.18947E+03 1.29306E+02-4.61531E+05
 -1      1758 5.24992E+03 1.35368E+02-4.69038E+05
 -1      1760 5.24992E+03 1.35368E+02-4.69038E+05
 -1      1761 4.29830E+03 1.35461E+02-4.75286E+05
 -1      1763 4.29830E+03 1.35461E+02-4.75286E+05
 -1      1764 3.37969E+03 1.25323E+02-4.80237E+05
 -1      1766 3.37969E+03 1.25323E+02-4.80237E+05
 -1      1767 2.55148E+03 1.35014E+02-4.83682E+05
 -1      1769 2.55148E+03 1.35014E+02-4.83682E+05
 -1      1770 1.90785E+03 7.79894E+01-4.85051E+05
 -1      1772 1.90785E+03 7.79894E+01-4.85051E+05
 -1      1773 1.28794E+03 1.48452E+02-2.13378E+04
 -1      1775 1.28794E+03 1.48452E+02-2.13378E+04
 -1      1776 2.57335E+03 1.82460E+02-4.64103E+04
 -1      1778 2.57335E+03 1.82460E+02-4.64103E+04
 -1      1779 3.82872E+03 1.66985E+02-7.19240E+04
 -1      1781 3.82872E+03 1.66985E+02-7.19240E+04
 -1      1782 5.02549E+03 1.57256E+02-9.67815E+04
 -1      1784 5.02549E+03 1.57256E+02-9.67815E+04
 -1      1785 6.14367E+03 1.45238E+02-1.21539E+05
 -1      1787 6.14367E+03 1.45238E+02-1.21539E+05
 -1      1788 7.16869E+03 1.31179E+02-1.45904E+05
 -1      1790 7.16869E+03 1.31179E+02-1.45904E+05
 -1      1791 8.09081E+03 1.16508E+02-1.69918E+05
 -1      1793 8.09081E+03 1.16508E+02-1.69918E+05
 -1      1794 8.90296E+03 1.00987E+02-1.93479E+05
 -1      1796 8.90296E+03 1.00987E+02-1.93479E+05
 -1      1797 9.60009E+03 8.49663E+01-2.16537E+05
 -1      1799 9.60009E+03 8.49663E+01-2.16537E+05
 -1      1800 1.01785E+04 6.85278E+01-2.39021E+05
 -1      1802 1.01785E+04 6.85279E+01-2.39021E+05
 -1      1803 1.06355E+04 5.18397E+01-2.60870E+05
 -1      1805 1.06355E+04 5.18397E+01-2.60870E+05
 -1      1806 1.09698E+04 3.50209E+01-2.82020E+05
 -1      1808 1.09698E+04 3.50209E+01-2.82020E+05
 -1      1809 1.11808E+04 1.82124E+01-3.02409E+05
 -1      1811 1.11808E+04 1.82124E+01-3.02409E+05
 -1      1812 1.12690E+04 1.54032E+00-3.21980E+05
 -1      1814 1.12690E+04 1.54033E+00-3.21980E+05
 -1      1815 1.12358E+04-1.48627E+01-3.40674E+05
 -1      1817 1.12358E+04-1.48627E+01-3.40674E+05
 -1      1818 1.10838E+04-3.08729E+01-3.58437E+05
 -1      1820 1.10838E+04-3.08729E+01-3.58437E+05
 -1      1821 1.08161E+04-4.63634E+01-3.75218E+05
 -1      1823 1.08161E+04-4.63634E+01-3.75218E+05
 -1      1824 1.04371E+04-6.12194E+01-3.90967E+05
 -1      1826 1.04371E+04-6.12194E+01-3.90967E+05
 -1      1827 9.95185E+03-7.53159E+01-4.05640E+05
 -1      1829 9.95185E+03-7.53159E+01-4.05640E+05
 -1      1830 9.36647E+03-8.85506E+01-4.19192E+05
 -1      1832 9.36647E+03-8.85506E+01-4.19192E+05
 -1      1833 8.68803E+03-1.00773E+02-4.31587E+05
 -1      1835 8.68803E+03-1.00773E+02-4.31587E+05
 -1      1836 7.92496E+03-1.11868E+02-4.42792E+05
 -1      1838 7.92496E+03-1.11868E+02-4.42792E+05
 -1      1839 7.08754E+03-1.21587E+02-4.52779E+05
 -1      1841 7.08754E+03-1.21587E+02-4.52779E+05
 -1      1842 6.18947E+03-1.29306E+02-4.61531E+05
 -1      1844 6.18947E+03-1.29306E+02-4.61531E+05
 -1      1845 5.24992E+03-1.35368E+02-4.69038E+05
 -1      1847 5.24992E+03-1.35368E+02-4.69038E+05
 -1      1848 4.29830E+03-1.35461E+02-4.75286E+05
 -1      1850 4.29830E+03-1.35461E+02-4.75286E+05
 -1      1851 3.37969E+03-1.25323E+02-4.80237E+05
 -1      1853 3.37969E+03-1.25323E+02-4.80237E+05
 -1      1854 2.55148E+03-1.35014E+02-4.83682E+05
 -1      1856 2.55148E+03-1.35014E+02-4.83682E+05
 -1      1857 1.90785E+03-7.79894E+01-4.85051E+05
 -1      1859 1.90785E+03-7.79894E+01-4.85051E+05
 -1      1860 2.28896E+03-1.06335E-05 2.20207E+02
 -1      1862 2.28896E+03-3.23380E-06 2.20207E+02
 -1      1863 4.48751E+03-1.18585E-05-3.39021E+02
 -1      1865 4.48751E+03-4.25148E-06-3.39021E+02
 -1      1866 6.48634E+03-1.42275E-06-1.11992E+03
 -1      1868 6.48634E+03-3.38764E-06-1.11992E+03
 -1      1869 8.28384E+03-1.57116E-06-1.80649E+03
 -1      1871 8.28384E+03-2.49727E-06-1.80649E+03
 -1      1872 9.91197E+03-1.43229E-05-2.49272E+03
 -1      1874 9.91197E+03 3.01970E-06-2.49272E+03
 -1      1875 1.13744E+04-3.09911E-06-3.15152E+03
 -1      1877 1.13744E+04-3.78760E-06-3.15152E+03
 -1      1878 1.26739E+04 1.37593E-05-3.79654E+03
 -1      1880 1.26739E+04-1.63676E-05-3.79654E+03
 -1      1881 1.38076E+04 3.23143E-05-4.42900E+03
 -1      1883 1.38076E+04-2.65916E-05-4.42900E+03
 -1      1884 1.47720E+04 2.63091E-05-5.04760E+03
 -1      1886 1.47720E+04-2.32979E-05-5.04760E+03
 -1      1887 1.55634E+04 5.09973E-06-5.65331E+03
 -1      1889 1.55634E+04 1.25024E-05-5.65331E+03
 -1      1890 1.61789E+04 5.54021E-06-6.24311E+03
 -1      1892 1.61789E+04-5.16249E-06-6.24311E+03
 -1      1893 1.66169E+04 2.72385E-05-6.81643E+03
 -1      1895 1.66169E+04-2.68822E-05-6.81643E+03
 -1      1896 1.68768E+04-5.58042E-06-7.37067E+03
 -1      1898 1.68768E+04-1.11546E-05-7.37067E+03
 -1      1899 1.69594E+04 1.44120E-05-7.90453E+03
 -1      1901 1.69594E+04 1.00879E-05-7.90453E+03
 -1      1902 1.68669E+04 8.25404E-07-8.41587E+03
 -1      1904 1.68669E+04 1.79233E-06-8.41587E+03
 -1      1905 1.66029E+04 8.23574E-06-8.90322E+03
 -1      1907 1.66029E+04-5.99330E-06-8.90322E+03
 -1      1908 1.61723E+04 2.55012E-05-9.36480E+03
 -1      1910 1.61723E+04 6.99341E-06-9.36480E+03
 -1      1911 1.55809E+04 2.96361E-05-9.79928E+03
 -1      1913 1.55809E+04 3.42237E-06-9.79928E+03
 -1      1914 1.48361E+04 1.27355E-05-1.02054E+04
 -1      1916 1.48361E+04-5.97119E-06-1.02054E+04
 -1      1917 1.39457E+04-4.15748E-06-1.05825E+04
 -1      1919 1.39457E+04-8.23677E-06-1.05825E+04
 -1      1920 1.29182E+04-3.26232E-06-1.09307E+04
 -1      1922 1.29182E+04 1.90200E-06-1.09307E+04
 -1      1923 1.17611E+04-3.75060E-06-1.12520E+04
 -1      1925 1.17611E+04 4.42154E-06-1.12520E+04
 -1      1926 1.04796E+04-4.26964E-06-1.15511E+04
 -1      1928 1.04796E+04-4.60642E-07-1.15511E+04
 -1      1929 9.07295E+03-1.08509E-06-1.18373E+04
 -1      1931 9.07295E+03 3.89513E-06-1.18373E+04
 -1      1932 7.52804E+03 1.72859E-06-1.21255E+04
 -1      1934 7.52804E+03 1.63533E-05-1.21255E+04
 -1      1935 5.81252E+03-1.72449E-05-1.24287E+04
 -1      1937 5.81252E+03 9.93737E-06-1.24287E+04
 -1      1938 3.86821E+03 1.71860E-05-1.27312E+04
 -1      1940 3.86821E+03 3.35438E-05-1.27312E+04
 -1      1941 1.62149E+03 1.69726E-05-1.28825E+04
 -1      1943 1.62149E+03 1.78902E-05-1.28825E+04
 -1      1944-9.60056E+02 6.80040E-05-1.23967E+04
 -1      1946-9.60056E+02 9.63759E-06-1.23967E+04
 -1      1947 2.46433E+03-1.26198E-05 3.52205E-06
 -1      1949 2.46433E+03 8.84573E-07 4.12853E-06
 -1      1950 4.80838E+03-1.14749E-05 6.80506E-06
 -1      1952 4.80838E+03 7.08953E-06 7.98028E-06
 -1      1953 6.89357E+03-1.76526E-06 2.04519E-06
 -1      1955 6.89357E+03 2.19256E-06 2.29099E-06
 -1      1956 8.73076E+03 1.92981E-06 1.25665E-08
 -1      1958 8.73076E+03 6.87285E-06 1.10899E-07
 -1      1959 1.03753E+04-1.40180E-05 2.18234E-06
 -1      1961 1.03753E+04-1.89683E-06 3.83567E-06
 -1      1962 1.18414E+04 8.55305E-07 5.35425E-06
 -1      1964 1.18414E+04 5.06488E-06 4.81782E-06
 -1      1965 1.31383E+04 1.43933E-05 6.61510E-06
 -1      1967 1.31383E+04-7.53748E-06 8.90150E-06
 -1      1968 1.42657E+04 3.46974E-05 2.61229E-06
 -1      1970 1.42657E+04-2.83090E-05 6.41794E-06
 -1      1971 1.52214E+04 1.81932E-05 1.49162E-06
 -1      1973 1.52214E+04-1.23448E-05 4.20691E-06
 -1      1974 1.60024E+04-2.12932E-05 4.15938E-06
 -1      1976 1.60024E+04 3.23184E-06 1.73183E-07
 -1      1977 1.66059E+04 1.79517E-05 2.48838E-06
 -1      1979 1.66059E+04-6.14762E-06 9.27764E-07
 -1      1980 1.70303E+04 3.96741E-05-9.02459E-09
 -1      1982 1.70303E+04-2.32545E-05 1.52067E-06
 -1      1983 1.72754E+04 1.77905E-05-5.95491E-06
 -1      1985 1.72754E+04-4.89618E-05-2.98585E-07
 -1      1986 1.73419E+04 1.24169E-05-7.20420E-06
 -1      1988 1.73419E+04-3.60898E-06-4.66013E-06
 -1      1989 1.72321E+04 1.47320E-05-4.70060E-06
 -1      1991 1.72321E+04-3.70334E-05-2.88166E-06
 -1      1992 1.69496E+04 2.30146E-05-1.86248E-06
 -1      1994 1.69496E+04-5.27088E-06 1.03825E-06
 -1      1995 1.64992E+04 4.57200E-05 2.33434E-06
 -1      1997 1.64992E+04-2.64205E-05 2.24747E-06
 -1      1998 1.58871E+04 2.55244E-05 4.06491E-06
 -1      2000 1.58871E+04-6.63119E-05 3.20018E-06
 -1      2001 1.51202E+04 1.14778E-05 3.20065E-06
 -1      2003 1.51202E+04-3.75018E-05 4.25974E-06
 -1      2004 1.42065E+04-1.63110E-05 2.10149E-06
 -1      2006 1.42065E+04-3.04262E-08-1.93994E-06
 -1      2007 1.31536E+04-1.98956E-05-3.76901E-06
 -1      2009 1.31536E+04 2.55198E-05-2.20897E-06
 -1      2010 1.19676E+04 7.13544E-06-4.86914E-06
 -1      2012 1.19676E+04 4.60590E-06 2.02329E-06
 -1      2013 1.06503E+04 2.44317E-07 7.25696E-07
 -1      2015 1.06503E+04-2.37085E-06 4.88765E-06
 -1      2016 9.19347E+03 9.50365E-06 1.72973E-06
 -1      2018 9.19347E+03-8.47526E-06 6.63904E-06
 -1      2019 7.56913E+03 1.15092E-05 6.17154E-06
 -1      2021 7.56913E+03 3.74670E-06 8.30032E-06
 -1      2022 5.71607E+03 1.66842E-05 4.32173E-06
 -1      2024 5.71607E+03 8.44864E-06 6.05726E-06
 -1      2025 3.52808E+03-8.93226E-06 8.57805E-06
 -1      2027 3.52808E+03 2.44521E-05 6.78342E-06
 -1      2028 8.78789E+02-2.15742E-05 9.74541E-06
 -1      2030 8.78789E+02 3.17831E-05 3.07105E-06
 -1      2031-2.23136E+03 6.17698E-05 1.09397E-05
 -1      2033-2.23136E+03-1.22333E-05-2.92625E-06
 -1      2034 2.28896E+03-6.72835E-06-2.20207E+02
 -1      2036 2.28896E+03 6.94854E-06-2.20207E+02
 -1      2037 4.48751E+03-9.70980E-06 3.39021E+02
 -1      2039 4.48751E+03 1.33865E-05 3.39021E+02
 -1      2040 6.48634E+03 2.23219E-06 1.11992E+03
 -1      2042 6.48634E+03 1.74072E-05 1.11992E+03
 -1      2043 8.28384E+03 1.01696E-06 1.80649E+03
 -1      2045 8.28384E+03 5.44050E-06 1.80649E+03
 -1      2046 9.91197E+03-2.86494E-06 2.49272E+03
 -1      2048 9.91197E+03 3.35529E-06 2.49272E+03
 -1      2049 1.13744E+04 1.63322E-05 3.15152E+03
 -1      2051 1.13744E+04-1.65373E-05 3.15152E+03
 -1      2052 1.26739E+04 2.79900E-05 3.79654E+03
 -1      2054 1.26739E+04-1.98731E-05 3.79654E+03
 -1      2055 1.38076E+04 4.15423E-05 4.42900E+03
 -1      2057 1.38076E+04-3.71355E-05 4.42900E+03
 -1      2058 1.47720E+04 7.29436E-06 5.04760E+03
 -1      2060 1.47720E+04-5.56407E-06 5.04760E+03
 -1      2061 1.55634E+04-1.70693E-05 5.65331E+03
 -1      2063 1.55634E+04 1.92217E-05 5.65331E+03
 -1      2064 1.61789E+04 2.75716E-05 6.24311E+03
 -1      2066 1.61789E+04-6.29032E-06 6.24311E+03
 -1      2067 1.66169E+04 1.22887E-05 6.81643E+03
 -1      2069 1.66169E+04-4.16847E-05 6.81643E+03
 -1      2070 1.68768E+04 4.50889E-05 7.37067E+03
 -1      2072 1.68768E+04-6.59538E-05 7.37067E+03
 -1      2073 1.69594E+04 9.24629E-05 7.90453E+03
 -1      2075 1.69594E+04-5.09659E-05 7.90453E+03
 -1      2076 1.68669E+04 2.08643E-05 8.41587E+03
 -1      2078 1.68669E+04 5.61718E-06 8.41587E+03
 -1      2079 1.66029E+04 3.73970E-05 8.90322E+03
 -1      2081 1.66029E+04-1.01812E-05 8.90322E+03
 -1      2082 1.61723E+04 6.66755E-06 9.36480E+03
 -1      2084 1.61723E+04-6.73992E-06 9.36480E+03
 -1      2085 1.55809E+04 1.57679E-05 9.79928E+03
 -1      2087 1.55809E+04-3.36321E-05 9.79928E+03
 -1      2088 1.48361E+04 8.39164E-06 1.02054E+04
 -1      2090 1.48361E+04-8.45940E-07 1.02054E+04
 -1      2091 1.39457E+04-3.77825E-05 1.05825E+04
 -1      2093 1.39457E+04 2.94531E-05 1.05825E+04
 -1      2094 1.29182E+04-2.45455E-05 1.09307E+04
 -1      2096 1.29182E+04 2.26401E-05 1.09307E+04
 -1      2097 1.17611E+04-6.18975E-06 1.12520E+04
 -1      2099 1.17611E+04 4.72221E-06 1.12520E+04
 -1      2100 1.04796E+04-7.82238E-07 1.15511E+04
 -1      2102 1.04796E+04 1.86514E-06 1.15511E+04
 -1      2103 9.07295E+03 8.78005E-06 1.18373E+04
 -1      2105 9.07295E+03 3.07374E-07 1.18373E+04
 -1      2106 7.52804E+03 3.48731E-05 1.21255E+04
 -1      2108 7.52804E+03 6.23528E-06 1.21255E+04
 -1      2109 5.81252E+03 3.09834E-05 1.24287E+04
 -1      2111 5.81252E+03-1.46930E-05 1.24287E+04
 -1      2112 3.86821E+03 7.08028E-06 1.27312E+04
 -1      2114 3.86821E+03 8.50597E-06 1.27312E+04
 -1      2115 1.62149E+03-2.13980E-06 1.28825E+04
 -1      2117 1.62149E+03 6.77983E-06 1.28825E+04
 -1      2118-9.60056E+02-7.23099E-06 1.23967E+04
 -1      2120-9.60056E+02-3.43976E-05 1.23967E+04
 -1      2121 1.28794E+03 1.48452E+02 2.13378E+04
 -1      2123 1.28794E+03 1.48452E+02 2.13378E+04
 -1      2124 2.57335E+03 1.82460E+02 4.64103E+04
 -1      2126 2.57335E+03 1.82460E+02 4.64103E+04
 -1      2127 3.82872E+03 1.66985E+02 7.19240E+04
 -1      2129 3.82872E+03 1.66985E+02 7.19240E+04
 -1      2130 5.02549E+03 1.57256E+02 9.67815E+04
 -1      2132 5.02549E+03 1.57256E+02 9.67815E+04
 -1      2133 6.14367E+03 1.45238E+02 1.21539E+05
 -1      2135 6.14367E+03 1.45238E+02 1.21539E+05
 -1      2136 7.16869E+03 1.31179E+02 1.45904E+05
 -1      2138 7.16869E+03 1.31179E+02 1.45904E+05
 -1      2139 8.09081E+03 1.16508E+02 1.69918E+05
 -1      2141 8.09081E+03 1.16508E+02 1.69918E+05
 -1      2142 8.90296E+03 1.00987E+02 1.93479E+05
 -1      2144 8.90296E+03 1.00987E+02 1.93479E+05
 -1      2145 9.60009E+03 8.49663E+01 2.16537E+05
 -1      2147 9.60009E+03 8.49663E+01 2.16537E+05
 -1      2148 1.01785E+04 6.85278E+01 2.39021E+05
 -1      2150 1.01785E+04 6.85278E+01 2.39021E+05
 -1      2151 1.06355E+04 5.18397E+01 2.60870E+05
 -1      2153 1.06355E+04 5.18397E+01 2.60870E+05
 -1      2154 1.09698E+04 3.50209E+01 2.82020E+05
 -1      2156 1.09698E+04 3.50209E+01 2.82020E+05
 -1      2157 1.11808E+04 1.82124E+01 3.02409E+05
 -1      2159 1.11808E+04 1.82124E+01 3.02409E+05
 -1      2160 1.12690E+04 1.54032E+00 3.21980E+05
 -1      2162 1.12690E+04 1.54032E+00 3.21980E+05
 -1      2163 1.12358E+04-1.48627E+01 3.40674E+05
 -1      2165 1.12358E+04-1.48627E+01 3.40674E+05
 -1      2166 1.10838E+04-3.08729E+01 3.58437E+05
 -1      2168 1.10838E+04-3.08729E+01 3.58437E+05
 -1      2169 1.08161E+04-4.63634E+01 3.75218E+05
 -1      2171 1.08161E+04-4.63634E+01 3.75218E+05
 -1      2172 1.04371E+04-6.12194E+01 3.90967E+05
 -1      2174 1.04371E+04-6.12194E+01 3.90967E+05
 -1      2175 9.95185E+03-7.53159E+01 4.05640E+05
 -1      2177 9.95185E+03-7.53159E+01 4.05640E+05
 -1      2178 9.36647E+03-8.85506E+01 4.19192E+05
 -1      2180 9.36647E+03-8.85506E+01 4.19192E+05
 -1      2181 8.68803E+03-1.00773E+02 4.31587E+05
 -1      2183 8.68803E+03-1.00773E+02 4.31587E+05
 -1      2184 7.92496E+03-1.11868E+02 4.42792E+05
 -1      2186 7.92496E+03-1.11868E+02 4.42792E+05
 -1      2187 7.08754E+03-1.21587E+02 4.52779E+05
 -1      2189 7.08754E+03-1.21587E+02 4.52779E+05
 -1      2190 6.18947E+03-1.29306E+02 4.61531E+05
 -1      2192 6.18947E+03-1.29306E+02 4.61531E+05
 -1      2193 5.24992E+03-1.35368E+02 4.69038E+05
 -1      2195 5.24992E+03-1.35368E+02 4.69038E+05
 -1      2196 4.29830E+03-1.35461E+02 4.75286E+05
 -1      2198 4.29830E+03-1.35461E+02 4.75286E+05
 -1      2199 3.37969E+03-1.25323E+02 4.80237E+05
 -1      2201 3.37969E+03-1.25323E+02 4.80237E+05
 -1      2202 2.55148E+03-1.35014E+02 4.83682E+05
 -1      2204 2.55148E+03-1.35014E+02 4.83682E+05
 -1      2205 1.90785E+03-7.79894E+01 4.85051E+05
 -1      2207 1.90785E+03-7.79894E+01 4.85051E+05
 -1      2208 1.28794E+03-1.48452E+02 2.13378E+04
 -1      2210 1.28794E+03-1.48452E+02 2.13378E+04
 -1      2211 2.57335E+03-1.82460E+02 4.64103E+04
 -1      2213 2.57335E+03-1.82460E+02 4.64103E+04
 -1      2214 3.82872E+03-1.66985E+02 7.19240E+04
 -1      2216 3.82872E+03-1.66985E+02 7.19240E+04
 -1      2217 5.02549E+03-1.57256E+02 9.67815E+04
 -1      2219 5.02549E+03-1.57256E+02 9.67815E+04
 -1      2220 6.14367E+03-1.45238E+02 1.21539E+05
 -1      2222 6.14367E+03-1.45238E+02 1.21539E+05
 -1      2223 7.16869E+03-1.31179E+02 1.45904E+05
 -1      2225 7.16869E+03-1.31179E+02 1.45904E+05
 -1      2226 8.09081E+03-1.16508E+02 1.69918E+05
 -1      2228 8.09081E+03-1.16508E+02 1.69918E+05
 -1      2229 8.90296E+03-1.00987E+02 1.93479E+05
 -1      2231 8.90296E+03-1.00987E+02 1.93479E+05
 -1      2232 9.60009E+03-8.49663E+01 2.16537E+05
 -1      2234 9.60009E+03-8.49663E+01 2.16537E+05
 -1      2235 1.01785E+04-6.85278E+01 2.39021E+05
 -1      2237 1.01785E+04-6.85278E+01 2.39021E+05
 -1      2238 1.06355E+04-5.18397E+01 2.60870E+05
 -1      2240 1.06355E+04-5.18397E+01 2.60870E+05
 -1      2241 1.09698E+04-3.50209E+01 2.82020E+05
 -1      2243 1.09698E+04-3.50209E+01 2.82020E+05
 -1      2244 1.11808E+04-1.82124E+01 3.02409E+05
 -1      2246 1.11808E+04-1.82124E+01 3.02409E+05
 -1      2247 1.12690E+04-1.54032E+00 3.21980E+05
 -1      2249 1.12690E+04-1.54032E+00 3.21980E+05
 -1      2250 1.12358E+04 1.48627E+01 3.40674E+05
 -1      2252 1.12358E+04 1.48627E+01 3.40674E+05
 -1      2253 1.10838E+04 3.08729E+01 3.58437E+05
 -1      2255 1.10838E+04 3.08729E+01 3.58437E+05
 -1      2256 1.08161E+04 4.63634E+01 3.75218E+05
 -1      2258 1.08161E+04 4.63634E+01 3.75218E+05
 -1      2259 1.04371E+04 6.12194E+01 3.90967E+05
 -1      2261 1.04371E+04 6.12194E+01 3.90967E+05
 -1      2262 9.95185E+03 7.53159E+01 4.05640E+05
 -1      2264 9.95185E+03 7.53159E+01 4.05640E+05
 -1      2265 9.36647E+03 8.85506E+01 4.19192E+05
 -1      2267 9.36647E+03 8.85506E+01 4.19192E+05
 -1      2268 8.68803E+03 1.00773E+02 4.31587E+05
 -1      2270 8.68803E+03 1.00773E+02 4.31587E+05
 -1      2271 7.92496E+03 1.11868E+02 4.42792E+05
 -1      2273 7.92496E+03 1.11868E+02 4.42792E+05
 -1      2274 7.08754E+03 1.21587E+02 4.52779E+05
 -1      2276 7.08754E+03 1.21587E+02 4.52779E+05
 -1      2277 6.18947E+03 1.29306E+02 4.61531E+05
 -1      2279 6.18947E+03 1.29306E+02 4.61531E+05
 -1      2280 5.24992E+03 1.35368E+02 4.69038E+05
 -1      2282 5.24992E+03 1.35368E+02 4.69038E+05
 -1      2283 4.29830E+03 1.35461E+02 4.75286E+05
 -1      2285 4.29830E+03 1.35461E+02 4.75286E+05
 -1      2286 3.37969E+03 1.25323E+02 4.80237E+05
 -1      2288 3.37969E+03 1.25323E+02 4.80237E+05
 -1      2289 2.55148E+03 1.35014E+02 4.83682E+05
 -1      2291 2.55148E+03 1.35014E+02 4.83682E+05
 -1      2292 1.90785E+03 7.79893E+01 4.85051E+05
 -1      2294 1.90785E+03 7.79894E+01 4.85051E+05
 -3
    1PSTEP                        68           1           1          
    1PGM                1.000000E+00                                  
    1PGK                1.786382E+07                                  
    1PHID                         -1                                  
    1PSUBC                         0                                  
    1PMODE                        17                                  
  100CL  117 672.6781674         930                     2   17MODAL      1
 -4  ERROR       1    1
 -5  STR(%)      1    1    0    0
 -1       404 0.00000E+00
 -1       406 0.00000E+00
 -1       407 0.00000E+00
 -1       409 0.00000E+00
 -1       410 0.00000E+00
 -1       412 0.00000E+00
 -1       413 0.00000E+00
 -1       415 0.00000E+00
 -1       424 0.00000E+00
 -1       426 0.00000E+00
 -1       427 0.00000E+00
 -1       429 0.00000E+00
 -1       438 0.00000E+00
 -1       440 0.00000E+00
 -1       441 0.00000E+00
 -1       443 0.00000E+00
 -1       444 0.00000E+00
 -1       446 0.00000E+00
 -1       447 0.00000E+00
 -1       449 0.00000E+00
 -1       458 0.00000E+00
 -1       460 0.00000E+00
 -1       461 0.00000E+00
 -1       463 0.00000E+00
 -1       472 0.00000E+00
 -1       474 0.00000E+00
 -1       475 0.00000E+00
 -1       477 0.00000E+00
 -1       478 0.00000E+00
 -1       480 0.00000E+00
 -1       481 0.00000E+00
 -1       483 0.00000E+00
 -1       484 0.00000E+00
 -1       486 0.00000E+00
 -1       487 0.00000E+00
 -1       489 0.00000E+00
 -1       490 0.00000E+00
 -1       492 0.00000E+00
 -1       493 0.00000E+00
 -1       495 0.00000E+00
 -1       496 0.00000E+00
 -1       498 0.00000E+00
 -1       499 0.00000E+00
 -1       501 0.00000E+00
 -1       502 0.00000E+00
 -1       504 0.00000E+00
 -1       505 0.00000E+00
 -1       507 0.00000E+00
 -1       508 0.00000E+00
 -1       510 0.00000E+00
 -1       511 0.00000E+00
 -1       513 0.00000E+00
 -1       514 0.00000E+00
 -1       516 0.00000E+00
 -1       517 0.00000E+00
 -1       519 0.00000E+00
 -1       520 0.00000E+00
 -1       522 0.00000E+00
 -1       523 0.00000E+00
 -1       525 0.00000E+00
 -1       526 0.00000E+00
 -1       528 0.00000E+00
 -1       529 0.00000E+00
 -1       531 0.00000E+00
 -1       532 0.00000E+00
 -1       534 0.00000E+00
 -1       535 0.00000E+00
 -1       537 0.00000E+00
 -1       538 0.00000E+00
 -1       540 0.00000E+00
 -1       541 0.00000E+00
 -1       543 0.00000E+00
 -1       544 0.00000E+00
 -1       546 0.00000E+00
 -1       547 0.00000E+00
 -1       549 0.00000E+00
 -1       550 0.00000E+00
 -1       552 0.00000E+00
 -1       553 0.00000E+00
 -1       555 0.00000E+00
 -1       556 0.00000E+00
 -1       558 0.00000E+00
 -1       559 0.00000E+00
 -1       561 0.00000E+00
 -1       562 0.00000E+00
 -1       564 0.00000E+00
 -1       565 0.00000E+00
 -1       567 0.00000E+00
 -1       568 0.00000E+00
 -1       570 0.00000E+00
 -1       571 0.00000E+00
 -1       573 0.00000E+00
 -1       574 0.00000E+00
 -1       576 0.00000E+00
 -1       577 0.00000E+00
 -1       579 0.00000E+00
 -1       588 0.00000E+00
 -1       590 0.00000E+00
 -1       591 0.00000E+00
 -1       593 0.00000E+00
 -1       602 0.00000E+00
 -1       604 0.00000E+00
 -1       605 0.00000E+00
 -1       607 0.00000E+00
 -1       616 0.00000E+00
 -1       618 0.00000E+00
 -1       619 0.00000E+00
 -1       621 0.00000E+00
 -1       630 0.00000E+00
 -1       632 0.00000E+00
 -1       633 0.00000E+00
 -1       635 0.00000E+00
 -1       644 0.00000E+00
 -1       646 0.00000E+00
 -1       647 0.00000E+00
 -1       649 0.00000E+00
 -1       658 0.00000E+00
 -1       660 0.00000E+00
 -1       661 0.00000E+00
 -1       663 0.00000E+00
 -1       672 0.00000E+00
 -1       674 0.00000E+00
 -1       675 0.00000E+00
 -1       677 0.00000E+00
 -1       686 0.00000E+00
 -1       688 0.00000E+00
 -1       689 0.00000E+00
 -1       691 0.00000E+00
 -1       700 0.00000E+00
 -1       702 0.00000E+00
 -1       703 0.00000E+00
 -1       705 0.00000E+00
 -1       714 0.00000E+00
 -1       716 0.00000E+00
 -1       717 0.00000E+00
 -1       719 0.00000E+00
 -1       728 0.00000E+00
 -1       730 0.00000E+00
 -1       731 0.00000E+00
 -1       733 0.00000E+00
 -1       742 0.00000E+00
 -1       744 0.00000E+00
 -1       745 0.00000E+00
 -1       747 0.00000E+00
 -1       756 0.00000E+00
 -1       758 0.00000E+00
 -1       759 0.00000E+00
 -1       761 0.00000E+00
 -1       770 0.00000E+00
 -1       772 0.00000E+00
 -1       773 0.00000E+00
 -1       775 0.00000E+00
 -1       784 0.00000E+00
 -1       786 0.00000E+00
 -1       787 0.00000E+00
 -1       789 0.00000E+00
 -1       798 0.00000E+00
 -1       800 0.00000E+00
 -1       801 0.00000E+00
 -1       803 0.00000E+00
 -1       812 0.00000E+00
 -1       814 0.00000E+00
 -1       815 0.00000E+00
 -1       817 0.00000E+00
 -1       826 0.00000E+00
 -1       828 0.00000E+00
 -1       829 0.00000E+00
 -1       831 0.00000E+00
 -1       840 0.00000E+00
 -1       842 0.00000E+00
 -1       843 0.00000E+00
 -1       845 0.00000E+00
 -1       854 0.00000E+00
 -1       856 0.00000E+00
 -1       857 0.00000E+00
 -1       859 0.00000E+00
 -1       868 0.00000E+00
 -1       870 0.00000E+00
 -1       871 0.00000E+00
 -1       873 0.00000E+00
 -1       882 0.00000E+00
 -1       884 0.00000E+00
 -1       885 0.00000E+00
 -1       887 0.00000E+00
 -1       896 0.00000E+00
 -1       898 0.00000E+00
 -1       899 0.00000E+00
 -1       901 0.00000E+00
 -1       910 0.00000E+00
 -1       912 0.00000E+00
 -1       913 0.00000E+00
 -1       915 0.00000E+00
 -1       924 0.00000E+00
 -1       926 0.00000E+00
 -1       927 0.00000E+00
 -1       929 0.00000E+00
 -1       938 0.00000E+00
 -1       940 0.00000E+00
 -1       941 0.00000E+00
 -1       943 0.00000E+00
 -1       952 0.00000E+00
 -1       954 0.00000E+00
 -1       955 0.00000E+00
 -1       957 0.00000E+00
 -1       966 0.00000E+00
 -1       968 0.00000E+00
 -1       969 0.00000E+00
 -1       971 0.00000E+00
 -1       980 0.00000E+00
 -1       982 0.00000E+00
 -1       983 0.00000E+00
 -1       985 0.00000E+00
 -1       986 0.00000E+00
 -1       988 0.00000E+00
 -1       989 0.00000E+00
 -1       991 0.00000E+00
 -1       992 0.00000E+00
 -1       994 0.00000E+00
 -1       995 0.00000E+00
 -1       997 0.00000E+00
 -1       998 0.00000E+00
 -1      1000 0.00000E+00
 -1      1001 0.00000E+00
 -1      1003 0.00000E+00
 -1      1004 0.00000E+00
 -1      1006 0.00000E+00
 -1      1007 0.00000E+00
 -1      1009 0.00000E+00
 -1      1010 0.00000E+00
 -1      1012 0.00000E+00
 -1      1013 0.00000E+00
 -1      1015 0.00000E+00
 -1      1016 0.00000E+00
 -1      1018 0.00000E+00
 -1      1019 0.00000E+00
 -1      1021 0.00000E+00
 -1      1022 0.00000E+00
 -1      1024 0.00000E+00
 -1      1025 0.00000E+00
 -1      1027 0.00000E+00
 -1      1028 0.00000E+00
 -1      1030 0.00000E+00
 -1      1031 0.00000E+00
 -1      1033 0.00000E+00
 -1      1034 0.00000E+00
 -1      1036 0.00000E+00
 -1      1037 0.00000E+00
 -1      1039 0.00000E+00
 -1      1040 0.00000E+00
 -1      1042 0.00000E+00
 -1      1043 0.00000E+00
 -1      1045 0.00000E+00
 -1      1046 0.00000E+00
 -1      1048 0.00000E+00
 -1      1049 0.00000E+00
 -1      1051 0.00000E+00
 -1      1052 0.00000E+00
 -1      1054 0.00000E+00
 -1      1055 0.00000E+00
 -1      1057 0.00000E+00
 -1      1058 0.00000E+00
 -1      1060 0.00000E+00
 -1      1061 0.00000E+00
 -1      1063 0.00000E+00
 -1      1064 0.00000E+00
 -1      1066 0.00000E+00
 -1      1067 0.00000E+00
 -1      1069 0.00000E+00
 -1      1070 0.00000E+00
 -1      1072 0.00000E+00
 -1      1073 0.00000E+00
 -1      1075 0.00000E+00
 -1      1076 0.00000E+00
 -1      1078 0.00000E+00
 -1      1079 0.00000E+00
 -1      1081 0.00000E+00
 -1      1082 0.00000E+00
 -1      1084 0.00000E+00
 -1      1085 0.00000E+00
 -1      1087 0.00000E+00
 -1      1088 0.00000E+00
 -1      1090 0.00000E+00
 -1      1099 0.00000E+00
 -1      1101 0.00000E+00
 -1      1102 0.00000E+00
 -1      1104 0.00000E+00
 -1      1113 0.00000E+00
 -1      1115 0.00000E+00
 -1      1116 0.00000E+00
 -1      1118 0.00000E+00
 -1      1127 0.00000E+00
 -1      1129 0.00000E+00
 -1      1130 0.00000E+00
 -1      1132 0.00000E+00
 -1      1141 0.00000E+00
 -1      1143 0.00000E+00
 -1      1144 0.00000E+00
 -1      1146 0.00000E+00
 -1      1155 0.00000E+00
 -1      1157 0.00000E+00
 -1      1158 0.00000E+00
 -1      1160 0.00000E+00
 -1      1169 0.00000E+00
 -1      1171 0.00000E+00
 -1      1172 0.00000E+00
 -1      1174 0.00000E+00
 -1      1183 0.00000E+00
 -1      1185 0.00000E+00
 -1      1186 0.00000E+00
 -1      1188 0.00000E+00
 -1      1197 0.00000E+00
 -1      1199 0.00000E+00
 -1      1200 0.00000E+00
 -1      1202 0.00000E+00
 -1      1211 0.00000E+00
 -1      1213 0.00000E+00
 -1      1214 0.00000E+00
 -1      1216 0.00000E+00
 -1      1225 0.00000E+00
 -1      1227 0.00000E+00
 -1      1228 0.00000E+00
 -1      1230 0.00000E+00
 -1      1239 0.00000E+00
 -1      1241 0.00000E+00
 -1      1242 0.00000E+00
 -1      1244 0.00000E+00
 -1      1253 0.00000E+00
 -1      1255 0.00000E+00
 -1      1256 0.00000E+00
 -1      1258 0.00000E+00
 -1      1267 0.00000E+00
 -1      1269 0.00000E+00
 -1      1270 0.00000E+00
 -1      1272 0.00000E+00
 -1      1281 0.00000E+00
 -1      1283 0.00000E+00
 -1      1284 0.00000E+00
 -1      1286 0.00000E+00
 -1      1295 0.00000E+00
 -1      1297 0.00000E+00
 -1      1298 0.00000E+00
 -1      1300 0.00000E+00
 -1      1309 0.00000E+00
 -1      1311 0.00000E+00
 -1      1312 0.00000E+00
 -1      1314 0.00000E+00
 -1      1323 0.00000E+00
 -1      1325 0.00000E+00
 -1      1326 0.00000E+00
 -1      1328 0.00000E+00
 -1      1337 0.00000E+00
 -1      1339 0.00000E+00
 -1      1340 0.00000E+00
 -1      1342 0.00000E+00
 -1      1351 0.00000E+00
 -1      1353 0.00000E+00
 -1      1354 0.00000E+00
 -1      1356 0.00000E+00
 -1      1365 0.00000E+00
 -1      1367 0.00000E+00
 -1      1368 0.00000E+00
 -1      1370 0.00000E+00
 -1      1379 0.00000E+00
 -1      1381 0.00000E+00
 -1      1382 0.00000E+00
 -1      1384 0.00000E+00
 -1      1393 0.00000E+00
 -1      1395 0.00000E+00
 -1      1396 0.00000E+00
 -1      1398 0.00000E+00
 -1      1407 0.00000E+00
 -1      1409 0.00000E+00
 -1      1410 0.00000E+00
 -1      1412 0.00000E+00
 -1      1421 0.00000E+00
 -1      1423 0.00000E+00
 -1      1424 0.00000E+00
 -1      1426 0.00000E+00
 -1      1435 0.00000E+00
 -1      1437 0.00000E+00
 -1      1438 0.00000E+00
 -1      1440 0.00000E+00
 -1      1449 0.00000E+00
 -1      1451 0.00000E+00
 -1      1452 0.00000E+00
 -1      1454 0.00000E+00
 -1      1463 0.00000E+00
 -1      1465 0.00000E+00
 -1      1466 0.00000E+00
 -1      1468 0.00000E+00
 -1      1477 0.00000E+00
 -1      1479 0.00000E+00
 -1      1480 0.00000E+00
 -1      1482 0.00000E+00
 -1      1491 0.00000E+00
 -1      1493 0.00000E+00
 -1      1494 0.00000E+00
 -1      1496 0.00000E+00
 -1      1497 0.00000E+00
 -1      1499 0.00000E+00
 -1      1500 0.00000E+00
 -1      1502 0.00000E+00
 -1      1503 0.00000E+00
 -1      1505 0.00000E+00
 -1      1506 0.00000E+00
 -1      1508 0.00000E+00
 -1      1509 0.00000E+00
 -1      1511 0.00000E+00
 -1      1512 0.00000E+00
 -1      1514 0.00000E+00
 -1      1515 0.00000E+00
 -1      1517 0.00000E+00
 -1      1518 0.00000E+00
 -1      1520 0.00000E+00
 -1      1521 0.00000E+00
 -1      1523 0.00000E+00
 -1      1524 0.00000E+00
 -1      1526 0.00000E+00
 -1      1527 0.00000E+00
 -1      1529 0.00000E+00
 -1      1530 0.00000E+00
 -1      1532 0.00000E+00
 -1      1533 0.00000E+00
 -1      1535 0.00000E+00
 -1      1536 0.00000E+00
 -1      1538 0.00000E+00
 -1      1539 0.00000E+00
 -1      1541 0.00000E+00
 -1      1542 0.00000E+00
 -1      1544 0.00000E+00
 -1      1545 0.00000E+00
 -1      1547 0.00000E+00
 -1      1548 0.00000E+00
 -1      1550 0.00000E+00
 -1      1551 0.00000E+00
 -1      1553 0.00000E+00
 -1      1554 0.00000E+00
 -1      1556 0.00000E+00
 -1      1557 0.00000E+00
 -1      1559 0.00000E+00
 -1      1560 0.00000E+00
 -1      1562 0.00000E+00
 -1      1563 0.00000E+00
 -1      1565 0.00000E+00
 -1      1566 0.00000E+00
 -1      1568 0.00000E+00
 -1      1569 0.00000E+00
 -1      1571 0.00000E+00
 -1      1572 0.00000E+00
 -1      1574 0.00000E+00
 -1      1575 0.00000E+00
 -1      1577 0.00000E+00
 -1      1578 0.00000E+00
 -1      1580 0.00000E+00
 -1      1581 0.00000E+00
 -1      1583 0.00000E+00
 -1      1584 0.00000E+00
 -1      1586 0.00000E+00
 -1      1587 0.00000E+00
 -1      1589 0.00000E+00
 -1      1590 0.00000E+00
 -1      1592 0.00000E+00
 -1      1593 0.00000E+00
 -1      1595 0.00000E+00
 -1      1596 0.00000E+00
 -1      1598 0.00000E+00
 -1      1599 0.00000E+00
 -1      1601 0.00000E+00
 -1      1602 0.00000E+00
 -1      1604 0.00000E+00
 -1      1605 0.00000E+00
 -1      1607 0.00000E+00
 -1      1608 0.00000E+00
 -1      1610 0.00000E+00
 -1      1611 0.00000E+00
 -1      1613 0.00000E+00
 -1      1614 0.00000E+00
 -1      1616 0.00000E+00
 -1      1617 0.00000E+00
 -1      1619 0.00000E+00
 -1      1620 0.00000E+00
 -1      1622 0.00000E+00
 -1      1623 0.00000E+00
 -1      1625 0.00000E+00
 -1      1626 0.00000E+00
 -1      1628 0.00000E+00
 -1      1629 0.00000E+00
 -1      1631 0.00000E+00
 -1      1632 0.00000E+00
 -1      1634 0.00000E+00
 -1      1635 0.00000E+00
 -1      1637 0.00000E+00
 -1      1638 0.00000E+00
 -1      1640 0.00000E+00
 -1      1641 0.00000E+00
 -1      1643 0.00000E+00
 -1      1644 0.00000E+00
 -1      1646 0.00000E+00
 -1      1647 0.00000E+00
 -1      1649 0.00000E+00
 -1      1650 0.00000E+00
 -1      1652 0.00000E+00
 -1      1653 0.00000E+00
 -1      1655 0.00000E+00
 -1      1656 0.00000E+00
 -1      1658 0.00000E+00
 -1      1659 0.00000E+00
 -1      1661 0.00000E+00
 -1      1662 0.00000E+00
 -1      1664 0.00000E+00
 -1      1665 0.00000E+00
 -1      1667 0.00000E+00
 -1      1668 0.00000E+00
 -1      1670 0.00000E+00
 -1      1671 0.00000E+00
 -1      1673 0.00000E+00
 -1      1674 0.00000E+00
 -1      1676 0.00000E+00
 -1      1677 0.00000E+00
 -1      1679 0.00000E+00
 -1      1680 0.00000E+00
 -1      1682 0.00000E+00
 -1      1683 0.00000E+00
 -1      1685 0.00000E+00
 -1      1686 0.00000E+00
 -1      1688 0.00000E+00
 -1      1689 0.00000E+00
 -1      1691 0.00000E+00
 -1      1692 0.00000E+00
 -1      1694 0.00000E+00
 -1      1695 0.00000E+00
 -1      1697 0.00000E+00
 -1      1698 0.00000E+00
 -1      1700 0.00000E+00
 -1      1701 0.00000E+00
 -1      1703 0.00000E+00
 -1      1704 0.00000E+00
 -1      1706 0.00000E+00
 -1      1707 0.00000E+00
 -1      1709 0.00000E+00
 -1      1710 0.00000E+00
 -1      1712 0.00000E+00
 -1      1713 0.00000E+00
 -1      1715 0.00000E+00
 -1      1716 0.00000E+00
 -1      1718 0.00000E+00
 -1      1719 0.00000E+00
 -1      1721 0.00000E+00
 -1      1722 0.00000E+00
 -1      1724 0.00000E+00
 -1      1725 0.00000E+00
 -1      1727 0.00000E+00
 -1      1728 0.00000E+00
 -1      1730 0.00000E+00
 -1      1731 0.00000E+00
 -1      1733 0.00000E+00
 -1      1734 0.00000E+00
 -1      1736 0.00000E+00
 -1      1737 0.00000E+00
 -1      1739 0.00000E+00
 -1      1740 0.00000E+00
 -1      1742 0.00000E+00
 -1      1743 0.00000E+00
 -1      1745 0.00000E+00
 -1      1746 0.00000E+00
 -1      1748 0.00000E+00
 -1      1749 0.00000E+00
 -1      1751 0.00000E+00
 -1      1752 0.00000E+00
 -1      1754 0.00000E+00
 -1      1755 0.00000E+00
 -1      1757 0.00000E+00
 -1      1758 0.00000E+00
 -1      1760 0.00000E+00
 -1      1761 0.00000E+00
 -1      1763 0.00000E+00
 -1      1764 0.00000E+00
 -1      1766 0.00000E+00
 -1      1767 0.00000E+00
 -1      1769 0.00000E+00
 -1      1770 0.00000E+00
 -1      1772 0.00000E+00
 -1      1773 0.00000E+00
 -1      1775 0.00000E+00
 -1      1776 0.00000E+00
 -1      1778 0.00000E+00
 -1      1779 0.00000E+00
 -1      1781 0.00000E+00
 -1      1782 0.00000E+00
 -1      1784 0.00000E+00
 -1      1785 0.00000E+00
 -1      1787 0.00000E+00
 -1      1788 0.00000E+00
 -1      1790 0.00000E+00
 -1      1791 0.00000E+00
 -1      1793 0.00000E+00
 -1      1794 0.00000E+00
 -1      1796 0.00000E+00
 -1      1797 0.00000E+00
 -1      1799 0.00000E+00
 -1      1800 0.00000E+00
 -1      1802 0.00000E+00
 -1      1803 0.00000E+00
 -1      1805 0.00000E+00
 -1      1806 0.00000E+00
 -1      1808 0.00000E+00
 -1      1809 0.00000E+00
 -1      1811 0.00000E+00
 -1      1812 0.00000E+00
 -1      1814 0.00000E+00
 -1      1815 0.00000E+00
 -1      1817 0.00000E+00
 -1      1818 0.00000E+00
 -1      1820 0.00000E+00
 -1      1821 0.00000E+00
 -1      1823 0.00000E+00
 -1      1824 0.00000E+00
 -1      1826 0.00000E+00
 -1      1827 0.00000E+00
 -1      1829 0.00000E+00
 -1      1830 0.00000E+00
 -1      1832 0.00000E+00
 -1      1833 0.00000E+00
 -1      1835 0.00000E+00
 -1      1836 0.00000E+00
 -1      1838 0.00000E+00
 -1      1839 0.00000E+00
 -1      1841 0.00000E+00
 -1      1842 0.00000E+00
 -1      1844 0.00000E+00
 -1      1845 0.00000E+00
 -1      1847 0.00000E+00
 -1      1848 0.00000E+00
 -1      1850 0.00000E+00
 -1      1851 0.00000E+00
 -1      1853 0.00000E+00
 -1      1854 0.00000E+00
 -1      1856 0.00000E+00
 -1      1857 0.00000E+00
 -1      1859 0.00000E+00
 -1      1860 0.00000E+00
 -1      1862 0.00000E+00
 -1      1863 0.00000E+00
 -1      1865 0.00000E+00
 -1      1866 0.00000E+00
 -1      1868 0.00000E+00
 -1      1869 0.00000E+00
 -1      1871 0.00000E+00
 -1      1872 0.00000E+00
 -1      1874 0.00000E+00
 -1      1875 0.00000E+00
 -1      1877 0.00000E+00
 -1      1878 0.00000E+00
 -1      1880 0.00000E+00
 -1      1881 0.00000E+00
 -1      1883 0.00000E+00
 -1      1884 0.00000E+00
 -1      1886 0.00000E+00
 -1      1887 0.00000E+00
 -1      1889 0.00000E+00
 -1      1890 0.00000E+00
 -1      1892 0.00000E+00
 -1      1893 0.00000E+00
 -1      1895 0.00000E+00
 -1      1896 0.00000E+00
 -1      1898 0.00000E+00
 -1      1899 0.00000E+00
 -1      1901 0.00000E+00
 -1      1902 0.00000E+00
 -1      1904 0.00000E+00
 -1      1905 0.00000E+00
 -1      1907 0.00000E+00
 -1      1908 0.00000E+00
 -1      1910 0.00000E+00
 -1      1911 0.00000E+00
 -1      1913 0.00000E+00
 -1      1914 0.00000E+00
 -1      1916 0.00000E+00
 -1      1917 0.00000E+00
 -1      1919 0.00000E+00
 -1      1920 0.00000E+00
 -1      1922 0.00000E+00
 -1      1923 0.00000E+00
 -1      1925 0.00000E+00
 -1      1926 0.00000E+00
 -1      1928 0.00000E+00
 -1      1929 0.00000E+00
 -1      1931 0.00000E+00
 -1      1932 0.00000E+00
 -1      1934 0.00000E+00
 -1      1935 0.00000E+00
 -1      1937 0.00000E+00
 -1      1938 0.00000E+00
 -1      1940 0.00000E+00
 -1      1941 0.00000E+00
 -1      1943 0.00000E+00
 -1      1944 0.00000E+00
 -1      1946 0.00000E+00
 -1      1947 0.00000E+00
 -1      1949 0.00000E+00
 -1      1950 0.00000E+00
 -1      1952 0.00000E+00
 -1      1953 0.00000E+00
 -1      1955 0.00000E+00
 -1      1956 0.00000E+00
 -1      1958 0.00000E+00
 -1      1959 0.00000E+00
 -1      1961 0.00000E+00
 -1      1962 0.00000E+00
 -1      1964 0.00000E+00
 -1      1965 0.00000E+00
 -1      1967 0.00000E+00
 -1      1968 0.00000E+00
 -1      1970 0.00000E+00
 -1      1971 0.00000E+00
 -1      1973 0.00000E+00
 -1      1974 0.00000E+00
 -1      1976 0.00000E+00
 -1      1977 0.00000E+00
 -1      1979 0.00000E+00
 -1      1980 0.00000E+00
 -1      1982 0.00000E+00
 -1      1983 0.00000E+00
 -1      1985 0.00000E+00
 -1      1986 0.00000E+00
 -1      1988 0.00000E+00
 -1      1989 0.00000E+00
 -1      1991 0.00000E+00
 -1      1992 0.00000E+00
 -1      1994 0.00000E+00
 -1      1995 0.00000E+00
 -1      1997 0.00000E+00
 -1      1998 0.00000E+00
 -1      2000 0.00000E+00
 -1      2001 0.00000E+00
 -1      2003 0.00000E+00
 -1      2004 0.00000E+00
 -1      2006 0.00000E+00
 -1      2007 0.00000E+00
 -1      2009 0.00000E+00
 -1      2010 0.00000E+00
 -1      2012 0.00000E+00
 -1      2013 0.00000E+00
 -1      2015 0.00000E+00
 -1      2016 0.00000E+00
 -1      2018 0.00000E+00
 -1      2019 0.00000E+00
 -1      2021 0.00000E+00
 -1      2022 0.00000E+00
 -1      2024 0.00000E+00
 -1      2025 0.00000E+00
 -1      2027 0.00000E+00
 -1      2028 0.00000E+00
 -1      2030 0.00000E+00
 -1      2031 0.00000E+00
 -1      2033 0.00000E+00
 -1      2034 0.00000E+00
 -1      2036 0.00000E+00
 -1      2037 0.00000E+00
 -1      2039 0.00000E+00
 -1      2040 0.00000E+00
 -1      2042 0.00000E+00
 -1      2043 0.00000E+00
 -1      2045 0.00000E+00
 -1      2046 0.00000E+00
 -1      2048 0.00000E+00
 -1      2049 0.00000E+00
 -1      2051 0.00000E+00
 -1      2052 0.00000E+00
 -1      2054 0.00000E+00
 -1      2055 0.00000E+00
 -1      2057 0.00000E+00
 -1      2058 0.00000E+00
 -1      2060 0.00000E+00
 -1      2061 0.00000E+00
 -1      2063 0.00000E+00
 -1      2064 0.00000E+00
 -1      2066 0.00000E+00
 -1      2067 0.00000E+00
 -1      2069 0.00000E+00
 -1      2070 0.00000E+00
 -1      2072 0.00000E+00
 -1      2073 0.00000E+00
 -1      2075 0.00000E+00
 -1      2076 0.00000E+00
 -1      2078 0.00000E+00
 -1      2079 0.00000E+00
 -1      2081 0.00000E+00
 -1      2082 0.00000E+00
 -1      2084 0.00000E+00
 -1      2085 0.00000E+00
 -1      2087 0.00000E+00
 -1      2088 0.00000E+00
 -1      2090 0.00000E+00
 -1      2091 0.00000E+00
 -1      2093 0.00000E+00
 -1      2094 0.00000E+00
 -1      2096 0.00000E+00
 -1      2097 0.00000E+00
 -1      2099 0.00000E+00
 -1      2100 0.00000E+00
 -1      2102 0.00000E+00
 -1      2103 0.00000E+00
 -1      2105 0.00000E+00
 -1      2106 0.00000E+00
 -1      2108 0.00000E+00
 -1      2109 0.00000E+00
 -1      2111 0.00000E+00
 -1      2112 0.00000E+00
 -1      2114 0.00000E+00
 -1      2115 0.00000E+00
 -1      2117 0.00000E+00
 -1      2118 0.00000E+00
 -1      2120 0.00000E+00
 -1      2121 0.00000E+00
 -1      2123 0.00000E+00
 -1      2124 0.00000E+00
 -1      2126 0.00000E+00
 -1      2127 0.00000E+00
 -1      2129 0.00000E+00
 -1      2130 0.00000E+00
 -1      2132 0.00000E+00
 -1      2133 0.00000E+00
 -1      2135 0.00000E+00
 -1      2136 0.00000E+00
 -1      2138 0.00000E+00
 -1      2139 0.00000E+00
 -1      2141 0.00000E+00
 -1      2142 0.00000E+00
 -1      2144 0.00000E+00
 -1      2145 0.00000E+00
 -1      2147 0.00000E+00
 -1      2148 0.00000E+00
 -1      2150 0.00000E+00
 -1      2151 0.00000E+00
 -1      2153 0.00000E+00
 -1      2154 0.00000E+00
 -1      2156 0.00000E+00
 -1      2157 0.00000E+00
 -1      2159 0.00000E+00
 -1      2160 0.00000E+00
 -1      2162 0.00000E+00
 -1      2163 0.00000E+00
 -1      2165 0.00000E+00
 -1      2166 0.00000E+00
 -1      2168 0.00000E+00
 -1      2169 0.00000E+00
 -1      2171 0.00000E+00
 -1      2172 0.00000E+00
 -1      2174 0.00000E+00
 -1      2175 0.00000E+00
 -1      2177 0.00000E+00
 -1      2178 0.00000E+00
 -1      2180 0.00000E+00
 -1      2181 0.00000E+00
 -1      2183 0.00000E+00
 -1      2184 0.00000E+00
 -1      2186 0.00000E+00
 -1      2187 0.00000E+00
 -1      2189 0.00000E+00
 -1      2190 0.00000E+00
 -1      2192 0.00000E+00
 -1      2193 0.00000E+00
 -1      2195 0.00000E+00
 -1      2196 0.00000E+00
 -1      2198 0.00000E+00
 -1      2199 0.00000E+00
 -1      2201 0.00000E+00
 -1      2202 0.00000E+00
 -1      2204 0.00000E+00
 -1      2205 0.00000E+00
 -1      2207 0.00000E+00
 -1      2208 0.00000E+00
 -1      2210 0.00000E+00
 -1      2211 0.00000E+00
 -1      2213 0.00000E+00
 -1      2214 0.00000E+00
 -1      2216 0.00000E+00
 -1      2217 0.00000E+00
 -1      2219 0.00000E+00
 -1      2220 0.00000E+00
 -1      2222 0.00000E+00
 -1      2223 0.00000E+00
 -1      2225 0.00000E+00
 -1      2226 0.00000E+00
 -1      2228 0.00000E+00
 -1      2229 0.00000E+00
 -1      2231 0.00000E+00
 -1      2232 0.00000E+00
 -1      2234 0.00000E+00
 -1      2235 0.00000E+00
 -1      2237 0.00000E+00
 -1      2238 0.00000E+00
 -1      2240 0.00000E+00
 -1      2241 0.00000E+00
 -1      2243 0.00000E+00
 -1      2244 0.00000E+00
 -1      2246 0.00000E+00
 -1      2247 0.00000E+00
 -1      2249 0.00000E+00
 -1      2250 0.00000E+00
 -1      2252 0.00000E+00
 -1      2253 0.00000E+00
 -1      2255 0.00000E+00
 -1      2256 0.00000E+00
 -1      2258 0.00000E+00
 -1      2259 0.00000E+00
 -1      2261 0.00000E+00
 -1      2262 0.00000E+00
 -1      2264 0.00000E+00
 -1      2265 0.00000E+00
 -1      2267 0.00000E+00
 -1      2268 0.00000E+00
 -1      2270 0.00000E+00
 -1      2271 0.00000E+00
 -1      2273 0.00000E+00
 -1      2274 0.00000E+00
 -1      2276 0.00000E+00
 -1      2277 0.00000E+00
 -1      2279 0.00000E+00
 -1      2280 0.00000E+00
 -1      2282 0.00000E+00
 -1      2283 0.00000E+00
 -1      2285 0.00000E+00
 -1      2286 0.00000E+00
 -1      2288 0.00000E+00
 -1      2289 0.00000E+00
 -1      2291 0.00000E+00
 -1      2292 0.00000E+00
 -1      2294 0.00000E+00
 -3
    1PSTEP                        69           1           1          
    1PGM                1.000000E+00                                  
    1PGK                1.866135E+07                                  
    1PHID                         -1                                  
    1PSUBC                         0                                  
    1PMODE                        18                                  
  100CL  118 687.5299308         930                     2   18MODAL      1
 -4  DISP        4    1
 -5  D1          1    2    1    0
 -5  D2          1    2    2    0
 -5  D3          1    2    3    0
 -5  ALL         1    2    0    0    1ALL
 -1       404 0.00000E+00 0.00000E+00 7.25369E-05
 -1       406 0.00000E+00-0.00000E+00-7.25369E-05
 -1       407 4.37607E-03-4.27646E-02 1.85304E-01
 -1       409 4.35826E-03-8.49095E-02 1.85289E-01
 -1       410 8.19697E-15-6.37230E-02 9.48080E-14
 -1       412 5.62531E-15-6.36899E-02 9.91549E-14
 -1       413-2.11360E-04-6.37064E-02 1.05645E-05
 -1       415 2.11360E-04-6.37064E-02-1.05645E-05
 -1       424 0.00000E+00 0.00000E+00-4.71069E-17
 -1       426 0.00000E+00 0.00000E+00 4.71069E-17
 -1       427 0.00000E+00-3.00088E-17 0.00000E+00
 -1       429 0.00000E+00 3.00088E-17 0.00000E+00
 -1       438-4.37607E-03-4.27646E-02-1.85304E-01
 -1       440-4.35826E-03-8.49095E-02-1.85289E-01
 -1       441 0.00000E+00 0.00000E+00-7.25369E-05
 -1       443 0.00000E+00-0.00000E+00 7.25369E-05
 -1       444 0.00000E+00 3.58047E-18 0.00000E+00
 -1       446 0.00000E+00-3.58047E-18 0.00000E+00
 -1       447 0.00000E+00 0.00000E+00-5.62050E-18
 -1       449 0.00000E+00 0.00000E+00 5.62050E-18
 -1       458-2.11360E-04-6.37064E-02-1.05645E-05
 -1       460 2.11360E-04-6.37064E-02 1.05645E-05
 -1       461-2.52635E-14-6.37230E-02 4.59474E-14
 -1       463-2.75346E-14-6.36899E-02 4.12745E-14
 -1       472 0.00000E+00 0.00000E+00 7.25369E-05
 -1       474 0.00000E+00 0.00000E+00-7.25369E-05
 -1       475-4.37607E-03-4.27646E-02 1.85304E-01
 -1       477-4.35826E-03-8.49095E-02 1.85289E-01
 -1       478 4.37607E-03-4.27646E-02-1.85304E-01
 -1       480 4.35826E-03-8.49095E-02-1.85289E-01
 -1       481 0.00000E+00 0.00000E+00-7.25369E-05
 -1       483 0.00000E+00 0.00000E+00 7.25369E-05
 -1       484 3.36271E-03-1.35162E-03 8.38568E-03
 -1       486 1.37317E-03-3.42256E-03 8.33390E-03
 -1       487 4.15320E-03-4.08282E-03 1.92760E-02
 -1       489 3.16758E-03-8.30337E-03 1.92301E-02
 -1       490 4.89733E-03-8.00447E-03 2.85875E-02
 -1       492 3.47577E-03-1.43430E-02 2.85818E-02
 -1       493 4.47496E-03-1.18692E-02 3.82582E-02
 -1       495 3.32043E-03-2.03507E-02 3.82882E-02
 -1       496 3.64279E-03-1.49889E-02 4.72745E-02
 -1       498 2.43584E-03-2.55361E-02 4.73080E-02
 -1       499 2.46057E-03-1.68009E-02 5.60261E-02
 -1       501 1.35693E-03-2.93749E-02 5.60791E-02
 -1       502 1.32685E-03-1.71967E-02 6.43302E-02
 -1       504 2.53181E-04-3.17370E-02 6.43604E-02
 -1       505 5.05755E-04-1.63799E-02 7.22968E-02
 -1       507-5.14275E-04-3.28294E-02 7.23198E-02
 -1       508 1.97771E-04-1.48981E-02 7.99754E-02
 -1       510-7.94026E-04-3.32092E-02 7.99633E-02
 -1       511 4.77796E-04-1.34347E-02 8.74536E-02
 -1       513-4.92801E-04-3.35550E-02 8.74246E-02
 -1       514 1.26875E-03-1.26900E-02 9.48238E-02
 -1       516 3.06199E-04-3.45819E-02 9.47693E-02
 -1       517 2.38066E-03-1.31850E-02 1.02144E-01
 -1       519 1.41933E-03-3.68048E-02 1.02085E-01
 -1       520 3.53777E-03-1.51529E-02 1.09454E-01
 -1       522 2.57594E-03-4.04666E-02 1.09395E-01
 -1       523 4.45669E-03-1.84747E-02 1.16740E-01
 -1       525 3.49795E-03-4.54395E-02 1.16700E-01
 -1       526 4.90115E-03-2.27049E-02 1.23962E-01
 -1       528 3.95490E-03-5.12796E-02 1.23942E-01
 -1       529 4.74466E-03-2.71729E-02 1.31038E-01
 -1       531 3.82299E-03-5.73043E-02 1.31045E-01
 -1       532 3.99383E-03-3.11316E-02 1.37877E-01
 -1       534 3.11052E-03-6.27620E-02 1.37905E-01
 -1       535 2.79199E-03-3.39313E-02 1.44383E-01
 -1       537 1.95914E-03-6.69900E-02 1.44426E-01
 -1       538 1.38342E-03-3.51647E-02 1.50479E-01
 -1       540 6.10352E-04-6.95742E-02 1.50523E-01
 -1       541 6.08476E-05-3.47642E-02 1.56111E-01
 -1       543-6.47440E-04-7.04359E-02 1.56145E-01
 -1       544-9.02830E-04-3.30162E-02 1.61254E-01
 -1       546-1.54517E-03-6.98556E-02 1.61267E-01
 -1       547-1.31401E-03-3.05010E-02 1.65907E-01
 -1       549-1.89240E-03-6.84054E-02 1.65894E-01
 -1       550-1.10294E-03-2.79619E-02 1.70086E-01
 -1       552-1.62029E-03-6.68244E-02 1.70047E-01
 -1       553-3.35321E-04-2.61438E-02 1.73806E-01
 -1       555-7.94268E-04-6.58508E-02 1.73747E-01
 -1       556 8.02872E-04-2.56286E-02 1.77072E-01
 -1       558 4.03421E-04-6.60631E-02 1.77001E-01
 -1       559 2.05824E-03-2.67169E-02 1.79869E-01
 -1       561 1.72029E-03-6.77558E-02 1.79799E-01
 -1       562 3.16600E-03-2.93778E-02 1.82149E-01
 -1       564 2.90093E-03-7.08940E-02 1.82091E-01
 -1       565 3.93924E-03-3.32771E-02 1.83864E-01
 -1       567 3.74818E-03-7.51393E-02 1.83823E-01
 -1       568 4.30172E-03-3.79154E-02 1.84917E-01
 -1       570 4.21325E-03-7.99882E-02 1.84893E-01
 -1       571 2.19955E-03-4.66382E-02 5.76314E-02
 -1       573 2.19148E-03-8.09631E-02 5.76520E-02
 -1       574-3.25497E-15-2.04740E-03 4.83425E-15
 -1       576-3.09759E-15-2.11320E-03 5.01898E-15
 -1       577-1.54845E-04-2.08030E-03-2.09593E-05
 -1       579 1.54845E-04-2.08030E-03 2.09593E-05
 -1       588-9.82555E-15-5.89170E-03 1.44474E-14
 -1       590-1.00197E-14-6.13928E-03 1.50290E-14
 -1       591-1.96567E-04-6.01549E-03-7.88597E-05
 -1       593 1.96567E-04-6.01549E-03 7.88597E-05
 -1       602-1.42820E-14-1.10447E-02 1.33706E-14
 -1       604-1.13503E-14-1.13502E-02 1.33858E-14
 -1       605-2.37893E-04-1.11974E-02-9.73248E-05
 -1       607 2.37893E-04-1.11974E-02 9.73248E-05
 -1       616-1.02878E-14-1.59488E-02 1.02830E-14
 -1       618-9.46722E-15-1.63283E-02 1.04296E-14
 -1       619-1.90292E-04-1.61386E-02-1.20858E-04
 -1       621 1.90292E-04-1.61386E-02 1.20858E-04
 -1       630-9.81948E-15-2.02071E-02 1.31160E-14
 -1       632-9.26942E-15-2.05838E-02 1.32310E-14
 -1       633-1.60782E-04-2.03955E-02-1.19994E-04
 -1       635 1.60782E-04-2.03955E-02 1.19994E-04
 -1       644-1.49272E-14-2.30553E-02 2.14306E-14
 -1       646-1.59509E-14-2.33598E-02 2.21040E-14
 -1       647-7.04021E-05-2.32075E-02-9.69760E-05
 -1       649 7.04021E-05-2.32075E-02 9.69760E-05
 -1       658-2.44954E-14-2.44739E-02 3.03437E-14
 -1       660-2.44654E-14-2.46480E-02 3.09961E-14
 -1       661-2.21823E-05-2.45610E-02-5.54596E-05
 -1       663 2.21823E-05-2.45610E-02 5.54596E-05
 -1       672-3.19458E-14-2.46405E-02 2.29617E-14
 -1       674-2.80340E-14-2.46225E-02 2.31681E-14
 -1       675 3.87477E-05-2.46315E-02 5.72817E-06
 -1       677-3.87477E-05-2.46315E-02-5.72817E-06
 -1       686-2.95620E-14-2.41035E-02 2.62192E-15
 -1       688-2.60324E-14-2.38761E-02 2.16591E-15
 -1       689 4.51187E-05-2.39898E-02 7.24388E-05
 -1       691-4.51187E-05-2.39898E-02-7.24388E-05
 -1       700-2.12766E-14-2.35684E-02-1.56079E-15
 -1       702-2.25356E-14-2.31283E-02-1.00660E-15
 -1       703 3.53533E-05-2.33484E-02 1.40196E-04
 -1       705-3.53533E-05-2.33484E-02-1.40196E-04
 -1       714-1.86300E-14-2.37251E-02 7.44003E-15
 -1       716-1.92130E-14-2.31126E-02 7.31900E-15
 -1       717-1.73861E-05-2.34188E-02 1.95096E-04
 -1       719 1.73861E-05-2.34188E-02-1.95096E-04
 -1       728-1.87377E-14-2.51132E-02 6.94813E-15
 -1       730-1.77227E-14-2.43820E-02 7.59580E-15
 -1       731-7.95364E-05-2.47476E-02 2.32915E-04
 -1       733 7.95364E-05-2.47476E-02-2.32915E-04
 -1       742-1.66406E-14-2.79564E-02 5.64697E-16
 -1       744-1.49106E-14-2.71801E-02 1.84704E-16
 -1       745-1.51133E-04-2.75682E-02 2.47250E-04
 -1       747 1.51133E-04-2.75682E-02-2.47250E-04
 -1       756-1.44516E-14-3.21402E-02-6.44720E-15
 -1       758-1.30750E-14-3.13856E-02-8.13836E-15
 -1       759-2.04644E-04-3.17629E-02 2.40334E-04
 -1       761 2.04644E-04-3.17629E-02-2.40334E-04
 -1       770-1.22092E-14-3.72074E-02-1.29418E-14
 -1       772-1.13935E-14-3.65317E-02-1.03729E-14
 -1       773-2.34186E-04-3.68695E-02 2.15220E-04
 -1       775 2.34186E-04-3.68695E-02-2.15220E-04
 -1       784-7.31238E-15-4.24812E-02-6.90415E-15
 -1       786-8.62626E-15-4.19150E-02-7.75079E-15
 -1       787-2.27080E-04-4.21981E-02 1.80350E-04
 -1       789 2.27080E-04-4.21981E-02-1.80350E-04
 -1       798-1.04560E-14-4.72019E-02-3.35578E-15
 -1       800-9.32069E-15-4.67513E-02-2.57003E-15
 -1       801-1.87364E-04-4.69766E-02 1.43547E-04
 -1       803 1.87364E-04-4.69766E-02-1.43547E-04
 -1       812-1.82352E-14-5.07118E-02-5.41273E-15
 -1       814-1.69867E-14-5.03559E-02-3.74531E-15
 -1       815-1.20719E-04-5.05338E-02 1.13344E-04
 -1       817 1.20719E-04-5.05338E-02-1.13344E-04
 -1       826-1.93324E-14-5.25954E-02 4.31755E-15
 -1       828-2.15793E-14-5.22981E-02 3.35687E-15
 -1       829-4.29104E-05-5.24467E-02 9.46897E-05
 -1       831 4.29104E-05-5.24467E-02-9.46897E-05
 -1       840-1.56632E-14-5.27823E-02 2.42077E-14
 -1       842-1.79488E-14-5.25000E-02 2.48824E-14
 -1       843 3.04377E-05-5.26411E-02 8.99353E-05
 -1       845-3.04377E-05-5.26411E-02-8.99353E-05
 -1       854-1.02969E-14-5.15589E-02 4.32555E-14
 -1       856-1.16300E-14-5.12551E-02 4.21588E-14
 -1       857 8.28592E-05-5.14070E-02 9.67697E-05
 -1       859-8.28592E-05-5.14070E-02-9.67697E-05
 -1       868-5.40164E-15-4.95093E-02 5.49254E-14
 -1       870-6.69285E-15-4.91623E-02 5.50560E-14
 -1       871 1.03813E-04-4.93358E-02 1.10553E-04
 -1       873-1.03813E-04-4.93358E-02-1.10553E-04
 -1       882-9.06497E-17-4.73820E-02 7.51076E-14
 -1       884-3.78819E-15-4.69925E-02 7.46199E-14
 -1       885 8.90447E-05-4.71872E-02 1.24060E-04
 -1       887-8.90447E-05-4.71872E-02-1.24060E-04
 -1       896 1.90096E-15-4.59278E-02 9.18487E-14
 -1       898 1.11746E-15-4.55162E-02 9.28647E-14
 -1       899 4.26364E-05-4.57220E-02 1.31076E-04
 -1       901-4.26364E-05-4.57220E-02-1.31076E-04
 -1       910 1.22233E-15-4.57312E-02 1.03468E-13
 -1       912-7.36605E-16-4.53348E-02 1.02312E-13
 -1       913-2.44409E-05-4.55330E-02 1.26262E-04
 -1       915 2.44409E-05-4.55330E-02-1.26262E-04
 -1       924-4.10857E-15-4.70969E-02 1.03877E-13
 -1       926-2.78175E-15-4.67554E-02 1.05303E-13
 -1       927-9.76538E-05-4.69262E-02 1.08770E-04
 -1       929 9.76538E-05-4.69262E-02-1.08770E-04
 -1       938-3.64777E-15-4.99846E-02 1.03248E-13
 -1       940-4.16542E-15-4.97317E-02 1.01075E-13
 -1       941-1.60236E-04-4.98581E-02 8.05457E-05
 -1       943 1.60236E-04-4.98581E-02-8.05457E-05
 -1       952-1.43372E-15-5.40679E-02 1.05973E-13
 -1       954-2.17450E-15-5.39160E-02 1.04026E-13
 -1       955-2.02906E-04-5.39920E-02 4.84016E-05
 -1       957 2.02906E-04-5.39920E-02-4.84016E-05
 -1       966 1.74848E-15-5.88138E-02 9.94762E-14
 -1       968 4.12183E-15-5.87450E-02 1.00013E-13
 -1       969-2.15406E-04-5.87794E-02 2.19029E-05
 -1       971 2.15406E-04-5.87794E-02-2.19029E-05
 -1       980 0.00000E+00 0.00000E+00 3.42523E-05
 -1       982 0.00000E+00-0.00000E+00-3.42523E-05
 -1       983-2.19955E-03-4.66382E-02-5.76314E-02
 -1       985-2.19148E-03-8.09631E-02-5.76520E-02
 -1       986-3.36271E-03-1.35162E-03-8.38568E-03
 -1       988-1.37317E-03-3.42256E-03-8.33390E-03
 -1       989-4.15320E-03-4.08282E-03-1.92760E-02
 -1       991-3.16758E-03-8.30337E-03-1.92301E-02
 -1       992-4.89733E-03-8.00447E-03-2.85875E-02
 -1       994-3.47577E-03-1.43430E-02-2.85818E-02
 -1       995-4.47496E-03-1.18692E-02-3.82582E-02
 -1       997-3.32043E-03-2.03507E-02-3.82882E-02
 -1       998-3.64279E-03-1.49889E-02-4.72745E-02
 -1      1000-2.43584E-03-2.55361E-02-4.73080E-02
 -1      1001-2.46057E-03-1.68009E-02-5.60261E-02
 -1      1003-1.35693E-03-2.93749E-02-5.60791E-02
 -1      1004-1.32685E-03-1.71967E-02-6.43302E-02
 -1      1006-2.53181E-04-3.17370E-02-6.43604E-02
 -1      1007-5.05755E-04-1.63799E-02-7.22968E-02
 -1      1009 5.14275E-04-3.28294E-02-7.23198E-02
 -1      1010-1.97771E-04-1.48981E-02-7.99754E-02
 -1      1012 7.94026E-04-3.32092E-02-7.99633E-02
 -1      1013-4.77796E-04-1.34347E-02-8.74536E-02
 -1      1015 4.92801E-04-3.35550E-02-8.74246E-02
 -1      1016-1.26875E-03-1.26900E-02-9.48238E-02
 -1      1018-3.06199E-04-3.45819E-02-9.47693E-02
 -1      1019-2.38066E-03-1.31850E-02-1.02144E-01
 -1      1021-1.41933E-03-3.68048E-02-1.02085E-01
 -1      1022-3.53777E-03-1.51529E-02-1.09454E-01
 -1      1024-2.57594E-03-4.04666E-02-1.09395E-01
 -1      1025-4.45669E-03-1.84747E-02-1.16740E-01
 -1      1027-3.49795E-03-4.54395E-02-1.16700E-01
 -1      1028-4.90115E-03-2.27049E-02-1.23962E-01
 -1      1030-3.95490E-03-5.12796E-02-1.23942E-01
 -1      1031-4.74466E-03-2.71729E-02-1.31038E-01
 -1      1033-3.82299E-03-5.73043E-02-1.31045E-01
 -1      1034-3.99383E-03-3.11316E-02-1.37877E-01
 -1      1036-3.11052E-03-6.27620E-02-1.37905E-01
 -1      1037-2.79199E-03-3.39313E-02-1.44383E-01
 -1      1039-1.95914E-03-6.69900E-02-1.44426E-01
 -1      1040-1.38342E-03-3.51647E-02-1.50479E-01
 -1      1042-6.10352E-04-6.95742E-02-1.50523E-01
 -1      1043-6.08476E-05-3.47642E-02-1.56111E-01
 -1      1045 6.47440E-04-7.04359E-02-1.56145E-01
 -1      1046 9.02830E-04-3.30162E-02-1.61254E-01
 -1      1048 1.54517E-03-6.98556E-02-1.61267E-01
 -1      1049 1.31401E-03-3.05010E-02-1.65907E-01
 -1      1051 1.89240E-03-6.84054E-02-1.65894E-01
 -1      1052 1.10294E-03-2.79619E-02-1.70086E-01
 -1      1054 1.62029E-03-6.68244E-02-1.70047E-01
 -1      1055 3.35321E-04-2.61438E-02-1.73806E-01
 -1      1057 7.94268E-04-6.58508E-02-1.73747E-01
 -1      1058-8.02872E-04-2.56286E-02-1.77072E-01
 -1      1060-4.03421E-04-6.60631E-02-1.77001E-01
 -1      1061-2.05824E-03-2.67169E-02-1.79869E-01
 -1      1063-1.72029E-03-6.77558E-02-1.79799E-01
 -1      1064-3.16600E-03-2.93778E-02-1.82149E-01
 -1      1066-2.90093E-03-7.08940E-02-1.82091E-01
 -1      1067-3.93924E-03-3.32771E-02-1.83864E-01
 -1      1069-3.74818E-03-7.51393E-02-1.83823E-01
 -1      1070-4.30172E-03-3.79154E-02-1.84917E-01
 -1      1072-4.21325E-03-7.99882E-02-1.84893E-01
 -1      1073 0.00000E+00 0.00000E+00-3.42523E-05
 -1      1075 0.00000E+00-0.00000E+00 3.42523E-05
 -1      1076 0.00000E+00-1.00180E-16 0.00000E+00
 -1      1078 0.00000E+00 1.00180E-16 0.00000E+00
 -1      1079 0.00000E+00-1.65883E-16 0.00000E+00
 -1      1081 0.00000E+00 1.65883E-16 0.00000E+00
 -1      1082 0.00000E+00-1.82200E-16 0.00000E+00
 -1      1084 0.00000E+00 1.82200E-16 0.00000E+00
 -1      1085-1.54845E-04-2.08030E-03 2.09593E-05
 -1      1087 1.54845E-04-2.08030E-03-2.09593E-05
 -1      1088 2.17429E-15-2.04740E-03-6.79307E-15
 -1      1090 2.12783E-15-2.11320E-03-6.58511E-15
 -1      1099-1.96567E-04-6.01549E-03 7.88597E-05
 -1      1101 1.96567E-04-6.01549E-03-7.88597E-05
 -1      1102-2.96030E-15-5.89170E-03-2.22478E-15
 -1      1104 7.53730E-16-6.13928E-03-2.54224E-15
 -1      1113-2.37893E-04-1.11974E-02 9.73248E-05
 -1      1115 2.37893E-04-1.11974E-02-9.73248E-05
 -1      1116-5.44454E-15-1.10447E-02 1.10228E-14
 -1      1118-3.09030E-15-1.13502E-02 1.12926E-14
 -1      1127-1.90292E-04-1.61386E-02 1.20858E-04
 -1      1129 1.90292E-04-1.61386E-02-1.20858E-04
 -1      1130-3.85859E-15-1.59488E-02 1.48570E-14
 -1      1132-2.92071E-15-1.63283E-02 1.45917E-14
 -1      1141-1.60782E-04-2.03955E-02 1.19994E-04
 -1      1143 1.60782E-04-2.03955E-02-1.19994E-04
 -1      1144-1.64844E-15-2.02071E-02 1.44967E-14
 -1      1146-1.14041E-16-2.05838E-02 1.44523E-14
 -1      1155-7.04021E-05-2.32075E-02 9.69760E-05
 -1      1157 7.04021E-05-2.32075E-02-9.69760E-05
 -1      1158 2.23016E-15-2.30553E-02 1.31162E-14
 -1      1160 2.72421E-15-2.33598E-02 1.38900E-14
 -1      1169-2.21823E-05-2.45610E-02 5.54596E-05
 -1      1171 2.21823E-05-2.45610E-02-5.54596E-05
 -1      1172 3.53240E-15-2.44739E-02-1.68900E-15
 -1      1174 4.08895E-16-2.46480E-02-1.95392E-15
 -1      1183 3.87477E-05-2.46315E-02-5.72817E-06
 -1      1185-3.87477E-05-2.46315E-02 5.72817E-06
 -1      1186-3.53409E-15-2.46405E-02-2.56070E-14
 -1      1188-5.85423E-15-2.46225E-02-2.61294E-14
 -1      1197 4.51187E-05-2.39898E-02-7.24388E-05
 -1      1199-4.51187E-05-2.39898E-02 7.24388E-05
 -1      1200-9.96300E-15-2.41035E-02-2.98907E-14
 -1      1202-7.28015E-15-2.38761E-02-2.86180E-14
 -1      1211 3.53533E-05-2.33484E-02-1.40196E-04
 -1      1213-3.53533E-05-2.33484E-02 1.40196E-04
 -1      1214-8.31585E-15-2.35684E-02-1.91201E-14
 -1      1216-6.73461E-15-2.31283E-02-2.08028E-14
 -1      1225-1.73861E-05-2.34188E-02-1.95096E-04
 -1      1227 1.73861E-05-2.34188E-02 1.95096E-04
 -1      1228-9.30737E-15-2.37251E-02-2.33294E-14
 -1      1230-1.01840E-14-2.31126E-02-2.20561E-14
 -1      1239-7.95364E-05-2.47476E-02-2.32915E-04
 -1      1241 7.95364E-05-2.47476E-02 2.32915E-04
 -1      1242-1.66997E-14-2.51132E-02-3.19453E-14
 -1      1244-1.72385E-14-2.43820E-02-3.36307E-14
 -1      1253-1.51133E-04-2.75682E-02-2.47250E-04
 -1      1255 1.51133E-04-2.75682E-02 2.47250E-04
 -1      1256-1.97848E-14-2.79564E-02-4.62821E-14
 -1      1258-2.13420E-14-2.71801E-02-4.47145E-14
 -1      1267-2.04644E-04-3.17629E-02-2.40334E-04
 -1      1269 2.04644E-04-3.17629E-02 2.40334E-04
 -1      1270-2.01010E-14-3.21402E-02-5.04273E-14
 -1      1272-1.89110E-14-3.13856E-02-5.13801E-14
 -1      1281-2.34186E-04-3.68695E-02-2.15220E-04
 -1      1283 2.34186E-04-3.68695E-02 2.15220E-04
 -1      1284-1.60516E-14-3.72074E-02-5.10513E-14
 -1      1286-1.59991E-14-3.65317E-02-5.26158E-14
 -1      1295-2.27080E-04-4.21981E-02-1.80350E-04
 -1      1297 2.27080E-04-4.21981E-02 1.80350E-04
 -1      1298-1.49606E-14-4.24812E-02-6.32556E-14
 -1      1300-1.63755E-14-4.19150E-02-6.38927E-14
 -1      1309-1.87364E-04-4.69766E-02-1.43547E-04
 -1      1311 1.87364E-04-4.69766E-02 1.43547E-04
 -1      1312-2.07787E-14-4.72019E-02-6.31376E-14
 -1      1314-1.69133E-14-4.67513E-02-6.21233E-14
 -1      1323-1.20719E-04-5.05338E-02-1.13344E-04
 -1      1325 1.20719E-04-5.05338E-02 1.13344E-04
 -1      1326-2.61347E-14-5.07118E-02-4.21983E-14
 -1      1328-2.23682E-14-5.03559E-02-4.46905E-14
 -1      1337-4.29104E-05-5.24467E-02-9.46897E-05
 -1      1339 4.29104E-05-5.24467E-02 9.46897E-05
 -1      1340-3.38268E-14-5.25954E-02-3.07241E-14
 -1      1342-3.25403E-14-5.22981E-02-2.92141E-14
 -1      1351 3.04377E-05-5.26411E-02-8.99353E-05
 -1      1353-3.04377E-05-5.26411E-02 8.99353E-05
 -1      1354-4.26498E-14-5.27823E-02-1.61499E-14
 -1      1356-3.95484E-14-5.25000E-02-1.77674E-14
 -1      1365 8.28592E-05-5.14070E-02-9.67697E-05
 -1      1367-8.28592E-05-5.14070E-02 9.67697E-05
 -1      1368-4.57556E-14-5.15589E-02-9.84346E-16
 -1      1370-4.33537E-14-5.12551E-02 8.03935E-16
 -1      1379 1.03813E-04-4.93358E-02-1.10553E-04
 -1      1381-1.03813E-04-4.93358E-02 1.10553E-04
 -1      1382-4.55866E-14-4.95093E-02 8.13559E-15
 -1      1384-4.51880E-14-4.91623E-02 6.80385E-15
 -1      1393 8.90447E-05-4.71872E-02-1.24060E-04
 -1      1395-8.90447E-05-4.71872E-02 1.24060E-04
 -1      1396-4.33600E-14-4.73820E-02 7.16679E-15
 -1      1398-4.29598E-14-4.69925E-02 8.48735E-15
 -1      1407 4.26364E-05-4.57220E-02-1.31076E-04
 -1      1409-4.26364E-05-4.57220E-02 1.31076E-04
 -1      1410-3.82057E-14-4.59278E-02 1.99099E-14
 -1      1412-3.47914E-14-4.55162E-02 1.83651E-14
 -1      1421-2.44409E-05-4.55330E-02-1.26262E-04
 -1      1423 2.44409E-05-4.55330E-02 1.26262E-04
 -1      1424-3.05090E-14-4.57312E-02 3.73883E-14
 -1      1426-2.75938E-14-4.53348E-02 3.94947E-14
 -1      1435-9.76538E-05-4.69262E-02-1.08770E-04
 -1      1437 9.76538E-05-4.69262E-02 1.08770E-04
 -1      1438-2.36481E-14-4.70969E-02 4.30771E-14
 -1      1440-2.51184E-14-4.67554E-02 4.17023E-14
 -1      1449-1.60236E-04-4.98581E-02-8.05457E-05
 -1      1451 1.60236E-04-4.98581E-02 8.05457E-05
 -1      1452-2.27754E-14-4.99846E-02 2.96378E-14
 -1      1454-2.44091E-14-4.97317E-02 3.18963E-14
 -1      1463-2.02906E-04-5.39920E-02-4.84016E-05
 -1      1465 2.02906E-04-5.39920E-02 4.84016E-05
 -1      1466-2.62790E-14-5.40679E-02 2.99940E-14
 -1      1468-2.47188E-14-5.39160E-02 3.11515E-14
 -1      1477-2.15406E-04-5.87794E-02-2.19029E-05
 -1      1479 2.15406E-04-5.87794E-02 2.19029E-05
 -1      1480-2.84540E-14-5.88138E-02 4.28974E-14
 -1      1482-2.63355E-14-5.87450E-02 4.24510E-14
 -1      1491-2.11869E-04 6.64368E-02 1.09670E-02
 -1      1493 2.11869E-04 6.64368E-02-1.09670E-02
 -1      1494-2.12377E-04 1.95085E-01 7.34864E-14
 -1      1496 2.12377E-04 1.95085E-01 7.57103E-14
 -1      1497-2.11869E-04 6.64368E-02-1.09670E-02
 -1      1499 2.11869E-04 6.64368E-02 1.09670E-02
 -1      1500-3.36271E-03-1.35162E-03 8.38568E-03
 -1      1502-1.37317E-03-3.42256E-03 8.33390E-03
 -1      1503-4.15320E-03-4.08282E-03 1.92760E-02
 -1      1505-3.16758E-03-8.30337E-03 1.92301E-02
 -1      1506-4.89733E-03-8.00447E-03 2.85875E-02
 -1      1508-3.47577E-03-1.43430E-02 2.85818E-02
 -1      1509-4.47496E-03-1.18692E-02 3.82582E-02
 -1      1511-3.32043E-03-2.03507E-02 3.82882E-02
 -1      1512-3.64279E-03-1.49889E-02 4.72745E-02
 -1      1514-2.43584E-03-2.55361E-02 4.73080E-02
 -1      1515-2.46057E-03-1.68009E-02 5.60261E-02
 -1      1517-1.35693E-03-2.93749E-02 5.60791E-02
 -1      1518-1.32685E-03-1.71967E-02 6.43302E-02
 -1      1520-2.53181E-04-3.17370E-02 6.43604E-02
 -1      1521-5.05755E-04-1.63799E-02 7.22968E-02
 -1      1523 5.14275E-04-3.28294E-02 7.23198E-02
 -1      1524-1.97771E-04-1.48981E-02 7.99754E-02
 -1      1526 7.94026E-04-3.32092E-02 7.99633E-02
 -1      1527-4.77796E-04-1.34347E-02 8.74536E-02
 -1      1529 4.92801E-04-3.35550E-02 8.74246E-02
 -1      1530-1.26875E-03-1.26900E-02 9.48238E-02
 -1      1532-3.06199E-04-3.45819E-02 9.47693E-02
 -1      1533-2.38066E-03-1.31850E-02 1.02144E-01
 -1      1535-1.41933E-03-3.68048E-02 1.02085E-01
 -1      1536-3.53777E-03-1.51529E-02 1.09454E-01
 -1      1538-2.57594E-03-4.04666E-02 1.09395E-01
 -1      1539-4.45669E-03-1.84747E-02 1.16740E-01
 -1      1541-3.49795E-03-4.54395E-02 1.16700E-01
 -1      1542-4.90115E-03-2.27049E-02 1.23962E-01
 -1      1544-3.95490E-03-5.12796E-02 1.23942E-01
 -1      1545-4.74466E-03-2.71729E-02 1.31038E-01
 -1      1547-3.82299E-03-5.73043E-02 1.31045E-01
 -1      1548-3.99383E-03-3.11316E-02 1.37877E-01
 -1      1550-3.11052E-03-6.27620E-02 1.37905E-01
 -1      1551-2.79199E-03-3.39313E-02 1.44383E-01
 -1      1553-1.95914E-03-6.69900E-02 1.44426E-01
 -1      1554-1.38342E-03-3.51647E-02 1.50479E-01
 -1      1556-6.10352E-04-6.95742E-02 1.50523E-01
 -1      1557-6.08476E-05-3.47642E-02 1.56111E-01
 -1      1559 6.47440E-04-7.04359E-02 1.56145E-01
 -1      1560 9.02830E-04-3.30162E-02 1.61254E-01
 -1      1562 1.54517E-03-6.98556E-02 1.61267E-01
 -1      1563 1.31401E-03-3.05010E-02 1.65907E-01
 -1      1565 1.89240E-03-6.84054E-02 1.65894E-01
 -1      1566 1.10294E-03-2.79619E-02 1.70086E-01
 -1      1568 1.62029E-03-6.68244E-02 1.70047E-01
 -1      1569 3.35321E-04-2.61438E-02 1.73806E-01
 -1      1571 7.94268E-04-6.58508E-02 1.73747E-01
 -1      1572-8.02872E-04-2.56286E-02 1.77072E-01
 -1      1574-4.03421E-04-6.60631E-02 1.77001E-01
 -1      1575-2.05824E-03-2.67169E-02 1.79869E-01
 -1      1577-1.72029E-03-6.77558E-02 1.79799E-01
 -1      1578-3.16600E-03-2.93778E-02 1.82149E-01
 -1      1580-2.90093E-03-7.08940E-02 1.82091E-01
 -1      1581-3.93924E-03-3.32771E-02 1.83864E-01
 -1      1583-3.74818E-03-7.51393E-02 1.83823E-01
 -1      1584-4.30172E-03-3.79154E-02 1.84917E-01
 -1      1586-4.21325E-03-7.99882E-02 1.84893E-01
 -1      1587-2.19955E-03-4.66382E-02 5.76314E-02
 -1      1589-2.19148E-03-8.09631E-02 5.76520E-02
 -1      1590 0.00000E+00 0.00000E+00 3.42523E-05
 -1      1592 0.00000E+00 0.00000E+00-3.42523E-05
 -1      1593 2.19955E-03-4.66382E-02-5.76314E-02
 -1      1595 2.19148E-03-8.09631E-02-5.76520E-02
 -1      1596 3.36271E-03-1.35162E-03-8.38568E-03
 -1      1598 1.37317E-03-3.42256E-03-8.33390E-03
 -1      1599 4.15320E-03-4.08282E-03-1.92760E-02
 -1      1601 3.16758E-03-8.30337E-03-1.92301E-02
 -1      1602 4.89733E-03-8.00447E-03-2.85875E-02
 -1      1604 3.47577E-03-1.43430E-02-2.85818E-02
 -1      1605 4.47496E-03-1.18692E-02-3.82582E-02
 -1      1607 3.32043E-03-2.03507E-02-3.82882E-02
 -1      1608 3.64279E-03-1.49889E-02-4.72745E-02
 -1      1610 2.43584E-03-2.55361E-02-4.73080E-02
 -1      1611 2.46057E-03-1.68009E-02-5.60261E-02
 -1      1613 1.35693E-03-2.93749E-02-5.60791E-02
 -1      1614 1.32685E-03-1.71967E-02-6.43302E-02
 -1      1616 2.53181E-04-3.17370E-02-6.43604E-02
 -1      1617 5.05755E-04-1.63799E-02-7.22968E-02
 -1      1619-5.14275E-04-3.28294E-02-7.23198E-02
 -1      1620 1.97771E-04-1.48981E-02-7.99754E-02
 -1      1622-7.94026E-04-3.32092E-02-7.99633E-02
 -1      1623 4.77796E-04-1.34347E-02-8.74536E-02
 -1      1625-4.92801E-04-3.35550E-02-8.74246E-02
 -1      1626 1.26875E-03-1.26900E-02-9.48238E-02
 -1      1628 3.06199E-04-3.45819E-02-9.47693E-02
 -1      1629 2.38066E-03-1.31850E-02-1.02144E-01
 -1      1631 1.41933E-03-3.68048E-02-1.02085E-01
 -1      1632 3.53777E-03-1.51529E-02-1.09454E-01
 -1      1634 2.57594E-03-4.04666E-02-1.09395E-01
 -1      1635 4.45669E-03-1.84747E-02-1.16740E-01
 -1      1637 3.49795E-03-4.54395E-02-1.16700E-01
 -1      1638 4.90115E-03-2.27049E-02-1.23962E-01
 -1      1640 3.95490E-03-5.12796E-02-1.23942E-01
 -1      1641 4.74466E-03-2.71729E-02-1.31038E-01
 -1      1643 3.82299E-03-5.73043E-02-1.31045E-01
 -1      1644 3.99383E-03-3.11316E-02-1.37877E-01
 -1      1646 3.11052E-03-6.27620E-02-1.37905E-01
 -1      1647 2.79199E-03-3.39313E-02-1.44383E-01
 -1      1649 1.95914E-03-6.69900E-02-1.44426E-01
 -1      1650 1.38342E-03-3.51647E-02-1.50479E-01
 -1      1652 6.10352E-04-6.95742E-02-1.50523E-01
 -1      1653 6.08476E-05-3.47642E-02-1.56111E-01
 -1      1655-6.47440E-04-7.04359E-02-1.56145E-01
 -1      1656-9.02830E-04-3.30162E-02-1.61254E-01
 -1      1658-1.54517E-03-6.98556E-02-1.61267E-01
 -1      1659-1.31401E-03-3.05010E-02-1.65907E-01
 -1      1661-1.89240E-03-6.84054E-02-1.65894E-01
 -1      1662-1.10294E-03-2.79619E-02-1.70086E-01
 -1      1664-1.62029E-03-6.68244E-02-1.70047E-01
 -1      1665-3.35321E-04-2.61438E-02-1.73806E-01
 -1      1667-7.94268E-04-6.58508E-02-1.73747E-01
 -1      1668 8.02872E-04-2.56286E-02-1.77072E-01
 -1      1670 4.03421E-04-6.60631E-02-1.77001E-01
 -1      1671 2.05824E-03-2.67169E-02-1.79869E-01
 -1      1673 1.72029E-03-6.77558E-02-1.79799E-01
 -1      1674 3.16600E-03-2.93778E-02-1.82149E-01
 -1      1676 2.90093E-03-7.08940E-02-1.82091E-01
 -1      1677 3.93924E-03-3.32771E-02-1.83864E-01
 -1      1679 3.74818E-03-7.51393E-02-1.83823E-01
 -1      1680 4.30172E-03-3.79154E-02-1.84917E-01
 -1      1682 4.21325E-03-7.99882E-02-1.84893E-01
 -1      1683 0.00000E+00 0.00000E+00-3.42523E-05
 -1      1685 0.00000E+00 0.00000E+00 3.42523E-05
 -1      1686 1.36062E-03-1.35904E-03 2.49602E-03
 -1      1688 6.22492E-04-2.81548E-03 2.45093E-03
 -1      1689 1.93377E-03-4.39738E-03 6.36694E-03
 -1      1691 1.60029E-03-7.89193E-03 6.35856E-03
 -1      1692 2.24541E-03-8.51263E-03 9.26433E-03
 -1      1694 1.74835E-03-1.37598E-02 9.26099E-03
 -1      1695 2.07504E-03-1.26863E-02 1.24210E-02
 -1      1697 1.68520E-03-1.96781E-02 1.24359E-02
 -1      1698 1.69275E-03-1.60033E-02 1.51828E-02
 -1      1700 1.29496E-03-2.46934E-02 1.52093E-02
 -1      1701 1.12905E-03-1.80550E-02 1.78358E-02
 -1      1703 7.76037E-04-2.83595E-02 1.78618E-02
 -1      1704 6.00364E-04-1.86071E-02 2.02315E-02
 -1      1706 2.69066E-04-3.04917E-02 2.02606E-02
 -1      1707 2.08376E-04-1.79590E-02 2.24781E-02
 -1      1709-1.00012E-04-3.13483E-02 2.24968E-02
 -1      1710 6.65720E-05-1.66031E-02 2.45899E-02
 -1      1712-2.29301E-04-3.14666E-02 2.46029E-02
 -1      1713 2.00463E-04-1.52784E-02 2.66526E-02
 -1      1715-9.24085E-05-3.15659E-02 2.66545E-02
 -1      1716 5.79236E-04-1.46680E-02 2.87197E-02
 -1      1718 2.81909E-04-3.23606E-02 2.87166E-02
 -1      1719 1.10972E-03-1.53201E-02 3.08468E-02
 -1      1721 8.01680E-04-3.43894E-02 3.08406E-02
 -1      1722 1.66196E-03-1.74600E-02 3.30568E-02
 -1      1724 1.34232E-03-3.78935E-02 3.30541E-02
 -1      1725 2.10051E-03-2.09735E-02 3.53476E-02
 -1      1727 1.77128E-03-4.27483E-02 3.53525E-02
 -1      1728 2.31307E-03-2.54029E-02 3.76877E-02
 -1      1730 1.98073E-03-4.84980E-02 3.77035E-02
 -1      1731 2.23940E-03-3.00686E-02 4.00243E-02
 -1      1733 1.91200E-03-5.44484E-02 4.00525E-02
 -1      1734 1.88271E-03-3.42089E-02 4.22960E-02
 -1      1736 1.56925E-03-5.98309E-02 4.23344E-02
 -1      1737 1.31134E-03-3.71638E-02 4.44422E-02
 -1      1739 1.01930E-03-6.39704E-02 4.44879E-02
 -1      1740 6.41702E-04-3.85181E-02 4.64180E-02
 -1      1742 3.76186E-04-6.64436E-02 4.64652E-02
 -1      1743 1.33231E-05-3.82030E-02 4.81981E-02
 -1      1745-2.23974E-04-6.71708E-02 4.82421E-02
 -1      1746-4.43649E-04-3.65091E-02 4.97823E-02
 -1      1748-6.54107E-04-6.64383E-02 4.98180E-02
 -1      1749-6.36970E-04-3.40263E-02 5.11885E-02
 -1      1751-8.24256E-04-6.48302E-02 5.12140E-02
 -1      1752-5.32928E-04-3.15097E-02 5.24470E-02
 -1      1754-7.01506E-04-6.31012E-02 5.24616E-02
 -1      1755-1.63003E-04-2.97162E-02 5.35875E-02
 -1      1757-3.16640E-04-6.20040E-02 5.35941E-02
 -1      1758 3.85676E-04-2.92366E-02 5.46289E-02
 -1      1760 2.45754E-04-6.21287E-02 5.46307E-02
 -1      1761 9.91501E-04-3.03759E-02 5.55717E-02
 -1      1763 8.66271E-04-6.37733E-02 5.55744E-02
 -1      1764 1.53215E-03-3.30991E-02 5.63893E-02
 -1      1766 1.42805E-03-6.68992E-02 5.63959E-02
 -1      1767 1.91743E-03-3.70677E-02 5.70451E-02
 -1      1769 1.83811E-03-7.11582E-02 5.70587E-02
 -1      1770 2.11436E-03-4.17589E-02 5.74643E-02
 -1      1772 2.07639E-03-7.60231E-02 5.74842E-02
 -1      1773-1.36062E-03-1.35904E-03-2.49602E-03
 -1      1775-6.22492E-04-2.81548E-03-2.45093E-03
 -1      1776-1.93377E-03-4.39738E-03-6.36694E-03
 -1      1778-1.60029E-03-7.89193E-03-6.35856E-03
 -1      1779-2.24541E-03-8.51263E-03-9.26433E-03
 -1      1781-1.74835E-03-1.37598E-02-9.26099E-03
 -1      1782-2.07504E-03-1.26863E-02-1.24210E-02
 -1      1784-1.68520E-03-1.96781E-02-1.24359E-02
 -1      1785-1.69275E-03-1.60033E-02-1.51828E-02
 -1      1787-1.29496E-03-2.46934E-02-1.52093E-02
 -1      1788-1.12905E-03-1.80550E-02-1.78358E-02
 -1      1790-7.76037E-04-2.83595E-02-1.78618E-02
 -1      1791-6.00364E-04-1.86071E-02-2.02315E-02
 -1      1793-2.69066E-04-3.04917E-02-2.02606E-02
 -1      1794-2.08376E-04-1.79590E-02-2.24781E-02
 -1      1796 1.00012E-04-3.13483E-02-2.24968E-02
 -1      1797-6.65720E-05-1.66031E-02-2.45899E-02
 -1      1799 2.29301E-04-3.14666E-02-2.46029E-02
 -1      1800-2.00463E-04-1.52784E-02-2.66526E-02
 -1      1802 9.24085E-05-3.15659E-02-2.66545E-02
 -1      1803-5.79236E-04-1.46680E-02-2.87197E-02
 -1      1805-2.81909E-04-3.23606E-02-2.87166E-02
 -1      1806-1.10972E-03-1.53201E-02-3.08468E-02
 -1      1808-8.01680E-04-3.43894E-02-3.08406E-02
 -1      1809-1.66196E-03-1.74600E-02-3.30568E-02
 -1      1811-1.34232E-03-3.78935E-02-3.30541E-02
 -1      1812-2.10051E-03-2.09735E-02-3.53476E-02
 -1      1814-1.77128E-03-4.27483E-02-3.53525E-02
 -1      1815-2.31307E-03-2.54029E-02-3.76877E-02
 -1      1817-1.98073E-03-4.84980E-02-3.77035E-02
 -1      1818-2.23940E-03-3.00686E-02-4.00243E-02
 -1      1820-1.91200E-03-5.44484E-02-4.00525E-02
 -1      1821-1.88271E-03-3.42089E-02-4.22960E-02
 -1      1823-1.56925E-03-5.98309E-02-4.23344E-02
 -1      1824-1.31134E-03-3.71638E-02-4.44422E-02
 -1      1826-1.01930E-03-6.39704E-02-4.44879E-02
 -1      1827-6.41702E-04-3.85181E-02-4.64180E-02
 -1      1829-3.76186E-04-6.64436E-02-4.64652E-02
 -1      1830-1.33231E-05-3.82030E-02-4.81981E-02
 -1      1832 2.23974E-04-6.71708E-02-4.82421E-02
 -1      1833 4.43649E-04-3.65091E-02-4.97823E-02
 -1      1835 6.54107E-04-6.64383E-02-4.98180E-02
 -1      1836 6.36970E-04-3.40263E-02-5.11885E-02
 -1      1838 8.24256E-04-6.48302E-02-5.12140E-02
 -1      1839 5.32928E-04-3.15097E-02-5.24470E-02
 -1      1841 7.01506E-04-6.31012E-02-5.24616E-02
 -1      1842 1.63003E-04-2.97162E-02-5.35875E-02
 -1      1844 3.16640E-04-6.20040E-02-5.35941E-02
 -1      1845-3.85676E-04-2.92366E-02-5.46289E-02
 -1      1847-2.45754E-04-6.21287E-02-5.46307E-02
 -1      1848-9.91501E-04-3.03759E-02-5.55717E-02
 -1      1850-8.66271E-04-6.37733E-02-5.55744E-02
 -1      1851-1.53215E-03-3.30991E-02-5.63893E-02
 -1      1853-1.42805E-03-6.68992E-02-5.63959E-02
 -1      1854-1.91743E-03-3.70677E-02-5.70451E-02
 -1      1856-1.83811E-03-7.11582E-02-5.70587E-02
 -1      1857-2.11436E-03-4.17589E-02-5.74643E-02
 -1      1859-2.07639E-03-7.60231E-02-5.74842E-02
 -1      1860 2.46980E-04 2.94181E-03 4.61660E-04
 -1      1862-2.46980E-04 2.94181E-03-4.61660E-04
 -1      1863-3.11504E-05 5.31282E-03 1.02043E-03
 -1      1865 3.11504E-05 5.31282E-03-1.02043E-03
 -1      1866 7.32511E-05 5.74752E-03 1.53269E-03
 -1      1868-7.32511E-05 5.74752E-03-1.53269E-03
 -1      1869 4.29841E-05 7.04821E-03 2.06924E-03
 -1      1871-4.29841E-05 7.04821E-03-2.06924E-03
 -1      1872 1.36083E-04 9.14663E-03 2.61266E-03
 -1      1874-1.36083E-04 9.14663E-03-2.61266E-03
 -1      1875 2.03797E-04 1.31790E-02 3.16291E-03
 -1      1877-2.03797E-04 1.31790E-02-3.16291E-03
 -1      1878 2.82244E-04 1.89751E-02 3.72808E-03
 -1      1880-2.82244E-04 1.89751E-02-3.72808E-03
 -1      1881 3.32301E-04 2.63179E-02 4.29171E-03
 -1      1883-3.32301E-04 2.63179E-02-4.29171E-03
 -1      1884 3.44835E-04 3.44126E-02 4.85578E-03
 -1      1886-3.44835E-04 3.44126E-02-4.85578E-03
 -1      1887 3.17730E-04 4.23348E-02 5.40280E-03
 -1      1889-3.17730E-04 4.23348E-02-5.40280E-03
 -1      1890 2.51977E-04 4.91418E-02 5.92937E-03
 -1      1892-2.51977E-04 4.91418E-02-5.92937E-03
 -1      1893 1.64898E-04 5.41149E-02 6.42380E-03
 -1      1895-1.64898E-04 5.41149E-02-6.42380E-03
 -1      1896 7.18873E-05 5.69238E-02 6.88496E-03
 -1      1898-7.18873E-05 5.69238E-02-6.88496E-03
 -1      1899-5.08198E-06 5.76882E-02 7.31044E-03
 -1      1901 5.08198E-06 5.76882E-02-7.31044E-03
 -1      1902-5.17010E-05 5.69611E-02 7.70496E-03
 -1      1904 5.17010E-05 5.69611E-02-7.70496E-03
 -1      1905-5.78947E-05 5.55892E-02 8.07336E-03
 -1      1907 5.78947E-05 5.55892E-02-8.07336E-03
 -1      1908-2.48386E-05 5.45255E-02 8.42304E-03
 -1      1910 2.48386E-05 5.45255E-02-8.42304E-03
 -1      1911 3.85879E-05 5.46045E-02 8.75947E-03
 -1      1913-3.85879E-05 5.46045E-02-8.75947E-03
 -1      1914 1.15594E-04 5.63539E-02 9.08637E-03
 -1      1916-1.15594E-04 5.63539E-02-9.08637E-03
 -1      1917 1.86852E-04 5.98707E-02 9.40360E-03
 -1      1919-1.86852E-04 5.98707E-02-9.40360E-03
 -1      1920 2.33854E-04 6.47994E-02 9.70769E-03
 -1      1922-2.33854E-04 6.47994E-02-9.70769E-03
 -1      1923 2.43849E-04 7.04115E-02 9.99207E-03
 -1      1925-2.43849E-04 7.04115E-02-9.99207E-03
 -1      1926 2.12233E-04 7.57710E-02 1.02487E-02
 -1      1928-2.12233E-04 7.57710E-02-1.02487E-02
 -1      1929 1.43814E-04 7.99446E-02 1.04697E-02
 -1      1931-1.43814E-04 7.99446E-02-1.04697E-02
 -1      1932 5.16288E-05 8.22126E-02 1.06493E-02
 -1      1934-5.16288E-05 8.22126E-02-1.06493E-02
 -1      1935-4.68167E-05 8.22210E-02 1.07847E-02
 -1      1937 4.68167E-05 8.22210E-02-1.07847E-02
 -1      1938-1.31819E-04 8.00605E-02 1.08776E-02
 -1      1940 1.31819E-04 8.00605E-02-1.08776E-02
 -1      1941-1.91399E-04 7.62037E-02 1.09332E-02
 -1      1943 1.91399E-04 7.62037E-02-1.09332E-02
 -1      1944-2.13182E-04 7.14136E-02 1.09597E-02
 -1      1946 2.13182E-04 7.14136E-02-1.09597E-02
 -1      1947 6.48804E-04 8.47903E-03-4.85723E-16
 -1      1949-6.48804E-04 8.47903E-03-1.55605E-15
 -1      1950 1.34266E-04 1.72628E-02 6.55725E-16
 -1      1952-1.34266E-04 1.72628E-02-3.34108E-15
 -1      1953 3.84395E-04 2.37287E-02 1.08974E-14
 -1      1955-3.84395E-04 2.37287E-02 2.88224E-15
 -1      1956 2.76261E-04 3.13686E-02 1.86552E-14
 -1      1958-2.76261E-04 3.13686E-02 6.52603E-15
 -1      1959 4.32948E-04 3.97820E-02 1.98279E-14
 -1      1961-4.32948E-04 3.97820E-02 5.02376E-15
 -1      1962 4.77997E-04 5.03299E-02 1.85928E-14
 -1      1964-4.77997E-04 5.03299E-02 3.69149E-15
 -1      1965 5.86670E-04 6.26984E-02 1.10840E-14
 -1      1967-5.86670E-04 6.26984E-02-1.90473E-15
 -1      1968 6.25854E-04 7.66847E-02 9.92262E-16
 -1      1970-6.25854E-04 7.66847E-02-6.91114E-15
 -1      1971 6.44551E-04 9.13553E-02-8.64586E-15
 -1      1973-6.44551E-04 9.13553E-02-1.02834E-14
 -1      1974 6.00107E-04 1.05706E-01-1.55154E-14
 -1      1976-6.00107E-04 1.05706E-01-9.99895E-15
 -1      1977 5.21341E-04 1.18666E-01-2.01436E-14
 -1      1979-5.21341E-04 1.18666E-01-9.34582E-15
 -1      1980 4.09332E-04 1.29446E-01-2.68838E-14
 -1      1982-4.09332E-04 1.29446E-01-1.31796E-14
 -1      1983 2.94908E-04 1.37659E-01-3.10273E-14
 -1      1985-2.94908E-04 1.37659E-01-1.35725E-14
 -1      1986 1.94480E-04 1.43425E-01-3.32859E-14
 -1      1988-1.94480E-04 1.43425E-01-1.27745E-14
 -1      1989 1.30784E-04 1.47331E-01-3.89584E-14
 -1      1991-1.30784E-04 1.47331E-01-1.89362E-14
 -1      1992 1.11291E-04 1.50293E-01-4.34010E-14
 -1      1994-1.11291E-04 1.50293E-01-2.66853E-14
 -1      1995 1.37687E-04 1.53338E-01-3.89515E-14
 -1      1997-1.37687E-04 1.53338E-01-3.00940E-14
 -1      1998 1.97895E-04 1.57370E-01-2.90219E-14
 -1      2000-1.97895E-04 1.57370E-01-2.77417E-14
 -1      2001 2.74099E-04 1.62953E-01-1.54494E-14
 -1      2003-2.74099E-04 1.62953E-01-1.98383E-14
 -1      2004 3.43266E-04 1.70187E-01 4.25094E-15
 -1      2006-3.43266E-04 1.70187E-01-5.36897E-15
 -1      2007 3.84848E-04 1.78674E-01 2.31586E-14
 -1      2009-3.84848E-04 1.78674E-01 9.60104E-15
 -1      2010 3.83884E-04 1.87611E-01 3.85473E-14
 -1      2012-3.83884E-04 1.87611E-01 2.32366E-14
 -1      2013 3.35421E-04 1.95970E-01 4.93295E-14
 -1      2015-3.35421E-04 1.95970E-01 3.55401E-14
 -1      2016 2.44991E-04 2.02728E-01 5.80447E-14
 -1      2018-2.44991E-04 2.02728E-01 4.69381E-14
 -1      2019 1.27698E-04 2.07099E-01 6.51770E-14
 -1      2021-1.27698E-04 2.07099E-01 5.79927E-14
 -1      2022 4.02035E-06 2.08698E-01 6.80220E-14
 -1      2024-4.02035E-06 2.08698E-01 6.27293E-14
 -1      2025-1.03402E-04 2.07634E-01 6.33243E-14
 -1      2027 1.03402E-04 2.07634E-01 5.95357E-14
 -1      2028-1.79893E-04 2.04440E-01 6.50036E-14
 -1      2030 1.79893E-04 2.04440E-01 6.02157E-14
 -1      2031-2.10958E-04 1.99973E-01 6.89102E-14
 -1      2033 2.10958E-04 1.99973E-01 6.68285E-14
 -1      2034 2.46980E-04 2.94181E-03-4.61660E-04
 -1      2036-2.46980E-04 2.94181E-03 4.61660E-04
 -1      2037-3.11504E-05 5.31282E-03-1.02043E-03
 -1      2039 3.11504E-05 5.31282E-03 1.02043E-03
 -1      2040 7.32511E-05 5.74752E-03-1.53269E-03
 -1      2042-7.32511E-05 5.74752E-03 1.53269E-03
 -1      2043 4.29841E-05 7.04821E-03-2.06924E-03
 -1      2045-4.29841E-05 7.04821E-03 2.06924E-03
 -1      2046 1.36083E-04 9.14663E-03-2.61266E-03
 -1      2048-1.36083E-04 9.14663E-03 2.61266E-03
 -1      2049 2.03797E-04 1.31790E-02-3.16291E-03
 -1      2051-2.03797E-04 1.31790E-02 3.16291E-03
 -1      2052 2.82244E-04 1.89751E-02-3.72808E-03
 -1      2054-2.82244E-04 1.89751E-02 3.72808E-03
 -1      2055 3.32301E-04 2.63179E-02-4.29171E-03
 -1      2057-3.32301E-04 2.63179E-02 4.29171E-03
 -1      2058 3.44835E-04 3.44126E-02-4.85578E-03
 -1      2060-3.44835E-04 3.44126E-02 4.85578E-03
 -1      2061 3.17730E-04 4.23348E-02-5.40280E-03
 -1      2063-3.17730E-04 4.23348E-02 5.40280E-03
 -1      2064 2.51977E-04 4.91418E-02-5.92937E-03
 -1      2066-2.51977E-04 4.91418E-02 5.92937E-03
 -1      2067 1.64898E-04 5.41149E-02-6.42380E-03
 -1      2069-1.64898E-04 5.41149E-02 6.42380E-03
 -1      2070 7.18873E-05 5.69238E-02-6.88496E-03
 -1      2072-7.18873E-05 5.69238E-02 6.88496E-03
 -1      2073-5.08198E-06 5.76882E-02-7.31044E-03
 -1      2075 5.08198E-06 5.76882E-02 7.31044E-03
 -1      2076-5.17010E-05 5.69611E-02-7.70496E-03
 -1      2078 5.17010E-05 5.69611E-02 7.70496E-03
 -1      2079-5.78947E-05 5.55892E-02-8.07336E-03
 -1      2081 5.78947E-05 5.55892E-02 8.07336E-03
 -1      2082-2.48386E-05 5.45255E-02-8.42304E-03
 -1      2084 2.48386E-05 5.45255E-02 8.42304E-03
 -1      2085 3.85879E-05 5.46045E-02-8.75947E-03
 -1      2087-3.85879E-05 5.46045E-02 8.75947E-03
 -1      2088 1.15594E-04 5.63539E-02-9.08637E-03
 -1      2090-1.15594E-04 5.63539E-02 9.08637E-03
 -1      2091 1.86852E-04 5.98707E-02-9.40360E-03
 -1      2093-1.86852E-04 5.98707E-02 9.40360E-03
 -1      2094 2.33854E-04 6.47994E-02-9.70769E-03
 -1      2096-2.33854E-04 6.47994E-02 9.70769E-03
 -1      2097 2.43849E-04 7.04115E-02-9.99207E-03
 -1      2099-2.43849E-04 7.04115E-02 9.99207E-03
 -1      2100 2.12233E-04 7.57710E-02-1.02487E-02
 -1      2102-2.12233E-04 7.57710E-02 1.02487E-02
 -1      2103 1.43814E-04 7.99446E-02-1.04697E-02
 -1      2105-1.43814E-04 7.99446E-02 1.04697E-02
 -1      2106 5.16288E-05 8.22126E-02-1.06493E-02
 -1      2108-5.16288E-05 8.22126E-02 1.06493E-02
 -1      2109-4.68167E-05 8.22210E-02-1.07847E-02
 -1      2111 4.68167E-05 8.22210E-02 1.07847E-02
 -1      2112-1.31819E-04 8.00605E-02-1.08776E-02
 -1      2114 1.31819E-04 8.00605E-02 1.08776E-02
 -1      2115-1.91399E-04 7.62037E-02-1.09332E-02
 -1      2117 1.91399E-04 7.62037E-02 1.09332E-02
 -1      2118-2.13182E-04 7.14136E-02-1.09597E-02
 -1      2120 2.13182E-04 7.14136E-02 1.09597E-02
 -1      2121-1.36062E-03-1.35904E-03 2.49602E-03
 -1      2123-6.22492E-04-2.81548E-03 2.45093E-03
 -1      2124-1.93377E-03-4.39738E-03 6.36694E-03
 -1      2126-1.60029E-03-7.89193E-03 6.35856E-03
 -1      2127-2.24541E-03-8.51263E-03 9.26433E-03
 -1      2129-1.74835E-03-1.37598E-02 9.26099E-03
 -1      2130-2.07504E-03-1.26863E-02 1.24210E-02
 -1      2132-1.68520E-03-1.96781E-02 1.24359E-02
 -1      2133-1.69275E-03-1.60033E-02 1.51828E-02
 -1      2135-1.29496E-03-2.46934E-02 1.52093E-02
 -1      2136-1.12905E-03-1.80550E-02 1.78358E-02
 -1      2138-7.76037E-04-2.83595E-02 1.78618E-02
 -1      2139-6.00364E-04-1.86071E-02 2.02315E-02
 -1      2141-2.69066E-04-3.04917E-02 2.02606E-02
 -1      2142-2.08376E-04-1.79590E-02 2.24781E-02
 -1      2144 1.00012E-04-3.13483E-02 2.24968E-02
 -1      2145-6.65720E-05-1.66031E-02 2.45899E-02
 -1      2147 2.29301E-04-3.14666E-02 2.46029E-02
 -1      2148-2.00463E-04-1.52784E-02 2.66526E-02
 -1      2150 9.24085E-05-3.15659E-02 2.66545E-02
 -1      2151-5.79236E-04-1.46680E-02 2.87197E-02
 -1      2153-2.81909E-04-3.23606E-02 2.87166E-02
 -1      2154-1.10972E-03-1.53201E-02 3.08468E-02
 -1      2156-8.01680E-04-3.43894E-02 3.08406E-02
 -1      2157-1.66196E-03-1.74600E-02 3.30568E-02
 -1      2159-1.34232E-03-3.78935E-02 3.30541E-02
 -1      2160-2.10051E-03-2.09735E-02 3.53476E-02
 -1      2162-1.77128E-03-4.27483E-02 3.53525E-02
 -1      2163-2.31307E-03-2.54029E-02 3.76877E-02
 -1      2165-1.98073E-03-4.84980E-02 3.77035E-02
 -1      2166-2.23940E-03-3.00686E-02 4.00243E-02
 -1      2168-1.91200E-03-5.44484E-02 4.00525E-02
 -1      2169-1.88271E-03-3.42089E-02 4.22960E-02
 -1      2171-1.56925E-03-5.98309E-02 4.23344E-02
 -1      2172-1.31134E-03-3.71638E-02 4.44422E-02
 -1      2174-1.01930E-03-6.39704E-02 4.44879E-02
 -1      2175-6.41702E-04-3.85181E-02 4.64180E-02
 -1      2177-3.76186E-04-6.64436E-02 4.64652E-02
 -1      2178-1.33231E-05-3.82030E-02 4.81981E-02
 -1      2180 2.23974E-04-6.71708E-02 4.82421E-02
 -1      2181 4.43649E-04-3.65091E-02 4.97823E-02
 -1      2183 6.54107E-04-6.64383E-02 4.98180E-02
 -1      2184 6.36970E-04-3.40263E-02 5.11885E-02
 -1      2186 8.24256E-04-6.48302E-02 5.12140E-02
 -1      2187 5.32928E-04-3.15097E-02 5.24470E-02
 -1      2189 7.01506E-04-6.31012E-02 5.24616E-02
 -1      2190 1.63003E-04-2.97162E-02 5.35875E-02
 -1      2192 3.16640E-04-6.20040E-02 5.35941E-02
 -1      2193-3.85676E-04-2.92366E-02 5.46289E-02
 -1      2195-2.45754E-04-6.21287E-02 5.46307E-02
 -1      2196-9.91501E-04-3.03759E-02 5.55717E-02
 -1      2198-8.66271E-04-6.37733E-02 5.55744E-02
 -1      2199-1.53215E-03-3.30991E-02 5.63893E-02
 -1      2201-1.42805E-03-6.68992E-02 5.63959E-02
 -1      2202-1.91743E-03-3.70677E-02 5.70451E-02
 -1      2204-1.83811E-03-7.11582E-02 5.70587E-02
 -1      2205-2.11436E-03-4.17589E-02 5.74643E-02
 -1      2207-2.07639E-03-7.60231E-02 5.74842E-02
 -1      2208 1.36062E-03-1.35904E-03-2.49602E-03
 -1      2210 6.22492E-04-2.81548E-03-2.45093E-03
 -1      2211 1.93377E-03-4.39738E-03-6.36694E-03
 -1      2213 1.60029E-03-7.89193E-03-6.35856E-03
 -1      2214 2.24541E-03-8.51263E-03-9.26433E-03
 -1      2216 1.74835E-03-1.37598E-02-9.26099E-03
 -1      2217 2.07504E-03-1.26863E-02-1.24210E-02
 -1      2219 1.68520E-03-1.96781E-02-1.24359E-02
 -1      2220 1.69275E-03-1.60033E-02-1.51828E-02
 -1      2222 1.29496E-03-2.46934E-02-1.52093E-02
 -1      2223 1.12905E-03-1.80550E-02-1.78358E-02
 -1      2225 7.76037E-04-2.83595E-02-1.78618E-02
 -1      2226 6.00364E-04-1.86071E-02-2.02315E-02
 -1      2228 2.69066E-04-3.04917E-02-2.02606E-02
 -1      2229 2.08376E-04-1.79590E-02-2.24781E-02
 -1      2231-1.00012E-04-3.13483E-02-2.24968E-02
 -1      2232 6.65720E-05-1.66031E-02-2.45899E-02
 -1      2234-2.29301E-04-3.14666E-02-2.46029E-02
 -1      2235 2.00463E-04-1.52784E-02-2.66526E-02
 -1      2237-9.24085E-05-3.15659E-02-2.66545E-02
 -1      2238 5.79236E-04-1.46680E-02-2.87197E-02
 -1      2240 2.81909E-04-3.23606E-02-2.87166E-02
 -1      2241 1.10972E-03-1.53201E-02-3.08468E-02
 -1      2243 8.01680E-04-3.43894E-02-3.08406E-02
 -1      2244 1.66196E-03-1.74600E-02-3.30568E-02
 -1      2246 1.34232E-03-3.78935E-02-3.30541E-02
 -1      2247 2.10051E-03-2.09735E-02-3.53476E-02
 -1      2249 1.77128E-03-4.27483E-02-3.53525E-02
 -1      2250 2.31307E-03-2.54029E-02-3.76877E-02
 -1      2252 1.98073E-03-4.84980E-02-3.77035E-02
 -1      2253 2.23940E-03-3.00686E-02-4.00243E-02
 -1      2255 1.91200E-03-5.44484E-02-4.00525E-02
 -1      2256 1.88271E-03-3.42089E-02-4.22960E-02
 -1      2258 1.56925E-03-5.98309E-02-4.23344E-02
 -1      2259 1.31134E-03-3.71638E-02-4.44422E-02
 -1      2261 1.01930E-03-6.39704E-02-4.44879E-02
 -1      2262 6.41702E-04-3.85181E-02-4.64180E-02
 -1      2264 3.76186E-04-6.64436E-02-4.64652E-02
 -1      2265 1.33231E-05-3.82030E-02-4.81981E-02
 -1      2267-2.23974E-04-6.71708E-02-4.82421E-02
 -1      2268-4.43649E-04-3.65091E-02-4.97823E-02
 -1      2270-6.54107E-04-6.64383E-02-4.98180E-02
 -1      2271-6.36970E-04-3.40263E-02-5.11885E-02
 -1      2273-8.24256E-04-6.48302E-02-5.12140E-02
 -1      2274-5.32928E-04-3.15097E-02-5.24470E-02
 -1      2276-7.01506E-04-6.31012E-02-5.24616E-02
 -1      2277-1.63003E-04-2.97162E-02-5.35875E-02
 -1      2279-3.16640E-04-6.20040E-02-5.35941E-02
 -1      2280 3.85676E-04-2.92366E-02-5.46289E-02
 -1      2282 2.45754E-04-6.21287E-02-5.46307E-02
 -1      2283 9.91501E-04-3.03759E-02-5.55717E-02
 -1      2285 8.66271E-04-6.37733E-02-5.55744E-02
 -1      2286 1.53215E-03-3.30991E-02-5.63893E-02
 -1      2288 1.42805E-03-6.68992E-02-5.63959E-02
 -1      2289 1.91743E-03-3.70677E-02-5.70451E-02
 -1      2291 1.83811E-03-7.11582E-02-5.70587E-02
 -1      2292 2.11436E-03-4.17589E-02-5.74643E-02
 -1      2294 2.07639E-03-7.60231E-02-5.74842E-02
 -3
    1PSTEP                        70           1           1          
    1PGM                1.000000E+00                                  
    1PGK                1.866135E+07                                  
    1PHID                         -1                                  
    1PSUBC                         0                                  
    1PMODE                        18                                  
  100CL  118 687.5299308         930                     2   18MODAL      1
 -4  STRESS      6    1
 -5  SXX         1    4    1    1
 -5  SYY         1    4    2    2
 -5  SZZ         1    4    3    3
 -5  SXY         1    4    1    2
 -5  SYZ         1    4    2    3
 -5  SZX         1    4    3    1
 -1       404 3.64838E+09 3.96793E+08 6.26223E+06-5.71737E+08 6.60255E+06 2.95133E+08
 -1       406 3.64838E+09 3.96793E+08 6.26223E+06-5.71737E+08 6.60255E+06 2.95133E+08
 -1       407 1.67879E+08-1.76191E+08 1.41508E+06-6.63782E+07 3.66025E+08-1.88174E+06
 -1       409 1.67879E+08-1.76191E+08 1.41508E+06-6.63782E+07 3.66025E+08-1.88174E+06
 -1       410 8.15313E-03 3.15997E-03-7.67410E-04-1.21708E+08 8.71008E+08 2.44386E-04
 -1       412 8.15313E-03 3.15997E-03-7.67410E-04-1.21708E+08 8.71008E+08 2.44386E-04
 -1       413 2.55199E-03 2.61136E-03-2.32240E-02 4.25361E+05 2.01813E+09-3.43301E-03
 -1       415 2.55199E-03 2.61136E-03-2.32240E-02 4.25361E+05 2.01813E+09-3.43301E-03
 -1       424-8.28326E-03 9.07570E-04 8.27909E-05-7.93197E+08-5.70689E+07-1.00769E-03
 -1       426-8.28326E-03 9.07570E-04 8.27909E-05-7.93197E+08-5.70689E+07-1.00769E-03
 -1       427-1.02071E-02 3.97046E-05-4.42166E-03-8.47370E+07-4.13208E+07 2.59769E-03
 -1       429-1.02071E-02 3.97046E-05-4.42166E-03-8.47370E+07-4.13208E+07 2.59769E-03
 -1       438-1.67879E+08 1.76191E+08-1.41508E+06-6.63782E+07 3.66025E+08 1.88174E+06
 -1       440-1.67879E+08 1.76191E+08-1.41508E+06-6.63782E+07 3.66025E+08 1.88174E+06
 -1       441-3.64838E+09-3.96793E+08-6.26223E+06-5.71737E+08 6.60255E+06-2.95133E+08
 -1       443-3.64838E+09-3.96793E+08-6.26223E+06-5.71737E+08 6.60255E+06-2.95133E+08
 -1       444 5.22521E-03 3.20507E-05-1.64001E-04-8.47370E+07 4.13208E+07-5.02129E-03
 -1       446 5.22521E-03 3.20507E-05-1.64001E-04-8.47370E+07 4.13208E+07-5.02129E-03
 -1       447 1.86193E-03 7.66307E-04-3.60310E-05-7.93197E+08 5.70689E+07-7.02664E-05
 -1       449 1.86193E-03 7.66307E-04-3.60310E-05-7.93197E+08 5.70689E+07-7.02664E-05
 -1       458-3.11379E-03 4.94504E-04-2.67904E-02 4.25361E+05-2.01813E+09-3.34878E-03
 -1       460-3.11379E-03 4.94504E-04-2.67904E-02 4.25361E+05-2.01813E+09-3.34878E-03
 -1       461-1.03751E-03-5.96040E-03 1.32039E-04-1.21708E+08-8.71008E+08-1.19962E-04
 -1       463-1.03751E-03-5.96040E-03 1.32039E-04-1.21708E+08-8.71008E+08-1.19962E-04
 -1       472-3.64838E+09-3.96793E+08-6.26223E+06-5.71737E+08-6.60255E+06 2.95133E+08
 -1       474-3.64838E+09-3.96793E+08-6.26223E+06-5.71737E+08-6.60255E+06 2.95133E+08
 -1       475-1.67879E+08 1.76191E+08-1.41508E+06-6.63782E+07-3.66025E+08-1.88174E+06
 -1       477-1.67879E+08 1.76191E+08-1.41508E+06-6.63782E+07-3.66025E+08-1.88174E+06
 -1       478 1.67879E+08-1.76191E+08 1.41508E+06-6.63782E+07-3.66025E+08 1.88174E+06
 -1       480 1.67879E+08-1.76191E+08 1.41508E+06-6.63782E+07-3.66025E+08 1.88174E+06
 -1       481 3.64838E+09 3.96793E+08 6.26223E+06-5.71737E+08-6.60255E+06-2.95133E+08
 -1       483 3.64838E+09 3.96793E+08 6.26223E+06-5.71737E+08-6.60255E+06-2.95133E+08
 -1       484 2.88170E+09 1.08235E+08-5.49434E+05-4.06480E+08 2.08587E+07 1.06075E+08
 -1       486 2.88170E+09 1.08235E+08-5.49434E+05-4.06480E+08 2.08587E+07 1.06075E+08
 -1       487 1.46294E+09-6.72002E+07 1.77266E+06-3.02102E+08 3.73747E+07 6.96697E+06
 -1       489 1.46294E+09-6.72002E+07 1.77266E+06-3.02102E+08 3.73747E+07 6.96697E+06
 -1       490 1.82533E+08-4.95044E+06 2.10130E+05-3.09270E+08 5.04582E+07 5.42077E+07
 -1       492 1.82533E+08-4.95044E+06 2.10130E+05-3.09270E+08 5.04582E+07 5.42077E+07
 -1       493-8.78404E+08-3.88962E+07-1.15415E+06-2.08705E+08 7.05775E+07 3.04483E+07
 -1       495-8.78404E+08-3.88962E+07-1.15415E+06-2.08705E+08 7.05775E+07 3.04483E+07
 -1       496-1.54303E+09-3.92440E+07-2.75999E+05-1.06173E+08 8.76177E+07 3.99746E+07
 -1       498-1.54303E+09-3.92440E+07-2.75999E+05-1.06173E+08 8.76177E+07 3.99746E+07
 -1       499-1.75292E+09-5.15817E+07-1.70319E+06 1.37869E+07 1.06428E+08 3.37196E+07
 -1       501-1.75292E+09-5.15817E+07-1.70319E+06 1.37869E+07 1.06428E+08 3.37196E+07
 -1       502-1.49371E+09-5.91247E+07-2.26771E+04 1.23368E+08 1.24796E+08 3.47443E+07
 -1       504-1.49371E+09-5.91247E+07-2.26771E+04 1.23368E+08 1.24796E+08 3.47443E+07
 -1       505-8.63502E+08-7.04754E+07-4.71657E+05 1.97061E+08 1.42943E+08 3.26139E+07
 -1       507-8.63502E+08-7.04754E+07-4.71657E+05 1.97061E+08 1.42943E+08 3.26139E+07
 -1       508-2.49826E+07-7.86404E+07 1.30978E+06 2.24402E+08 1.61205E+08 3.21078E+07
 -1       510-2.49826E+07-7.86404E+07 1.30978E+06 2.24402E+08 1.61205E+08 3.21078E+07
 -1       511 8.12332E+08-8.93273E+07 1.40841E+06 1.97115E+08 1.78546E+08 3.12160E+07
 -1       513 8.12332E+08-8.93273E+07 1.40841E+06 1.97115E+08 1.78546E+08 3.12160E+07
 -1       514 1.44641E+09-9.73560E+07 2.65677E+06 1.24231E+08 1.95737E+08 3.07231E+07
 -1       516 1.44641E+09-9.73560E+07 2.65677E+06 1.24231E+08 1.95737E+08 3.07231E+07
 -1       517 1.72283E+09-1.06420E+08 2.53807E+06 2.19451E+07 2.11740E+08 3.02904E+07
 -1       519 1.72283E+09-1.06420E+08 2.53807E+06 2.19451E+07 2.11740E+08 3.02904E+07
 -1       520 1.57199E+09-1.13574E+08 2.86156E+06-8.55126E+07 2.27265E+08 2.98711E+07
 -1       522 1.57199E+09-1.13574E+08 2.86156E+06-8.55126E+07 2.27265E+08 2.98711E+07
 -1       523 1.02278E+09-1.20819E+08 2.19091E+06-1.73478E+08 2.41603E+08 2.94019E+07
 -1       525 1.02278E+09-1.20819E+08 2.19091E+06-1.73478E+08 2.41603E+08 2.94019E+07
 -1       526 1.96786E+08-1.26855E+08 1.77430E+06-2.21580E+08 2.55352E+08 2.87273E+07
 -1       528 1.96786E+08-1.26855E+08 1.77430E+06-2.21580E+08 2.55352E+08 2.87273E+07
 -1       529-7.20370E+08-1.32751E+08 8.78165E+05-2.18628E+08 2.68114E+08 2.78460E+07
 -1       531-7.20370E+08-1.32751E+08 8.78165E+05-2.18628E+08 2.68114E+08 2.78460E+07
 -1       532-1.52109E+09-1.38049E+08 3.88449E+05-1.65141E+08 2.80358E+08 2.66751E+07
 -1       534-1.52109E+09-1.38049E+08 3.88449E+05-1.65141E+08 2.80358E+08 2.66751E+07
 -1       535-2.02349E+09-1.43314E+08-9.50412E+04-7.31313E+07 2.91842E+08 2.52686E+07
 -1       537-2.02349E+09-1.43314E+08-9.50412E+04-7.31313E+07 2.91842E+08 2.52686E+07
 -1       538-2.11276E+09-1.48361E+08-2.72125E+04 3.65722E+07 3.02862E+08 2.36344E+07
 -1       540-2.11276E+09-1.48361E+08-2.72125E+04 3.65722E+07 3.02862E+08 2.36344E+07
 -1       541-1.76726E+09-1.53394E+08 2.53916E+05 1.39187E+08 3.13183E+08 2.18576E+07
 -1       543-1.76726E+09-1.53394E+08 2.53916E+05 1.39187E+08 3.13183E+08 2.18576E+07
 -1       544-1.06316E+09-1.58230E+08 9.67245E+05 2.11645E+08 3.22923E+08 1.99792E+07
 -1       546-1.06316E+09-1.58230E+08 9.67245E+05 2.11645E+08 3.22923E+08 1.99792E+07
 -1       547-1.56448E+08-1.62821E+08 1.74771E+06 2.37918E+08 3.31805E+08 1.80666E+07
 -1       549-1.56448E+08-1.62821E+08 1.74771E+06 2.37918E+08 3.31805E+08 1.80666E+07
 -1       550 7.53533E+08-1.66927E+08 2.59883E+06 2.12900E+08 3.39842E+08 1.61129E+07
 -1       552 7.53533E+08-1.66927E+08 2.59883E+06 2.12900E+08 3.39842E+08 1.61129E+07
 -1       553 1.47109E+09-1.70531E+08 3.21304E+06 1.43435E+08 3.46777E+08 1.41688E+07
 -1       555 1.47109E+09-1.70531E+08 3.21304E+06 1.43435E+08 3.46777E+08 1.41688E+07
 -1       556 1.85107E+09-1.73169E+08 3.55159E+06 4.76524E+07 3.52647E+08 1.20800E+07
 -1       558 1.85107E+09-1.73169E+08 3.55159E+06 4.76524E+07 3.52647E+08 1.20800E+07
 -1       559 1.83558E+09-1.75626E+08 3.51032E+06-4.99757E+07 3.57329E+08 1.00797E+07
 -1       561 1.83558E+09-1.75626E+08 3.51032E+06-4.99757E+07 3.57329E+08 1.00797E+07
 -1       562 1.47229E+09-1.76293E+08 3.12272E+06-1.21849E+08 3.60947E+08 7.52695E+06
 -1       564 1.47229E+09-1.76293E+08 3.12272E+06-1.21849E+08 3.60947E+08 7.52695E+06
 -1       565 9.12976E+08-1.78063E+08 2.54780E+06-1.44110E+08 3.63629E+08 5.71000E+06
 -1       567 9.12976E+08-1.78063E+08 2.54780E+06-1.44110E+08 3.63629E+08 5.71000E+06
 -1       568 3.88692E+08-1.78379E+08 1.90956E+06-1.03507E+08 3.65337E+08 1.84028E+06
 -1       570 3.88692E+08-1.78379E+08 1.90956E+06-1.03507E+08 3.65337E+08 1.84028E+06
 -1       571 6.16566E+07-3.35477E+08-1.43556E+06-9.40433E+07 6.18517E+08-1.55228E+06
 -1       573 6.16566E+07-3.35477E+08-1.43556E+06-9.40433E+07 6.18517E+08-1.55228E+06
 -1       574-1.05931E-02 1.61423E-03 1.06253E-04-7.72657E+08-5.93561E+05-3.53226E-04
 -1       576-1.05931E-02 1.61423E-03 1.06253E-04-7.72657E+08-5.93561E+05-3.53226E-04
 -1       577-1.16452E-02 2.68642E-04-8.94529E-03-3.98725E+07 3.53815E+07 4.02694E-03
 -1       579-1.16452E-02 2.68642E-04-8.94529E-03-3.98725E+07 3.53815E+07 4.02694E-03
 -1       588-9.05559E-03 1.41160E-03 8.90484E-05-7.41388E+08 8.80593E+07-2.80783E-04
 -1       590-9.05559E-03 1.41160E-03 8.90484E-05-7.41388E+08 8.80593E+07-2.80783E-04
 -1       591-9.99747E-03 2.71164E-04-1.42008E-02-3.48450E+07 1.84167E+08 4.66460E-03
 -1       593-9.99747E-03 2.71164E-04-1.42008E-02-3.48450E+07 1.84167E+08 4.66460E-03
 -1       602-7.79703E-06 5.83082E-05-7.71293E-05-6.42286E+08 1.27953E+08-4.17257E-04
 -1       604-7.79703E-06 5.83082E-05-7.71293E-05-6.42286E+08 1.27953E+08-4.17257E-04
 -1       605-1.76953E-03 1.83475E-04-9.21794E-03-3.99900E+07 2.86797E+08 3.68135E-03
 -1       607-1.76953E-03 1.83475E-04-9.21794E-03-3.99900E+07 2.86797E+08 3.68135E-03
 -1       616 2.91939E-03 2.55018E-04-9.48608E-05-4.63789E+08 1.70039E+08-2.29890E-04
 -1       618 2.91939E-03 2.55018E-04-9.48608E-05-4.63789E+08 1.70039E+08-2.29890E-04
 -1       619 1.20076E-03 7.22301E-05-2.02859E-03-3.46377E+07 3.78529E+08 4.33160E-03
 -1       621 1.20076E-03 7.22301E-05-2.02859E-03-3.46377E+07 3.78529E+08 4.33160E-03
 -1       630-5.29742E-03 1.59445E-03-5.66691E-05-2.34182E+08 2.15240E+08-3.11118E-04
 -1       632-5.29742E-03 1.59445E-03-5.66691E-05-2.34182E+08 2.15240E+08-3.11118E-04
 -1       633-6.90897E-03 1.41031E-04-4.51142E-03-4.07943E+07 4.81111E+08 6.76340E-03
 -1       635-6.90897E-03 1.41031E-04-4.51142E-03-4.07943E+07 4.81111E+08 6.76340E-03
 -1       644-1.42929E-02 1.36480E-03-1.15499E-04 3.08287E+07 2.54543E+08-2.46916E-04
 -1       646-1.42929E-02 1.36480E-03-1.15499E-04 3.08287E+07 2.54543E+08-2.46916E-04
 -1       647-1.66569E-02 6.29269E-04-1.59845E-02-3.55380E+07 5.77741E+08 9.11360E-03
 -1       649-1.66569E-02 6.29269E-04-1.59845E-02-3.55380E+07 5.77741E+08 9.11360E-03
 -1       658-1.41026E-02-1.21081E-03 4.61042E-05 2.62269E+08 2.98593E+08-2.33322E-04
 -1       660-1.41026E-02-1.21081E-03 4.61042E-05 2.62269E+08 2.98593E+08-2.33322E-04
 -1       661-1.80702E-02 6.08831E-04-2.70349E-02-4.00965E+07 6.82036E+08 6.80019E-03
 -1       663-1.80702E-02 6.08831E-04-2.70349E-02-4.00965E+07 6.82036E+08 6.80019E-03
 -1       672-4.30910E-03-4.11826E-03 1.43461E-05 4.26411E+08 3.38754E+08-3.75679E-04
 -1       674-4.30910E-03-4.11826E-03 1.43461E-05 4.26411E+08 3.38754E+08-3.75679E-04
 -1       675-8.57346E-03 1.06586E-03-2.52549E-02-3.60971E+07 7.84865E+08 4.29240E-04
 -1       677-8.57346E-03 1.06586E-03-2.52549E-02-3.60971E+07 7.84865E+08 4.29240E-04
 -1       686 5.63694E-03-4.77450E-03-9.75579E-05 4.83292E+08 3.81005E+08-3.14061E-04
 -1       688 5.63694E-03-4.77450E-03-9.75579E-05 4.83292E+08 3.81005E+08-3.14061E-04
 -1       689 2.00414E-04 1.51690E-03-1.71376E-02-3.81305E+07 8.89233E+08 1.19974E-03
 -1       691 2.00414E-04 1.51690E-03-1.71376E-02-3.81305E+07 8.89233E+08 1.19974E-03
 -1       700 8.34721E-03-9.56684E-04 3.54371E-04 4.25590E+08 4.20342E+08 5.70901E-06
 -1       702 8.34721E-03-9.56684E-04 3.54371E-04 4.25590E+08 4.20342E+08 5.70901E-06
 -1       703-2.14912E-03-5.38178E-04-1.93846E-02-3.49548E+07 9.89990E+08 7.42190E-03
 -1       705-2.14912E-03-5.38178E-04-1.93846E-02-3.49548E+07 9.89990E+08 7.42190E-03
 -1       714 5.96128E-03 3.50654E-03 3.79418E-04 2.67678E+08 4.59509E+08-8.64491E-05
 -1       716 5.96128E-03 3.50654E-03 3.79418E-04 2.67678E+08 4.59509E+08-8.64491E-05
 -1       717-7.07683E-03-3.05589E-04-2.75149E-02-3.49158E+07 1.08642E+09 5.67404E-03
 -1       719-7.07683E-03-3.05589E-04-2.75149E-02-3.49158E+07 1.08642E+09 5.67404E-03
 -1       728 3.86938E-03 2.59720E-03 4.69906E-04 4.65668E+07 4.95883E+08-1.23437E-04
 -1       730 3.86938E-03 2.59720E-03 4.69906E-04 4.65668E+07 4.95883E+08-1.23437E-04
 -1       731-7.17732E-03 1.22835E-03-3.00340E-02-3.21018E+07 1.17578E+09-8.03396E-04
 -1       733-7.17732E-03 1.22835E-03-3.00340E-02-3.21018E+07 1.17578E+09-8.03396E-04
 -1       742 3.10594E-03-1.23608E-03-2.12323E-04-1.85664E+08 5.30897E+08-1.11530E-04
 -1       744 3.10594E-03-1.23608E-03-2.12323E-04-1.85664E+08 5.30897E+08-1.11530E-04
 -1       745-7.95675E-03-3.88713E-05-2.66786E-02-3.08960E+07 1.25776E+09-5.19382E-03
 -1       747-7.95675E-03-3.88713E-05-2.66786E-02-3.08960E+07 1.25776E+09-5.19382E-03
 -1       756 5.19142E-03-7.62045E-05-5.73527E-04-3.75993E+08 5.63470E+08-1.12616E-04
 -1       758 5.19142E-03-7.62045E-05-5.73527E-04-3.75993E+08 5.63470E+08-1.12616E-04
 -1       759-9.71930E-03-7.66456E-04-2.21343E-02-2.84394E+07 1.33222E+09-9.29466E-03
 -1       761-9.71930E-03-7.66456E-04-2.21343E-02-2.84394E+07 1.33222E+09-9.29466E-03
 -1       770 9.86300E-03 6.39024E-03 6.20864E-04-4.79832E+08 5.94682E+08-2.04880E-04
 -1       772 9.86300E-03 6.39024E-03 6.20864E-04-4.79832E+08 5.94682E+08-2.04880E-04
 -1       773-7.22348E-03-9.13773E-04-2.28675E-02-2.69200E+07 1.40061E+09-1.14703E-02
 -1       775-7.22348E-03-9.13773E-04-2.28675E-02-2.69200E+07 1.40061E+09-1.14703E-02
 -1       784 5.53238E-03 1.04476E-02 1.68856E-04-4.73473E+08 6.24331E+08-8.42400E-05
 -1       786 5.53238E-03 1.04476E-02 1.68856E-04-4.73473E+08 6.24331E+08-8.42400E-05
 -1       787-6.79825E-03 1.90188E-04-2.86278E-02-2.49714E+07 1.46473E+09-1.03185E-02
 -1       789-6.79825E-03 1.90188E-04-2.86278E-02-2.49714E+07 1.46473E+09-1.03185E-02
 -1       798-7.54789E-03 7.58719E-03 1.78494E-04-3.57628E+08 6.53275E+08-2.15074E-04
 -1       800-7.54789E-03 7.58719E-03 1.78494E-04-3.57628E+08 6.53275E+08-2.15074E-04
 -1       801-1.40061E-02 2.53694E-04-3.11559E-02-2.35971E+07 1.52677E+09-8.61633E-03
 -1       803-1.40061E-02 2.53694E-04-3.11559E-02-2.35971E+07 1.52677E+09-8.61633E-03
 -1       812-1.10095E-02-3.32981E-04 4.86210E-04-1.58584E+08 6.81504E+08-3.16128E-04
 -1       814-1.10095E-02-3.32981E-04 4.86210E-04-1.58584E+08 6.81504E+08-3.16128E-04
 -1       815-1.58884E-02-2.39406E-05-2.74790E-02-2.20817E+07 1.58852E+09-3.90429E-03
 -1       817-1.58884E-02-2.39406E-05-2.74790E-02-2.20817E+07 1.58852E+09-3.90429E-03
 -1       826-2.01741E-03-6.61710E-03 2.73347E-04 7.88313E+07 7.09408E+08-1.86453E-04
 -1       828-2.01741E-03-6.61710E-03 2.73347E-04 7.88313E+07 7.09408E+08-1.86453E-04
 -1       829-8.17113E-03 3.77290E-04-2.65536E-02-2.08087E+07 1.65099E+09 4.07532E-03
 -1       831-8.17113E-03 3.77290E-04-2.65536E-02-2.08087E+07 1.65099E+09 4.07532E-03
 -1       840 6.80095E-03-7.82131E-03-3.38301E-04 3.00878E+08 7.36641E+08-1.69011E-04
 -1       842 6.80095E-03-7.82131E-03-3.38301E-04 3.00878E+08 7.36641E+08-1.69011E-04
 -1       843-3.32400E-04 6.96706E-05-2.96667E-02-1.93631E+07 1.71410E+09 7.44857E-03
 -1       845-3.32400E-04 6.96706E-05-2.96667E-02-1.93631E+07 1.71410E+09 7.44857E-03
 -1       854 1.02716E-02-4.82108E-03-2.09980E-04 4.57740E+08 7.63003E+08-1.34245E-04
 -1       856 1.02716E-02-4.82108E-03-2.09980E-04 4.57740E+08 7.63003E+08-1.34245E-04
 -1       857 2.81147E-03 1.84874E-04-2.86185E-02-1.78630E+07 1.77665E+09 5.17807E-03
 -1       859 2.81147E-03 1.84874E-04-2.86185E-02-1.78630E+07 1.77665E+09 5.17807E-03
 -1       868 9.51251E-03-8.55953E-04 7.86409E-05 5.14795E+08 7.87701E+08-9.12650E-05
 -1       870 9.51251E-03-8.55953E-04 7.86409E-05 5.14795E+08 7.87701E+08-9.12650E-05
 -1       871 1.01137E-03-4.86445E-04-2.78904E-02-1.61053E+07 1.83651E+09 4.78253E-03
 -1       873 1.01137E-03-4.86445E-04-2.78904E-02-1.61053E+07 1.83651E+09 4.78253E-03
 -1       882 7.74864E-03 2.55945E-03-8.17515E-05 4.60835E+08 8.10215E+08 2.35736E-05
 -1       884 7.74864E-03 2.55945E-03-8.17515E-05 4.60835E+08 8.10215E+08 2.35736E-05
 -1       885-2.61506E-03-5.12307E-04-3.46864E-02-1.41538E+07 1.89102E+09 5.27444E-03
 -1       887-2.61506E-03-5.12307E-04-3.46864E-02-1.41538E+07 1.89102E+09 5.27444E-03
 -1       896 3.56995E-03 5.86969E-03 5.78846E-04 3.11198E+08 8.29604E+08-1.86647E-04
 -1       898 3.56995E-03 5.86969E-03 5.78846E-04 3.11198E+08 8.29604E+08-1.86647E-04
 -1       899-9.26633E-03-8.03669E-04-4.38500E-02-1.20178E+07 1.93760E+09 3.31748E-03
 -1       901-9.26633E-03-8.03669E-04-4.38500E-02-1.20178E+07 1.93760E+09 3.31748E-03
 -1       910-3.57424E-03 4.38410E-03 3.13453E-04 1.04148E+08 8.45561E+08 1.21180E-04
 -1       912-3.57424E-03 4.38410E-03 3.13453E-04 1.04148E+08 8.45561E+08 1.21180E-04
 -1       913-1.59460E-02-1.05697E-03-4.66411E-02-9.73644E+06 1.97422E+09 3.65204E-04
 -1       915-1.59460E-02-1.05697E-03-4.66411E-02-9.73644E+06 1.97422E+09 3.65204E-04
 -1       924-4.82546E-03-1.52615E-03-1.88043E-05-1.05504E+08 8.57387E+08-6.22803E-05
 -1       926-4.82546E-03-1.52615E-03-1.88043E-05-1.05504E+08 8.57387E+08-6.22803E-05
 -1       927-1.57749E-02-9.19719E-04-4.45672E-02-7.58623E+06 1.99978E+09-2.95115E-03
 -1       929-1.57749E-02-9.19719E-04-4.45672E-02-7.58623E+06 1.99978E+09-2.95115E-03
 -1       938 1.22026E-03-1.67139E-03-2.82876E-04-2.60266E+08 8.65413E+08 7.66495E-05
 -1       940 1.22026E-03-1.67139E-03-2.82876E-04-2.60266E+08 8.65413E+08 7.66495E-05
 -1       941-1.15702E-02-9.22753E-04-4.39637E-02-5.30389E+06 2.01464E+09-2.27213E-03
 -1       943-1.15702E-02-9.22753E-04-4.39637E-02-5.30389E+06 2.01464E+09-2.27213E-03
 -1       952 9.16699E-03 4.75439E-03-8.03918E-05-3.07331E+08 8.69446E+08 1.34193E-04
 -1       954 9.16699E-03 4.75439E-03-8.03918E-05-3.07331E+08 8.69446E+08 1.34193E-04
 -1       955-5.48673E-03-3.75566E-04-4.01408E-02-3.80246E+06 2.01990E+09-1.88230E-03
 -1       957-5.48673E-03-3.75566E-04-4.01408E-02-3.80246E+06 2.01990E+09-1.88230E-03
 -1       966 1.06854E-02 5.68292E-03-2.23115E-04-2.09522E+08 8.70514E+08-1.74433E-04
 -1       968 1.06854E-02 5.68292E-03-2.23115E-04-2.09522E+08 8.70514E+08-1.74433E-04
 -1       969 5.11523E-04 1.15381E-03-2.95392E-02-1.61913E+06 2.01920E+09-3.54857E-03
 -1       971 5.11523E-04 1.15381E-03-2.95392E-02-1.61913E+06 2.01920E+09-3.54857E-03
 -1       980 2.39284E+09 3.60359E+08 1.43877E+06-6.82467E+08-2.52332E+07 9.50013E+07
 -1       982 2.39284E+09 3.60359E+08 1.43877E+06-6.82467E+08-2.52332E+07 9.50013E+07
 -1       983-6.16566E+07 3.35477E+08 1.43556E+06-9.40433E+07 6.18517E+08 1.55228E+06
 -1       985-6.16566E+07 3.35477E+08 1.43556E+06-9.40433E+07 6.18517E+08 1.55228E+06
 -1       986-2.88170E+09-1.08235E+08 5.49434E+05-4.06480E+08 2.08587E+07-1.06075E+08
 -1       988-2.88170E+09-1.08235E+08 5.49434E+05-4.06480E+08 2.08587E+07-1.06075E+08
 -1       989-1.46294E+09 6.72002E+07-1.77266E+06-3.02102E+08 3.73747E+07-6.96697E+06
 -1       991-1.46294E+09 6.72002E+07-1.77266E+06-3.02102E+08 3.73747E+07-6.96697E+06
 -1       992-1.82533E+08 4.95044E+06-2.10130E+05-3.09270E+08 5.04582E+07-5.42077E+07
 -1       994-1.82533E+08 4.95044E+06-2.10130E+05-3.09270E+08 5.04582E+07-5.42077E+07
 -1       995 8.78404E+08 3.88962E+07 1.15415E+06-2.08705E+08 7.05775E+07-3.04483E+07
 -1       997 8.78404E+08 3.88962E+07 1.15415E+06-2.08705E+08 7.05775E+07-3.04483E+07
 -1       998 1.54303E+09 3.92440E+07 2.75999E+05-1.06173E+08 8.76177E+07-3.99746E+07
 -1      1000 1.54303E+09 3.92440E+07 2.75999E+05-1.06173E+08 8.76177E+07-3.99746E+07
 -1      1001 1.75292E+09 5.15817E+07 1.70319E+06 1.37869E+07 1.06428E+08-3.37196E+07
 -1      1003 1.75292E+09 5.15817E+07 1.70319E+06 1.37869E+07 1.06428E+08-3.37196E+07
 -1      1004 1.49371E+09 5.91247E+07 2.26771E+04 1.23368E+08 1.24796E+08-3.47443E+07
 -1      1006 1.49371E+09 5.91247E+07 2.26771E+04 1.23368E+08 1.24796E+08-3.47443E+07
 -1      1007 8.63502E+08 7.04754E+07 4.71657E+05 1.97061E+08 1.42943E+08-3.26139E+07
 -1      1009 8.63502E+08 7.04754E+07 4.71657E+05 1.97061E+08 1.42943E+08-3.26139E+07
 -1      1010 2.49826E+07 7.86404E+07-1.30978E+06 2.24402E+08 1.61205E+08-3.21078E+07
 -1      1012 2.49826E+07 7.86404E+07-1.30978E+06 2.24402E+08 1.61205E+08-3.21078E+07
 -1      1013-8.12332E+08 8.93273E+07-1.40841E+06 1.97115E+08 1.78546E+08-3.12160E+07
 -1      1015-8.12332E+08 8.93273E+07-1.40841E+06 1.97115E+08 1.78546E+08-3.12160E+07
 -1      1016-1.44641E+09 9.73560E+07-2.65677E+06 1.24231E+08 1.95737E+08-3.07231E+07
 -1      1018-1.44641E+09 9.73560E+07-2.65677E+06 1.24231E+08 1.95737E+08-3.07231E+07
 -1      1019-1.72283E+09 1.06420E+08-2.53807E+06 2.19451E+07 2.11740E+08-3.02904E+07
 -1      1021-1.72283E+09 1.06420E+08-2.53807E+06 2.19451E+07 2.11740E+08-3.02904E+07
 -1      1022-1.57199E+09 1.13574E+08-2.86156E+06-8.55126E+07 2.27265E+08-2.98711E+07
 -1      1024-1.57199E+09 1.13574E+08-2.86156E+06-8.55126E+07 2.27265E+08-2.98711E+07
 -1      1025-1.02278E+09 1.20819E+08-2.19091E+06-1.73478E+08 2.41603E+08-2.94019E+07
 -1      1027-1.02278E+09 1.20819E+08-2.19091E+06-1.73478E+08 2.41603E+08-2.94019E+07
 -1      1028-1.96786E+08 1.26855E+08-1.77430E+06-2.21580E+08 2.55352E+08-2.87273E+07
 -1      1030-1.96786E+08 1.26855E+08-1.77430E+06-2.21580E+08 2.55352E+08-2.87273E+07
 -1      1031 7.20370E+08 1.32751E+08-8.78165E+05-2.18628E+08 2.68114E+08-2.78460E+07
 -1      1033 7.20370E+08 1.32751E+08-8.78165E+05-2.18628E+08 2.68114E+08-2.78460E+07
 -1      1034 1.52109E+09 1.38049E+08-3.88449E+05-1.65141E+08 2.80358E+08-2.66751E+07
 -1      1036 1.52109E+09 1.38049E+08-3.88449E+05-1.65141E+08 2.80358E+08-2.66751E+07
 -1      1037 2.02349E+09 1.43314E+08 9.50412E+04-7.31313E+07 2.91842E+08-2.52686E+07
 -1      1039 2.02349E+09 1.43314E+08 9.50412E+04-7.31313E+07 2.91842E+08-2.52686E+07
 -1      1040 2.11276E+09 1.48361E+08 2.72125E+04 3.65722E+07 3.02862E+08-2.36344E+07
 -1      1042 2.11276E+09 1.48361E+08 2.72125E+04 3.65722E+07 3.02862E+08-2.36344E+07
 -1      1043 1.76726E+09 1.53394E+08-2.53916E+05 1.39187E+08 3.13183E+08-2.18576E+07
 -1      1045 1.76726E+09 1.53394E+08-2.53916E+05 1.39187E+08 3.13183E+08-2.18576E+07
 -1      1046 1.06316E+09 1.58230E+08-9.67245E+05 2.11645E+08 3.22923E+08-1.99792E+07
 -1      1048 1.06316E+09 1.58230E+08-9.67245E+05 2.11645E+08 3.22923E+08-1.99792E+07
 -1      1049 1.56448E+08 1.62821E+08-1.74771E+06 2.37918E+08 3.31805E+08-1.80666E+07
 -1      1051 1.56448E+08 1.62821E+08-1.74771E+06 2.37918E+08 3.31805E+08-1.80666E+07
 -1      1052-7.53533E+08 1.66927E+08-2.59883E+06 2.12900E+08 3.39842E+08-1.61129E+07
 -1      1054-7.53533E+08 1.66927E+08-2.59883E+06 2.12900E+08 3.39842E+08-1.61129E+07
 -1      1055-1.47109E+09 1.70531E+08-3.21304E+06 1.43435E+08 3.46777E+08-1.41688E+07
 -1      1057-1.47109E+09 1.70531E+08-3.21304E+06 1.43435E+08 3.46777E+08-1.41688E+07
 -1      1058-1.85107E+09 1.73169E+08-3.55159E+06 4.76524E+07 3.52647E+08-1.20800E+07
 -1      1060-1.85107E+09 1.73169E+08-3.55159E+06 4.76524E+07 3.52647E+08-1.20800E+07
 -1      1061-1.83558E+09 1.75626E+08-3.51032E+06-4.99757E+07 3.57329E+08-1.00797E+07
 -1      1063-1.83558E+09 1.75626E+08-3.51032E+06-4.99757E+07 3.57329E+08-1.00797E+07
 -1      1064-1.47229E+09 1.76293E+08-3.12272E+06-1.21849E+08 3.60947E+08-7.52695E+06
 -1      1066-1.47229E+09 1.76293E+08-3.12272E+06-1.21849E+08 3.60947E+08-7.52695E+06
 -1      1067-9.12976E+08 1.78063E+08-2.54780E+06-1.44110E+08 3.63629E+08-5.71000E+06
 -1      1069-9.12976E+08 1.78063E+08-2.54780E+06-1.44110E+08 3.63629E+08-5.71000E+06
 -1      1070-3.88692E+08 1.78379E+08-1.90956E+06-1.03507E+08 3.65337E+08-1.84028E+06
 -1      1072-3.88692E+08 1.78379E+08-1.90956E+06-1.03507E+08 3.65337E+08-1.84028E+06
 -1      1073-2.39284E+09-3.60359E+08-1.43877E+06-6.82467E+08-2.52332E+07-9.50013E+07
 -1      1075-2.39284E+09-3.60359E+08-1.43877E+06-6.82467E+08-2.52332E+07-9.50013E+07
 -1      1076-1.14989E-02 6.57916E-05-6.55230E-03 1.60514E+08 1.34825E+07 1.99672E-03
 -1      1078-1.14989E-02 6.57916E-05-6.55230E-03 1.60514E+08 1.34825E+07 1.99672E-03
 -1      1079-7.96697E-03 1.13110E-04-6.89797E-03 4.05765E+08-1.50621E-04 9.49791E-04
 -1      1081-7.96697E-03 1.13110E-04-6.89797E-03 4.05765E+08-1.50621E-04 9.49791E-04
 -1      1082 1.04093E-03 8.31960E-05-2.63850E-03 1.60514E+08-1.34825E+07-2.25873E-03
 -1      1084 1.04093E-03 8.31960E-05-2.63850E-03 1.60514E+08-1.34825E+07-2.25873E-03
 -1      1085-1.26600E-04-6.34520E-05-1.22150E-03-3.98725E+07-3.53815E+07-2.01745E-03
 -1      1087-1.26600E-04-6.34520E-05-1.22150E-03-3.98725E+07-3.53815E+07-2.01745E-03
 -1      1088-2.31808E-03-8.76315E-04-7.34329E-05-7.72657E+08 5.93561E+05 1.66493E-04
 -1      1090-2.31808E-03-8.76315E-04-7.34329E-05-7.72657E+08 5.93561E+05 1.66493E-04
 -1      1099-7.54429E-03-2.89059E-04-8.02220E-04-3.48450E+07-1.84167E+08 5.18798E-03
 -1      1101-7.54429E-03-2.89059E-04-8.02220E-04-3.48450E+07-1.84167E+08 5.18798E-03
 -1      1102-5.28069E-03-2.23927E-03-2.38196E-04-7.41388E+08-8.80593E+07 4.51304E-04
 -1      1104-5.28069E-03-2.23927E-03-2.38196E-04-7.41388E+08-8.80593E+07 4.51304E-04
 -1      1113-6.05559E-03-2.02206E-04 8.74066E-04-3.99900E+07-2.86797E+08 7.73802E-03
 -1      1115-6.05559E-03-2.02206E-04 8.74066E-04-3.99900E+07-2.86797E+08 7.73802E-03
 -1      1116-3.44958E-04 1.03262E-03-1.95902E-04-6.42286E+08-1.27953E+08 3.61560E-04
 -1      1118-3.44958E-04 1.03262E-03-1.95902E-04-6.42286E+08-1.27953E+08 3.61560E-04
 -1      1127 1.83201E-04-2.59476E-04 1.06963E-03-3.46377E+07-3.78529E+08 4.96390E-03
 -1      1129 1.83201E-04-2.59476E-04 1.06963E-03-3.46377E+07-3.78529E+08 4.96390E-03
 -1      1130 4.32648E-03 3.12762E-03-6.48862E-05-4.63789E+08-1.70039E+08 2.69471E-04
 -1      1132 4.32648E-03 3.12762E-03-6.48862E-05-4.63789E+08-1.70039E+08 2.69471E-04
 -1      1141 4.42524E-03 2.37730E-04 4.06104E-03-4.07943E+07-4.81111E+08 4.52225E-03
 -1      1143 4.42524E-03 2.37730E-04 4.06104E-03-4.07943E+07-4.81111E+08 4.52225E-03
 -1      1144 4.93133E-03-1.21323E-03-1.52264E-04-2.34182E+08-2.15240E+08 2.63024E-04
 -1      1146 4.93133E-03-1.21323E-03-1.52264E-04-2.34182E+08-2.15240E+08 2.63024E-04
 -1      1155 4.36864E-03 1.35530E-03 6.30799E-03-3.55380E+07-5.77741E+08 9.79096E-04
 -1      1157 4.36864E-03 1.35530E-03 6.30799E-03-3.55380E+07-5.77741E+08 9.79096E-04
 -1      1158 4.15087E-04-3.60484E-03-1.95883E-04 3.08287E+07-2.54543E+08 2.70167E-04
 -1      1160 4.15087E-04-3.60484E-03-1.95883E-04 3.08287E+07-2.54543E+08 2.70167E-04
 -1      1169-2.05670E-03 2.62429E-03-2.36847E-03-4.00965E+07-6.82036E+08-7.60029E-03
 -1      1171-2.05670E-03 2.62429E-03-2.36847E-03-4.00965E+07-6.82036E+08-7.60029E-03
 -1      1172-8.49810E-03-6.61172E-04 2.46949E-04 2.62269E+08-2.98593E+08 9.26852E-05
 -1      1174-8.49810E-03-6.61172E-04 2.46949E-04 2.62269E+08-2.98593E+08 9.26852E-05
 -1      1183-8.21495E-03 1.77417E-03-1.67631E-02-3.60971E+07-7.84865E+08-8.17535E-03
 -1      1185-8.21495E-03 1.77417E-03-1.67631E-02-3.60971E+07-7.84865E+08-8.17535E-03
 -1      1186-1.05306E-02 6.09159E-04 9.99868E-06 4.26411E+08-3.38754E+08 9.92343E-05
 -1      1188-1.05306E-02 6.09159E-04 9.99868E-06 4.26411E+08-3.38754E+08 9.92343E-05
 -1      1197-6.25937E-03 2.80807E-04-1.93056E-02-3.81305E+07-8.89233E+08-1.69165E-03
 -1      1199-6.25937E-03 2.80807E-04-1.93056E-02-3.81305E+07-8.89233E+08-1.69165E-03
 -1      1200-3.55142E-03-1.39957E-03-2.00680E-04 4.83292E+08-3.81005E+08 3.37353E-04
 -1      1202-3.55142E-03-1.39957E-03-2.00680E-04 4.83292E+08-3.81005E+08 3.37353E-04
 -1      1211-6.51276E-03-4.05393E-04-1.31794E-02-3.49548E+07-9.89990E+08-2.19216E-03
 -1      1213-6.51276E-03-4.05393E-04-1.31794E-02-3.49548E+07-9.89990E+08-2.19216E-03
 -1      1214-3.09496E-03-3.93035E-03-9.74713E-05 4.25590E+08-4.20342E+08 2.21131E-04
 -1      1216-3.09496E-03-3.93035E-03-9.74713E-05 4.25590E+08-4.20342E+08 2.21131E-04
 -1      1225-1.50565E-02 5.67671E-04-1.26609E-02-3.49158E+07-1.08642E+09-7.26866E-03
 -1      1227-1.50565E-02 5.67671E-04-1.26609E-02-3.49158E+07-1.08642E+09-7.26866E-03
 -1      1228-1.06614E-02-4.81918E-03-4.09294E-04 2.67678E+08-4.59509E+08 1.08868E-04
 -1      1230-1.06614E-02-4.81918E-03-4.09294E-04 2.67678E+08-4.59509E+08 1.08868E-04
 -1      1239-1.81830E-02 3.73856E-04-1.91177E-02-3.21018E+07-1.17578E+09-8.74735E-03
 -1      1241-1.81830E-02 3.73856E-04-1.91177E-02-3.21018E+07-1.17578E+09-8.74735E-03
 -1      1242-1.02791E-02-2.97315E-03-5.90459E-07 4.65668E+07-4.95883E+08 2.02287E-04
 -1      1244-1.02791E-02-2.97315E-03-5.90459E-07 4.65668E+07-4.95883E+08 2.02287E-04
 -1      1253-1.11410E-02 2.69945E-03-2.66457E-02-3.08960E+07-1.25776E+09-5.52757E-03
 -1      1255-1.11410E-02 2.69945E-03-2.66457E-02-3.08960E+07-1.25776E+09-5.52757E-03
 -1      1256-2.34479E-03-2.29250E-03-2.74454E-04-1.85664E+08-5.30897E+08 7.95145E-05
 -1      1258-2.34479E-03-2.29250E-03-2.74454E-04-1.85664E+08-5.30897E+08 7.95145E-05
 -1      1267-4.44817E-03 4.95254E-03-2.95585E-02-2.84394E+07-1.33222E+09-1.75877E-03
 -1      1269-4.44817E-03 4.95254E-03-2.95585E-02-2.84394E+07-1.33222E+09-1.75877E-03
 -1      1270 1.54257E-03-4.99941E-03-6.43530E-04-3.75993E+08-5.63470E+08 2.55354E-04
 -1      1272 1.54257E-03-4.99941E-03-6.43530E-04-3.75993E+08-5.63470E+08 2.55354E-04
 -1      1281-5.42203E-03 8.53059E-04-3.02037E-02-2.69200E+07-1.40061E+09-3.66370E-03
 -1      1283-5.42203E-03 8.53059E-04-3.02037E-02-2.69200E+07-1.40061E+09-3.66370E-03
 -1      1284 4.86821E-05-4.01898E-03 2.22996E-04-4.79832E+08-5.94682E+08 1.95419E-04
 -1      1286 4.86821E-05-4.01898E-03 2.22996E-04-4.79832E+08-5.94682E+08 1.95419E-04
 -1      1295-9.69300E-03-3.57300E-04-3.08998E-02-2.49714E+07-1.46473E+09-3.40411E-03
 -1      1297-9.69300E-03-3.57300E-04-3.08998E-02-2.49714E+07-1.46473E+09-3.40411E-03
 -1      1298-3.18888E-03 7.27087E-04-4.73522E-04-4.73473E+08-6.24331E+08 4.42043E-05
 -1      1300-3.18888E-03 7.27087E-04-4.73522E-04-4.73473E+08-6.24331E+08 4.42043E-05
 -1      1309-1.38413E-02-1.44834E-03-2.70466E-02-2.35971E+07-1.52677E+09 4.64393E-03
 -1      1311-1.38413E-02-1.44834E-03-2.70466E-02-2.35971E+07-1.52677E+09 4.64393E-03
 -1      1312-7.08356E-03 1.99899E-03-2.22445E-04-3.57628E+08-6.53275E+08 3.79879E-04
 -1      1314-7.08356E-03 1.99899E-03-2.22445E-04-3.57628E+08-6.53275E+08 3.79879E-04
 -1      1323-1.93277E-02-1.02761E-03-1.99246E-02-2.20817E+07-1.58852E+09 8.25628E-03
 -1      1325-1.93277E-02-1.02761E-03-1.99246E-02-2.20817E+07-1.58852E+09 8.25628E-03
 -1      1326-1.22770E-02 3.37176E-03 9.20467E-04-1.58584E+08-6.81504E+08 3.28809E-04
 -1      1328-1.22770E-02 3.37176E-03 9.20467E-04-1.58584E+08-6.81504E+08 3.28809E-04
 -1      1337-2.30742E-02-1.41161E-03-2.07998E-02-2.08087E+07-1.65099E+09 6.92580E-03
 -1      1339-2.30742E-02-1.41161E-03-2.07998E-02-2.08087E+07-1.65099E+09 6.92580E-03
 -1      1340-1.32210E-02 9.31318E-03 5.45681E-05 7.88313E+07-7.09408E+08 1.42144E-04
 -1      1342-1.32210E-02 9.31318E-03 5.45681E-05 7.88313E+07-7.09408E+08 1.42144E-04
 -1      1351-1.94717E-02-2.91679E-03-2.47566E-02-1.93631E+07-1.71410E+09 6.98492E-03
 -1      1353-1.94717E-02-2.91679E-03-2.47566E-02-1.93631E+07-1.71410E+09 6.98492E-03
 -1      1354-7.74887E-03 1.02627E-02 2.15016E-04 3.00878E+08-7.36641E+08 1.79308E-04
 -1      1356-7.74887E-03 1.02627E-02 2.15016E-04 3.00878E+08-7.36641E+08 1.79308E-04
 -1      1365-1.29118E-02-1.29331E-03-2.46615E-02-1.78630E+07-1.77665E+09 4.39334E-03
 -1      1367-1.29118E-02-1.29331E-03-2.46615E-02-1.78630E+07-1.77665E+09 4.39334E-03
 -1      1368-2.93347E-03 4.33901E-03 4.15958E-04 4.57740E+08-7.63003E+08 7.61868E-05
 -1      1370-2.93347E-03 4.33901E-03 4.15958E-04 4.57740E+08-7.63003E+08 7.61868E-05
 -1      1379-6.93770E-03-4.12407E-04-2.81656E-02-1.61053E+07-1.83651E+09-5.35413E-04
 -1      1381-6.93770E-03-4.12407E-04-2.81656E-02-1.61053E+07-1.83651E+09-5.35413E-04
 -1      1382 2.31161E-03 3.40623E-03 2.31534E-04 5.14795E+08-7.87701E+08 1.28904E-05
 -1      1384 2.31161E-03 3.40623E-03 2.31534E-04 5.14795E+08-7.87701E+08 1.28904E-05
 -1      1393 8.85793E-04 6.42929E-05-3.36229E-02-1.41538E+07-1.89102E+09-3.54933E-04
 -1      1395 8.85793E-04 6.42929E-05-3.36229E-02-1.41538E+07-1.89102E+09-3.54933E-04
 -1      1396 1.04315E-02 4.86267E-03 5.02450E-04 4.60835E+08-8.10215E+08 2.42051E-05
 -1      1398 1.04315E-02 4.86267E-03 5.02450E-04 4.60835E+08-8.10215E+08 2.42051E-05
 -1      1407 5.13334E-03 2.16255E-04-3.14575E-02-1.20178E+07-1.93760E+09 4.05276E-03
 -1      1409 5.13334E-03 2.16255E-04-3.14575E-02-1.20178E+07-1.93760E+09 4.05276E-03
 -1      1410 1.44046E-02 1.12936E-03 6.96682E-04 3.11198E+08-8.29604E+08 2.08994E-04
 -1      1412 1.44046E-02 1.12936E-03 6.96682E-04 3.11198E+08-8.29604E+08 2.08994E-04
 -1      1421 2.81469E-03 1.16250E-03-2.34978E-02-9.73644E+06-1.97422E+09 2.27494E-03
 -1      1423 2.81469E-03 1.16250E-03-2.34978E-02-9.73644E+06-1.97422E+09 2.27494E-03
 -1      1424 1.08763E-02-3.27975E-03-1.55407E-04 1.04148E+08-8.45561E+08 1.45770E-04
 -1      1426 1.08763E-02-3.27975E-03-1.55407E-04 1.04148E+08-8.45561E+08 1.45770E-04
 -1      1435-3.41455E-03 1.38266E-03-2.27520E-02-7.58623E+06-1.99978E+09-5.53491E-03
 -1      1437-3.41455E-03 1.38266E-03-2.27520E-02-7.58623E+06-1.99978E+09-5.53491E-03
 -1      1438 4.56344E-03-3.30463E-03-4.04857E-04-1.05504E+08-8.57387E+08-7.44173E-05
 -1      1440 4.56344E-03-3.30463E-03-4.04857E-04-1.05504E+08-8.57387E+08-7.44173E-05
 -1      1449-9.85997E-03 7.44962E-04-2.96233E-02-5.30389E+06-2.01464E+09-5.73633E-03
 -1      1451-9.85997E-03 7.44962E-04-2.96233E-02-5.30389E+06-2.01464E+09-5.73633E-03
 -1      1452-7.11322E-04-2.00485E-03-3.59844E-05-2.60266E+08-8.65413E+08-8.87085E-05
 -1      1454-7.11322E-04-2.00485E-03-3.59844E-05-2.60266E+08-8.65413E+08-8.87085E-05
 -1      1463-1.07331E-02 5.08694E-04-3.07812E-02-3.80246E+06-2.01990E+09 1.03682E-03
 -1      1465-1.07331E-02 5.08694E-04-3.07812E-02-3.80246E+06-2.01990E+09 1.03682E-03
 -1      1466-3.13585E-03-1.50131E-03-2.07290E-04-3.07331E+08-8.69446E+08 6.39872E-05
 -1      1468-3.13585E-03-1.50131E-03-2.07290E-04-3.07331E+08-8.69446E+08 6.39872E-05
 -1      1477-6.06071E-03 3.42870E-04-2.75353E-02-1.61913E+06-2.01920E+09 2.90952E-04
 -1      1479-6.06071E-03 3.42870E-04-2.75353E-02-1.61913E+06-2.01920E+09 2.90952E-04
 -1      1480-2.17961E-03-3.49694E-03 7.24159E-05-2.09522E+08-8.70514E+08 1.53226E-04
 -1      1482-2.17961E-03-3.49694E-03 7.24159E-05-2.09522E+08-8.70514E+08 1.53226E-04
 -1      1491 2.10689E-03 3.37475E-03-2.68400E-02 1.75205E+05 1.46272E+09-2.72315E-03
 -1      1493 2.10689E-03 3.37475E-03-2.68400E-02 1.75205E+05 1.46272E+09-2.72315E-03
 -1      1494 7.92142E-04 3.48069E-03-3.13117E-02-7.49497E+04 1.82933E-03-4.55757E-03
 -1      1496 7.92142E-04 3.48069E-03-3.13117E-02-7.49497E+04 1.82933E-03-4.55757E-03
 -1      1497-1.59565E-03 1.65887E-03-2.94788E-02 1.75205E+05-1.46272E+09-5.22531E-03
 -1      1499-1.59565E-03 1.65887E-03-2.94788E-02 1.75205E+05-1.46272E+09-5.22531E-03
 -1      1500-2.88170E+09-1.08235E+08 5.49434E+05-4.06480E+08-2.08587E+07 1.06075E+08
 -1      1502-2.88170E+09-1.08235E+08 5.49434E+05-4.06480E+08-2.08587E+07 1.06075E+08
 -1      1503-1.46294E+09 6.72002E+07-1.77266E+06-3.02102E+08-3.73747E+07 6.96697E+06
 -1      1505-1.46294E+09 6.72002E+07-1.77266E+06-3.02102E+08-3.73747E+07 6.96697E+06
 -1      1506-1.82533E+08 4.95044E+06-2.10130E+05-3.09270E+08-5.04582E+07 5.42077E+07
 -1      1508-1.82533E+08 4.95044E+06-2.10130E+05-3.09270E+08-5.04582E+07 5.42077E+07
 -1      1509 8.78404E+08 3.88962E+07 1.15415E+06-2.08705E+08-7.05775E+07 3.04483E+07
 -1      1511 8.78404E+08 3.88962E+07 1.15415E+06-2.08705E+08-7.05775E+07 3.04483E+07
 -1      1512 1.54303E+09 3.92440E+07 2.75999E+05-1.06173E+08-8.76177E+07 3.99746E+07
 -1      1514 1.54303E+09 3.92440E+07 2.75999E+05-1.06173E+08-8.76177E+07 3.99746E+07
 -1      1515 1.75292E+09 5.15817E+07 1.70319E+06 1.37869E+07-1.06428E+08 3.37196E+07
 -1      1517 1.75292E+09 5.15817E+07 1.70319E+06 1.37869E+07-1.06428E+08 3.37196E+07
 -1      1518 1.49371E+09 5.91247E+07 2.26771E+04 1.23368E+08-1.24796E+08 3.47443E+07
 -1      1520 1.49371E+09 5.91247E+07 2.26771E+04 1.23368E+08-1.24796E+08 3.47443E+07
 -1      1521 8.63502E+08 7.04754E+07 4.71657E+05 1.97061E+08-1.42943E+08 3.26139E+07
 -1      1523 8.63502E+08 7.04754E+07 4.71657E+05 1.97061E+08-1.42943E+08 3.26139E+07
 -1      1524 2.49826E+07 7.86404E+07-1.30978E+06 2.24402E+08-1.61205E+08 3.21078E+07
 -1      1526 2.49826E+07 7.86404E+07-1.30978E+06 2.24402E+08-1.61205E+08 3.21078E+07
 -1      1527-8.12332E+08 8.93273E+07-1.40841E+06 1.97115E+08-1.78546E+08 3.12160E+07
 -1      1529-8.12332E+08 8.93273E+07-1.40841E+06 1.97115E+08-1.78546E+08 3.12160E+07
 -1      1530-1.44641E+09 9.73560E+07-2.65677E+06 1.24231E+08-1.95737E+08 3.07231E+07
 -1      1532-1.44641E+09 9.73560E+07-2.65677E+06 1.24231E+08-1.95737E+08 3.07231E+07
 -1      1533-1.72283E+09 1.06420E+08-2.53807E+06 2.19451E+07-2.11740E+08 3.02904E+07
 -1      1535-1.72283E+09 1.06420E+08-2.53807E+06 2.19451E+07-2.11740E+08 3.02904E+07
 -1      1536-1.57199E+09 1.13574E+08-2.86156E+06-8.55126E+07-2.27265E+08 2.98711E+07
 -1      1538-1.57199E+09 1.13574E+08-2.86156E+06-8.55126E+07-2.27265E+08 2.98711E+07
 -1      1539-1.02278E+09 1.20819E+08-2.19091E+06-1.73478E+08-2.41603E+08 2.94019E+07
 -1      1541-1.02278E+09 1.20819E+08-2.19091E+06-1.73478E+08-2.41603E+08 2.94019E+07
 -1      1542-1.96786E+08 1.26855E+08-1.77430E+06-2.21580E+08-2.55352E+08 2.87273E+07
 -1      1544-1.96786E+08 1.26855E+08-1.77430E+06-2.21580E+08-2.55352E+08 2.87273E+07
 -1      1545 7.20370E+08 1.32751E+08-8.78165E+05-2.18628E+08-2.68114E+08 2.78460E+07
 -1      1547 7.20370E+08 1.32751E+08-8.78165E+05-2.18628E+08-2.68114E+08 2.78460E+07
 -1      1548 1.52109E+09 1.38049E+08-3.88449E+05-1.65141E+08-2.80358E+08 2.66751E+07
 -1      1550 1.52109E+09 1.38049E+08-3.88449E+05-1.65141E+08-2.80358E+08 2.66751E+07
 -1      1551 2.02349E+09 1.43314E+08 9.50412E+04-7.31313E+07-2.91842E+08 2.52686E+07
 -1      1553 2.02349E+09 1.43314E+08 9.50412E+04-7.31313E+07-2.91842E+08 2.52686E+07
 -1      1554 2.11276E+09 1.48361E+08 2.72125E+04 3.65722E+07-3.02862E+08 2.36344E+07
 -1      1556 2.11276E+09 1.48361E+08 2.72125E+04 3.65722E+07-3.02862E+08 2.36344E+07
 -1      1557 1.76726E+09 1.53394E+08-2.53916E+05 1.39187E+08-3.13183E+08 2.18576E+07
 -1      1559 1.76726E+09 1.53394E+08-2.53916E+05 1.39187E+08-3.13183E+08 2.18576E+07
 -1      1560 1.06316E+09 1.58230E+08-9.67245E+05 2.11645E+08-3.22923E+08 1.99792E+07
 -1      1562 1.06316E+09 1.58230E+08-9.67245E+05 2.11645E+08-3.22923E+08 1.99792E+07
 -1      1563 1.56448E+08 1.62821E+08-1.74771E+06 2.37918E+08-3.31805E+08 1.80666E+07
 -1      1565 1.56448E+08 1.62821E+08-1.74771E+06 2.37918E+08-3.31805E+08 1.80666E+07
 -1      1566-7.53533E+08 1.66927E+08-2.59883E+06 2.12900E+08-3.39842E+08 1.61129E+07
 -1      1568-7.53533E+08 1.66927E+08-2.59883E+06 2.12900E+08-3.39842E+08 1.61129E+07
 -1      1569-1.47109E+09 1.70531E+08-3.21304E+06 1.43435E+08-3.46777E+08 1.41688E+07
 -1      1571-1.47109E+09 1.70531E+08-3.21304E+06 1.43435E+08-3.46777E+08 1.41688E+07
 -1      1572-1.85107E+09 1.73169E+08-3.55159E+06 4.76524E+07-3.52647E+08 1.20800E+07
 -1      1574-1.85107E+09 1.73169E+08-3.55159E+06 4.76524E+07-3.52647E+08 1.20800E+07
 -1      1575-1.83558E+09 1.75626E+08-3.51032E+06-4.99757E+07-3.57329E+08 1.00797E+07
 -1      1577-1.83558E+09 1.75626E+08-3.51032E+06-4.99757E+07-3.57329E+08 1.00797E+07
 -1      1578-1.47229E+09 1.76293E+08-3.12272E+06-1.21849E+08-3.60947E+08 7.52695E+06
 -1      1580-1.47229E+09 1.76293E+08-3.12272E+06-1.21849E+08-3.60947E+08 7.52695E+06
 -1      1581-9.12976E+08 1.78063E+08-2.54780E+06-1.44110E+08-3.63629E+08 5.71000E+06
 -1      1583-9.12976E+08 1.78063E+08-2.54780E+06-1.44110E+08-3.63629E+08 5.71000E+06
 -1      1584-3.88692E+08 1.78379E+08-1.90956E+06-1.03507E+08-3.65337E+08 1.84028E+06
 -1      1586-3.88692E+08 1.78379E+08-1.90956E+06-1.03507E+08-3.65337E+08 1.84028E+06
 -1      1587-6.16566E+07 3.35477E+08 1.43556E+06-9.40433E+07-6.18517E+08-1.55228E+06
 -1      1589-6.16566E+07 3.35477E+08 1.43556E+06-9.40433E+07-6.18517E+08-1.55228E+06
 -1      1590-2.39284E+09-3.60359E+08-1.43877E+06-6.82467E+08 2.52332E+07 9.50013E+07
 -1      1592-2.39284E+09-3.60359E+08-1.43877E+06-6.82467E+08 2.52332E+07 9.50013E+07
 -1      1593 6.16566E+07-3.35477E+08-1.43556E+06-9.40433E+07-6.18517E+08 1.55228E+06
 -1      1595 6.16566E+07-3.35477E+08-1.43556E+06-9.40433E+07-6.18517E+08 1.55228E+06
 -1      1596 2.88170E+09 1.08235E+08-5.49434E+05-4.06480E+08-2.08587E+07-1.06075E+08
 -1      1598 2.88170E+09 1.08235E+08-5.49434E+05-4.06480E+08-2.08587E+07-1.06075E+08
 -1      1599 1.46294E+09-6.72002E+07 1.77266E+06-3.02102E+08-3.73747E+07-6.96697E+06
 -1      1601 1.46294E+09-6.72002E+07 1.77266E+06-3.02102E+08-3.73747E+07-6.96697E+06
 -1      1602 1.82533E+08-4.95044E+06 2.10130E+05-3.09270E+08-5.04582E+07-5.42077E+07
 -1      1604 1.82533E+08-4.95044E+06 2.10130E+05-3.09270E+08-5.04582E+07-5.42077E+07
 -1      1605-8.78404E+08-3.88962E+07-1.15415E+06-2.08705E+08-7.05775E+07-3.04483E+07
 -1      1607-8.78404E+08-3.88962E+07-1.15415E+06-2.08705E+08-7.05775E+07-3.04483E+07
 -1      1608-1.54303E+09-3.92440E+07-2.75999E+05-1.06173E+08-8.76177E+07-3.99746E+07
 -1      1610-1.54303E+09-3.92440E+07-2.75999E+05-1.06173E+08-8.76177E+07-3.99746E+07
 -1      1611-1.75292E+09-5.15817E+07-1.70319E+06 1.37869E+07-1.06428E+08-3.37196E+07
 -1      1613-1.75292E+09-5.15817E+07-1.70319E+06 1.37869E+07-1.06428E+08-3.37196E+07
 -1      1614-1.49371E+09-5.91247E+07-2.26771E+04 1.23368E+08-1.24796E+08-3.47443E+07
 -1      1616-1.49371E+09-5.91247E+07-2.26771E+04 1.23368E+08-1.24796E+08-3.47443E+07
 -1      1617-8.63502E+08-7.04754E+07-4.71657E+05 1.97061E+08-1.42943E+08-3.26139E+07
 -1      1619-8.63502E+08-7.04754E+07-4.71657E+05 1.97061E+08-1.42943E+08-3.26139E+07
 -1      1620-2.49826E+07-7.86404E+07 1.30978E+06 2.24402E+08-1.61205E+08-3.21078E+07
 -1      1622-2.49826E+07-7.86404E+07 1.30978E+06 2.24402E+08-1.61205E+08-3.21078E+07
 -1      1623 8.12332E+08-8.93273E+07 1.40841E+06 1.97115E+08-1.78546E+08-3.12160E+07
 -1      1625 8.12332E+08-8.93273E+07 1.40841E+06 1.97115E+08-1.78546E+08-3.12160E+07
 -1      1626 1.44641E+09-9.73560E+07 2.65677E+06 1.24231E+08-1.95737E+08-3.07231E+07
 -1      1628 1.44641E+09-9.73560E+07 2.65677E+06 1.24231E+08-1.95737E+08-3.07231E+07
 -1      1629 1.72283E+09-1.06420E+08 2.53807E+06 2.19451E+07-2.11740E+08-3.02904E+07
 -1      1631 1.72283E+09-1.06420E+08 2.53807E+06 2.19451E+07-2.11740E+08-3.02904E+07
 -1      1632 1.57199E+09-1.13574E+08 2.86156E+06-8.55126E+07-2.27265E+08-2.98711E+07
 -1      1634 1.57199E+09-1.13574E+08 2.86156E+06-8.55126E+07-2.27265E+08-2.98711E+07
 -1      1635 1.02278E+09-1.20819E+08 2.19091E+06-1.73478E+08-2.41603E+08-2.94019E+07
 -1      1637 1.02278E+09-1.20819E+08 2.19091E+06-1.73478E+08-2.41603E+08-2.94019E+07
 -1      1638 1.96786E+08-1.26855E+08 1.77430E+06-2.21580E+08-2.55352E+08-2.87273E+07
 -1      1640 1.96786E+08-1.26855E+08 1.77430E+06-2.21580E+08-2.55352E+08-2.87273E+07
 -1      1641-7.20370E+08-1.32751E+08 8.78165E+05-2.18628E+08-2.68114E+08-2.78460E+07
 -1      1643-7.20370E+08-1.32751E+08 8.78165E+05-2.18628E+08-2.68114E+08-2.78460E+07
 -1      1644-1.52109E+09-1.38049E+08 3.88449E+05-1.65141E+08-2.80358E+08-2.66751E+07
 -1      1646-1.52109E+09-1.38049E+08 3.88449E+05-1.65141E+08-2.80358E+08-2.66751E+07
 -1      1647-2.02349E+09-1.43314E+08-9.50412E+04-7.31313E+07-2.91842E+08-2.52686E+07
 -1      1649-2.02349E+09-1.43314E+08-9.50412E+04-7.31313E+07-2.91842E+08-2.52686E+07
 -1      1650-2.11276E+09-1.48361E+08-2.72125E+04 3.65722E+07-3.02862E+08-2.36344E+07
 -1      1652-2.11276E+09-1.48361E+08-2.72125E+04 3.65722E+07-3.02862E+08-2.36344E+07
 -1      1653-1.76726E+09-1.53394E+08 2.53916E+05 1.39187E+08-3.13183E+08-2.18576E+07
 -1      1655-1.76726E+09-1.53394E+08 2.53916E+05 1.39187E+08-3.13183E+08-2.18576E+07
 -1      1656-1.06316E+09-1.58230E+08 9.67245E+05 2.11645E+08-3.22923E+08-1.99792E+07
 -1      1658-1.06316E+09-1.58230E+08 9.67245E+05 2.11645E+08-3.22923E+08-1.99792E+07
 -1      1659-1.56448E+08-1.62821E+08 1.74771E+06 2.37918E+08-3.31805E+08-1.80666E+07
 -1      1661-1.56448E+08-1.62821E+08 1.74771E+06 2.37918E+08-3.31805E+08-1.80666E+07
 -1      1662 7.53533E+08-1.66927E+08 2.59883E+06 2.12900E+08-3.39842E+08-1.61129E+07
 -1      1664 7.53533E+08-1.66927E+08 2.59883E+06 2.12900E+08-3.39842E+08-1.61129E+07
 -1      1665 1.47109E+09-1.70531E+08 3.21304E+06 1.43435E+08-3.46777E+08-1.41688E+07
 -1      1667 1.47109E+09-1.70531E+08 3.21304E+06 1.43435E+08-3.46777E+08-1.41688E+07
 -1      1668 1.85107E+09-1.73169E+08 3.55159E+06 4.76524E+07-3.52647E+08-1.20800E+07
 -1      1670 1.85107E+09-1.73169E+08 3.55159E+06 4.76524E+07-3.52647E+08-1.20800E+07
 -1      1671 1.83558E+09-1.75626E+08 3.51032E+06-4.99757E+07-3.57329E+08-1.00797E+07
 -1      1673 1.83558E+09-1.75626E+08 3.51032E+06-4.99757E+07-3.57329E+08-1.00797E+07
 -1      1674 1.47229E+09-1.76293E+08 3.12272E+06-1.21849E+08-3.60947E+08-7.52695E+06
 -1      1676 1.47229E+09-1.76293E+08 3.12272E+06-1.21849E+08-3.60947E+08-7.52695E+06
 -1      1677 9.12976E+08-1.78063E+08 2.54780E+06-1.44110E+08-3.63629E+08-5.71000E+06
 -1      1679 9.12976E+08-1.78063E+08 2.54780E+06-1.44110E+08-3.63629E+08-5.71000E+06
 -1      1680 3.88692E+08-1.78379E+08 1.90956E+06-1.03507E+08-3.65337E+08-1.84028E+06
 -1      1682 3.88692E+08-1.78379E+08 1.90956E+06-1.03507E+08-3.65337E+08-1.84028E+06
 -1      1683 2.39284E+09 3.60359E+08 1.43877E+06-6.82467E+08 2.52332E+07-9.50013E+07
 -1      1685 2.39284E+09 3.60359E+08 1.43877E+06-6.82467E+08 2.52332E+07-9.50013E+07
 -1      1686 1.92340E+09 1.15655E+08 5.38222E+05-5.89569E+08 1.01326E+07 1.87151E+07
 -1      1688 1.92340E+09 1.15655E+08 5.38222E+05-5.89569E+08 1.01326E+07 1.87151E+07
 -1      1689 9.81481E+08-7.81626E+07-8.44944E+05-5.21745E+08 6.27170E+07-2.23416E+07
 -1      1691 9.81481E+08-7.81626E+07-8.44944E+05-5.21745E+08 6.27170E+07-2.23416E+07
 -1      1692 1.14215E+08-2.49784E+07 1.51341E+05-4.75778E+08 8.92057E+07-2.69884E+06
 -1      1694 1.14215E+08-2.49784E+07 1.51341E+05-4.75778E+08 8.92057E+07-2.69884E+06
 -1      1695-5.80125E+08-4.93596E+07-2.63928E+05-3.36247E+08 1.20308E+08-1.18887E+07
 -1      1697-5.80125E+08-4.93596E+07-2.63928E+05-3.36247E+08 1.20308E+08-1.18887E+07
 -1      1698-1.02943E+09-6.73564E+07-4.94310E+05-1.70178E+08 1.51429E+08-8.03126E+06
 -1      1700-1.02943E+09-6.73564E+07-4.94310E+05-1.70178E+08 1.51429E+08-8.03126E+06
 -1      1701-1.17027E+09-7.90840E+07-1.86415E+05 2.23078E+07 1.80486E+08-9.92012E+06
 -1      1703-1.17027E+09-7.90840E+07-1.86415E+05 2.23078E+07 1.80486E+08-9.92012E+06
 -1      1704-1.00606E+09-1.06793E+08-7.19188E+05 1.92819E+08 2.11694E+08-9.38840E+06
 -1      1706-1.00606E+09-1.06793E+08-7.19188E+05 1.92819E+08 2.11694E+08-9.38840E+06
 -1      1707-5.95665E+08-1.29849E+08-4.36569E+05 3.11736E+08 2.40848E+08-9.62606E+06
 -1      1709-5.95665E+08-1.29849E+08-4.36569E+05 3.11736E+08 2.40848E+08-9.62606E+06
 -1      1710-4.89323E+07-1.59154E+08-8.45711E+05 3.53847E+08 2.71105E+08-9.43497E+06
 -1      1712-4.89323E+07-1.59154E+08-8.45711E+05 3.53847E+08 2.71105E+08-9.43497E+06
 -1      1713 4.97834E+08-1.85605E+08-7.37172E+05 3.11353E+08 2.99444E+08-9.09393E+06
 -1      1715 4.97834E+08-1.85605E+08-7.37172E+05 3.11353E+08 2.99444E+08-9.09393E+06
 -1      1716 9.10792E+08-2.10044E+08-9.73194E+05 1.95955E+08 3.27623E+08-8.64974E+06
 -1      1718 9.10792E+08-2.10044E+08-9.73194E+05 1.95955E+08 3.27623E+08-8.64974E+06
 -1      1719 1.08911E+09-2.29595E+08-9.74063E+05 3.42560E+07 3.53811E+08-8.03232E+06
 -1      1721 1.08911E+09-2.29595E+08-9.74063E+05 3.42560E+07 3.53811E+08-8.03232E+06
 -1      1722 9.86485E+08-2.43641E+08-1.08039E+06-1.35588E+08 3.79081E+08-7.44082E+06
 -1      1724 9.86485E+08-2.43641E+08-1.08039E+06-1.35588E+08 3.79081E+08-7.44082E+06
 -1      1725 6.22315E+08-2.52608E+08-1.12041E+06-2.74736E+08 4.02536E+08-6.83898E+06
 -1      1727 6.22315E+08-2.52608E+08-1.12041E+06-2.74736E+08 4.02536E+08-6.83898E+06
 -1      1728 7.62516E+07-2.57523E+08-1.15087E+06-3.50706E+08 4.25017E+08-6.37114E+06
 -1      1730 7.62516E+07-2.57523E+08-1.15087E+06-3.50706E+08 4.25017E+08-6.37114E+06
 -1      1731-5.29452E+08-2.60648E+08-1.20300E+06-3.46050E+08 4.46223E+08-6.00821E+06
 -1      1733-5.29452E+08-2.60648E+08-1.20300E+06-3.46050E+08 4.46223E+08-6.00821E+06
 -1      1734-1.05844E+09-2.64017E+08-1.20689E+06-2.61385E+08 4.66817E+08-5.79309E+06
 -1      1736-1.05844E+09-2.64017E+08-1.20689E+06-2.61385E+08 4.66817E+08-5.79309E+06
 -1      1737-1.39102E+09-2.69785E+08-1.27398E+06-1.15857E+08 4.86673E+08-5.65992E+06
 -1      1739-1.39102E+09-2.69785E+08-1.27398E+06-1.15857E+08 4.86673E+08-5.65992E+06
 -1      1740-1.45177E+09-2.79060E+08-1.28457E+06 5.77018E+07 5.06135E+08-5.56813E+06
 -1      1742-1.45177E+09-2.79060E+08-1.28457E+06 5.77018E+07 5.06135E+08-5.56813E+06
 -1      1743-1.22640E+09-2.92179E+08-1.37150E+06 2.20032E+08 5.24912E+08-5.43238E+06
 -1      1745-1.22640E+09-2.92179E+08-1.37150E+06 2.20032E+08 5.24912E+08-5.43238E+06
 -1      1746-7.65002E+08-3.08189E+08-1.39504E+06 3.34693E+08 5.42963E+08-5.19266E+06
 -1      1748-7.65002E+08-3.08189E+08-1.39504E+06 3.34693E+08 5.42963E+08-5.19266E+06
 -1      1749-1.70087E+08-3.25459E+08-1.49206E+06 3.76357E+08 5.59753E+08-4.79852E+06
 -1      1751-1.70087E+08-3.25459E+08-1.49206E+06 3.76357E+08 5.59753E+08-4.79852E+06
 -1      1752 4.27317E+08-3.41597E+08-1.50967E+06 3.36868E+08 5.75029E+08-4.24055E+06
 -1      1754 4.27317E+08-3.41597E+08-1.50967E+06 3.36868E+08 5.75029E+08-4.24055E+06
 -1      1755 8.98657E+08-3.54679E+08-1.59634E+06 2.27317E+08 5.88191E+08-3.52766E+06
 -1      1757 8.98657E+08-3.54679E+08-1.59634E+06 2.27317E+08 5.88191E+08-3.52766E+06
 -1      1758 1.14857E+09-3.62389E+08-1.58280E+06 7.59002E+07 5.99104E+08-2.75270E+06
 -1      1760 1.14857E+09-3.62389E+08-1.58280E+06 7.59002E+07 5.99104E+08-2.75270E+06
 -1      1761 1.13924E+09-3.65087E+08-1.64164E+06-7.77398E+07 6.07358E+08-1.88964E+06
 -1      1763 1.13924E+09-3.65087E+08-1.64164E+06-7.77398E+07 6.07358E+08-1.88964E+06
 -1      1764 9.02468E+08-3.60857E+08-1.59598E+06-1.91057E+08 6.13180E+08-1.27099E+06
 -1      1766 9.02468E+08-3.60857E+08-1.59598E+06-1.91057E+08 6.13180E+08-1.27099E+06
 -1      1767 5.37631E+08-3.54044E+08-1.60444E+06-2.25721E+08 6.16538E+08-3.93805E+05
 -1      1769 5.37631E+08-3.54044E+08-1.60444E+06-2.25721E+08 6.16538E+08-3.93805E+05
 -1      1770 2.00620E+08-3.43758E+08-1.59581E+06-1.56515E+08 6.17926E+08-6.09145E+05
 -1      1772 2.00620E+08-3.43758E+08-1.59581E+06-1.56515E+08 6.17926E+08-6.09145E+05
 -1      1773-1.92340E+09-1.15655E+08-5.38222E+05-5.89569E+08 1.01326E+07-1.87151E+07
 -1      1775-1.92340E+09-1.15655E+08-5.38222E+05-5.89569E+08 1.01326E+07-1.87151E+07
 -1      1776-9.81481E+08 7.81626E+07 8.44944E+05-5.21745E+08 6.27170E+07 2.23416E+07
 -1      1778-9.81481E+08 7.81626E+07 8.44944E+05-5.21745E+08 6.27170E+07 2.23416E+07
 -1      1779-1.14215E+08 2.49784E+07-1.51341E+05-4.75778E+08 8.92057E+07 2.69884E+06
 -1      1781-1.14215E+08 2.49784E+07-1.51341E+05-4.75778E+08 8.92057E+07 2.69884E+06
 -1      1782 5.80125E+08 4.93596E+07 2.63928E+05-3.36247E+08 1.20308E+08 1.18887E+07
 -1      1784 5.80125E+08 4.93596E+07 2.63928E+05-3.36247E+08 1.20308E+08 1.18887E+07
 -1      1785 1.02943E+09 6.73564E+07 4.94310E+05-1.70178E+08 1.51429E+08 8.03126E+06
 -1      1787 1.02943E+09 6.73564E+07 4.94310E+05-1.70178E+08 1.51429E+08 8.03126E+06
 -1      1788 1.17027E+09 7.90840E+07 1.86415E+05 2.23078E+07 1.80486E+08 9.92012E+06
 -1      1790 1.17027E+09 7.90840E+07 1.86415E+05 2.23078E+07 1.80486E+08 9.92012E+06
 -1      1791 1.00606E+09 1.06793E+08 7.19188E+05 1.92819E+08 2.11694E+08 9.38840E+06
 -1      1793 1.00606E+09 1.06793E+08 7.19188E+05 1.92819E+08 2.11694E+08 9.38840E+06
 -1      1794 5.95665E+08 1.29849E+08 4.36569E+05 3.11736E+08 2.40848E+08 9.62606E+06
 -1      1796 5.95665E+08 1.29849E+08 4.36569E+05 3.11736E+08 2.40848E+08 9.62606E+06
 -1      1797 4.89323E+07 1.59154E+08 8.45711E+05 3.53847E+08 2.71105E+08 9.43497E+06
 -1      1799 4.89323E+07 1.59154E+08 8.45711E+05 3.53847E+08 2.71105E+08 9.43497E+06
 -1      1800-4.97834E+08 1.85605E+08 7.37172E+05 3.11353E+08 2.99444E+08 9.09393E+06
 -1      1802-4.97834E+08 1.85605E+08 7.37172E+05 3.11353E+08 2.99444E+08 9.09393E+06
 -1      1803-9.10792E+08 2.10044E+08 9.73194E+05 1.95955E+08 3.27623E+08 8.64974E+06
 -1      1805-9.10792E+08 2.10044E+08 9.73194E+05 1.95955E+08 3.27623E+08 8.64974E+06
 -1      1806-1.08911E+09 2.29595E+08 9.74063E+05 3.42560E+07 3.53811E+08 8.03232E+06
 -1      1808-1.08911E+09 2.29595E+08 9.74063E+05 3.42560E+07 3.53811E+08 8.03232E+06
 -1      1809-9.86485E+08 2.43641E+08 1.08039E+06-1.35588E+08 3.79081E+08 7.44082E+06
 -1      1811-9.86485E+08 2.43641E+08 1.08039E+06-1.35588E+08 3.79081E+08 7.44082E+06
 -1      1812-6.22315E+08 2.52608E+08 1.12041E+06-2.74736E+08 4.02536E+08 6.83898E+06
 -1      1814-6.22315E+08 2.52608E+08 1.12041E+06-2.74736E+08 4.02536E+08 6.83898E+06
 -1      1815-7.62516E+07 2.57523E+08 1.15087E+06-3.50706E+08 4.25017E+08 6.37114E+06
 -1      1817-7.62516E+07 2.57523E+08 1.15087E+06-3.50706E+08 4.25017E+08 6.37114E+06
 -1      1818 5.29452E+08 2.60648E+08 1.20300E+06-3.46050E+08 4.46223E+08 6.00821E+06
 -1      1820 5.29452E+08 2.60648E+08 1.20300E+06-3.46050E+08 4.46223E+08 6.00821E+06
 -1      1821 1.05844E+09 2.64017E+08 1.20689E+06-2.61385E+08 4.66817E+08 5.79309E+06
 -1      1823 1.05844E+09 2.64017E+08 1.20689E+06-2.61385E+08 4.66817E+08 5.79309E+06
 -1      1824 1.39102E+09 2.69785E+08 1.27398E+06-1.15857E+08 4.86673E+08 5.65992E+06
 -1      1826 1.39102E+09 2.69785E+08 1.27398E+06-1.15857E+08 4.86673E+08 5.65992E+06
 -1      1827 1.45177E+09 2.79060E+08 1.28457E+06 5.77018E+07 5.06135E+08 5.56813E+06
 -1      1829 1.45177E+09 2.79060E+08 1.28457E+06 5.77018E+07 5.06135E+08 5.56813E+06
 -1      1830 1.22640E+09 2.92179E+08 1.37150E+06 2.20032E+08 5.24912E+08 5.43238E+06
 -1      1832 1.22640E+09 2.92179E+08 1.37150E+06 2.20032E+08 5.24912E+08 5.43238E+06
 -1      1833 7.65002E+08 3.08189E+08 1.39504E+06 3.34693E+08 5.42963E+08 5.19266E+06
 -1      1835 7.65002E+08 3.08189E+08 1.39504E+06 3.34693E+08 5.42963E+08 5.19266E+06
 -1      1836 1.70087E+08 3.25459E+08 1.49206E+06 3.76357E+08 5.59753E+08 4.79852E+06
 -1      1838 1.70087E+08 3.25459E+08 1.49206E+06 3.76357E+08 5.59753E+08 4.79852E+06
 -1      1839-4.27317E+08 3.41597E+08 1.50967E+06 3.36868E+08 5.75029E+08 4.24055E+06
 -1      1841-4.27317E+08 3.41597E+08 1.50967E+06 3.36868E+08 5.75029E+08 4.24055E+06
 -1      1842-8.98657E+08 3.54679E+08 1.59634E+06 2.27317E+08 5.88191E+08 3.52766E+06
 -1      1844-8.98657E+08 3.54679E+08 1.59634E+06 2.27317E+08 5.88191E+08 3.52766E+06
 -1      1845-1.14857E+09 3.62389E+08 1.58280E+06 7.59002E+07 5.99104E+08 2.75270E+06
 -1      1847-1.14857E+09 3.62389E+08 1.58280E+06 7.59002E+07 5.99104E+08 2.75270E+06
 -1      1848-1.13924E+09 3.65087E+08 1.64164E+06-7.77398E+07 6.07358E+08 1.88964E+06
 -1      1850-1.13924E+09 3.65087E+08 1.64164E+06-7.77398E+07 6.07358E+08 1.88964E+06
 -1      1851-9.02468E+08 3.60857E+08 1.59598E+06-1.91057E+08 6.13180E+08 1.27099E+06
 -1      1853-9.02468E+08 3.60857E+08 1.59598E+06-1.91057E+08 6.13180E+08 1.27099E+06
 -1      1854-5.37631E+08 3.54044E+08 1.60444E+06-2.25721E+08 6.16538E+08 3.93805E+05
 -1      1856-5.37631E+08 3.54044E+08 1.60444E+06-2.25721E+08 6.16538E+08 3.93805E+05
 -1      1857-2.00620E+08 3.43758E+08 1.59581E+06-1.56515E+08 6.17926E+08 6.09145E+05
 -1      1859-2.00620E+08 3.43758E+08 1.59581E+06-1.56515E+08 6.17926E+08 6.09145E+05
 -1      1860-1.06483E-02 1.85594E-04-1.04825E-02 3.50326E+07 6.03743E+07 3.04368E-03
 -1      1862-1.06483E-02 1.85594E-04-1.04825E-02 3.50326E+07 6.03743E+07 3.04368E-03
 -1      1863-7.47234E-03 2.89714E-04-1.38615E-02-2.55205E+07 1.42310E+08 4.56526E-03
 -1      1865-7.47234E-03 2.89714E-04-1.38615E-02-2.55205E+07 1.42310E+08 4.56526E-03
 -1      1866-1.99542E-03 2.17513E-04-7.57686E-03 8.98438E+06 2.10274E+08 4.13649E-03
 -1      1868-1.99542E-03 2.17513E-04-7.57686E-03 8.98438E+06 2.10274E+08 4.13649E-03
 -1      1869-2.34243E-04 5.01066E-05-7.83899E-04-8.23032E+06 2.83526E+08 2.83430E-03
 -1      1871-2.34243E-04 5.01066E-05-7.83899E-04-8.23032E+06 2.83526E+08 2.83430E-03
 -1      1872-6.19643E-03-2.00845E-05-4.45927E-03 1.69349E+06 3.56013E+08 3.52317E-03
 -1      1874-6.19643E-03-2.00845E-05-4.45927E-03 1.69349E+06 3.56013E+08 3.52317E-03
 -1      1875-1.29003E-02 3.38142E-04-1.63885E-02-7.15978E+05 4.27690E+08 4.93630E-03
 -1      1877-1.29003E-02 3.38142E-04-1.63885E-02-7.15978E+05 4.27690E+08 4.93630E-03
 -1      1878-1.28647E-02 7.64334E-04-2.69426E-02 1.89400E+06 5.00859E+08 3.75254E-03
 -1      1880-1.28647E-02 7.64334E-04-2.69426E-02 1.89400E+06 5.00859E+08 3.75254E-03
 -1      1881-6.60357E-03 1.26403E-03-2.52236E-02 2.50337E+06 5.72154E+08 2.68872E-04
 -1      1883-6.60357E-03 1.26403E-03-2.52236E-02 2.50337E+06 5.72154E+08 2.68872E-04
 -1      1884-2.33826E-03 1.09168E-03-1.64438E-02 2.64448E+06 6.43624E+08 1.34859E-03
 -1      1886-2.33826E-03 1.09168E-03-1.64438E-02 2.64448E+06 6.43624E+08 1.34859E-03
 -1      1887-5.04305E-03-2.73380E-04-1.65406E-02 2.57838E+06 7.12438E+08 6.08331E-03
 -1      1889-5.04305E-03-2.73380E-04-1.65406E-02 2.57838E+06 7.12438E+08 6.08331E-03
 -1      1890-8.98472E-03-4.48876E-05-2.45049E-02 1.42283E+06 7.79495E+08 4.29879E-03
 -1      1892-8.98472E-03-4.48876E-05-2.45049E-02 1.42283E+06 7.79495E+08 4.29879E-03
 -1      1893-9.84071E-03 1.11051E-03-2.87155E-02 3.95691E+05 8.43089E+08-1.20732E-03
 -1      1895-9.84071E-03 1.11051E-03-2.87155E-02 3.95691E+05 8.43089E+08-1.20732E-03
 -1      1896-1.14294E-02 3.26567E-04-2.65341E-02-1.07020E+06 9.03708E+08-4.44376E-03
 -1      1898-1.14294E-02 3.26567E-04-2.65341E-02-1.07020E+06 9.03708E+08-4.44376E-03
 -1      1899-1.33463E-02-3.60408E-04-2.28659E-02-2.02481E+06 9.60732E+08-7.43878E-03
 -1      1901-1.33463E-02-3.60408E-04-2.28659E-02-2.02481E+06 9.60732E+08-7.43878E-03
 -1      1902-1.03105E-02-1.55449E-04-2.36254E-02-2.69697E+06 1.01475E+09-8.83769E-03
 -1      1904-1.03105E-02-1.55449E-04-2.36254E-02-2.69697E+06 1.01475E+09-8.83769E-03
 -1      1905-6.83866E-03 2.65208E-04-2.93477E-02-2.61854E+06 1.06585E+09-6.56558E-03
 -1      1907-6.83866E-03 2.65208E-04-2.93477E-02-2.61854E+06 1.06585E+09-6.56558E-03
 -1      1908-9.98634E-03 1.00470E-03-3.27889E-02-2.02616E+06 1.11464E+09-3.28692E-03
 -1      1910-9.98634E-03 1.00470E-03-3.27889E-02-2.02616E+06 1.11464E+09-3.28692E-03
 -1      1911-1.35209E-02 1.07246E-03-3.01554E-02-9.05982E+05 1.16134E+09 1.38638E-03
 -1      1913-1.35209E-02 1.07246E-03-3.01554E-02-9.05982E+05 1.16134E+09 1.38638E-03
 -1      1914-9.93076E-03 4.75539E-04-2.69533E-02 3.83546E+05 1.20617E+09 7.78615E-03
 -1      1916-9.93076E-03 4.75539E-04-2.69533E-02 3.83546E+05 1.20617E+09 7.78615E-03
 -1      1917-2.39539E-03-2.09242E-04-2.65129E-02 1.61821E+06 1.24896E+09 1.00288E-02
 -1      1919-2.39539E-03-2.09242E-04-2.65129E-02 1.61821E+06 1.24896E+09 1.00288E-02
 -1      1920 1.65533E-03-1.75896E-04-2.62946E-02 2.46891E+06 1.28938E+09 7.08219E-03
 -1      1922 1.65533E-03-1.75896E-04-2.62946E-02 2.46891E+06 1.28938E+09 7.08219E-03
 -1      1923 2.91287E-04-1.50740E-04-2.80331E-02 2.77605E+06 1.32679E+09 4.96274E-03
 -1      1925 2.91287E-04-1.50740E-04-2.80331E-02 2.77605E+06 1.32679E+09 4.96274E-03
 -1      1926-2.43849E-03-2.03158E-04-3.46096E-02 2.45533E+06 1.36050E+09 4.18006E-03
 -1      1928-2.43849E-03-2.03158E-04-3.46096E-02 2.45533E+06 1.36050E+09 4.18006E-03
 -1      1929-7.17290E-03-9.85169E-05-4.24660E-02 1.58553E+06 1.38981E+09 2.79485E-03
 -1      1931-7.17290E-03-9.85169E-05-4.24660E-02 1.58553E+06 1.38981E+09 2.79485E-03
 -1      1932-1.32973E-02-3.22187E-04-4.65297E-02 4.17674E+05 1.41419E+09 2.10553E-04
 -1      1934-1.32973E-02-3.22187E-04-4.65297E-02 4.17674E+05 1.41419E+09 2.10553E-04
 -1      1935-1.50375E-02-8.72509E-04-4.68959E-02-8.96867E+05 1.43334E+09-3.87454E-03
 -1      1937-1.50375E-02-8.72509E-04-4.68959E-02-8.96867E+05 1.43334E+09-3.87454E-03
 -1      1938-1.23115E-02-6.97621E-04-4.67075E-02-1.69600E+06 1.44734E+09-3.94570E-03
 -1      1940-1.23115E-02-6.97621E-04-4.67075E-02-1.69600E+06 1.44734E+09-3.94570E-03
 -1      1941-6.83399E-03-2.67347E-04-4.34454E-02-2.52170E+06 1.45646E+09-2.35358E-03
 -1      1943-6.83399E-03-2.67347E-04-4.34454E-02-2.52170E+06 1.45646E+09-2.35358E-03
 -1      1944-5.67889E-04 1.43166E-03-3.34789E-02-1.54082E+06 1.46128E+09-2.79038E-03
 -1      1946-5.67889E-04 1.43166E-03-3.34789E-02-1.54082E+06 1.46128E+09-2.79038E-03
 -1      1947-6.50951E-03-2.48978E-05-9.20404E-03 1.09938E+08-1.10060E-04 2.61015E-03
 -1      1949-6.50951E-03-2.48978E-05-9.20404E-03 1.09938E+08-1.10060E-04 2.61015E-03
 -1      1950-5.36085E-03-6.37615E-05-9.37965E-03-1.61961E+07-9.02340E-05 6.38496E-03
 -1      1952-5.36085E-03-6.37615E-05-9.37965E-03-1.61961E+07-9.02340E-05 6.38496E-03
 -1      1953-4.26094E-03 2.06941E-04-2.73338E-03 5.79588E+07 1.17645E-05 6.17890E-03
 -1      1955-4.26094E-03 2.06941E-04-2.73338E-03 5.79588E+07 1.17645E-05 6.17890E-03
 -1      1956-2.17220E-03-5.28683E-05 2.04454E-03 1.81771E+07 1.32270E-04 1.58442E-03
 -1      1958-2.17220E-03-5.28683E-05 2.04454E-03 1.81771E+07 1.32270E-04 1.58442E-03
 -1      1959-3.26760E-03-2.67192E-04-1.48939E-03 4.41813E+07 2.25306E-04-3.92878E-04
 -1      1961-3.26760E-03-2.67192E-04-1.48939E-03 4.41813E+07 2.25306E-04-3.92878E-04
 -1      1962-4.85835E-03 2.00119E-04-1.06297E-02 3.41060E+07 3.09363E-04-1.43094E-03
 -1      1964-4.85835E-03 2.00119E-04-1.06297E-02 3.41060E+07 3.09363E-04-1.43094E-03
 -1      1965-3.90127E-03 5.99008E-04-2.08945E-02 4.38845E+07 1.96174E-04-3.28891E-03
 -1      1967-3.90127E-03 5.99008E-04-2.08945E-02 4.38845E+07 1.96174E-04-3.28891E-03
 -1      1968-3.61440E-03 1.53705E-03-2.42330E-02 4.11038E+07-1.16557E-04-2.84680E-03
 -1      1970-3.61440E-03 1.53705E-03-2.42330E-02 4.11038E+07-1.16557E-04-2.84680E-03
 -1      1971-5.54779E-03 4.93135E-04-1.82991E-02 4.34195E+07-3.00422E-04 3.71370E-04
 -1      1973-5.54779E-03 4.93135E-04-1.82991E-02 4.34195E+07-3.00422E-04 3.71370E-04
 -1      1974-8.79297E-03-8.14917E-04-1.40518E-02 4.01115E+07-4.10244E-04 2.95015E-03
 -1      1976-8.79297E-03-8.14917E-04-1.40518E-02 4.01115E+07-4.10244E-04 2.95015E-03
 -1      1977-1.28148E-02 1.87510E-04-1.81904E-02 3.77614E+07-5.96315E-04 4.41309E-04
 -1      1979-1.28148E-02 1.87510E-04-1.81904E-02 3.77614E+07-5.96315E-04 4.41309E-04
 -1      1980-1.48043E-02 1.14132E-03-2.40572E-02 3.28932E+07-5.40271E-04-3.08976E-03
 -1      1982-1.48043E-02 1.14132E-03-2.40572E-02 3.28932E+07-5.40271E-04-3.08976E-03
 -1      1983-1.47367E-02 1.30142E-03-2.58837E-02 2.87556E+07-7.86871E-04-3.05269E-03
 -1      1985-1.47367E-02 1.30142E-03-2.58837E-02 2.87556E+07-7.86871E-04-3.05269E-03
 -1      1986-1.48177E-02 5.51949E-05-2.55659E-02 2.43897E+07-9.41575E-04-2.77017E-03
 -1      1988-1.48177E-02 5.51949E-05-2.55659E-02 2.43897E+07-9.41575E-04-2.77017E-03
 -1      1989-1.17884E-02 2.30446E-04-2.61459E-02 2.15260E+07-8.87752E-04-2.48456E-03
 -1      1991-1.17884E-02 2.30446E-04-2.61459E-02 2.15260E+07-8.87752E-04-2.48456E-03
 -1      1992-6.57022E-03 7.86161E-04-3.02111E-02 1.97343E+07-8.94517E-04 1.02420E-03
 -1      1994-6.57022E-03 7.86161E-04-3.02111E-02 1.97343E+07-8.94517E-04 1.02420E-03
 -1      1995-5.99584E-03 1.87652E-03-3.27853E-02 1.95447E+07-4.66287E-04 5.95904E-03
 -1      1997-5.99584E-03 1.87652E-03-3.27853E-02 1.95447E+07-4.66287E-04 5.95904E-03
 -1      1998-1.17282E-02 2.56161E-03-2.94322E-02 2.02697E+07-1.54734E-04 9.03834E-03
 -1      2000-1.17282E-02 2.56161E-03-2.94322E-02 2.02697E+07-1.54734E-04 9.03834E-03
 -1      2001-1.40206E-02 8.05756E-04-2.39776E-02 2.15758E+07-5.82635E-05 1.11628E-02
 -1      2003-1.40206E-02 8.05756E-04-2.39776E-02 2.15758E+07-5.82635E-05 1.11628E-02
 -1      2004-8.25811E-03-1.03405E-03-2.08737E-02 2.25995E+07 2.33173E-04 1.06979E-02
 -1      2006-8.25811E-03-1.03405E-03-2.08737E-02 2.25995E+07 2.33173E-04 1.06979E-02
 -1      2007-3.51104E-03-1.27871E-03-2.23174E-02 2.28008E+07 2.42144E-04 6.10830E-03
 -1      2009-3.51104E-03-1.27871E-03-2.23174E-02 2.28008E+07 2.42144E-04 6.10830E-03
 -1      2010-2.27800E-03-1.70646E-04-2.75119E-02 2.16574E+07 1.79350E-04 1.35149E-03
 -1      2012-2.27800E-03-1.70646E-04-2.75119E-02 2.16574E+07 1.79350E-04 1.35149E-03
 -1      2013-6.76321E-04 2.11537E-04-3.32020E-02 1.90645E+07 1.03116E-04-8.61658E-05
 -1      2015-6.76321E-04 2.11537E-04-3.32020E-02 1.90645E+07 1.03116E-04-8.61658E-05
 -1      2016-1.82625E-03 5.34340E-05-3.65426E-02 1.51889E+07 4.47035E-06 8.06782E-04
 -1      2018-1.82625E-03 5.34340E-05-3.65426E-02 1.51889E+07 4.47035E-06 8.06782E-04
 -1      2019-7.35030E-03-1.44542E-04-3.85174E-02 1.05718E+07 8.06749E-05-9.88091E-04
 -1      2021-7.35030E-03-1.44542E-04-3.85174E-02 1.05718E+07 8.06749E-05-9.88091E-04
 -1      2022-1.16802E-02-3.70648E-04-4.10807E-02 5.79250E+06 5.38051E-04-6.57301E-03
 -1      2024-1.16802E-02-3.70648E-04-4.10807E-02 5.79250E+06 5.38051E-04-6.57301E-03
 -1      2025-1.22755E-02-8.55973E-04-4.37352E-02 1.91188E+06 1.10292E-03-7.85166E-03
 -1      2027-1.22755E-02-8.55973E-04-4.37352E-02 1.91188E+06 1.10292E-03-7.85166E-03
 -1      2028-8.68795E-03-1.30119E-03-4.27450E-02-1.24093E+06 1.90553E-03-4.85149E-03
 -1      2030-8.68795E-03-1.30119E-03-4.27450E-02-1.24093E+06 1.90553E-03-4.85149E-03
 -1      2031-2.38053E-03 9.82756E-04-3.59992E-02-1.46250E+06 2.23732E-03-4.21474E-03
 -1      2033-2.38053E-03 9.82756E-04-3.59992E-02-1.46250E+06 2.23732E-03-4.21474E-03
 -1      2034-1.74710E-03-1.07896E-04-3.80493E-03 3.50326E+07-6.03743E+07 5.71216E-04
 -1      2036-1.74710E-03-1.07896E-04-3.80493E-03 3.50326E+07-6.03743E+07 5.71216E-04
 -1      2037-6.65939E-03-3.62423E-04-3.01969E-03-2.55205E+07-1.42310E+08 6.74599E-03
 -1      2039-6.65939E-03-3.62423E-04-3.01969E-03-2.55205E+07-1.42310E+08 6.74599E-03
 -1      2040-6.17808E-03-1.99366E-05 6.71535E-04 8.98438E+06-2.10274E+08 7.75209E-03
 -1      2042-6.17808E-03-1.99366E-05 6.71535E-04 8.98438E+06-2.10274E+08 7.75209E-03
 -1      2043-1.24597E-03-1.96598E-04 2.34896E-03-8.23032E+06-2.83526E+08 3.39787E-03
 -1      2045-1.24597E-03-1.96598E-04 2.34896E-03-8.23032E+06-2.83526E+08 3.39787E-03
 -1      2046 1.68696E-03-5.77268E-05 2.74469E-03 1.69349E+06-3.56013E+08 1.72678E-03
 -1      2048 1.68696E-03-5.77268E-05 2.74469E-03 1.69349E+06-3.56013E+08 1.72678E-03
 -1      2049 1.89786E-03 8.54262E-04 9.20535E-04-7.15978E+05-4.27690E+08-1.32089E-03
 -1      2051 1.89786E-03 8.54262E-04 9.20535E-04-7.15978E+05-4.27690E+08-1.32089E-03
 -1      2052-1.10007E-03 1.45123E-03-8.65359E-03 1.89400E+06-5.00859E+08-7.44150E-03
 -1      2054-1.10007E-03 1.45123E-03-8.65359E-03 1.89400E+06-5.00859E+08-7.44150E-03
 -1      2055-5.40504E-03 1.69303E-03-2.00184E-02 2.50337E+06-5.72154E+08-6.98872E-03
 -1      2057-5.40504E-03 1.69303E-03-2.00184E-02 2.50337E+06-5.72154E+08-6.98872E-03
 -1      2058-6.23901E-03 3.00313E-04-2.00770E-02 2.64448E+06-6.43624E+08-1.22318E-03
 -1      2060-6.23901E-03 3.00313E-04-2.00770E-02 2.64448E+06-6.43624E+08-1.22318E-03
 -1      2061-8.08087E-03-1.01332E-03-1.37932E-02 2.57838E+06-7.12438E+08-5.18293E-04
 -1      2063-8.08087E-03-1.01332E-03-1.37932E-02 2.57838E+06-7.12438E+08-5.18293E-04
 -1      2064-1.48968E-02 3.63439E-04-1.37734E-02 1.42283E+06-7.79495E+08-4.65478E-03
 -1      2066-1.48968E-02 3.63439E-04-1.37734E-02 1.42283E+06-7.79495E+08-4.65478E-03
 -1      2067-1.76437E-02 8.31913E-04-1.99176E-02 3.95691E+05-8.43089E+08-6.65781E-03
 -1      2069-1.76437E-02 8.31913E-04-1.99176E-02 3.95691E+05-8.43089E+08-6.65781E-03
 -1      2070-1.28562E-02 2.30514E-03-2.60117E-02-1.07020E+06-9.03708E+08-3.96963E-03
 -1      2072-1.28562E-02 2.30514E-03-2.60117E-02-1.07020E+06-9.03708E+08-3.96963E-03
 -1      2073-8.55508E-03 2.50864E-03-2.85464E-02-2.02481E+06-9.60732E+08-8.58115E-04
 -1      2075-8.55508E-03 2.50864E-03-2.85464E-02-2.02481E+06-9.60732E+08-8.58115E-04
 -1      2076-7.80064E-03 3.55537E-04-2.90560E-02-2.69697E+06-1.01475E+09-1.21386E-03
 -1      2078-7.80064E-03 3.55537E-04-2.90560E-02-2.69697E+06-1.01475E+09-1.21386E-03
 -1      2079-7.97720E-03 4.37397E-04-3.06272E-02-2.61854E+06-1.06585E+09 7.28487E-04
 -1      2081-7.97720E-03 4.37397E-04-3.06272E-02-2.61854E+06-1.06585E+09 7.28487E-04
 -1      2082-9.93318E-03 2.74496E-04-2.90977E-02-2.02616E+06-1.11464E+09 7.25976E-03
 -1      2084-9.93318E-03 2.74496E-04-2.90977E-02-2.02616E+06-1.11464E+09 7.25976E-03
 -1      2085-1.58154E-02 9.63376E-04-2.29786E-02-9.05982E+05-1.16134E+09 9.82795E-03
 -1      2087-1.58154E-02 9.63376E-04-2.29786E-02-9.05982E+05-1.16134E+09 9.82795E-03
 -1      2088-1.97126E-02-1.86943E-04-2.07010E-02 3.83546E+05-1.20617E+09 8.87725E-03
 -1      2090-1.97126E-02-1.86943E-04-2.07010E-02 3.83546E+05-1.20617E+09 8.87725E-03
 -1      2091-1.57648E-02-2.24837E-03-2.15726E-02 1.61821E+06-1.24896E+09 7.88592E-03
 -1      2093-1.57648E-02-2.24837E-03-2.15726E-02 1.61821E+06-1.24896E+09 7.88592E-03
 -1      2094-1.02165E-02-1.65704E-03-2.26628E-02 2.46891E+06-1.28938E+09 3.81182E-03
 -1      2096-1.02165E-02-1.65704E-03-2.26628E-02 2.46891E+06-1.28938E+09 3.81182E-03
 -1      2097-5.53245E-03-4.69332E-04-2.75068E-02 2.77605E+06-1.32679E+09-1.48770E-03
 -1      2099-5.53245E-03-4.69332E-04-2.75068E-02 2.77605E+06-1.32679E+09-1.48770E-03
 -1      2100 8.97530E-04 1.90688E-04-3.27470E-02 2.45533E+06-1.36050E+09-1.80647E-03
 -1      2102 8.97530E-04 1.90688E-04-3.27470E-02 2.45533E+06-1.36050E+09-1.80647E-03
 -1      2103 3.28016E-03-1.41756E-04-3.17303E-02 1.58553E+06-1.38981E+09 1.69705E-03
 -1      2105 3.28016E-03-1.41756E-04-3.17303E-02 1.58553E+06-1.38981E+09 1.69705E-03
 -1      2106-6.18675E-04 2.30408E-04-2.70572E-02 4.17674E+05-1.41419E+09 1.21428E-04
 -1      2108-6.18675E-04 2.30408E-04-2.70572E-02 4.17674E+05-1.41419E+09 1.21428E-04
 -1      2109-6.23748E-03 7.33331E-04-2.78444E-02-8.96867E+05-1.43334E+09-6.94150E-03
 -1      2111-6.23748E-03 7.33331E-04-2.78444E-02-8.96867E+05-1.43334E+09-6.94150E-03
 -1      2112-1.06791E-02-2.47247E-04-3.38212E-02-1.69600E+06-1.44734E+09-7.91019E-03
 -1      2114-1.06791E-02-2.47247E-04-3.38212E-02-1.69600E+06-1.44734E+09-7.91019E-03
 -1      2115-9.96385E-03-9.67274E-04-3.47605E-02-2.52170E+06-1.45646E+09-2.92065E-03
 -1      2117-9.96385E-03-9.67274E-04-3.47605E-02-2.52170E+06-1.45646E+09-2.92065E-03
 -1      2118-4.58724E-03 2.99436E-04-3.10576E-02-1.54082E+06-1.46128E+09-3.05316E-03
 -1      2120-4.58724E-03 2.99436E-04-3.10576E-02-1.54082E+06-1.46128E+09-3.05316E-03
 -1      2121-1.92340E+09-1.15655E+08-5.38222E+05-5.89569E+08-1.01326E+07 1.87151E+07
 -1      2123-1.92340E+09-1.15655E+08-5.38222E+05-5.89569E+08-1.01326E+07 1.87151E+07
 -1      2124-9.81481E+08 7.81626E+07 8.44944E+05-5.21745E+08-6.27170E+07-2.23416E+07
 -1      2126-9.81481E+08 7.81626E+07 8.44944E+05-5.21745E+08-6.27170E+07-2.23416E+07
 -1      2127-1.14215E+08 2.49784E+07-1.51341E+05-4.75778E+08-8.92057E+07-2.69884E+06
 -1      2129-1.14215E+08 2.49784E+07-1.51341E+05-4.75778E+08-8.92057E+07-2.69884E+06
 -1      2130 5.80125E+08 4.93596E+07 2.63928E+05-3.36247E+08-1.20308E+08-1.18887E+07
 -1      2132 5.80125E+08 4.93596E+07 2.63928E+05-3.36247E+08-1.20308E+08-1.18887E+07
 -1      2133 1.02943E+09 6.73564E+07 4.94310E+05-1.70178E+08-1.51429E+08-8.03126E+06
 -1      2135 1.02943E+09 6.73564E+07 4.94310E+05-1.70178E+08-1.51429E+08-8.03126E+06
 -1      2136 1.17027E+09 7.90840E+07 1.86415E+05 2.23078E+07-1.80486E+08-9.92012E+06
 -1      2138 1.17027E+09 7.90840E+07 1.86415E+05 2.23078E+07-1.80486E+08-9.92012E+06
 -1      2139 1.00606E+09 1.06793E+08 7.19188E+05 1.92819E+08-2.11694E+08-9.38840E+06
 -1      2141 1.00606E+09 1.06793E+08 7.19188E+05 1.92819E+08-2.11694E+08-9.38840E+06
 -1      2142 5.95665E+08 1.29849E+08 4.36569E+05 3.11736E+08-2.40848E+08-9.62606E+06
 -1      2144 5.95665E+08 1.29849E+08 4.36569E+05 3.11736E+08-2.40848E+08-9.62606E+06
 -1      2145 4.89323E+07 1.59154E+08 8.45711E+05 3.53847E+08-2.71105E+08-9.43497E+06
 -1      2147 4.89323E+07 1.59154E+08 8.45711E+05 3.53847E+08-2.71105E+08-9.43497E+06
 -1      2148-4.97834E+08 1.85605E+08 7.37172E+05 3.11353E+08-2.99444E+08-9.09393E+06
 -1      2150-4.97834E+08 1.85605E+08 7.37172E+05 3.11353E+08-2.99444E+08-9.09393E+06
 -1      2151-9.10792E+08 2.10044E+08 9.73194E+05 1.95955E+08-3.27623E+08-8.64974E+06
 -1      2153-9.10792E+08 2.10044E+08 9.73194E+05 1.95955E+08-3.27623E+08-8.64974E+06
 -1      2154-1.08911E+09 2.29595E+08 9.74063E+05 3.42560E+07-3.53811E+08-8.03232E+06
 -1      2156-1.08911E+09 2.29595E+08 9.74063E+05 3.42560E+07-3.53811E+08-8.03232E+06
 -1      2157-9.86485E+08 2.43641E+08 1.08039E+06-1.35588E+08-3.79081E+08-7.44082E+06
 -1      2159-9.86485E+08 2.43641E+08 1.08039E+06-1.35588E+08-3.79081E+08-7.44082E+06
 -1      2160-6.22315E+08 2.52608E+08 1.12041E+06-2.74736E+08-4.02536E+08-6.83898E+06
 -1      2162-6.22315E+08 2.52608E+08 1.12041E+06-2.74736E+08-4.02536E+08-6.83898E+06
 -1      2163-7.62516E+07 2.57523E+08 1.15087E+06-3.50706E+08-4.25017E+08-6.37114E+06
 -1      2165-7.62516E+07 2.57523E+08 1.15087E+06-3.50706E+08-4.25017E+08-6.37114E+06
 -1      2166 5.29452E+08 2.60648E+08 1.20300E+06-3.46050E+08-4.46223E+08-6.00821E+06
 -1      2168 5.29452E+08 2.60648E+08 1.20300E+06-3.46050E+08-4.46223E+08-6.00821E+06
 -1      2169 1.05844E+09 2.64017E+08 1.20689E+06-2.61385E+08-4.66817E+08-5.79309E+06
 -1      2171 1.05844E+09 2.64017E+08 1.20689E+06-2.61385E+08-4.66817E+08-5.79309E+06
 -1      2172 1.39102E+09 2.69785E+08 1.27398E+06-1.15857E+08-4.86673E+08-5.65992E+06
 -1      2174 1.39102E+09 2.69785E+08 1.27398E+06-1.15857E+08-4.86673E+08-5.65992E+06
 -1      2175 1.45177E+09 2.79060E+08 1.28457E+06 5.77018E+07-5.06135E+08-5.56813E+06
 -1      2177 1.45177E+09 2.79060E+08 1.28457E+06 5.77018E+07-5.06135E+08-5.56813E+06
 -1      2178 1.22640E+09 2.92179E+08 1.37150E+06 2.20032E+08-5.24912E+08-5.43238E+06
 -1      2180 1.22640E+09 2.92179E+08 1.37150E+06 2.20032E+08-5.24912E+08-5.43238E+06
 -1      2181 7.65002E+08 3.08189E+08 1.39504E+06 3.34693E+08-5.42963E+08-5.19266E+06
 -1      2183 7.65002E+08 3.08189E+08 1.39504E+06 3.34693E+08-5.42963E+08-5.19266E+06
 -1      2184 1.70087E+08 3.25459E+08 1.49206E+06 3.76357E+08-5.59753E+08-4.79852E+06
 -1      2186 1.70087E+08 3.25459E+08 1.49206E+06 3.76357E+08-5.59753E+08-4.79852E+06
 -1      2187-4.27317E+08 3.41597E+08 1.50967E+06 3.36868E+08-5.75029E+08-4.24055E+06
 -1      2189-4.27317E+08 3.41597E+08 1.50967E+06 3.36868E+08-5.75029E+08-4.24055E+06
 -1      2190-8.98657E+08 3.54679E+08 1.59634E+06 2.27317E+08-5.88191E+08-3.52766E+06
 -1      2192-8.98657E+08 3.54679E+08 1.59634E+06 2.27317E+08-5.88191E+08-3.52766E+06
 -1      2193-1.14857E+09 3.62389E+08 1.58280E+06 7.59002E+07-5.99104E+08-2.75270E+06
 -1      2195-1.14857E+09 3.62389E+08 1.58280E+06 7.59002E+07-5.99104E+08-2.75270E+06
 -1      2196-1.13924E+09 3.65087E+08 1.64164E+06-7.77398E+07-6.07358E+08-1.88964E+06
 -1      2198-1.13924E+09 3.65087E+08 1.64164E+06-7.77398E+07-6.07358E+08-1.88964E+06
 -1      2199-9.02468E+08 3.60857E+08 1.59598E+06-1.91057E+08-6.13180E+08-1.27099E+06
 -1      2201-9.02468E+08 3.60857E+08 1.59598E+06-1.91057E+08-6.13180E+08-1.27099E+06
 -1      2202-5.37631E+08 3.54044E+08 1.60444E+06-2.25721E+08-6.16538E+08-3.93805E+05
 -1      2204-5.37631E+08 3.54044E+08 1.60444E+06-2.25721E+08-6.16538E+08-3.93805E+05
 -1      2205-2.00620E+08 3.43758E+08 1.59581E+06-1.56515E+08-6.17926E+08-6.09145E+05
 -1      2207-2.00620E+08 3.43758E+08 1.59581E+06-1.56515E+08-6.17926E+08-6.09145E+05
 -1      2208 1.92340E+09 1.15655E+08 5.38222E+05-5.89569E+08-1.01326E+07-1.87151E+07
 -1      2210 1.92340E+09 1.15655E+08 5.38222E+05-5.89569E+08-1.01326E+07-1.87151E+07
 -1      2211 9.81481E+08-7.81626E+07-8.44944E+05-5.21745E+08-6.27170E+07 2.23416E+07
 -1      2213 9.81481E+08-7.81626E+07-8.44944E+05-5.21745E+08-6.27170E+07 2.23416E+07
 -1      2214 1.14215E+08-2.49784E+07 1.51341E+05-4.75778E+08-8.92057E+07 2.69884E+06
 -1      2216 1.14215E+08-2.49784E+07 1.51341E+05-4.75778E+08-8.92057E+07 2.69884E+06
 -1      2217-5.80125E+08-4.93596E+07-2.63928E+05-3.36247E+08-1.20308E+08 1.18887E+07
 -1      2219-5.80125E+08-4.93596E+07-2.63928E+05-3.36247E+08-1.20308E+08 1.18887E+07
 -1      2220-1.02943E+09-6.73564E+07-4.94310E+05-1.70178E+08-1.51429E+08 8.03126E+06
 -1      2222-1.02943E+09-6.73564E+07-4.94310E+05-1.70178E+08-1.51429E+08 8.03126E+06
 -1      2223-1.17027E+09-7.90840E+07-1.86415E+05 2.23078E+07-1.80486E+08 9.92012E+06
 -1      2225-1.17027E+09-7.90840E+07-1.86415E+05 2.23078E+07-1.80486E+08 9.92012E+06
 -1      2226-1.00606E+09-1.06793E+08-7.19188E+05 1.92819E+08-2.11694E+08 9.38840E+06
 -1      2228-1.00606E+09-1.06793E+08-7.19188E+05 1.92819E+08-2.11694E+08 9.38840E+06
 -1      2229-5.95665E+08-1.29849E+08-4.36569E+05 3.11736E+08-2.40848E+08 9.62606E+06
 -1      2231-5.95665E+08-1.29849E+08-4.36569E+05 3.11736E+08-2.40848E+08 9.62606E+06
 -1      2232-4.89323E+07-1.59154E+08-8.45711E+05 3.53847E+08-2.71105E+08 9.43497E+06
 -1      2234-4.89323E+07-1.59154E+08-8.45711E+05 3.53847E+08-2.71105E+08 9.43497E+06
 -1      2235 4.97834E+08-1.85605E+08-7.37172E+05 3.11353E+08-2.99444E+08 9.09393E+06
 -1      2237 4.97834E+08-1.85605E+08-7.37172E+05 3.11353E+08-2.99444E+08 9.09393E+06
 -1      2238 9.10792E+08-2.10044E+08-9.73194E+05 1.95955E+08-3.27623E+08 8.64974E+06
 -1      2240 9.10792E+08-2.10044E+08-9.73194E+05 1.95955E+08-3.27623E+08 8.64974E+06
 -1      2241 1.08911E+09-2.29595E+08-9.74063E+05 3.42560E+07-3.53811E+08 8.03232E+06
 -1      2243 1.08911E+09-2.29595E+08-9.74063E+05 3.42560E+07-3.53811E+08 8.03232E+06
 -1      2244 9.86485E+08-2.43641E+08-1.08039E+06-1.35588E+08-3.79081E+08 7.44082E+06
 -1      2246 9.86485E+08-2.43641E+08-1.08039E+06-1.35588E+08-3.79081E+08 7.44082E+06
 -1      2247 6.22315E+08-2.52608E+08-1.12041E+06-2.74736E+08-4.02536E+08 6.83898E+06
 -1      2249 6.22315E+08-2.52608E+08-1.12041E+06-2.74736E+08-4.02536E+08 6.83898E+06
 -1      2250 7.62516E+07-2.57523E+08-1.15087E+06-3.50706E+08-4.25017E+08 6.37114E+06
 -1      2252 7.62516E+07-2.57523E+08-1.15087E+06-3.50706E+08-4.25017E+08 6.37114E+06
 -1      2253-5.29452E+08-2.60648E+08-1.20300E+06-3.46050E+08-4.46223E+08 6.00821E+06
 -1      2255-5.29452E+08-2.60648E+08-1.20300E+06-3.46050E+08-4.46223E+08 6.00821E+06
 -1      2256-1.05844E+09-2.64017E+08-1.20689E+06-2.61385E+08-4.66817E+08 5.79309E+06
 -1      2258-1.05844E+09-2.64017E+08-1.20689E+06-2.61385E+08-4.66817E+08 5.79309E+06
 -1      2259-1.39102E+09-2.69785E+08-1.27398E+06-1.15857E+08-4.86673E+08 5.65992E+06
 -1      2261-1.39102E+09-2.69785E+08-1.27398E+06-1.15857E+08-4.86673E+08 5.65992E+06
 -1      2262-1.45177E+09-2.79060E+08-1.28457E+06 5.77018E+07-5.06135E+08 5.56813E+06
 -1      2264-1.45177E+09-2.79060E+08-1.28457E+06 5.77018E+07-5.06135E+08 5.56813E+06
 -1      2265-1.22640E+09-2.92179E+08-1.37150E+06 2.20032E+08-5.24912E+08 5.43238E+06
 -1      2267-1.22640E+09-2.92179E+08-1.37150E+06 2.20032E+08-5.24912E+08 5.43238E+06
 -1      2268-7.65002E+08-3.08189E+08-1.39504E+06 3.34693E+08-5.42963E+08 5.19266E+06
 -1      2270-7.65002E+08-3.08189E+08-1.39504E+06 3.34693E+08-5.42963E+08 5.19266E+06
 -1      2271-1.70087E+08-3.25459E+08-1.49206E+06 3.76357E+08-5.59753E+08 4.79852E+06
 -1      2273-1.70087E+08-3.25459E+08-1.49206E+06 3.76357E+08-5.59753E+08 4.79852E+06
 -1      2274 4.27317E+08-3.41597E+08-1.50967E+06 3.36868E+08-5.75029E+08 4.24055E+06
 -1      2276 4.27317E+08-3.41597E+08-1.50967E+06 3.36868E+08-5.75029E+08 4.24055E+06
 -1      2277 8.98657E+08-3.54679E+08-1.59634E+06 2.27317E+08-5.88191E+08 3.52766E+06
 -1      2279 8.98657E+08-3.54679E+08-1.59634E+06 2.27317E+08-5.88191E+08 3.52766E+06
 -1      2280 1.14857E+09-3.62389E+08-1.58280E+06 7.59002E+07-5.99104E+08 2.75270E+06
 -1      2282 1.14857E+09-3.62389E+08-1.58280E+06 7.59002E+07-5.99104E+08 2.75270E+06
 -1      2283 1.13924E+09-3.65087E+08-1.64164E+06-7.77398E+07-6.07358E+08 1.88964E+06
 -1      2285 1.13924E+09-3.65087E+08-1.64164E+06-7.77398E+07-6.07358E+08 1.88964E+06
 -1      2286 9.02468E+08-3.60857E+08-1.59598E+06-1.91057E+08-6.13180E+08 1.27099E+06
 -1      2288 9.02468E+08-3.60857E+08-1.59598E+06-1.91057E+08-6.13180E+08 1.27099E+06
 -1      2289 5.37631E+08-3.54044E+08-1.60444E+06-2.25721E+08-6.16538E+08 3.93805E+05
 -1      2291 5.37631E+08-3.54044E+08-1.60444E+06-2.25721E+08-6.16538E+08 3.93805E+05
 -1      2292 2.00620E+08-3.43758E+08-1.59581E+06-1.56515E+08-6.17926E+08 6.09145E+05
 -1      2294 2.00620E+08-3.43758E+08-1.59581E+06-1.56515E+08-6.17926E+08 6.09145E+05
 -3
    1PSTEP                        71           1           1          
    1PGM                1.000000E+00                                  
    1PGK                1.866135E+07                                  
    1PHID                         -1                                  
    1PSUBC                         0                                  
    1PMODE                        18                                  
  100CL  118 687.5299308         930                     2   18MODAL      1
 -4  FORC        4    1
 -5  F1          1    2    1    0
 -5  F2          1    2    2    0
 -5  F3          1    2    3    0
 -5  ALL         1    2    0    0    1ALL
 -1       404-1.22216E+06 1.36888E+05-3.49946E+05
 -1       406-4.15689E+05 3.35924E+05-3.49946E+05
 -1       407 3.59188E+03-6.82694E+04 1.34969E+05
 -1       409 3.59188E+03-6.82694E+04 1.34969E+05
 -1       410 2.34146E-06-5.24753E+06-4.17995E-06
 -1       412 2.28538E-06 5.83790E+06-5.71053E-06
 -1       413 1.04521E-06-4.25506E+05-8.70078E+06
 -1       415 1.40568E-06-4.25506E+05 8.70078E+06
 -1       424 4.73160E-06 7.04799E+04 3.45780E-06
 -1       426 1.33099E-06-2.73645E+04 3.80795E-06
 -1       427 1.96476E+05 8.64725E+05 2.97988E+04
 -1       429-1.96476E+05 8.64725E+05-2.97988E+04
 -1       438-3.59188E+03-6.82694E+04-1.34969E+05
 -1       440-3.59188E+03-6.82694E+04-1.34969E+05
 -1       441 1.22216E+06 1.36888E+05 3.49946E+05
 -1       443 4.15689E+05 3.35924E+05 3.49946E+05
 -1       444 1.96476E+05 8.64725E+05-2.97988E+04
 -1       446-1.96476E+05 8.64725E+05 2.97988E+04
 -1       447 1.92413E-07 7.04799E+04-2.36016E-06
 -1       449 1.38659E-06-2.73645E+04-2.21590E-06
 -1       458-1.79623E-06-4.25506E+05 8.70078E+06
 -1       460-1.83534E-06-4.25506E+05-8.70078E+06
 -1       461-2.36683E-06-5.24753E+06 8.59620E-06
 -1       463-2.35590E-06 5.83790E+06 6.10926E-06
 -1       472 1.22216E+06 1.36888E+05-3.49946E+05
 -1       474 4.15689E+05 3.35924E+05-3.49946E+05
 -1       475-3.59188E+03-6.82694E+04 1.34969E+05
 -1       477-3.59188E+03-6.82694E+04 1.34969E+05
 -1       478 3.59188E+03-6.82694E+04-1.34969E+05
 -1       480 3.59188E+03-6.82694E+04-1.34969E+05
 -1       481-1.22216E+06 1.36888E+05 3.49946E+05
 -1       483-4.15689E+05 3.35924E+05 3.49946E+05
 -1       484 3.37798E+03-5.91987E+03 1.31494E+04
 -1       486 3.37798E+03-5.91987E+03 1.31494E+04
 -1       487 5.67273E+03-1.43112E+04 2.77861E+04
 -1       489 5.67273E+03-1.43112E+04 2.77861E+04
 -1       490 6.55552E+03-2.48208E+04 4.22753E+04
 -1       492 6.55552E+03-2.48208E+04 4.22753E+04
 -1       493 6.19402E+03-3.54598E+04 5.61043E+04
 -1       495 6.19402E+03-3.54598E+04 5.61043E+04
 -1       496 4.92398E+03-4.44437E+04 6.94088E+04
 -1       498 4.92398E+03-4.44437E+04 6.94088E+04
 -1       499 3.19278E+03-5.06756E+04 8.20080E+04
 -1       501 3.19278E+03-5.06756E+04 8.20080E+04
 -1       502 1.49083E+03-5.38372E+04 9.39661E+04
 -1       504 1.49083E+03-5.38372E+04 9.39661E+04
 -1       505 2.62833E+02-5.44033E+04 1.05332E+05
 -1       507 2.62833E+02-5.44033E+04 1.05332E+05
 -1       508-1.84255E+02-5.34941E+04 1.16253E+05
 -1       510-1.84255E+02-5.34941E+04 1.16253E+05
 -1       511 2.59084E+02-5.25821E+04 1.26890E+05
 -1       513 2.59084E+02-5.25821E+04 1.26890E+05
 -1       514 1.48461E+03-5.31367E+04 1.37406E+05
 -1       516 1.48461E+03-5.31367E+04 1.37406E+05
 -1       517 3.19499E+03-5.62707E+04 1.47927E+05
 -1       519 3.19499E+03-5.62707E+04 1.47927E+05
 -1       520 4.97444E+03-6.24737E+04 1.58517E+05
 -1       522 4.97444E+03-6.24737E+04 1.58517E+05
 -1       523 6.38539E+03-7.14911E+04 1.69162E+05
 -1       525 6.38539E+03-7.14911E+04 1.69162E+05
 -1       526 7.07016E+03-8.23748E+04 1.79780E+05
 -1       528 7.07016E+03-8.23748E+04 1.79780E+05
 -1       529 6.83363E+03-9.36946E+04 1.90228E+05
 -1       531 6.83363E+03-9.36946E+04 1.90228E+05
 -1       532 5.68912E+03-1.03861E+05 2.00336E+05
 -1       534 5.68912E+03-1.03861E+05 2.00336E+05
 -1       535 3.85613E+03-1.11485E+05 2.09938E+05
 -1       537 3.85613E+03-1.11485E+05 2.09938E+05
 -1       538 1.71144E+03-1.15696E+05 2.18897E+05
 -1       540 1.71144E+03-1.15696E+05 2.18897E+05
 -1       541-2.95986E+02-1.16341E+05 2.27128E+05
 -1       543-2.95986E+02-1.16341E+05 2.27128E+05
 -1       544-1.74600E+03-1.14020E+05 2.34601E+05
 -1       546-1.74600E+03-1.14020E+05 2.34601E+05
 -1       547-2.34146E+03-1.09955E+05 2.41335E+05
 -1       549-2.34146E+03-1.09955E+05 2.41335E+05
 -1       550-1.97346E+03-1.05718E+05 2.47377E+05
 -1       552-1.97346E+03-1.05718E+05 2.47377E+05
 -1       553-7.42319E+02-1.02883E+05 2.52776E+05
 -1       555-7.42319E+02-1.02883E+05 2.52776E+05
 -1       556 1.07106E+03-1.02683E+05 2.57555E+05
 -1       558 1.07106E+03-1.02683E+05 2.57555E+05
 -1       559 3.07827E+03-1.05759E+05 2.61695E+05
 -1       561 3.07827E+03-1.05759E+05 2.61695E+05
 -1       562 4.88541E+03-1.12049E+05 2.65125E+05
 -1       564 4.88541E+03-1.12049E+05 2.65125E+05
 -1       565 6.20435E+03-1.20870E+05 2.67727E+05
 -1       567 6.20435E+03-1.20870E+05 2.67727E+05
 -1       568 6.94981E+03-1.31167E+05 2.69371E+05
 -1       570 6.94981E+03-1.31167E+05 2.69371E+05
 -1       571 4.78520E+03-1.36454E+05 1.66984E+05
 -1       573 4.78520E+03-1.36454E+05 1.66984E+05
 -1       574 4.38174E-06-5.14864E+05 3.89815E-07
 -1       576 4.24019E-06 1.33539E+05 1.34829E-06
 -1       577 2.32758E-08 1.79665E+05-5.08921E+05
 -1       579 3.65835E-08 1.79665E+05 5.08921E+05
 -1       588 1.28267E-06-9.06607E+05-4.13381E-06
 -1       590 1.19709E-06 1.19949E+06-2.97661E-06
 -1       591-3.52231E-06-1.77071E+05-1.65304E+06
 -1       593-3.57018E-06-1.77071E+05 1.65304E+06
 -1       602-4.74573E-07-1.63206E+06-3.26430E-06
 -1       604-3.81345E-07 1.58453E+06-3.94166E-06
 -1       605-4.69237E-06-3.39689E+04-2.52465E+06
 -1       607-4.63560E-06-3.39689E+04 2.52465E+06
 -1       616 4.22990E-06-2.09335E+06-2.31814E-06
 -1       618 4.31101E-06 2.18625E+06-2.99459E-06
 -1       619-1.01488E-06-1.31220E+05-3.35898E+06
 -1       621-7.17508E-07-1.31220E+05 3.35898E+06
 -1       630 6.83859E-06-2.66711E+06-1.88101E-06
 -1       632 6.82446E-06 2.72665E+06-2.35613E-06
 -1       633 1.35291E-07-1.35273E+05-4.23347E+06
 -1       635 2.30270E-07-1.35273E+05 4.23347E+06
 -1       644 4.42356E-06-3.15551E+06-3.25437E-06
 -1       646 4.38425E-06 3.30290E+06-3.93628E-06
 -1       647-1.72273E-06-1.89829E+05-5.06911E+06
 -1       649-1.75975E-06-1.89829E+05 5.06911E+06
 -1       658-1.77005E-06-3.64285E+06-7.96939E-06
 -1       660-1.85323E-06 3.92182E+06-7.26068E-06
 -1       661-3.99139E-06-2.55029E+05-5.93738E+06
 -1       663-4.04111E-06-2.55029E+05 5.93738E+06
 -1       672-5.97187E-06-4.10089E+06-8.14859E-06
 -1       674-6.28235E-06 4.54333E+06-7.98749E-06
 -1       675-4.06043E-06-3.26841E+05-6.78471E+06
 -1       677-4.17776E-06-3.26841E+05 6.78471E+06
 -1       686-3.54654E-06-4.53984E+06-7.02787E-06
 -1       688-3.77320E-06 5.18733E+06-8.27173E-06
 -1       689-2.20799E-06-4.14251E+05-7.63470E+06
 -1       691-2.16445E-06-4.14251E+05 7.63470E+06
 -1       700 9.14379E-07-4.97085E+06-1.01036E-05
 -1       702 8.27791E-07 5.80188E+06-6.35162E-06
 -1       703-1.17690E-06-4.91180E+05-8.45534E+06
 -1       705-1.04571E-06-4.91180E+05 8.45534E+06
 -1       714 1.67981E-06-5.39384E+06-9.49418E-06
 -1       716 1.28162E-06 6.39071E+06-6.04426E-06
 -1       717-1.22512E-06-5.64957E+05-9.24951E+06
 -1       719-1.73318E-06-5.64957E+05 9.24951E+06
 -1       728 6.75511E-07-5.82023E+06-1.01466E-05
 -1       730 3.54499E-07 6.92012E+06-5.29615E-06
 -1       731-2.53317E-07-6.17150E+05-9.99969E+06
 -1       733-4.13142E-07-6.17150E+05 9.99969E+06
 -1       742 2.58604E-06-6.24695E+06-5.99996E-06
 -1       744 2.49105E-06 7.39535E+06-8.19656E-06
 -1       745 2.41286E-06-6.53747E+05-1.07076E+07
 -1       747 2.30751E-06-6.53747E+05 1.07076E+07
 -1       756 1.57752E-07-6.67615E+06-2.69951E-06
 -1       758 8.12618E-08 7.80972E+06-9.17320E-06
 -1       759 4.03662E-06-6.69470E+05-1.13697E+07
 -1       761 3.70001E-06-6.69470E+05 1.13697E+07
 -1       770-3.61581E-06-7.10019E+06-9.65794E-06
 -1       772-3.92789E-06 8.18085E+06-1.70261E-06
 -1       773 4.31394E-06-6.73516E+05-1.19938E+07
 -1       775 4.19998E-06-6.73516E+05 1.19938E+07
 -1       784-3.68070E-07-7.51334E+06-8.59134E-06
 -1       786-8.39368E-07 8.52216E+06-7.52781E-06
 -1       787 6.93573E-06-6.70274E+05-1.25860E+07
 -1       789 6.66950E-06-6.70274E+05 1.25860E+07
 -1       798-1.08249E-07-7.90598E+06-8.51619E-06
 -1       800-1.99506E-07 8.85626E+06-6.25734E-06
 -1       801 6.41140E-06-6.70095E+05-1.31564E+07
 -1       803 6.06449E-06-6.70095E+05 1.31564E+07
 -1       812-5.54529E-06-8.27103E+06-7.17473E-06
 -1       814-5.58636E-06 9.19802E+06-1.62778E-06
 -1       815-4.73018E-07-6.78887E+05-1.37112E+07
 -1       817-8.42253E-07-6.78887E+05 1.37112E+07
 -1       826-6.64898E-06-8.60246E+06-9.75100E-06
 -1       828-6.63053E-06 9.55873E+06-8.25894E-06
 -1       829-4.09477E-06-7.02150E+05-1.42544E+07
 -1       831-4.31050E-06-7.02150E+05 1.42544E+07
 -1       840-3.40753E-06-8.89802E+06-1.17162E-05
 -1       842-3.39724E-06 9.93771E+06-1.41976E-05
 -1       843-4.13954E-06-7.40096E+05-1.47839E+07
 -1       845-4.27079E-06-7.40096E+05 1.47839E+07
 -1       854-2.20069E-06-9.15854E+06-9.71371E-06
 -1       856-2.32794E-06 1.03259E+07-1.24300E-05
 -1       857-1.98982E-06-7.89966E+05-1.52930E+07
 -1       859-2.23091E-06-7.89966E+05 1.52930E+07
 -1       868-2.38933E-06-9.38770E+06-9.68079E-06
 -1       870-2.01700E-06 1.07048E+07-8.73212E-06
 -1       871-1.40814E-06-8.45103E+05-1.57703E+07
 -1       873-1.38569E-06-8.45103E+05 1.57703E+07
 -1       882-1.92954E-06-9.59103E+06-9.89782E-06
 -1       884-1.95145E-06 1.10524E+07-1.08566E-05
 -1       885-1.46102E-06-8.97420E+05-1.62027E+07
 -1       887-1.30055E-06-8.97420E+05 1.62027E+07
 -1       896 2.13298E-06-9.77380E+06-1.61602E-05
 -1       898 1.95357E-06 1.13459E+07-9.99201E-06
 -1       899 1.16684E-06-9.38591E+05-1.65765E+07
 -1       901 1.08779E-06-9.38591E+05 1.65765E+07
 -1       910 3.07912E-06-9.94048E+06-1.45801E-05
 -1       912 3.15937E-06 1.15685E+07-1.27365E-05
 -1       913 1.11018E-06-9.62452E+05-1.68821E+07
 -1       915 3.10204E-07-9.62452E+05 1.68821E+07
 -1       924-1.29005E-07-1.00926E+07-1.20269E-05
 -1       926-6.80825E-08 1.17099E+07-1.11157E-05
 -1       927-2.55633E-07-9.65368E+05-1.71125E+07
 -1       929 6.21303E-08-9.65368E+05 1.71125E+07
 -1       938-2.44092E-06-1.02291E+07-7.59876E-06
 -1       940-2.48212E-06 1.17737E+07-1.19547E-05
 -1       941 2.18775E-07-9.49366E+05-1.72696E+07
 -1       943-4.55243E-07-9.49366E+05 1.72696E+07
 -1       952-3.48066E-06-1.03489E+07-9.27129E-06
 -1       954-3.39605E-06 1.17657E+07-1.13781E-05
 -1       955-1.18318E-06-9.15259E+05-1.73574E+07
 -1       957-6.77116E-07-9.15259E+05 1.73574E+07
 -1       966 8.32504E-07-1.04448E+07-6.80930E-06
 -1       968 5.70206E-07 1.17144E+07-8.09814E-06
 -1       969 4.92913E-07-8.76992E+05-1.73925E+07
 -1       971 1.12815E-06-8.76992E+05 1.73925E+07
 -1       980-1.08571E+06 9.23572E+04 1.27854E+05
 -1       982-4.77239E+05 2.42471E+05 1.27854E+05
 -1       983-4.78520E+03-1.36454E+05-1.66984E+05
 -1       985-4.78520E+03-1.36454E+05-1.66984E+05
 -1       986-3.37798E+03-5.91987E+03-1.31494E+04
 -1       988-3.37798E+03-5.91987E+03-1.31494E+04
 -1       989-5.67273E+03-1.43112E+04-2.77861E+04
 -1       991-5.67273E+03-1.43112E+04-2.77861E+04
 -1       992-6.55552E+03-2.48208E+04-4.22753E+04
 -1       994-6.55552E+03-2.48208E+04-4.22753E+04
 -1       995-6.19402E+03-3.54598E+04-5.61043E+04
 -1       997-6.19402E+03-3.54598E+04-5.61043E+04
 -1       998-4.92398E+03-4.44437E+04-6.94088E+04
 -1      1000-4.92398E+03-4.44437E+04-6.94088E+04
 -1      1001-3.19278E+03-5.06756E+04-8.20080E+04
 -1      1003-3.19278E+03-5.06756E+04-8.20080E+04
 -1      1004-1.49083E+03-5.38372E+04-9.39661E+04
 -1      1006-1.49083E+03-5.38372E+04-9.39661E+04
 -1      1007-2.62833E+02-5.44033E+04-1.05332E+05
 -1      1009-2.62833E+02-5.44033E+04-1.05332E+05
 -1      1010 1.84255E+02-5.34941E+04-1.16253E+05
 -1      1012 1.84255E+02-5.34941E+04-1.16253E+05
 -1      1013-2.59084E+02-5.25821E+04-1.26890E+05
 -1      1015-2.59084E+02-5.25821E+04-1.26890E+05
 -1      1016-1.48461E+03-5.31367E+04-1.37406E+05
 -1      1018-1.48461E+03-5.31367E+04-1.37406E+05
 -1      1019-3.19499E+03-5.62707E+04-1.47927E+05
 -1      1021-3.19499E+03-5.62707E+04-1.47927E+05
 -1      1022-4.97444E+03-6.24737E+04-1.58517E+05
 -1      1024-4.97444E+03-6.24737E+04-1.58517E+05
 -1      1025-6.38539E+03-7.14911E+04-1.69162E+05
 -1      1027-6.38539E+03-7.14911E+04-1.69162E+05
 -1      1028-7.07016E+03-8.23748E+04-1.79780E+05
 -1      1030-7.07016E+03-8.23748E+04-1.79780E+05
 -1      1031-6.83363E+03-9.36946E+04-1.90228E+05
 -1      1033-6.83363E+03-9.36946E+04-1.90228E+05
 -1      1034-5.68912E+03-1.03861E+05-2.00336E+05
 -1      1036-5.68912E+03-1.03861E+05-2.00336E+05
 -1      1037-3.85613E+03-1.11485E+05-2.09938E+05
 -1      1039-3.85613E+03-1.11485E+05-2.09938E+05
 -1      1040-1.71144E+03-1.15696E+05-2.18897E+05
 -1      1042-1.71144E+03-1.15696E+05-2.18897E+05
 -1      1043 2.95986E+02-1.16341E+05-2.27128E+05
 -1      1045 2.95986E+02-1.16341E+05-2.27128E+05
 -1      1046 1.74600E+03-1.14020E+05-2.34601E+05
 -1      1048 1.74600E+03-1.14020E+05-2.34601E+05
 -1      1049 2.34146E+03-1.09955E+05-2.41335E+05
 -1      1051 2.34146E+03-1.09955E+05-2.41335E+05
 -1      1052 1.97346E+03-1.05718E+05-2.47377E+05
 -1      1054 1.97346E+03-1.05718E+05-2.47377E+05
 -1      1055 7.42319E+02-1.02883E+05-2.52776E+05
 -1      1057 7.42319E+02-1.02883E+05-2.52776E+05
 -1      1058-1.07106E+03-1.02683E+05-2.57555E+05
 -1      1060-1.07106E+03-1.02683E+05-2.57555E+05
 -1      1061-3.07827E+03-1.05759E+05-2.61695E+05
 -1      1063-3.07827E+03-1.05759E+05-2.61695E+05
 -1      1064-4.88541E+03-1.12049E+05-2.65125E+05
 -1      1066-4.88541E+03-1.12049E+05-2.65125E+05
 -1      1067-6.20435E+03-1.20870E+05-2.67727E+05
 -1      1069-6.20435E+03-1.20870E+05-2.67727E+05
 -1      1070-6.94981E+03-1.31167E+05-2.69371E+05
 -1      1072-6.94981E+03-1.31167E+05-2.69371E+05
 -1      1073 1.08571E+06 9.23572E+04-1.27854E+05
 -1      1075 4.77239E+05 2.42471E+05-1.27854E+05
 -1      1076-9.67342E+05-6.67115E+03-2.17915E+05
 -1      1078 9.67342E+05-6.67115E+03 2.17915E+05
 -1      1079-2.32763E+06-1.99219E+06-7.42031E-07
 -1      1081 2.32763E+06-1.99219E+06-1.39957E-06
 -1      1082-9.67342E+05-6.67115E+03 2.17915E+05
 -1      1084 9.67342E+05-6.67115E+03-2.17915E+05
 -1      1085 1.50705E-06 1.79665E+05 5.08921E+05
 -1      1087 1.78539E-06 1.79665E+05-5.08921E+05
 -1      1088 7.33499E-06-5.14864E+05-2.58679E-06
 -1      1090 7.40162E-06 1.33539E+05-1.70430E-06
 -1      1099 2.23252E-06-1.77071E+05 1.65304E+06
 -1      1101 2.37631E-06-1.77071E+05-1.65304E+06
 -1      1102 2.27956E-06-9.06607E+05-8.36877E-07
 -1      1104 2.32324E-06 1.19949E+06 1.15091E-06
 -1      1113 1.49248E-06-3.39689E+04 2.52465E+06
 -1      1115 1.58737E-06-3.39689E+04-2.52465E+06
 -1      1116-4.69039E-06-1.63206E+06 3.37422E-07
 -1      1118-4.84875E-06 1.58453E+06 2.30486E-06
 -1      1127 1.09656E-06-1.31220E+05 3.35898E+06
 -1      1129 1.53464E-06-1.31220E+05-3.35898E+06
 -1      1130-4.07957E-06-2.09335E+06 3.76656E-06
 -1      1132-4.20409E-06 2.18625E+06 4.00724E-06
 -1      1141 9.65106E-07-1.35273E+05 4.23347E+06
 -1      1143 1.28845E-06-1.35273E+05-4.23347E+06
 -1      1144-1.84717E-06-2.66711E+06 1.16381E-06
 -1      1146-1.49490E-06 2.72665E+06 2.43334E-06
 -1      1155 1.99430E-06-1.89829E+05 5.06911E+06
 -1      1157 1.86672E-06-1.89829E+05-5.06911E+06
 -1      1158 1.63450E-06-3.15551E+06 1.06941E-07
 -1      1160 2.10323E-06 3.30290E+06 2.56108E-06
 -1      1169 3.55628E-08-2.55029E+05 5.93738E+06
 -1      1171-4.82203E-08-2.55029E+05-5.93738E+06
 -1      1172 4.81351E-06-3.64285E+06 5.07940E-06
 -1      1174 5.06254E-06 3.92182E+06 2.79712E-06
 -1      1183-3.24398E-06-3.26841E+05 6.78471E+06
 -1      1185-3.74019E-06-3.26841E+05-6.78471E+06
 -1      1186 1.84837E-06-4.10089E+06 4.91834E-06
 -1      1188 1.71327E-06 4.54333E+06 4.55686E-06
 -1      1197-3.01503E-06-4.14251E+05 7.63470E+06
 -1      1199-3.33326E-06-4.14251E+05-7.63470E+06
 -1      1200 6.61208E-07-4.53984E+06 3.49621E-06
 -1      1202 6.31518E-07 5.18733E+06 6.43494E-06
 -1      1211 5.52685E-07-4.91180E+05 8.45534E+06
 -1      1213 3.37613E-07-4.91180E+05-8.45534E+06
 -1      1214 5.87260E-06-4.97085E+06 5.00905E-06
 -1      1216 6.10416E-06 5.80188E+06 4.59041E-06
 -1      1225-1.06152E-06-5.64957E+05 9.24951E+06
 -1      1227-7.79367E-07-5.64957E+05-9.24951E+06
 -1      1228 5.56575E-06-5.39384E+06 2.97064E-06
 -1      1230 6.00866E-06 6.39071E+06 7.94386E-06
 -1      1239-4.52838E-06-6.17150E+05 9.99969E+06
 -1      1241-4.51773E-06-6.17150E+05-9.99969E+06
 -1      1242-2.47584E-06-5.82023E+06 7.39262E-06
 -1      1244-2.12124E-06 6.92012E+06 6.20229E-06
 -1      1253-5.01138E-06-6.53747E+05 1.07076E+07
 -1      1255-4.33505E-06-6.53747E+05-1.07076E+07
 -1      1256-5.27618E-06-6.24695E+06 5.82924E-06
 -1      1258-5.12442E-06 7.39535E+06 9.67662E-06
 -1      1267-1.13203E-06-6.69470E+05 1.13697E+07
 -1      1269-1.88563E-06-6.69470E+05-1.13697E+07
 -1      1270-2.72599E-06-6.67615E+06 5.80799E-06
 -1      1272-2.66247E-06 7.80972E+06 1.08313E-05
 -1      1281 4.04945E-07-6.73516E+05 1.19938E+07
 -1      1283-4.60058E-07-6.73516E+05-1.19938E+07
 -1      1284 2.75108E-06-7.10019E+06 9.93942E-06
 -1      1286 2.70876E-06 8.18085E+06 6.70821E-06
 -1      1295-1.25328E-08-6.70274E+05 1.25860E+07
 -1      1297-2.45386E-07-6.70274E+05-1.25860E+07
 -1      1298 6.64124E-06-7.51334E+06 6.46673E-06
 -1      1300 6.72665E-06 8.52216E+06 1.02128E-05
 -1      1309 2.96780E-06-6.70095E+05 1.31564E+07
 -1      1311 2.60592E-06-6.70095E+05-1.31564E+07
 -1      1312 6.11548E-06-7.90598E+06 6.01048E-06
 -1      1314 6.15399E-06 8.85626E+06 8.93176E-06
 -1      1323 4.69889E-06-6.78887E+05 1.37112E+07
 -1      1325 4.45357E-06-6.78887E+05-1.37112E+07
 -1      1326 2.40044E-06-8.27103E+06 1.31068E-05
 -1      1328 2.53637E-06 9.19802E+06 2.93792E-06
 -1      1337 3.48354E-06-7.02150E+05 1.42544E+07
 -1      1339 3.17663E-06-7.02150E+05-1.42544E+07
 -1      1340-4.28044E-06-8.60246E+06 1.11954E-05
 -1      1342-4.36100E-06 9.55873E+06 1.20398E-05
 -1      1351 9.02643E-07-7.40096E+05 1.47839E+07
 -1      1353 9.80213E-07-7.40096E+05-1.47839E+07
 -1      1354-6.75276E-06-8.89802E+06 1.51645E-05
 -1      1356-6.69136E-06 9.93771E+06 1.18556E-05
 -1      1365 8.67743E-07-7.89966E+05 1.52930E+07
 -1      1367 5.07604E-07-7.89966E+05-1.52930E+07
 -1      1368-6.99136E-06-9.15854E+06 1.24230E-05
 -1      1370-6.84585E-06 1.03259E+07 1.01824E-05
 -1      1379-1.20848E-06-8.45103E+05 1.57703E+07
 -1      1381-1.48297E-06-8.45103E+05-1.57703E+07
 -1      1382-9.32580E-06-9.38770E+06 1.03025E-05
 -1      1384-9.12111E-06 1.07048E+07 7.02178E-06
 -1      1393-1.98565E-06-8.97420E+05 1.62027E+07
 -1      1395-1.89427E-06-8.97420E+05-1.62027E+07
 -1      1396-8.19365E-06-9.59103E+06 1.23525E-05
 -1      1398-7.89032E-06 1.10524E+07 8.70993E-06
 -1      1407 9.61840E-07-9.38591E+05 1.65765E+07
 -1      1409 1.21969E-06-9.38591E+05-1.65765E+07
 -1      1410-3.15876E-06-9.77380E+06 1.69970E-05
 -1      1412-3.36421E-06 1.13459E+07 9.23670E-06
 -1      1421 1.76145E-06-9.62452E+05 1.68821E+07
 -1      1423 1.65168E-06-9.62452E+05-1.68821E+07
 -1      1424-1.48997E-08-9.94048E+06 9.24555E-06
 -1      1426-2.72026E-08 1.15685E+07 1.22842E-05
 -1      1435-3.18896E-07-9.65368E+05 1.71125E+07
 -1      1437-2.41927E-07-9.65368E+05-1.71125E+07
 -1      1438 3.67594E-07-1.00926E+07 8.21686E-06
 -1      1440 5.06613E-07 1.17099E+07 1.06801E-05
 -1      1449-1.16186E-06-9.49366E+05 1.72696E+07
 -1      1451-7.05687E-07-9.49366E+05-1.72696E+07
 -1      1452-1.06411E-06-1.02291E+07 9.82380E-06
 -1      1454-6.92751E-07 1.17737E+07 1.20660E-05
 -1      1463-7.87006E-08-9.15259E+05 1.73574E+07
 -1      1465 1.59425E-07-9.15259E+05-1.73574E+07
 -1      1466-5.22837E-06-1.03489E+07 9.45488E-06
 -1      1468-5.09729E-06 1.17657E+07 1.23433E-05
 -1      1477-1.43498E-06-8.76992E+05 1.73925E+07
 -1      1479-1.07698E-06-8.76992E+05-1.73925E+07
 -1      1480-6.68758E-06-1.04448E+07 8.85696E-06
 -1      1482-6.58650E-06 1.17144E+07 7.93899E-06
 -1      1491 3.59108E-07 2.15853E+05-1.10453E-06
 -1      1493 8.26698E-07 2.15853E+05 6.23570E-07
 -1      1494 1.69197E-06 4.19608E+05-9.11064E-07
 -1      1496 1.71810E-06 4.19608E+05 4.02013E-08
 -1      1497-1.57720E-06 2.15853E+05-2.56535E-06
 -1      1499-9.58665E-07 2.15853E+05-2.73927E-06
 -1      1500-3.37798E+03-5.91987E+03 1.31494E+04
 -1      1502-3.37798E+03-5.91987E+03 1.31494E+04
 -1      1503-5.67273E+03-1.43112E+04 2.77861E+04
 -1      1505-5.67273E+03-1.43112E+04 2.77861E+04
 -1      1506-6.55552E+03-2.48208E+04 4.22753E+04
 -1      1508-6.55552E+03-2.48208E+04 4.22753E+04
 -1      1509-6.19402E+03-3.54598E+04 5.61043E+04
 -1      1511-6.19402E+03-3.54598E+04 5.61043E+04
 -1      1512-4.92398E+03-4.44437E+04 6.94088E+04
 -1      1514-4.92398E+03-4.44437E+04 6.94088E+04
 -1      1515-3.19278E+03-5.06756E+04 8.20080E+04
 -1      1517-3.19278E+03-5.06756E+04 8.20080E+04
 -1      1518-1.49083E+03-5.38372E+04 9.39661E+04
 -1      1520-1.49083E+03-5.38372E+04 9.39661E+04
 -1      1521-2.62833E+02-5.44033E+04 1.05332E+05
 -1      1523-2.62833E+02-5.44033E+04 1.05332E+05
 -1      1524 1.84255E+02-5.34941E+04 1.16253E+05
 -1      1526 1.84255E+02-5.34941E+04 1.16253E+05
 -1      1527-2.59084E+02-5.25821E+04 1.26890E+05
 -1      1529-2.59084E+02-5.25821E+04 1.26890E+05
 -1      1530-1.48461E+03-5.31367E+04 1.37406E+05
 -1      1532-1.48461E+03-5.31367E+04 1.37406E+05
 -1      1533-3.19499E+03-5.62707E+04 1.47927E+05
 -1      1535-3.19499E+03-5.62707E+04 1.47927E+05
 -1      1536-4.97444E+03-6.24737E+04 1.58517E+05
 -1      1538-4.97444E+03-6.24737E+04 1.58517E+05
 -1      1539-6.38539E+03-7.14911E+04 1.69162E+05
 -1      1541-6.38539E+03-7.14911E+04 1.69162E+05
 -1      1542-7.07016E+03-8.23748E+04 1.79780E+05
 -1      1544-7.07016E+03-8.23748E+04 1.79780E+05
 -1      1545-6.83363E+03-9.36946E+04 1.90228E+05
 -1      1547-6.83363E+03-9.36946E+04 1.90228E+05
 -1      1548-5.68912E+03-1.03861E+05 2.00336E+05
 -1      1550-5.68912E+03-1.03861E+05 2.00336E+05
 -1      1551-3.85613E+03-1.11485E+05 2.09938E+05
 -1      1553-3.85613E+03-1.11485E+05 2.09938E+05
 -1      1554-1.71144E+03-1.15696E+05 2.18897E+05
 -1      1556-1.71144E+03-1.15696E+05 2.18897E+05
 -1      1557 2.95986E+02-1.16341E+05 2.27128E+05
 -1      1559 2.95986E+02-1.16341E+05 2.27128E+05
 -1      1560 1.74600E+03-1.14020E+05 2.34601E+05
 -1      1562 1.74600E+03-1.14020E+05 2.34601E+05
 -1      1563 2.34146E+03-1.09955E+05 2.41335E+05
 -1      1565 2.34146E+03-1.09955E+05 2.41335E+05
 -1      1566 1.97346E+03-1.05718E+05 2.47377E+05
 -1      1568 1.97346E+03-1.05718E+05 2.47377E+05
 -1      1569 7.42319E+02-1.02883E+05 2.52776E+05
 -1      1571 7.42319E+02-1.02883E+05 2.52776E+05
 -1      1572-1.07106E+03-1.02683E+05 2.57555E+05
 -1      1574-1.07106E+03-1.02683E+05 2.57555E+05
 -1      1575-3.07827E+03-1.05759E+05 2.61695E+05
 -1      1577-3.07827E+03-1.05759E+05 2.61695E+05
 -1      1578-4.88541E+03-1.12049E+05 2.65125E+05
 -1      1580-4.88541E+03-1.12049E+05 2.65125E+05
 -1      1581-6.20435E+03-1.20870E+05 2.67727E+05
 -1      1583-6.20435E+03-1.20870E+05 2.67727E+05
 -1      1584-6.94981E+03-1.31167E+05 2.69371E+05
 -1      1586-6.94981E+03-1.31167E+05 2.69371E+05
 -1      1587-4.78520E+03-1.36454E+05 1.66984E+05
 -1      1589-4.78520E+03-1.36454E+05 1.66984E+05
 -1      1590 1.08571E+06 9.23572E+04 1.27854E+05
 -1      1592 4.77239E+05 2.42471E+05 1.27854E+05
 -1      1593 4.78520E+03-1.36454E+05-1.66984E+05
 -1      1595 4.78520E+03-1.36454E+05-1.66984E+05
 -1      1596 3.37798E+03-5.91987E+03-1.31494E+04
 -1      1598 3.37798E+03-5.91987E+03-1.31494E+04
 -1      1599 5.67273E+03-1.43112E+04-2.77861E+04
 -1      1601 5.67273E+03-1.43112E+04-2.77861E+04
 -1      1602 6.55552E+03-2.48208E+04-4.22753E+04
 -1      1604 6.55552E+03-2.48208E+04-4.22753E+04
 -1      1605 6.19402E+03-3.54598E+04-5.61043E+04
 -1      1607 6.19402E+03-3.54598E+04-5.61043E+04
 -1      1608 4.92398E+03-4.44437E+04-6.94088E+04
 -1      1610 4.92398E+03-4.44437E+04-6.94088E+04
 -1      1611 3.19278E+03-5.06756E+04-8.20080E+04
 -1      1613 3.19278E+03-5.06756E+04-8.20080E+04
 -1      1614 1.49083E+03-5.38372E+04-9.39661E+04
 -1      1616 1.49083E+03-5.38372E+04-9.39661E+04
 -1      1617 2.62833E+02-5.44033E+04-1.05332E+05
 -1      1619 2.62833E+02-5.44033E+04-1.05332E+05
 -1      1620-1.84255E+02-5.34941E+04-1.16253E+05
 -1      1622-1.84255E+02-5.34941E+04-1.16253E+05
 -1      1623 2.59084E+02-5.25821E+04-1.26890E+05
 -1      1625 2.59084E+02-5.25821E+04-1.26890E+05
 -1      1626 1.48461E+03-5.31367E+04-1.37406E+05
 -1      1628 1.48461E+03-5.31367E+04-1.37406E+05
 -1      1629 3.19499E+03-5.62707E+04-1.47927E+05
 -1      1631 3.19499E+03-5.62707E+04-1.47927E+05
 -1      1632 4.97444E+03-6.24737E+04-1.58517E+05
 -1      1634 4.97444E+03-6.24737E+04-1.58517E+05
 -1      1635 6.38539E+03-7.14911E+04-1.69162E+05
 -1      1637 6.38539E+03-7.14911E+04-1.69162E+05
 -1      1638 7.07016E+03-8.23748E+04-1.79780E+05
 -1      1640 7.07016E+03-8.23748E+04-1.79780E+05
 -1      1641 6.83363E+03-9.36946E+04-1.90228E+05
 -1      1643 6.83363E+03-9.36946E+04-1.90228E+05
 -1      1644 5.68912E+03-1.03861E+05-2.00336E+05
 -1      1646 5.68912E+03-1.03861E+05-2.00336E+05
 -1      1647 3.85613E+03-1.11485E+05-2.09938E+05
 -1      1649 3.85613E+03-1.11485E+05-2.09938E+05
 -1      1650 1.71144E+03-1.15696E+05-2.18897E+05
 -1      1652 1.71144E+03-1.15696E+05-2.18897E+05
 -1      1653-2.95986E+02-1.16341E+05-2.27128E+05
 -1      1655-2.95986E+02-1.16341E+05-2.27128E+05
 -1      1656-1.74600E+03-1.14020E+05-2.34601E+05
 -1      1658-1.74600E+03-1.14020E+05-2.34601E+05
 -1      1659-2.34146E+03-1.09955E+05-2.41335E+05
 -1      1661-2.34146E+03-1.09955E+05-2.41335E+05
 -1      1662-1.97346E+03-1.05718E+05-2.47377E+05
 -1      1664-1.97346E+03-1.05718E+05-2.47377E+05
 -1      1665-7.42319E+02-1.02883E+05-2.52776E+05
 -1      1667-7.42319E+02-1.02883E+05-2.52776E+05
 -1      1668 1.07106E+03-1.02683E+05-2.57555E+05
 -1      1670 1.07106E+03-1.02683E+05-2.57555E+05
 -1      1671 3.07827E+03-1.05759E+05-2.61695E+05
 -1      1673 3.07827E+03-1.05759E+05-2.61695E+05
 -1      1674 4.88541E+03-1.12049E+05-2.65125E+05
 -1      1676 4.88541E+03-1.12049E+05-2.65125E+05
 -1      1677 6.20435E+03-1.20870E+05-2.67727E+05
 -1      1679 6.20435E+03-1.20870E+05-2.67727E+05
 -1      1680 6.94981E+03-1.31167E+05-2.69371E+05
 -1      1682 6.94981E+03-1.31167E+05-2.69371E+05
 -1      1683-1.08571E+06 9.23572E+04-1.27854E+05
 -1      1685-4.77239E+05 2.42471E+05-1.27854E+05
 -1      1686 4.42091E+03-1.16197E+04 1.62947E+04
 -1      1688 4.42091E+03-1.16197E+04 1.62947E+04
 -1      1689 7.48667E+03-2.84450E+04 3.45890E+04
 -1      1691 7.48667E+03-2.84450E+04 3.45890E+04
 -1      1692 8.68050E+03-4.96134E+04 5.26532E+04
 -1      1694 8.68050E+03-4.96134E+04 5.26532E+04
 -1      1695 8.21056E+03-7.09792E+04 6.98192E+04
 -1      1697 8.21056E+03-7.09792E+04 6.98192E+04
 -1      1698 6.54265E+03-8.90026E+04 8.62812E+04
 -1      1700 6.54265E+03-8.90026E+04 8.62812E+04
 -1      1701 4.25894E+03-1.01481E+05 1.01792E+05
 -1      1703 4.25894E+03-1.01481E+05 1.01792E+05
 -1      1704 2.01260E+03-1.07768E+05 1.16445E+05
 -1      1706 2.01260E+03-1.07768E+05 1.16445E+05
 -1      1707 3.91238E+02-1.08830E+05 1.30311E+05
 -1      1709 3.91238E+02-1.08830E+05 1.30311E+05
 -1      1710-1.99417E+02-1.06919E+05 1.43601E+05
 -1      1712-1.99417E+02-1.06919E+05 1.43601E+05
 -1      1713 3.86251E+02-1.05005E+05 1.56542E+05
 -1      1715 3.86251E+02-1.05005E+05 1.56542E+05
 -1      1716 2.00491E+03-1.06043E+05 1.69370E+05
 -1      1718 2.00491E+03-1.06043E+05 1.69370E+05
 -1      1719 4.26406E+03-1.12276E+05 1.82262E+05
 -1      1721 4.26406E+03-1.12276E+05 1.82262E+05
 -1      1722 6.61411E+03-1.24690E+05 1.95311E+05
 -1      1724 6.61411E+03-1.24690E+05 1.95311E+05
 -1      1725 8.47698E+03-1.42773E+05 2.08501E+05
 -1      1727 8.47698E+03-1.42773E+05 2.08501E+05
 -1      1728 9.37993E+03-1.64616E+05 2.21712E+05
 -1      1730 9.37993E+03-1.64616E+05 2.21712E+05
 -1      1731 9.06523E+03-1.87341E+05 2.34749E+05
 -1      1733 9.06523E+03-1.87341E+05 2.34749E+05
 -1      1734 7.55046E+03-2.07747E+05 2.47373E+05
 -1      1736 7.55046E+03-2.07747E+05 2.47373E+05
 -1      1737 5.12584E+03-2.23040E+05 2.59354E+05
 -1      1739 5.12584E+03-2.23040E+05 2.59354E+05
 -1      1740 2.28931E+03-2.31467E+05 2.70505E+05
 -1      1742 2.28931E+03-2.31467E+05 2.70505E+05
 -1      1743-3.65675E+02-2.32718E+05 2.80714E+05
 -1      1745-3.65675E+02-2.32718E+05 2.80714E+05
 -1      1746-2.28377E+03-2.28002E+05 2.89950E+05
 -1      1748-2.28377E+03-2.28002E+05 2.89950E+05
 -1      1749-3.07214E+03-2.19779E+05 2.98251E+05
 -1      1751-3.07214E+03-2.19779E+05 2.98251E+05
 -1      1752-2.58665E+03-2.11212E+05 3.05696E+05
 -1      1754-2.58665E+03-2.11212E+05 3.05696E+05
 -1      1755-9.59560E+02-2.05468E+05 3.12364E+05
 -1      1757-9.59560E+02-2.05468E+05 3.12364E+05
 -1      1758 1.43829E+03-2.05030E+05 3.18300E+05
 -1      1760 1.43829E+03-2.05030E+05 3.18300E+05
 -1      1761 4.09435E+03-2.11182E+05 3.23481E+05
 -1      1763 4.09435E+03-2.11182E+05 3.23481E+05
 -1      1764 6.48920E+03-2.23797E+05 3.27813E+05
 -1      1766 6.48920E+03-2.23797E+05 3.27813E+05
 -1      1767 8.24314E+03-2.41495E+05 3.31127E+05
 -1      1769 8.24314E+03-2.41495E+05 3.31127E+05
 -1      1770 9.24809E+03-2.62141E+05 3.33235E+05
 -1      1772 9.24809E+03-2.62141E+05 3.33235E+05
 -1      1773-4.42091E+03-1.16197E+04-1.62947E+04
 -1      1775-4.42091E+03-1.16197E+04-1.62947E+04
 -1      1776-7.48667E+03-2.84450E+04-3.45890E+04
 -1      1778-7.48667E+03-2.84450E+04-3.45890E+04
 -1      1779-8.68050E+03-4.96134E+04-5.26532E+04
 -1      1781-8.68050E+03-4.96134E+04-5.26532E+04
 -1      1782-8.21056E+03-7.09792E+04-6.98192E+04
 -1      1784-8.21056E+03-7.09792E+04-6.98192E+04
 -1      1785-6.54265E+03-8.90026E+04-8.62812E+04
 -1      1787-6.54265E+03-8.90026E+04-8.62812E+04
 -1      1788-4.25894E+03-1.01481E+05-1.01792E+05
 -1      1790-4.25894E+03-1.01481E+05-1.01792E+05
 -1      1791-2.01260E+03-1.07768E+05-1.16445E+05
 -1      1793-2.01260E+03-1.07768E+05-1.16445E+05
 -1      1794-3.91238E+02-1.08830E+05-1.30311E+05
 -1      1796-3.91238E+02-1.08830E+05-1.30311E+05
 -1      1797 1.99417E+02-1.06919E+05-1.43601E+05
 -1      1799 1.99417E+02-1.06919E+05-1.43601E+05
 -1      1800-3.86251E+02-1.05005E+05-1.56542E+05
 -1      1802-3.86251E+02-1.05005E+05-1.56542E+05
 -1      1803-2.00491E+03-1.06043E+05-1.69370E+05
 -1      1805-2.00491E+03-1.06043E+05-1.69370E+05
 -1      1806-4.26406E+03-1.12276E+05-1.82262E+05
 -1      1808-4.26406E+03-1.12276E+05-1.82262E+05
 -1      1809-6.61411E+03-1.24690E+05-1.95311E+05
 -1      1811-6.61411E+03-1.24690E+05-1.95311E+05
 -1      1812-8.47698E+03-1.42773E+05-2.08501E+05
 -1      1814-8.47698E+03-1.42773E+05-2.08501E+05
 -1      1815-9.37993E+03-1.64616E+05-2.21712E+05
 -1      1817-9.37993E+03-1.64616E+05-2.21712E+05
 -1      1818-9.06523E+03-1.87341E+05-2.34749E+05
 -1      1820-9.06523E+03-1.87341E+05-2.34749E+05
 -1      1821-7.55046E+03-2.07747E+05-2.47373E+05
 -1      1823-7.55046E+03-2.07747E+05-2.47373E+05
 -1      1824-5.12584E+03-2.23040E+05-2.59354E+05
 -1      1826-5.12584E+03-2.23040E+05-2.59354E+05
 -1      1827-2.28931E+03-2.31467E+05-2.70505E+05
 -1      1829-2.28931E+03-2.31467E+05-2.70505E+05
 -1      1830 3.65675E+02-2.32718E+05-2.80714E+05
 -1      1832 3.65675E+02-2.32718E+05-2.80714E+05
 -1      1833 2.28377E+03-2.28002E+05-2.89950E+05
 -1      1835 2.28377E+03-2.28002E+05-2.89950E+05
 -1      1836 3.07214E+03-2.19779E+05-2.98251E+05
 -1      1838 3.07214E+03-2.19779E+05-2.98251E+05
 -1      1839 2.58665E+03-2.11212E+05-3.05696E+05
 -1      1841 2.58665E+03-2.11212E+05-3.05696E+05
 -1      1842 9.59560E+02-2.05468E+05-3.12364E+05
 -1      1844 9.59560E+02-2.05468E+05-3.12364E+05
 -1      1845-1.43829E+03-2.05030E+05-3.18300E+05
 -1      1847-1.43829E+03-2.05030E+05-3.18300E+05
 -1      1848-4.09435E+03-2.11182E+05-3.23481E+05
 -1      1850-4.09435E+03-2.11182E+05-3.23481E+05
 -1      1851-6.48920E+03-2.23797E+05-3.27813E+05
 -1      1853-6.48920E+03-2.23797E+05-3.27813E+05
 -1      1854-8.24314E+03-2.41495E+05-3.31127E+05
 -1      1856-8.24314E+03-2.41495E+05-3.31127E+05
 -1      1857-9.24809E+03-2.62141E+05-3.33235E+05
 -1      1859-9.24809E+03-2.62141E+05-3.33235E+05
 -1      1860-8.75996E-07 1.82823E+04 1.67488E-06
 -1      1862-7.43894E-07 1.82823E+04 1.32092E-06
 -1      1863-2.23696E-06 3.15172E+04-6.85453E-07
 -1      1865-2.27354E-06 3.15172E+04-9.57720E-07
 -1      1866-2.81924E-06 3.90751E+04-7.32936E-07
 -1      1868-2.36724E-06 3.90751E+04-1.27462E-06
 -1      1869 2.52571E-06 4.73848E+04-5.40269E-07
 -1      1871 3.28962E-06 4.73848E+04-1.90329E-06
 -1      1872 6.68633E-06 6.22694E+04 2.08631E-07
 -1      1874 6.73767E-06 6.22694E+04-1.70672E-06
 -1      1875 5.26248E-06 8.68997E+04 5.62766E-07
 -1      1877 5.38621E-06 8.68997E+04 2.24522E-07
 -1      1878 6.31744E-07 1.22181E+05 1.09414E-06
 -1      1880 6.56443E-07 1.22181E+05 1.17258E-06
 -1      1881-3.45836E-06 1.66004E+05 2.67370E-06
 -1      1883-3.41370E-06 1.66004E+05 1.58757E-06
 -1      1884 7.10566E-07 2.14209E+05-3.03285E-06
 -1      1886 4.29590E-07 2.14209E+05-3.35342E-06
 -1      1887 3.29992E-06 2.61326E+05-4.20111E-06
 -1      1889 3.12668E-06 2.61326E+05-4.89401E-06
 -1      1890 9.93051E-07 3.01972E+05-4.66389E-07
 -1      1892 1.53179E-06 3.01972E+05 9.62697E-07
 -1      1893 1.48650E-07 3.32014E+05 1.88651E-07
 -1      1895 7.32992E-07 3.32014E+05 1.45208E-06
 -1      1896 1.91743E-06 3.49540E+05 2.16793E-06
 -1      1898 2.12069E-06 3.49540E+05-4.93499E-07
 -1      1899-7.89457E-07 3.55271E+05 3.08150E-06
 -1      1901-1.27364E-06 3.55271E+05 1.46138E-06
 -1      1902-6.18942E-06 3.52389E+05 4.71446E-07
 -1      1904-5.20508E-06 3.52389E+05 5.77340E-07
 -1      1905-4.26980E-06 3.45800E+05-1.79088E-06
 -1      1907-4.66554E-06 3.45800E+05-1.75337E-06
 -1      1908-1.60971E-06 3.40997E+05 1.43897E-07
 -1      1910-1.60950E-06 3.40997E+05 8.11116E-07
 -1      1911-4.24142E-06 3.42798E+05 1.00323E-06
 -1      1913-4.10841E-06 3.42798E+05 5.78795E-07
 -1      1914-6.47026E-06 3.54232E+05-2.13650E-06
 -1      1916-6.69638E-06 3.54232E+05-2.62228E-06
 -1      1917-5.67287E-06 3.75843E+05-3.37525E-06
 -1      1919-6.21017E-06 3.75843E+05-3.11850E-06
 -1      1920-1.13820E-06 4.05552E+05-2.52244E-06
 -1      1922-2.02249E-06 4.05552E+05 1.15561E-06
 -1      1923 1.70265E-06 4.39123E+05 1.10737E-06
 -1      1925 1.44078E-06 4.39123E+05 1.52069E-06
 -1      1926 2.25418E-06 4.71114E+05 1.52102E-06
 -1      1928 1.98688E-06 4.71114E+05-5.80658E-07
 -1      1929 3.43390E-06 4.96099E+05 9.04631E-07
 -1      1931 2.71182E-06 4.96099E+05-3.29088E-06
 -1      1932 2.94026E-06 5.09872E+05 2.12848E-06
 -1      1934 1.59693E-06 5.09872E+05 8.57010E-07
 -1      1935 8.45307E-07 5.10354E+05 5.08430E-06
 -1      1937-7.16886E-08 5.10354E+05 3.77095E-06
 -1      1938 5.09393E-07 4.97972E+05 1.68129E-06
 -1      1940-6.81966E-07 4.97972E+05-5.79119E-07
 -1      1941-2.48386E-06 4.75439E+05 2.63235E-06
 -1      1943-2.71181E-06 4.75439E+05 2.37616E-06
 -1      1944-3.95130E-06 4.46904E+05 2.78650E-06
 -1      1946-2.10386E-06 4.46904E+05 6.39162E-06
 -1      1947-3.61715E-06 3.57612E+04-2.78183E-06
 -1      1949-3.18360E-06 3.57612E+04-3.33121E-06
 -1      1950-1.66390E-06 6.77538E+04-6.24552E-06
 -1      1952-1.34537E-06 6.77538E+04-6.98237E-06
 -1      1953-1.77990E-06 9.44437E+04-7.58388E-07
 -1      1955-1.30336E-06 9.44437E+04-1.25141E-06
 -1      1956-1.16233E-06 1.22234E+05 1.98366E-06
 -1      1958-4.20952E-07 1.22234E+05 7.28527E-07
 -1      1959 1.30128E-06 1.57307E+05-1.38374E-06
 -1      1961 1.77883E-06 1.57307E+05-3.40340E-06
 -1      1962 8.43845E-07 2.02848E+05-4.19690E-06
 -1      1964 1.16755E-06 2.02848E+05-4.53631E-06
 -1      1965 2.86680E-06 2.59728E+05-5.34876E-06
 -1      1967 2.64794E-06 2.59728E+05-7.01472E-06
 -1      1968 4.40012E-06 3.25545E+05 2.07132E-07
 -1      1970 4.25362E-06 3.25545E+05-2.61251E-06
 -1      1971 2.87334E-06 3.95727E+05 2.37132E-06
 -1      1973 2.26289E-06 3.95727E+05 1.09115E-06
 -1      1974 2.55995E-06 4.64291E+05-1.45638E-06
 -1      1976 2.74519E-06 4.64291E+05 1.50100E-06
 -1      1977 3.09148E-06 5.25362E+05-1.66439E-06
 -1      1979 4.13527E-06 5.25362E+05-4.34462E-07
 -1      1980 1.69637E-06 5.74413E+05-3.26127E-06
 -1      1982 2.04705E-06 5.74413E+05-3.34224E-06
 -1      1983 5.85450E-07 6.09315E+05 6.41492E-07
 -1      1985-9.86161E-07 6.09315E+05-2.16773E-06
 -1      1986-1.92000E-06 6.30781E+05 4.04895E-06
 -1      1988-3.06144E-06 6.30781E+05 2.03573E-06
 -1      1989-5.41912E-06 6.42181E+05 1.06224E-06
 -1      1991-6.71996E-06 6.42181E+05 5.15378E-07
 -1      1992-5.32286E-06 6.48748E+05-1.81744E-06
 -1      1994-7.83503E-06 6.48748E+05-2.67635E-06
 -1      1995-2.02559E-06 6.56357E+05-3.11653E-06
 -1      1997-3.42761E-06 6.56357E+05-3.04085E-06
 -1      1998 2.08716E-06 6.70164E+05-4.24093E-06
 -1      2000 2.17267E-06 6.70164E+05-4.08659E-06
 -1      2001-1.35353E-07 6.93414E+05-3.70178E-06
 -1      2003-2.37336E-07 6.93414E+05-4.34925E-06
 -1      2004-1.93225E-06 7.26680E+05-1.35334E-06
 -1      2006-2.10962E-06 7.26680E+05 1.31149E-07
 -1      2007 2.25410E-06 7.67727E+05 1.17093E-06
 -1      2009 8.46705E-07 7.67727E+05 1.70563E-07
 -1      2010 3.69467E-06 8.12005E+05 2.45546E-06
 -1      2012 3.07947E-06 8.12005E+05-1.40702E-07
 -1      2013 2.43019E-06 8.53672E+05-2.94669E-07
 -1      2015 1.77177E-06 8.53672E+05-9.04467E-07
 -1      2016 3.13465E-06 8.86917E+05-3.11485E-06
 -1      2018 2.51490E-06 8.86917E+05-5.11937E-06
 -1      2019 3.87390E-06 9.07245E+05-5.01240E-06
 -1      2021 2.90744E-06 9.07245E+05-6.64151E-06
 -1      2022 3.09450E-06 9.12465E+05-4.00982E-06
 -1      2024 1.85328E-06 9.12465E+05-4.82152E-06
 -1      2025 1.82572E-06 9.03101E+05-7.05875E-06
 -1      2027 1.01206E-06 9.03101E+05-5.42474E-06
 -1      2028-7.92974E-07 8.82169E+05-6.04163E-06
 -1      2030-1.43185E-06 8.82169E+05-3.06965E-06
 -1      2031-7.76070E-07 8.54272E+05-4.18467E-06
 -1      2033-6.06661E-07 8.54272E+05 5.71212E-07
 -1      2034 5.55622E-06 1.82823E+04-4.78842E-06
 -1      2036 6.17640E-06 1.82823E+04-5.01622E-06
 -1      2037 4.45282E-06 3.15172E+04-5.03169E-06
 -1      2039 4.85942E-06 3.15172E+04-5.71409E-06
 -1      2040-2.74218E-06 3.90751E+04 2.01489E-06
 -1      2042-2.54429E-06 3.90751E+04 1.19148E-06
 -1      2043-4.47100E-06 4.73848E+04 4.85103E-06
 -1      2045-3.88038E-06 4.73848E+04 3.34234E-06
 -1      2046-3.07499E-06 6.22694E+04 7.12113E-07
 -1      2048-2.40712E-06 6.22694E+04-3.06475E-06
 -1      2049-2.26824E-06 8.68997E+04-1.60649E-06
 -1      2051-2.07509E-06 8.68997E+04-2.81988E-06
 -1      2052 1.63719E-06 1.22181E+05-2.86577E-06
 -1      2054 1.10044E-06 1.22181E+05-4.77649E-06
 -1      2055 2.57988E-06 1.66004E+05-4.26530E-06
 -1      2057 2.63631E-06 1.66004E+05-7.67216E-06
 -1      2058 6.32299E-07 2.14209E+05-1.68764E-06
 -1      2060 2.33104E-07 2.14209E+05-2.35146E-06
 -1      2061 4.00038E-06 2.61326E+05 2.38069E-08
 -1      2063 4.81983E-06 2.61326E+05 2.75113E-06
 -1      2064 6.28507E-06 3.01972E+05-8.01112E-07
 -1      2066 6.54884E-06 3.01972E+05 2.39396E-06
 -1      2067-5.74696E-08 3.32014E+05-1.36855E-06
 -1      2069-2.46839E-07 3.32014E+05-1.81483E-06
 -1      2070-2.11147E-06 3.49540E+05-7.73201E-07
 -1      2072-2.51201E-06 3.49540E+05-2.17647E-06
 -1      2073 2.68558E-07 3.55271E+05 1.48352E-06
 -1      2075-5.32232E-07 3.55271E+05 1.03565E-06
 -1      2076 2.09925E-06 3.52389E+05 1.61468E-06
 -1      2078 2.52621E-06 3.52389E+05 1.48776E-06
 -1      2079 4.82491E-06 3.45800E+05-9.24163E-07
 -1      2081 3.03477E-06 3.45800E+05-2.47351E-06
 -1      2082 5.45985E-06 3.40997E+05-4.86682E-06
 -1      2084 3.60582E-06 3.40997E+05-5.67869E-06
 -1      2085 5.57616E-06 3.42798E+05-2.94539E-06
 -1      2087 4.62761E-06 3.42798E+05-2.93817E-06
 -1      2088 1.51901E-06 3.54232E+05-1.19425E-06
 -1      2090 8.70812E-07 3.54232E+05 1.31611E-06
 -1      2091-1.76954E-06 3.75843E+05 4.51969E-06
 -1      2093-2.38548E-06 3.75843E+05 5.31429E-06
 -1      2094-1.77574E-06 4.05552E+05 4.38123E-06
 -1      2096-1.73175E-06 4.05552E+05 3.81433E-06
 -1      2097-4.36786E-06 4.39123E+05 2.84873E-06
 -1      2099-5.07248E-06 4.39123E+05 1.21717E-06
 -1      2100-4.62097E-06 4.71114E+05-1.53021E-07
 -1      2102-4.90146E-06 4.71114E+05-1.43416E-06
 -1      2103-1.75476E-07 4.96099E+05 5.83605E-07
 -1      2105-2.44823E-07 4.96099E+05-2.03067E-06
 -1      2106 1.50654E-06 5.09872E+05 3.88489E-07
 -1      2108 1.01018E-06 5.09872E+05-1.94441E-06
 -1      2109 1.10360E-06 5.10354E+05-1.16650E-06
 -1      2111 5.75297E-07 5.10354E+05-1.95698E-06
 -1      2112-6.55009E-07 4.97972E+05-7.49340E-06
 -1      2114-6.50407E-07 4.97972E+05-4.49911E-06
 -1      2115-5.85612E-06 4.75439E+05-6.10816E-06
 -1      2117-5.50235E-06 4.75439E+05-3.16875E-06
 -1      2118-5.90668E-06 4.46904E+05-2.02700E-06
 -1      2120-5.25694E-06 4.46904E+05-2.72201E-06
 -1      2121-4.42091E+03-1.16197E+04 1.62947E+04
 -1      2123-4.42091E+03-1.16197E+04 1.62947E+04
 -1      2124-7.48667E+03-2.84450E+04 3.45890E+04
 -1      2126-7.48667E+03-2.84450E+04 3.45890E+04
 -1      2127-8.68050E+03-4.96134E+04 5.26532E+04
 -1      2129-8.68050E+03-4.96134E+04 5.26532E+04
 -1      2130-8.21056E+03-7.09792E+04 6.98192E+04
 -1      2132-8.21056E+03-7.09792E+04 6.98192E+04
 -1      2133-6.54265E+03-8.90026E+04 8.62812E+04
 -1      2135-6.54265E+03-8.90026E+04 8.62812E+04
 -1      2136-4.25894E+03-1.01481E+05 1.01792E+05
 -1      2138-4.25894E+03-1.01481E+05 1.01792E+05
 -1      2139-2.01260E+03-1.07768E+05 1.16445E+05
 -1      2141-2.01260E+03-1.07768E+05 1.16445E+05
 -1      2142-3.91238E+02-1.08830E+05 1.30311E+05
 -1      2144-3.91238E+02-1.08830E+05 1.30311E+05
 -1      2145 1.99417E+02-1.06919E+05 1.43601E+05
 -1      2147 1.99417E+02-1.06919E+05 1.43601E+05
 -1      2148-3.86251E+02-1.05005E+05 1.56542E+05
 -1      2150-3.86251E+02-1.05005E+05 1.56542E+05
 -1      2151-2.00491E+03-1.06043E+05 1.69370E+05
 -1      2153-2.00491E+03-1.06043E+05 1.69370E+05
 -1      2154-4.26406E+03-1.12276E+05 1.82262E+05
 -1      2156-4.26406E+03-1.12276E+05 1.82262E+05
 -1      2157-6.61411E+03-1.24690E+05 1.95311E+05
 -1      2159-6.61411E+03-1.24690E+05 1.95311E+05
 -1      2160-8.47698E+03-1.42773E+05 2.08501E+05
 -1      2162-8.47698E+03-1.42773E+05 2.08501E+05
 -1      2163-9.37993E+03-1.64616E+05 2.21712E+05
 -1      2165-9.37993E+03-1.64616E+05 2.21712E+05
 -1      2166-9.06523E+03-1.87341E+05 2.34749E+05
 -1      2168-9.06523E+03-1.87341E+05 2.34749E+05
 -1      2169-7.55046E+03-2.07747E+05 2.47373E+05
 -1      2171-7.55046E+03-2.07747E+05 2.47373E+05
 -1      2172-5.12584E+03-2.23040E+05 2.59354E+05
 -1      2174-5.12584E+03-2.23040E+05 2.59354E+05
 -1      2175-2.28931E+03-2.31467E+05 2.70505E+05
 -1      2177-2.28931E+03-2.31467E+05 2.70505E+05
 -1      2178 3.65675E+02-2.32718E+05 2.80714E+05
 -1      2180 3.65675E+02-2.32718E+05 2.80714E+05
 -1      2181 2.28377E+03-2.28002E+05 2.89950E+05
 -1      2183 2.28377E+03-2.28002E+05 2.89950E+05
 -1      2184 3.07214E+03-2.19779E+05 2.98251E+05
 -1      2186 3.07214E+03-2.19779E+05 2.98251E+05
 -1      2187 2.58665E+03-2.11212E+05 3.05696E+05
 -1      2189 2.58665E+03-2.11212E+05 3.05696E+05
 -1      2190 9.59560E+02-2.05468E+05 3.12364E+05
 -1      2192 9.59560E+02-2.05468E+05 3.12364E+05
 -1      2193-1.43829E+03-2.05030E+05 3.18300E+05
 -1      2195-1.43829E+03-2.05030E+05 3.18300E+05
 -1      2196-4.09435E+03-2.11182E+05 3.23481E+05
 -1      2198-4.09435E+03-2.11182E+05 3.23481E+05
 -1      2199-6.48920E+03-2.23797E+05 3.27813E+05
 -1      2201-6.48920E+03-2.23797E+05 3.27813E+05
 -1      2202-8.24314E+03-2.41495E+05 3.31127E+05
 -1      2204-8.24314E+03-2.41495E+05 3.31127E+05
 -1      2205-9.24809E+03-2.62141E+05 3.33235E+05
 -1      2207-9.24809E+03-2.62141E+05 3.33235E+05
 -1      2208 4.42091E+03-1.16197E+04-1.62947E+04
 -1      2210 4.42091E+03-1.16197E+04-1.62947E+04
 -1      2211 7.48667E+03-2.84450E+04-3.45890E+04
 -1      2213 7.48667E+03-2.84450E+04-3.45890E+04
 -1      2214 8.68050E+03-4.96134E+04-5.26532E+04
 -1      2216 8.68050E+03-4.96134E+04-5.26532E+04
 -1      2217 8.21056E+03-7.09792E+04-6.98192E+04
 -1      2219 8.21056E+03-7.09792E+04-6.98192E+04
 -1      2220 6.54265E+03-8.90026E+04-8.62812E+04
 -1      2222 6.54265E+03-8.90026E+04-8.62812E+04
 -1      2223 4.25894E+03-1.01481E+05-1.01792E+05
 -1      2225 4.25894E+03-1.01481E+05-1.01792E+05
 -1      2226 2.01260E+03-1.07768E+05-1.16445E+05
 -1      2228 2.01260E+03-1.07768E+05-1.16445E+05
 -1      2229 3.91238E+02-1.08830E+05-1.30311E+05
 -1      2231 3.91238E+02-1.08830E+05-1.30311E+05
 -1      2232-1.99417E+02-1.06919E+05-1.43601E+05
 -1      2234-1.99417E+02-1.06919E+05-1.43601E+05
 -1      2235 3.86251E+02-1.05005E+05-1.56542E+05
 -1      2237 3.86251E+02-1.05005E+05-1.56542E+05
 -1      2238 2.00491E+03-1.06043E+05-1.69370E+05
 -1      2240 2.00491E+03-1.06043E+05-1.69370E+05
 -1      2241 4.26406E+03-1.12276E+05-1.82262E+05
 -1      2243 4.26406E+03-1.12276E+05-1.82262E+05
 -1      2244 6.61411E+03-1.24690E+05-1.95311E+05
 -1      2246 6.61411E+03-1.24690E+05-1.95311E+05
 -1      2247 8.47698E+03-1.42773E+05-2.08501E+05
 -1      2249 8.47698E+03-1.42773E+05-2.08501E+05
 -1      2250 9.37993E+03-1.64616E+05-2.21712E+05
 -1      2252 9.37993E+03-1.64616E+05-2.21712E+05
 -1      2253 9.06523E+03-1.87341E+05-2.34749E+05
 -1      2255 9.06523E+03-1.87341E+05-2.34749E+05
 -1      2256 7.55046E+03-2.07747E+05-2.47373E+05
 -1      2258 7.55046E+03-2.07747E+05-2.47373E+05
 -1      2259 5.12584E+03-2.23040E+05-2.59354E+05
 -1      2261 5.12584E+03-2.23040E+05-2.59354E+05
 -1      2262 2.28931E+03-2.31467E+05-2.70505E+05
 -1      2264 2.28931E+03-2.31467E+05-2.70505E+05
 -1      2265-3.65675E+02-2.32718E+05-2.80714E+05
 -1      2267-3.65675E+02-2.32718E+05-2.80714E+05
 -1      2268-2.28377E+03-2.28002E+05-2.89950E+05
 -1      2270-2.28377E+03-2.28002E+05-2.89950E+05
 -1      2271-3.07214E+03-2.19779E+05-2.98251E+05
 -1      2273-3.07214E+03-2.19779E+05-2.98251E+05
 -1      2274-2.58665E+03-2.11212E+05-3.05696E+05
 -1      2276-2.58665E+03-2.11212E+05-3.05696E+05
 -1      2277-9.59560E+02-2.05468E+05-3.12364E+05
 -1      2279-9.59560E+02-2.05468E+05-3.12364E+05
 -1      2280 1.43829E+03-2.05030E+05-3.18300E+05
 -1      2282 1.43829E+03-2.05030E+05-3.18300E+05
 -1      2283 4.09435E+03-2.11182E+05-3.23481E+05
 -1      2285 4.09435E+03-2.11182E+05-3.23481E+05
 -1      2286 6.48920E+03-2.23797E+05-3.27813E+05
 -1      2288 6.48920E+03-2.23797E+05-3.27813E+05
 -1      2289 8.24314E+03-2.41495E+05-3.31127E+05
 -1      2291 8.24314E+03-2.41495E+05-3.31127E+05
 -1      2292 9.24809E+03-2.62141E+05-3.33235E+05
 -1      2294 9.24809E+03-2.62141E+05-3.33235E+05
 -3
    1PSTEP                        72           1           1          
    1PGM                1.000000E+00                                  
    1PGK                1.866135E+07                                  
    1PHID                         -1                                  
    1PSUBC                         0                                  
    1PMODE                        18                                  
  100CL  118 687.5299308         930                     2   18MODAL      1
 -4  ERROR       1    1
 -5  STR(%)      1    1    0    0
 -1       404 0.00000E+00
 -1       406 0.00000E+00
 -1       407 0.00000E+00
 -1       409 0.00000E+00
 -1       410 0.00000E+00
 -1       412 0.00000E+00
 -1       413 0.00000E+00
 -1       415 0.00000E+00
 -1       424 0.00000E+00
 -1       426 0.00000E+00
 -1       427 0.00000E+00
 -1       429 0.00000E+00
 -1       438 0.00000E+00
 -1       440 0.00000E+00
 -1       441 0.00000E+00
 -1       443 0.00000E+00
 -1       444 0.00000E+00
 -1       446 0.00000E+00
 -1       447 0.00000E+00
 -1       449 0.00000E+00
 -1       458 0.00000E+00
 -1       460 0.00000E+00
 -1       461 0.00000E+00
 -1       463 0.00000E+00
 -1       472 0.00000E+00
 -1       474 0.00000E+00
 -1       475 0.00000E+00
 -1       477 0.00000E+00
 -1       478 0.00000E+00
 -1       480 0.00000E+00
 -1       481 0.00000E+00
 -1       483 0.00000E+00
 -1       484 0.00000E+00
 -1       486 0.00000E+00
 -1       487 0.00000E+00
 -1       489 0.00000E+00
 -1       490 0.00000E+00
 -1       492 0.00000E+00
 -1       493 0.00000E+00
 -1       495 0.00000E+00
 -1       496 0.00000E+00
 -1       498 0.00000E+00
 -1       499 0.00000E+00
 -1       501 0.00000E+00
 -1       502 0.00000E+00
 -1       504 0.00000E+00
 -1       505 0.00000E+00
 -1       507 0.00000E+00
 -1       508 0.00000E+00
 -1       510 0.00000E+00
 -1       511 0.00000E+00
 -1       513 0.00000E+00
 -1       514 0.00000E+00
 -1       516 0.00000E+00
 -1       517 0.00000E+00
 -1       519 0.00000E+00
 -1       520 0.00000E+00
 -1       522 0.00000E+00
 -1       523 0.00000E+00
 -1       525 0.00000E+00
 -1       526 0.00000E+00
 -1       528 0.00000E+00
 -1       529 0.00000E+00
 -1       531 0.00000E+00
 -1       532 0.00000E+00
 -1       534 0.00000E+00
 -1       535 0.00000E+00
 -1       537 0.00000E+00
 -1       538 0.00000E+00
 -1       540 0.00000E+00
 -1       541 0.00000E+00
 -1       543 0.00000E+00
 -1       544 0.00000E+00
 -1       546 0.00000E+00
 -1       547 0.00000E+00
 -1       549 0.00000E+00
 -1       550 0.00000E+00
 -1       552 0.00000E+00
 -1       553 0.00000E+00
 -1       555 0.00000E+00
 -1       556 0.00000E+00
 -1       558 0.00000E+00
 -1       559 0.00000E+00
 -1       561 0.00000E+00
 -1       562 0.00000E+00
 -1       564 0.00000E+00
 -1       565 0.00000E+00
 -1       567 0.00000E+00
 -1       568 0.00000E+00
 -1       570 0.00000E+00
 -1       571 0.00000E+00
 -1       573 0.00000E+00
 -1       574 0.00000E+00
 -1       576 0.00000E+00
 -1       577 0.00000E+00
 -1       579 0.00000E+00
 -1       588 0.00000E+00
 -1       590 0.00000E+00
 -1       591 0.00000E+00
 -1       593 0.00000E+00
 -1       602 0.00000E+00
 -1       604 0.00000E+00
 -1       605 0.00000E+00
 -1       607 0.00000E+00
 -1       616 0.00000E+00
 -1       618 0.00000E+00
 -1       619 0.00000E+00
 -1       621 0.00000E+00
 -1       630 0.00000E+00
 -1       632 0.00000E+00
 -1       633 0.00000E+00
 -1       635 0.00000E+00
 -1       644 0.00000E+00
 -1       646 0.00000E+00
 -1       647 0.00000E+00
 -1       649 0.00000E+00
 -1       658 0.00000E+00
 -1       660 0.00000E+00
 -1       661 0.00000E+00
 -1       663 0.00000E+00
 -1       672 0.00000E+00
 -1       674 0.00000E+00
 -1       675 0.00000E+00
 -1       677 0.00000E+00
 -1       686 0.00000E+00
 -1       688 0.00000E+00
 -1       689 0.00000E+00
 -1       691 0.00000E+00
 -1       700 0.00000E+00
 -1       702 0.00000E+00
 -1       703 0.00000E+00
 -1       705 0.00000E+00
 -1       714 0.00000E+00
 -1       716 0.00000E+00
 -1       717 0.00000E+00
 -1       719 0.00000E+00
 -1       728 0.00000E+00
 -1       730 0.00000E+00
 -1       731 0.00000E+00
 -1       733 0.00000E+00
 -1       742 0.00000E+00
 -1       744 0.00000E+00
 -1       745 0.00000E+00
 -1       747 0.00000E+00
 -1       756 0.00000E+00
 -1       758 0.00000E+00
 -1       759 0.00000E+00
 -1       761 0.00000E+00
 -1       770 0.00000E+00
 -1       772 0.00000E+00
 -1       773 0.00000E+00
 -1       775 0.00000E+00
 -1       784 0.00000E+00
 -1       786 0.00000E+00
 -1       787 0.00000E+00
 -1       789 0.00000E+00
 -1       798 0.00000E+00
 -1       800 0.00000E+00
 -1       801 0.00000E+00
 -1       803 0.00000E+00
 -1       812 0.00000E+00
 -1       814 0.00000E+00
 -1       815 0.00000E+00
 -1       817 0.00000E+00
 -1       826 0.00000E+00
 -1       828 0.00000E+00
 -1       829 0.00000E+00
 -1       831 0.00000E+00
 -1       840 0.00000E+00
 -1       842 0.00000E+00
 -1       843 0.00000E+00
 -1       845 0.00000E+00
 -1       854 0.00000E+00
 -1       856 0.00000E+00
 -1       857 0.00000E+00
 -1       859 0.00000E+00
 -1       868 0.00000E+00
 -1       870 0.00000E+00
 -1       871 0.00000E+00
 -1       873 0.00000E+00
 -1       882 0.00000E+00
 -1       884 0.00000E+00
 -1       885 0.00000E+00
 -1       887 0.00000E+00
 -1       896 0.00000E+00
 -1       898 0.00000E+00
 -1       899 0.00000E+00
 -1       901 0.00000E+00
 -1       910 0.00000E+00
 -1       912 0.00000E+00
 -1       913 0.00000E+00
 -1       915 0.00000E+00
 -1       924 0.00000E+00
 -1       926 0.00000E+00
 -1       927 0.00000E+00
 -1       929 0.00000E+00
 -1       938 0.00000E+00
 -1       940 0.00000E+00
 -1       941 0.00000E+00
 -1       943 0.00000E+00
 -1       952 0.00000E+00
 -1       954 0.00000E+00
 -1       955 0.00000E+00
 -1       957 0.00000E+00
 -1       966 0.00000E+00
 -1       968 0.00000E+00
 -1       969 0.00000E+00
 -1       971 0.00000E+00
 -1       980 0.00000E+00
 -1       982 0.00000E+00
 -1       983 0.00000E+00
 -1       985 0.00000E+00
 -1       986 0.00000E+00
 -1       988 0.00000E+00
 -1       989 0.00000E+00
 -1       991 0.00000E+00
 -1       992 0.00000E+00
 -1       994 0.00000E+00
 -1       995 0.00000E+00
 -1       997 0.00000E+00
 -1       998 0.00000E+00
 -1      1000 0.00000E+00
 -1      1001 0.00000E+00
 -1      1003 0.00000E+00
 -1      1004 0.00000E+00
 -1      1006 0.00000E+00
 -1      1007 0.00000E+00
 -1      1009 0.00000E+00
 -1      1010 0.00000E+00
 -1      1012 0.00000E+00
 -1      1013 0.00000E+00
 -1      1015 0.00000E+00
 -1      1016 0.00000E+00
 -1      1018 0.00000E+00
 -1      1019 0.00000E+00
 -1      1021 0.00000E+00
 -1      1022 0.00000E+00
 -1      1024 0.00000E+00
 -1      1025 0.00000E+00
 -1      1027 0.00000E+00
 -1      1028 0.00000E+00
 -1      1030 0.00000E+00
 -1      1031 0.00000E+00
 -1      1033 0.00000E+00
 -1      1034 0.00000E+00
 -1      1036 0.00000E+00
 -1      1037 0.00000E+00
 -1      1039 0.00000E+00
 -1      1040 0.00000E+00
 -1      1042 0.00000E+00
 -1      1043 0.00000E+00
 -1      1045 0.00000E+00
 -1      1046 0.00000E+00
 -1      1048 0.00000E+00
 -1      1049 0.00000E+00
 -1      1051 0.00000E+00
 -1      1052 0.00000E+00
 -1      1054 0.00000E+00
 -1      1055 0.00000E+00
 -1      1057 0.00000E+00
 -1      1058 0.00000E+00
 -1      1060 0.00000E+00
 -1      1061 0.00000E+00
 -1      1063 0.00000E+00
 -1      1064 0.00000E+00
 -1      1066 0.00000E+00
 -1      1067 0.00000E+00
 -1      1069 0.00000E+00
 -1      1070 0.00000E+00
 -1      1072 0.00000E+00
 -1      1073 0.00000E+00
 -1      1075 0.00000E+00
 -1      1076 0.00000E+00
 -1      1078 0.00000E+00
 -1      1079 0.00000E+00
 -1      1081 0.00000E+00
 -1      1082 0.00000E+00
 -1      1084 0.00000E+00
 -1      1085 0.00000E+00
 -1      1087 0.00000E+00
 -1      1088 0.00000E+00
 -1      1090 0.00000E+00
 -1      1099 0.00000E+00
 -1      1101 0.00000E+00
 -1      1102 0.00000E+00
 -1      1104 0.00000E+00
 -1      1113 0.00000E+00
 -1      1115 0.00000E+00
 -1      1116 0.00000E+00
 -1      1118 0.00000E+00
 -1      1127 0.00000E+00
 -1      1129 0.00000E+00
 -1      1130 0.00000E+00
 -1      1132 0.00000E+00
 -1      1141 0.00000E+00
 -1      1143 0.00000E+00
 -1      1144 0.00000E+00
 -1      1146 0.00000E+00
 -1      1155 0.00000E+00
 -1      1157 0.00000E+00
 -1      1158 0.00000E+00
 -1      1160 0.00000E+00
 -1      1169 0.00000E+00
 -1      1171 0.00000E+00
 -1      1172 0.00000E+00
 -1      1174 0.00000E+00
 -1      1183 0.00000E+00
 -1      1185 0.00000E+00
 -1      1186 0.00000E+00
 -1      1188 0.00000E+00
 -1      1197 0.00000E+00
 -1      1199 0.00000E+00
 -1      1200 0.00000E+00
 -1      1202 0.00000E+00
 -1      1211 0.00000E+00
 -1      1213 0.00000E+00
 -1      1214 0.00000E+00
 -1      1216 0.00000E+00
 -1      1225 0.00000E+00
 -1      1227 0.00000E+00
 -1      1228 0.00000E+00
 -1      1230 0.00000E+00
 -1      1239 0.00000E+00
 -1      1241 0.00000E+00
 -1      1242 0.00000E+00
 -1      1244 0.00000E+00
 -1      1253 0.00000E+00
 -1      1255 0.00000E+00
 -1      1256 0.00000E+00
 -1      1258 0.00000E+00
 -1      1267 0.00000E+00
 -1      1269 0.00000E+00
 -1      1270 0.00000E+00
 -1      1272 0.00000E+00
 -1      1281 0.00000E+00
 -1      1283 0.00000E+00
 -1      1284 0.00000E+00
 -1      1286 0.00000E+00
 -1      1295 0.00000E+00
 -1      1297 0.00000E+00
 -1      1298 0.00000E+00
 -1      1300 0.00000E+00
 -1      1309 0.00000E+00
 -1      1311 0.00000E+00
 -1      1312 0.00000E+00
 -1      1314 0.00000E+00
 -1      1323 0.00000E+00
 -1      1325 0.00000E+00
 -1      1326 0.00000E+00
 -1      1328 0.00000E+00
 -1      1337 0.00000E+00
 -1      1339 0.00000E+00
 -1      1340 0.00000E+00
 -1      1342 0.00000E+00
 -1      1351 0.00000E+00
 -1      1353 0.00000E+00
 -1      1354 0.00000E+00
 -1      1356 0.00000E+00
 -1      1365 0.00000E+00
 -1      1367 0.00000E+00
 -1      1368 0.00000E+00
 -1      1370 0.00000E+00
 -1      1379 0.00000E+00
 -1      1381 0.00000E+00
 -1      1382 0.00000E+00
 -1      1384 0.00000E+00
 -1      1393 0.00000E+00
 -1      1395 0.00000E+00
 -1      1396 0.00000E+00
 -1      1398 0.00000E+00
 -1      1407 0.00000E+00
 -1      1409 0.00000E+00
 -1      1410 0.00000E+00
 -1      1412 0.00000E+00
 -1      1421 0.00000E+00
 -1      1423 0.00000E+00
 -1      1424 0.00000E+00
 -1      1426 0.00000E+00
 -1      1435 0.00000E+00
 -1      1437 0.00000E+00
 -1      1438 0.00000E+00
 -1      1440 0.00000E+00
 -1      1449 0.00000E+00
 -1      1451 0.00000E+00
 -1      1452 0.00000E+00
 -1      1454 0.00000E+00
 -1      1463 0.00000E+00
 -1      1465 0.00000E+00
 -1      1466 0.00000E+00
 -1      1468 0.00000E+00
 -1      1477 0.00000E+00
 -1      1479 0.00000E+00
 -1      1480 0.00000E+00
 -1      1482 0.00000E+00
 -1      1491 0.00000E+00
 -1      1493 0.00000E+00
 -1      1494 0.00000E+00
 -1      1496 0.00000E+00
 -1      1497 0.00000E+00
 -1      1499 0.00000E+00
 -1      1500 0.00000E+00
 -1      1502 0.00000E+00
 -1      1503 0.00000E+00
 -1      1505 0.00000E+00
 -1      1506 0.00000E+00
 -1      1508 0.00000E+00
 -1      1509 0.00000E+00
 -1      1511 0.00000E+00
 -1      1512 0.00000E+00
 -1      1514 0.00000E+00
 -1      1515 0.00000E+00
 -1      1517 0.00000E+00
 -1      1518 0.00000E+00
 -1      1520 0.00000E+00
 -1      1521 0.00000E+00
 -1      1523 0.00000E+00
 -1      1524 0.00000E+00
 -1      1526 0.00000E+00
 -1      1527 0.00000E+00
 -1      1529 0.00000E+00
 -1      1530 0.00000E+00
 -1      1532 0.00000E+00
 -1      1533 0.00000E+00
 -1      1535 0.00000E+00
 -1      1536 0.00000E+00
 -1      1538 0.00000E+00
 -1      1539 0.00000E+00
 -1      1541 0.00000E+00
 -1      1542 0.00000E+00
 -1      1544 0.00000E+00
 -1      1545 0.00000E+00
 -1      1547 0.00000E+00
 -1      1548 0.00000E+00
 -1      1550 0.00000E+00
 -1      1551 0.00000E+00
 -1      1553 0.00000E+00
 -1      1554 0.00000E+00
 -1      1556 0.00000E+00
 -1      1557 0.00000E+00
 -1      1559 0.00000E+00
 -1      1560 0.00000E+00
 -1      1562 0.00000E+00
 -1      1563 0.00000E+00
 -1      1565 0.00000E+00
 -1      1566 0.00000E+00
 -1      1568 0.00000E+00
 -1      1569 0.00000E+00
 -1      1571 0.00000E+00
 -1      1572 0.00000E+00
 -1      1574 0.00000E+00
 -1      1575 0.00000E+00
 -1      1577 0.00000E+00
 -1      1578 0.00000E+00
 -1      1580 0.00000E+00
 -1      1581 0.00000E+00
 -1      1583 0.00000E+00
 -1      1584 0.00000E+00
 -1      1586 0.00000E+00
 -1      1587 0.00000E+00
 -1      1589 0.00000E+00
 -1      1590 0.00000E+00
 -1      1592 0.00000E+00
 -1      1593 0.00000E+00
 -1      1595 0.00000E+00
 -1      1596 0.00000E+00
 -1      1598 0.00000E+00
 -1      1599 0.00000E+00
 -1      1601 0.00000E+00
 -1      1602 0.00000E+00
 -1      1604 0.00000E+00
 -1      1605 0.00000E+00
 -1      1607 0.00000E+00
 -1      1608 0.00000E+00
 -1      1610 0.00000E+00
 -1      1611 0.00000E+00
 -1      1613 0.00000E+00
 -1      1614 0.00000E+00
 -1      1616 0.00000E+00
 -1      1617 0.00000E+00
 -1      1619 0.00000E+00
 -1      1620 0.00000E+00
 -1      1622 0.00000E+00
 -1      1623 0.00000E+00
 -1      1625 0.00000E+00
 -1      1626 0.00000E+00
 -1      1628 0.00000E+00
 -1      1629 0.00000E+00
 -1      1631 0.00000E+00
 -1      1632 0.00000E+00
 -1      1634 0.00000E+00
 -1      1635 0.00000E+00
 -1      1637 0.00000E+00
 -1      1638 0.00000E+00
 -1      1640 0.00000E+00
 -1      1641 0.00000E+00
 -1      1643 0.00000E+00
 -1      1644 0.00000E+00
 -1      1646 0.00000E+00
 -1      1647 0.00000E+00
 -1      1649 0.00000E+00
 -1      1650 0.00000E+00
 -1      1652 0.00000E+00
 -1      1653 0.00000E+00
 -1      1655 0.00000E+00
 -1      1656 0.00000E+00
 -1      1658 0.00000E+00
 -1      1659 0.00000E+00
 -1      1661 0.00000E+00
 -1      1662 0.00000E+00
 -1      1664 0.00000E+00
 -1      1665 0.00000E+00
 -1      1667 0.00000E+00
 -1      1668 0.00000E+00
 -1      1670 0.00000E+00
 -1      1671 0.00000E+00
 -1      1673 0.00000E+00
 -1      1674 0.00000E+00
 -1      1676 0.00000E+00
 -1      1677 0.00000E+00
 -1      1679 0.00000E+00
 -1      1680 0.00000E+00
 -1      1682 0.00000E+00
 -1      1683 0.00000E+00
 -1      1685 0.00000E+00
 -1      1686 0.00000E+00
 -1      1688 0.00000E+00
 -1      1689 0.00000E+00
 -1      1691 0.00000E+00
 -1      1692 0.00000E+00
 -1      1694 0.00000E+00
 -1      1695 0.00000E+00
 -1      1697 0.00000E+00
 -1      1698 0.00000E+00
 -1      1700 0.00000E+00
 -1      1701 0.00000E+00
 -1      1703 0.00000E+00
 -1      1704 0.00000E+00
 -1      1706 0.00000E+00
 -1      1707 0.00000E+00
 -1      1709 0.00000E+00
 -1      1710 0.00000E+00
 -1      1712 0.00000E+00
 -1      1713 0.00000E+00
 -1      1715 0.00000E+00
 -1      1716 0.00000E+00
 -1      1718 0.00000E+00
 -1      1719 0.00000E+00
 -1      1721 0.00000E+00
 -1      1722 0.00000E+00
 -1      1724 0.00000E+00
 -1      1725 0.00000E+00
 -1      1727 0.00000E+00
 -1      1728 0.00000E+00
 -1      1730 0.00000E+00
 -1      1731 0.00000E+00
 -1      1733 0.00000E+00
 -1      1734 0.00000E+00
 -1      1736 0.00000E+00
 -1      1737 0.00000E+00
 -1      1739 0.00000E+00
 -1      1740 0.00000E+00
 -1      1742 0.00000E+00
 -1      1743 0.00000E+00
 -1      1745 0.00000E+00
 -1      1746 0.00000E+00
 -1      1748 0.00000E+00
 -1      1749 0.00000E+00
 -1      1751 0.00000E+00
 -1      1752 0.00000E+00
 -1      1754 0.00000E+00
 -1      1755 0.00000E+00
 -1      1757 0.00000E+00
 -1      1758 0.00000E+00
 -1      1760 0.00000E+00
 -1      1761 0.00000E+00
 -1      1763 0.00000E+00
 -1      1764 0.00000E+00
 -1      1766 0.00000E+00
 -1      1767 0.00000E+00
 -1      1769 0.00000E+00
 -1      1770 0.00000E+00
 -1      1772 0.00000E+00
 -1      1773 0.00000E+00
 -1      1775 0.00000E+00
 -1      1776 0.00000E+00
 -1      1778 0.00000E+00
 -1      1779 0.00000E+00
 -1      1781 0.00000E+00
 -1      1782 0.00000E+00
 -1      1784 0.00000E+00
 -1      1785 0.00000E+00
 -1      1787 0.00000E+00
 -1      1788 0.00000E+00
 -1      1790 0.00000E+00
 -1      1791 0.00000E+00
 -1      1793 0.00000E+00
 -1      1794 0.00000E+00
 -1      1796 0.00000E+00
 -1      1797 0.00000E+00
 -1      1799 0.00000E+00
 -1      1800 0.00000E+00
 -1      1802 0.00000E+00
 -1      1803 0.00000E+00
 -1      1805 0.00000E+00
 -1      1806 0.00000E+00
 -1      1808 0.00000E+00
 -1      1809 0.00000E+00
 -1      1811 0.00000E+00
 -1      1812 0.00000E+00
 -1      1814 0.00000E+00
 -1      1815 0.00000E+00
 -1      1817 0.00000E+00
 -1      1818 0.00000E+00
 -1      1820 0.00000E+00
 -1      1821 0.00000E+00
 -1      1823 0.00000E+00
 -1      1824 0.00000E+00
 -1      1826 0.00000E+00
 -1      1827 0.00000E+00
 -1      1829 0.00000E+00
 -1      1830 0.00000E+00
 -1      1832 0.00000E+00
 -1      1833 0.00000E+00
 -1      1835 0.00000E+00
 -1      1836 0.00000E+00
 -1      1838 0.00000E+00
 -1      1839 0.00000E+00
 -1      1841 0.00000E+00
 -1      1842 0.00000E+00
 -1      1844 0.00000E+00
 -1      1845 0.00000E+00
 -1      1847 0.00000E+00
 -1      1848 0.00000E+00
 -1      1850 0.00000E+00
 -1      1851 0.00000E+00
 -1      1853 0.00000E+00
 -1      1854 0.00000E+00
 -1      1856 0.00000E+00
 -1      1857 0.00000E+00
 -1      1859 0.00000E+00
 -1      1860 0.00000E+00
 -1      1862 0.00000E+00
 -1      1863 0.00000E+00
 -1      1865 0.00000E+00
 -1      1866 0.00000E+00
 -1      1868 0.00000E+00
 -1      1869 0.00000E+00
 -1      1871 0.00000E+00
 -1      1872 0.00000E+00
 -1      1874 0.00000E+00
 -1      1875 0.00000E+00
 -1      1877 0.00000E+00
 -1      1878 0.00000E+00
 -1      1880 0.00000E+00
 -1      1881 0.00000E+00
 -1      1883 0.00000E+00
 -1      1884 0.00000E+00
 -1      1886 0.00000E+00
 -1      1887 0.00000E+00
 -1      1889 0.00000E+00
 -1      1890 0.00000E+00
 -1      1892 0.00000E+00
 -1      1893 0.00000E+00
 -1      1895 0.00000E+00
 -1      1896 0.00000E+00
 -1      1898 0.00000E+00
 -1      1899 0.00000E+00
 -1      1901 0.00000E+00
 -1      1902 0.00000E+00
 -1      1904 0.00000E+00
 -1      1905 0.00000E+00
 -1      1907 0.00000E+00
 -1      1908 0.00000E+00
 -1      1910 0.00000E+00
 -1      1911 0.00000E+00
 -1      1913 0.00000E+00
 -1      1914 0.00000E+00
 -1      1916 0.00000E+00
 -1      1917 0.00000E+00
 -1      1919 0.00000E+00
 -1      1920 0.00000E+00
 -1      1922 0.00000E+00
 -1      1923 0.00000E+00
 -1      1925 0.00000E+00
 -1      1926 0.00000E+00
 -1      1928 0.00000E+00
 -1      1929 0.00000E+00
 -1      1931 0.00000E+00
 -1      1932 0.00000E+00
 -1      1934 0.00000E+00
 -1      1935 0.00000E+00
 -1      1937 0.00000E+00
 -1      1938 0.00000E+00
 -1      1940 0.00000E+00
 -1      1941 0.00000E+00
 -1      1943 0.00000E+00
 -1      1944 0.00000E+00
 -1      1946 0.00000E+00
 -1      1947 0.00000E+00
 -1      1949 0.00000E+00
 -1      1950 0.00000E+00
 -1      1952 0.00000E+00
 -1      1953 0.00000E+00
 -1      1955 0.00000E+00
 -1      1956 0.00000E+00
 -1      1958 0.00000E+00
 -1      1959 0.00000E+00
 -1      1961 0.00000E+00
 -1      1962 0.00000E+00
 -1      1964 0.00000E+00
 -1      1965 0.00000E+00
 -1      1967 0.00000E+00
 -1      1968 0.00000E+00
 -1      1970 0.00000E+00
 -1      1971 0.00000E+00
 -1      1973 0.00000E+00
 -1      1974 0.00000E+00
 -1      1976 0.00000E+00
 -1      1977 0.00000E+00
 -1      1979 0.00000E+00
 -1      1980 0.00000E+00
 -1      1982 0.00000E+00
 -1      1983 0.00000E+00
 -1      1985 0.00000E+00
 -1      1986 0.00000E+00
 -1      1988 0.00000E+00
 -1      1989 0.00000E+00
 -1      1991 0.00000E+00
 -1      1992 0.00000E+00
 -1      1994 0.00000E+00
 -1      1995 0.00000E+00
 -1      1997 0.00000E+00
 -1      1998 0.00000E+00
 -1      2000 0.00000E+00
 -1      2001 0.00000E+00
 -1      2003 0.00000E+00
 -1      2004 0.00000E+00
 -1      2006 0.00000E+00
 -1      2007 0.00000E+00
 -1      2009 0.00000E+00
 -1      2010 0.00000E+00
 -1      2012 0.00000E+00
 -1      2013 0.00000E+00
 -1      2015 0.00000E+00
 -1      2016 0.00000E+00
 -1      2018 0.00000E+00
 -1      2019 0.00000E+00
 -1      2021 0.00000E+00
 -1      2022 0.00000E+00
 -1      2024 0.00000E+00
 -1      2025 0.00000E+00
 -1      2027 0.00000E+00
 -1      2028 0.00000E+00
 -1      2030 0.00000E+00
 -1      2031 0.00000E+00
 -1      2033 0.00000E+00
 -1      2034 0.00000E+00
 -1      2036 0.00000E+00
 -1      2037 0.00000E+00
 -1      2039 0.00000E+00
 -1      2040 0.00000E+00
 -1      2042 0.00000E+00
 -1      2043 0.00000E+00
 -1      2045 0.00000E+00
 -1      2046 0.00000E+00
 -1      2048 0.00000E+00
 -1      2049 0.00000E+00
 -1      2051 0.00000E+00
 -1      2052 0.00000E+00
 -1      2054 0.00000E+00
 -1      2055 0.00000E+00
 -1      2057 0.00000E+00
 -1      2058 0.00000E+00
 -1      2060 0.00000E+00
 -1      2061 0.00000E+00
 -1      2063 0.00000E+00
 -1      2064 0.00000E+00
 -1      2066 0.00000E+00
 -1      2067 0.00000E+00
 -1      2069 0.00000E+00
 -1      2070 0.00000E+00
 -1      2072 0.00000E+00
 -1      2073 0.00000E+00
 -1      2075 0.00000E+00
 -1      2076 0.00000E+00
 -1      2078 0.00000E+00
 -1      2079 0.00000E+00
 -1      2081 0.00000E+00
 -1      2082 0.00000E+00
 -1      2084 0.00000E+00
 -1      2085 0.00000E+00
 -1      2087 0.00000E+00
 -1      2088 0.00000E+00
 -1      2090 0.00000E+00
 -1      2091 0.00000E+00
 -1      2093 0.00000E+00
 -1      2094 0.00000E+00
 -1      2096 0.00000E+00
 -1      2097 0.00000E+00
 -1      2099 0.00000E+00
 -1      2100 0.00000E+00
 -1      2102 0.00000E+00
 -1      2103 0.00000E+00
 -1      2105 0.00000E+00
 -1      2106 0.00000E+00
 -1      2108 0.00000E+00
 -1      2109 0.00000E+00
 -1      2111 0.00000E+00
 -1      2112 0.00000E+00
 -1      2114 0.00000E+00
 -1      2115 0.00000E+00
 -1      2117 0.00000E+00
 -1      2118 0.00000E+00
 -1      2120 0.00000E+00
 -1      2121 0.00000E+00
 -1      2123 0.00000E+00
 -1      2124 0.00000E+00
 -1      2126 0.00000E+00
 -1      2127 0.00000E+00
 -1      2129 0.00000E+00
 -1      2130 0.00000E+00
 -1      2132 0.00000E+00
 -1      2133 0.00000E+00
 -1      2135 0.00000E+00
 -1      2136 0.00000E+00
 -1      2138 0.00000E+00
 -1      2139 0.00000E+00
 -1      2141 0.00000E+00
 -1      2142 0.00000E+00
 -1      2144 0.00000E+00
 -1      2145 0.00000E+00
 -1      2147 0.00000E+00
 -1      2148 0.00000E+00
 -1      2150 0.00000E+00
 -1      2151 0.00000E+00
 -1      2153 0.00000E+00
 -1      2154 0.00000E+00
 -1      2156 0.00000E+00
 -1      2157 0.00000E+00
 -1      2159 0.00000E+00
 -1      2160 0.00000E+00
 -1      2162 0.00000E+00
 -1      2163 0.00000E+00
 -1      2165 0.00000E+00
 -1      2166 0.00000E+00
 -1      2168 0.00000E+00
 -1      2169 0.00000E+00
 -1      2171 0.00000E+00
 -1      2172 0.00000E+00
 -1      2174 0.00000E+00
 -1      2175 0.00000E+00
 -1      2177 0.00000E+00
 -1      2178 0.00000E+00
 -1      2180 0.00000E+00
 -1      2181 0.00000E+00
 -1      2183 0.00000E+00
 -1      2184 0.00000E+00
 -1      2186 0.00000E+00
 -1      2187 0.00000E+00
 -1      2189 0.00000E+00
 -1      2190 0.00000E+00
 -1      2192 0.00000E+00
 -1      2193 0.00000E+00
 -1      2195 0.00000E+00
 -1      2196 0.00000E+00
 -1      2198 0.00000E+00
 -1      2199 0.00000E+00
 -1      2201 0.00000E+00
 -1      2202 0.00000E+00
 -1      2204 0.00000E+00
 -1      2205 0.00000E+00
 -1      2207 0.00000E+00
 -1      2208 0.00000E+00
 -1      2210 0.00000E+00
 -1      2211 0.00000E+00
 -1      2213 0.00000E+00
 -1      2214 0.00000E+00
 -1      2216 0.00000E+00
 -1      2217 0.00000E+00
 -1      2219 0.00000E+00
 -1      2220 0.00000E+00
 -1      2222 0.00000E+00
 -1      2223 0.00000E+00
 -1      2225 0.00000E+00
 -1      2226 0.00000E+00
 -1      2228 0.00000E+00
 -1      2229 0.00000E+00
 -1      2231 0.00000E+00
 -1      2232 0.00000E+00
 -1      2234 0.00000E+00
 -1      2235 0.00000E+00
 -1      2237 0.00000E+00
 -1      2238 0.00000E+00
 -1      2240 0.00000E+00
 -1      2241 0.00000E+00
 -1      2243 0.00000E+00
 -1      2244 0.00000E+00
 -1      2246 0.00000E+00
 -1      2247 0.00000E+00
 -1      2249 0.00000E+00
 -1      2250 0.00000E+00
 -1      2252 0.00000E+00
 -1      2253 0.00000E+00
 -1      2255 0.00000E+00
 -1      2256 0.00000E+00
 -1      2258 0.00000E+00
 -1      2259 0.00000E+00
 -1      2261 0.00000E+00
 -1      2262 0.00000E+00
 -1      2264 0.00000E+00
 -1      2265 0.00000E+00
 -1      2267 0.00000E+00
 -1      2268 0.00000E+00
 -1      2270 0.00000E+00
 -1      2271 0.00000E+00
 -1      2273 0.00000E+00
 -1      2274 0.00000E+00
 -1      2276 0.00000E+00
 -1      2277 0.00000E+00
 -1      2279 0.00000E+00
 -1      2280 0.00000E+00
 -1      2282 0.00000E+00
 -1      2283 0.00000E+00
 -1      2285 0.00000E+00
 -1      2286 0.00000E+00
 -1      2288 0.00000E+00
 -1      2289 0.00000E+00
 -1      2291 0.00000E+00
 -1      2292 0.00000E+00
 -1      2294 0.00000E+00
 -3
    1PSTEP                        73           1           1          
    1PGM                1.000000E+00                                  
    1PGK                2.050719E+07                                  
    1PHID                         -1                                  
    1PSUBC                         0                                  
    1PMODE                        19                                  
  100CL  119 720.7309944         930                     2   19MODAL      1
 -4  DISP        4    1
 -5  D1          1    2    1    0
 -5  D2          1    2    2    0
 -5  D3          1    2    3    0
 -5  ALL         1    2    0    0    1ALL
 -1       404 0.00000E+00 0.00000E+00 5.98888E-04
 -1       406 0.00000E+00-0.00000E+00-5.98888E-04
 -1       407-3.98951E-02 1.62795E-01 1.16048E-02
 -1       409-4.00251E-02 1.62635E-01 1.18486E-02
 -1       410-3.73239E-14 1.63210E-01 4.92654E-14
 -1       412-3.13225E-14 1.57326E-01 4.28615E-14
 -1       413 1.50284E-03 1.60268E-01-1.87413E-03
 -1       415-1.50284E-03 1.60268E-01 1.87413E-03
 -1       424 0.00000E+00 0.00000E+00 5.87530E-16
 -1       426 0.00000E+00 0.00000E+00-5.87530E-16
 -1       427 0.00000E+00 3.74278E-16 0.00000E+00
 -1       429 0.00000E+00-3.74278E-16 0.00000E+00
 -1       438 3.98951E-02 1.62795E-01-1.16048E-02
 -1       440 4.00251E-02 1.62635E-01-1.18486E-02
 -1       441 0.00000E+00 0.00000E+00-5.98888E-04
 -1       443 0.00000E+00-0.00000E+00 5.98888E-04
 -1       444 0.00000E+00-2.42547E-16 0.00000E+00
 -1       446 0.00000E+00 2.42547E-16 0.00000E+00
 -1       447 0.00000E+00 0.00000E+00 3.80742E-16
 -1       449 0.00000E+00 0.00000E+00-3.80742E-16
 -1       458-1.50284E-03-1.60268E-01-1.87413E-03
 -1       460 1.50284E-03-1.60268E-01 1.87413E-03
 -1       461 6.82307E-15-1.63210E-01-2.06291E-14
 -1       463 1.18894E-14-1.57326E-01-1.36837E-14
 -1       472 0.00000E+00 0.00000E+00-5.98888E-04
 -1       474 0.00000E+00 0.00000E+00 5.98888E-04
 -1       475-3.98951E-02-1.62795E-01-1.16048E-02
 -1       477-4.00251E-02-1.62635E-01-1.18486E-02
 -1       478 3.98951E-02-1.62795E-01 1.16048E-02
 -1       480 4.00251E-02-1.62635E-01 1.18486E-02
 -1       481 0.00000E+00 0.00000E+00 5.98888E-04
 -1       483 0.00000E+00 0.00000E+00-5.98888E-04
 -1       484 1.61637E-02-1.96249E-02-7.52124E-03
 -1       486 1.80443E-02-1.84785E-02-7.82386E-03
 -1       487 2.30713E-02-4.75927E-02-1.76619E-02
 -1       489 2.39403E-02-4.52374E-02-1.77642E-02
 -1       490 2.24050E-02-7.89030E-02-2.51869E-02
 -1       492 2.34776E-02-7.55674E-02-2.50716E-02
 -1       493 1.61340E-02-1.04217E-01-3.12029E-02
 -1       495 1.66460E-02-1.00203E-01-3.07900E-02
 -1       496 5.86852E-03-1.18840E-01-3.37774E-02
 -1       498 6.03814E-03-1.14557E-01-3.33692E-02
 -1       499-6.10744E-03-1.19080E-01-3.31510E-02
 -1       501-6.45614E-03-1.14926E-01-3.26054E-02
 -1       502-1.79316E-02-1.04393E-01-2.88705E-02
 -1       504-1.87068E-02-1.00765E-01-2.84649E-02
 -1       505-2.76264E-02-7.61367E-02-2.16378E-02
 -1       507-2.87738E-02-7.33708E-02-2.12759E-02
 -1       508-3.37838E-02-3.79923E-02-1.20695E-02
 -1       510-3.51601E-02-3.63288E-02-1.19337E-02
 -1       511-3.54229E-02 5.07977E-03-1.41052E-03
 -1       513-3.68720E-02 5.51273E-03-1.41962E-03
 -1       514-3.22906E-02 4.72545E-02 9.19168E-03
 -1       516-3.36409E-02 4.64676E-02 8.95586E-03
 -1       517-2.47628E-02 8.28666E-02 1.84202E-02
 -1       519-2.58574E-02 8.09923E-02 1.80536E-02
 -1       520-1.38640E-02 1.07071E-01 2.52760E-02
 -1       522-1.45798E-02 1.04360E-01 2.47770E-02
 -1       523-1.06698E-03 1.16605E-01 2.89629E-02
 -1       525-1.32913E-03 1.13381E-01 2.84400E-02
 -1       526 1.18719E-02 1.10179E-01 2.91790E-02
 -1       528 1.20784E-02 1.06812E-01 2.86721E-02
 -1       529 2.31858E-02 8.87015E-02 2.60030E-02
 -1       531 2.38174E-02 8.55502E-02 2.56057E-02
 -1       532 3.13147E-02 5.51304E-02 1.99922E-02
 -1       534 3.22735E-02 5.25079E-02 1.97416E-02
 -1       535 3.51412E-02 1.40835E-02 1.20173E-02
 -1       537 3.62908E-02 1.22156E-02 1.19590E-02
 -1       538 3.41211E-02-2.87882E-02 3.19966E-03
 -1       540 3.53036E-02-2.97810E-02 3.33821E-03
 -1       541 2.83784E-02-6.75852E-02-5.27252E-03
 -1       543 2.94373E-02-6.77023E-02-4.95909E-03
 -1       544 1.86565E-02-9.69191E-02-1.23061E-02
 -1       546 1.94568E-02-9.62663E-02-1.18458E-02
 -1       547 6.24756E-03-1.12711E-01-1.70087E-02
 -1       549 6.69320E-03-1.11484E-01-1.64873E-02
 -1       550-7.25706E-03-1.12590E-01-1.88951E-02
 -1       552-7.20742E-03-1.11035E-01-1.83401E-02
 -1       553-2.00950E-02-9.64163E-02-1.77927E-02
 -1       555-2.04326E-02-9.47922E-02-1.73323E-02
 -1       556-3.08163E-02-6.58442E-02-1.41054E-02
 -1       558-3.14631E-02-6.43760E-02-1.37118E-02
 -1       559-3.81062E-02-2.46132E-02-8.38954E-03
 -1       561-3.89679E-02-2.34454E-02-8.20630E-03
 -1       562-4.18935E-02 2.29848E-02-1.81976E-03
 -1       564-4.27883E-02 2.37743E-02-1.71642E-03
 -1       565-4.19187E-02 7.20982E-02 4.68524E-03
 -1       567-4.27504E-02 7.26042E-02 4.60637E-03
 -1       568-4.04528E-02 1.18375E-01 9.56752E-03
 -1       570-4.09316E-02 1.18508E-01 9.43337E-03
 -1       571-1.98657E-02 1.62600E-01 1.06891E-02
 -1       573-1.99810E-02 1.62056E-01 1.03701E-02
 -1       574 1.72637E-14-1.70714E-02 2.63760E-14
 -1       576 1.68155E-14-1.62190E-02 2.55963E-14
 -1       577-1.35729E-03-1.66452E-02 2.71507E-04
 -1       579 1.35729E-03-1.66452E-02-2.71507E-04
 -1       588 3.26193E-14-4.76094E-02 8.30540E-14
 -1       590 2.69988E-14-4.52263E-02 8.25913E-14
 -1       591-1.21796E-03-4.64178E-02 7.59048E-04
 -1       593 1.21796E-03-4.64178E-02-7.59048E-04
 -1       602 3.66458E-14-7.94408E-02 1.49553E-13
 -1       604 3.12505E-14-7.56235E-02 1.50065E-13
 -1       605-1.39536E-03-7.75321E-02 1.21587E-03
 -1       607 1.39536E-03-7.75321E-02-1.21587E-03
 -1       616 3.24527E-14-1.05871E-01 2.18771E-13
 -1       618 2.61532E-14-1.00863E-01 2.20058E-13
 -1       619-8.25581E-04-1.03367E-01 1.59506E-03
 -1       621 8.25581E-04-1.03367E-01-1.59506E-03
 -1       630 2.12679E-14-1.20895E-01 2.57159E-13
 -1       632 2.26553E-14-1.15215E-01 2.58262E-13
 -1       633-4.04809E-04-1.18055E-01 1.80912E-03
 -1       635 4.04809E-04-1.18055E-01-1.80912E-03
 -1       644 1.38344E-14-1.21404E-01 2.53502E-13
 -1       646 1.86188E-14-1.15731E-01 2.54037E-13
 -1       647 3.49438E-04-1.18567E-01 1.80691E-03
 -1       649-3.49438E-04-1.18567E-01-1.80691E-03
 -1       658 9.36605E-15-1.06404E-01 2.29160E-13
 -1       660 1.48689E-14-1.01427E-01 2.29459E-13
 -1       661 9.07618E-04-1.03915E-01 1.58553E-03
 -1       663-9.07618E-04-1.03915E-01-1.58553E-03
 -1       672 5.47495E-15-7.76066E-02 2.17244E-13
 -1       674 4.96461E-15-7.39690E-02 2.19004E-13
 -1       675 1.48000E-03-7.57878E-02 1.15865E-03
 -1       677-1.48000E-03-7.57878E-02-1.15865E-03
 -1       686-9.03180E-15-3.85603E-02 2.11407E-13
 -1       688-6.70041E-15-3.67217E-02 2.12594E-13
 -1       689 1.77106E-03-3.76410E-02 5.85637E-04
 -1       691-1.77106E-03-3.76410E-02-5.85637E-04
 -1       700-2.71968E-14 5.48085E-03 1.64883E-13
 -1       702-1.66692E-14 5.27454E-03 1.65728E-13
 -1       703 1.88657E-03 5.37769E-03-6.57149E-05
 -1       705-1.88657E-03 5.37769E-03 6.57149E-05
 -1       714-3.70096E-14 4.86546E-02 7.88076E-14
 -1       716-2.32929E-14 4.64347E-02 7.97183E-14
 -1       717 1.70364E-03 4.75447E-02-7.07074E-04
 -1       719-1.70364E-03 4.75447E-02 7.07074E-04
 -1       728-3.52170E-14 8.50677E-02-3.46445E-15
 -1       730-2.54636E-14 8.11195E-02-4.84835E-15
 -1       731 1.31950E-03 8.30936E-02-1.25758E-03
 -1       733-1.31950E-03 8.30936E-02 1.25758E-03
 -1       742-2.84686E-14 1.09806E-01-6.11541E-14
 -1       744-2.26502E-14 1.04642E-01-6.00427E-14
 -1       745 7.34149E-04 1.07224E-01-1.64482E-03
 -1       747-7.34149E-04 1.07224E-01 1.64482E-03
 -1       756-1.86210E-14 1.19483E-01-9.28433E-14
 -1       758-1.50465E-14 1.13769E-01-9.03226E-14
 -1       759 6.44211E-05 1.16626E-01-1.81974E-03
 -1       761-6.44211E-05 1.16626E-01 1.81974E-03
 -1       770-6.43073E-15 1.12805E-01-1.01826E-13
 -1       772-5.24049E-15 1.07271E-01-1.06708E-13
 -1       773-6.25708E-04 1.10038E-01-1.76265E-03
 -1       775 6.25708E-04 1.10038E-01 1.76265E-03
 -1       784 4.15674E-15 9.06895E-02-1.10337E-13
 -1       786 6.72344E-15 8.60369E-02-1.09527E-13
 -1       787-1.21989E-03 8.83632E-02-1.48194E-03
 -1       789 1.21989E-03 8.83632E-02 1.48194E-03
 -1       798 2.12690E-14 5.61839E-02-9.59247E-14
 -1       800 1.73946E-14 5.29782E-02-9.64562E-14
 -1       801-1.65589E-03 5.45810E-02-1.02108E-03
 -1       803 1.65589E-03 5.45810E-02 1.02108E-03
 -1       812 3.49649E-14 1.40243E-02-6.58893E-14
 -1       814 3.20093E-14 1.26449E-02-6.77781E-14
 -1       815-1.85429E-03 1.33346E-02-4.39357E-04
 -1       817 1.85429E-03 1.33346E-02 4.39357E-04
 -1       826 4.06211E-14-2.99909E-02-5.78987E-14
 -1       828 4.30169E-14-2.94341E-02-5.62599E-14
 -1       829-1.80975E-03-2.97125E-02 1.77343E-04
 -1       831 1.80975E-03-2.97125E-02-1.77343E-04
 -1       840 4.39792E-14-6.97972E-02-5.46637E-14
 -1       842 4.31178E-14-6.74301E-02-5.57896E-14
 -1       843-1.49923E-03-6.86137E-02 7.53974E-04
 -1       845 1.49923E-03-6.86137E-02-7.53974E-04
 -1       854 4.04872E-14-9.98889E-02-4.15859E-14
 -1       856 3.87793E-14-9.61144E-02-3.86451E-14
 -1       857-1.00222E-03-9.80017E-02 1.20226E-03
 -1       859 1.00222E-03-9.80017E-02-1.20226E-03
 -1       868 3.32335E-14-1.16040E-01-1.62226E-14
 -1       870 2.93137E-14-1.11403E-01-1.56443E-14
 -1       871-3.31560E-04-1.13722E-01 1.47702E-03
 -1       873 3.31560E-04-1.13722E-01-1.47702E-03
 -1       882 1.87275E-14-1.15894E-01-8.64691E-15
 -1       884 2.02795E-14-1.11110E-01-6.19365E-15
 -1       885 3.49126E-04-1.13502E-01 1.52395E-03
 -1       887-3.49126E-04-1.13502E-01-1.52395E-03
 -1       896 7.65431E-15-9.91990E-02-8.59542E-15
 -1       898 6.82023E-15-9.49265E-02-9.06623E-15
 -1       899 1.05746E-03-9.70628E-02 1.36085E-03
 -1       901-1.05746E-03-9.70628E-02-1.36085E-03
 -1       910-1.93402E-15-6.78177E-02-8.91193E-15
 -1       912-1.09394E-15-6.47483E-02-4.97627E-15
 -1       913 1.55794E-03-6.62830E-02 9.77683E-04
 -1       915-1.55794E-03-6.62830E-02-9.77683E-04
 -1       924-6.03236E-15-2.54364E-02 1.11312E-14
 -1       926-1.03851E-14-2.39887E-02 9.63001E-15
 -1       927 1.99242E-03-2.47126E-02 4.61123E-04
 -1       929-1.99242E-03-2.47126E-02-4.61123E-04
 -1       938-1.53542E-14 2.35277E-02 3.15653E-14
 -1       940-1.74113E-14 2.29563E-02 3.73158E-14
 -1       941 2.07814E-03 2.32420E-02-1.82002E-04
 -1       943-2.07814E-03 2.32420E-02 1.82002E-04
 -1       952-2.53872E-14 7.33228E-02 4.30915E-14
 -1       954-2.46006E-14 7.07856E-02 4.87447E-14
 -1       955 2.09325E-03 7.20542E-02-8.08162E-04
 -1       957-2.09325E-03 7.20542E-02 8.08162E-04
 -1       966-3.13413E-14 1.22025E-01 5.29096E-14
 -1       968-3.33153E-14 1.17468E-01 5.29918E-14
 -1       969 1.94905E-03 1.19747E-01-1.45162E-03
 -1       971-1.94905E-03 1.19747E-01 1.45162E-03
 -1       980 0.00000E+00 0.00000E+00 2.12236E-04
 -1       982 0.00000E+00-0.00000E+00-2.12236E-04
 -1       983 1.98657E-02 1.62600E-01-1.06891E-02
 -1       985 1.99810E-02 1.62056E-01-1.03701E-02
 -1       986-1.61637E-02-1.96249E-02 7.52124E-03
 -1       988-1.80443E-02-1.84785E-02 7.82386E-03
 -1       989-2.30713E-02-4.75927E-02 1.76619E-02
 -1       991-2.39403E-02-4.52374E-02 1.77642E-02
 -1       992-2.24050E-02-7.89030E-02 2.51869E-02
 -1       994-2.34776E-02-7.55674E-02 2.50716E-02
 -1       995-1.61340E-02-1.04217E-01 3.12029E-02
 -1       997-1.66460E-02-1.00203E-01 3.07900E-02
 -1       998-5.86852E-03-1.18840E-01 3.37774E-02
 -1      1000-6.03814E-03-1.14557E-01 3.33692E-02
 -1      1001 6.10744E-03-1.19080E-01 3.31510E-02
 -1      1003 6.45614E-03-1.14926E-01 3.26054E-02
 -1      1004 1.79316E-02-1.04393E-01 2.88705E-02
 -1      1006 1.87068E-02-1.00765E-01 2.84649E-02
 -1      1007 2.76264E-02-7.61367E-02 2.16378E-02
 -1      1009 2.87738E-02-7.33708E-02 2.12759E-02
 -1      1010 3.37838E-02-3.79923E-02 1.20695E-02
 -1      1012 3.51601E-02-3.63288E-02 1.19337E-02
 -1      1013 3.54229E-02 5.07977E-03 1.41052E-03
 -1      1015 3.68720E-02 5.51273E-03 1.41962E-03
 -1      1016 3.22906E-02 4.72545E-02-9.19168E-03
 -1      1018 3.36409E-02 4.64676E-02-8.95586E-03
 -1      1019 2.47628E-02 8.28666E-02-1.84202E-02
 -1      1021 2.58574E-02 8.09923E-02-1.80536E-02
 -1      1022 1.38640E-02 1.07071E-01-2.52760E-02
 -1      1024 1.45798E-02 1.04360E-01-2.47770E-02
 -1      1025 1.06698E-03 1.16605E-01-2.89629E-02
 -1      1027 1.32913E-03 1.13381E-01-2.84400E-02
 -1      1028-1.18719E-02 1.10179E-01-2.91790E-02
 -1      1030-1.20784E-02 1.06812E-01-2.86721E-02
 -1      1031-2.31858E-02 8.87015E-02-2.60030E-02
 -1      1033-2.38174E-02 8.55502E-02-2.56057E-02
 -1      1034-3.13147E-02 5.51304E-02-1.99922E-02
 -1      1036-3.22735E-02 5.25079E-02-1.97416E-02
 -1      1037-3.51412E-02 1.40835E-02-1.20173E-02
 -1      1039-3.62908E-02 1.22156E-02-1.19590E-02
 -1      1040-3.41211E-02-2.87882E-02-3.19966E-03
 -1      1042-3.53036E-02-2.97810E-02-3.33821E-03
 -1      1043-2.83784E-02-6.75852E-02 5.27252E-03
 -1      1045-2.94373E-02-6.77023E-02 4.95909E-03
 -1      1046-1.86565E-02-9.69191E-02 1.23061E-02
 -1      1048-1.94568E-02-9.62663E-02 1.18458E-02
 -1      1049-6.24756E-03-1.12711E-01 1.70087E-02
 -1      1051-6.69320E-03-1.11484E-01 1.64873E-02
 -1      1052 7.25706E-03-1.12590E-01 1.88951E-02
 -1      1054 7.20742E-03-1.11035E-01 1.83401E-02
 -1      1055 2.00950E-02-9.64163E-02 1.77927E-02
 -1      1057 2.04326E-02-9.47922E-02 1.73323E-02
 -1      1058 3.08163E-02-6.58442E-02 1.41054E-02
 -1      1060 3.14631E-02-6.43760E-02 1.37118E-02
 -1      1061 3.81062E-02-2.46132E-02 8.38954E-03
 -1      1063 3.89679E-02-2.34454E-02 8.20630E-03
 -1      1064 4.18935E-02 2.29848E-02 1.81976E-03
 -1      1066 4.27883E-02 2.37743E-02 1.71642E-03
 -1      1067 4.19187E-02 7.20982E-02-4.68524E-03
 -1      1069 4.27504E-02 7.26042E-02-4.60637E-03
 -1      1070 4.04528E-02 1.18375E-01-9.56752E-03
 -1      1072 4.09316E-02 1.18508E-01-9.43337E-03
 -1      1073 0.00000E+00 0.00000E+00-2.12236E-04
 -1      1075 0.00000E+00-0.00000E+00 2.12236E-04
 -1      1076 0.00000E+00 2.31152E-16 0.00000E+00
 -1      1078 0.00000E+00-2.31152E-16 0.00000E+00
 -1      1079 0.00000E+00 6.04443E-17 0.00000E+00
 -1      1081 0.00000E+00-6.04443E-17 0.00000E+00
 -1      1082 0.00000E+00 2.50932E-16 0.00000E+00
 -1      1084 0.00000E+00-2.50932E-16 0.00000E+00
 -1      1085 1.35729E-03 1.66452E-02 2.71507E-04
 -1      1087-1.35729E-03 1.66452E-02-2.71507E-04
 -1      1088-2.93052E-14 1.70714E-02 5.90965E-14
 -1      1090-1.18494E-14 1.62190E-02 5.76435E-14
 -1      1099 1.21796E-03 4.64178E-02 7.59048E-04
 -1      1101-1.21796E-03 4.64178E-02-7.59048E-04
 -1      1102-3.07821E-14 4.76094E-02 1.02081E-13
 -1      1104-3.01136E-14 4.52263E-02 1.02509E-13
 -1      1113 1.39536E-03 7.75321E-02 1.21587E-03
 -1      1115-1.39536E-03 7.75321E-02-1.21587E-03
 -1      1116-3.94074E-14 7.94408E-02 1.27915E-13
 -1      1118-3.00925E-14 7.56235E-02 1.26895E-13
 -1      1127 8.25581E-04 1.03367E-01 1.59506E-03
 -1      1129-8.25581E-04 1.03367E-01-1.59506E-03
 -1      1130-3.65638E-14 1.05871E-01 1.47821E-13
 -1      1132-3.47819E-14 1.00863E-01 1.48428E-13
 -1      1141 4.04809E-04 1.18055E-01 1.80912E-03
 -1      1143-4.04809E-04 1.18055E-01-1.80912E-03
 -1      1144-3.57545E-14 1.20895E-01 1.55379E-13
 -1      1146-3.18720E-14 1.15215E-01 1.55199E-13
 -1      1155-3.49438E-04 1.18567E-01 1.80691E-03
 -1      1157 3.49438E-04 1.18567E-01-1.80691E-03
 -1      1158-3.03423E-14 1.21404E-01 1.63553E-13
 -1      1160-2.74032E-14 1.15731E-01 1.62839E-13
 -1      1169-9.07618E-04 1.03915E-01 1.58553E-03
 -1      1171 9.07618E-04 1.03915E-01-1.58553E-03
 -1      1172-2.08630E-14 1.06404E-01 1.79909E-13
 -1      1174-1.52193E-14 1.01427E-01 1.80372E-13
 -1      1183-1.48000E-03 7.57878E-02 1.15865E-03
 -1      1185 1.48000E-03 7.57878E-02-1.15865E-03
 -1      1186-3.93421E-16 7.76066E-02 1.86720E-13
 -1      1188-3.28224E-16 7.39690E-02 1.87571E-13
 -1      1197-1.77106E-03 3.76410E-02 5.85637E-04
 -1      1199 1.77106E-03 3.76410E-02-5.85637E-04
 -1      1200 2.00498E-14 3.85603E-02 1.51139E-13
 -1      1202 1.20912E-14 3.67217E-02 1.48906E-13
 -1      1211-1.88657E-03-5.37769E-03-6.57149E-05
 -1      1213 1.88657E-03-5.37769E-03 6.57149E-05
 -1      1214 3.20772E-14-5.48085E-03 7.84584E-14
 -1      1216 2.20045E-14-5.27454E-03 8.18855E-14
 -1      1225-1.70364E-03-4.75447E-02-7.07074E-04
 -1      1227 1.70364E-03-4.75447E-02 7.07074E-04
 -1      1228 3.64431E-14-4.86546E-02 2.01955E-14
 -1      1230 3.08919E-14-4.64347E-02 1.67472E-14
 -1      1239-1.31950E-03-8.30936E-02-1.25758E-03
 -1      1241 1.31950E-03-8.30936E-02 1.25758E-03
 -1      1242 4.02028E-14-8.50677E-02-2.54321E-14
 -1      1244 3.53340E-14-8.11195E-02-2.27065E-14
 -1      1253-7.34149E-04-1.07224E-01-1.64482E-03
 -1      1255 7.34149E-04-1.07224E-01 1.64482E-03
 -1      1256 3.68452E-14-1.09806E-01-5.68879E-14
 -1      1258 3.28074E-14-1.04642E-01-6.12121E-14
 -1      1267-6.44211E-05-1.16626E-01-1.81974E-03
 -1      1269 6.44211E-05-1.16626E-01 1.81974E-03
 -1      1270 2.85018E-14-1.19483E-01-9.65961E-14
 -1      1272 2.39840E-14-1.13769E-01-9.56945E-14
 -1      1281 6.25708E-04-1.10038E-01-1.76265E-03
 -1      1283-6.25708E-04-1.10038E-01 1.76265E-03
 -1      1284 1.38073E-14-1.12805E-01-1.22681E-13
 -1      1286 1.34626E-14-1.07271E-01-1.20902E-13
 -1      1295 1.21989E-03-8.83632E-02-1.48194E-03
 -1      1297-1.21989E-03-8.83632E-02 1.48194E-03
 -1      1298 2.24609E-15-9.06895E-02-1.18518E-13
 -1      1300 6.01857E-15-8.60369E-02-1.18459E-13
 -1      1309 1.65589E-03-5.45810E-02-1.02108E-03
 -1      1311-1.65589E-03-5.45810E-02 1.02108E-03
 -1      1312 2.27429E-16-5.61839E-02-1.17806E-13
 -1      1314-1.00459E-15-5.29782E-02-1.20281E-13
 -1      1323 1.85429E-03-1.33346E-02-4.39357E-04
 -1      1325-1.85429E-03-1.33346E-02 4.39357E-04
 -1      1326-2.29122E-16-1.40243E-02-1.36587E-13
 -1      1328-8.81101E-16-1.26449E-02-1.33463E-13
 -1      1337 1.80975E-03 2.97125E-02 1.77343E-04
 -1      1339-1.80975E-03 2.97125E-02-1.77343E-04
 -1      1340 2.21124E-15 2.99909E-02-1.41011E-13
 -1      1342 4.14132E-15 2.94341E-02-1.44490E-13
 -1      1351 1.49923E-03 6.86137E-02 7.53974E-04
 -1      1353-1.49923E-03 6.86137E-02-7.53974E-04
 -1      1354 7.35478E-15 6.97972E-02-1.48591E-13
 -1      1356 6.74852E-15 6.74301E-02-1.46346E-13
 -1      1365 1.00222E-03 9.80017E-02 1.20226E-03
 -1      1367-1.00222E-03 9.80017E-02-1.20226E-03
 -1      1368 6.17961E-15 9.98889E-02-1.39318E-13
 -1      1370 9.84230E-15 9.61144E-02-1.44723E-13
 -1      1379 3.31560E-04 1.13722E-01 1.47702E-03
 -1      1381-3.31560E-04 1.13722E-01-1.47702E-03
 -1      1382 2.77701E-15 1.16040E-01-1.04362E-13
 -1      1384 1.10279E-14 1.11403E-01-1.02521E-13
 -1      1393-3.49126E-04 1.13502E-01 1.52395E-03
 -1      1395 3.49126E-04 1.13502E-01-1.52395E-03
 -1      1396 1.61992E-15 1.15894E-01-4.69979E-14
 -1      1398 8.95149E-15 1.11110E-01-4.98864E-14
 -1      1407-1.05746E-03 9.70628E-02 1.36085E-03
 -1      1409 1.05746E-03 9.70628E-02-1.36085E-03
 -1      1410 2.39783E-15 9.91990E-02-2.21207E-14
 -1      1412 2.91042E-15 9.49265E-02-1.93670E-14
 -1      1421-1.55794E-03 6.62830E-02 9.77683E-04
 -1      1423 1.55794E-03 6.62830E-02-9.77683E-04
 -1      1424-2.94583E-16 6.78177E-02-2.36218E-14
 -1      1426-1.85647E-15 6.47483E-02-2.78891E-14
 -1      1435-1.99242E-03 2.47126E-02 4.61123E-04
 -1      1437 1.99242E-03 2.47126E-02-4.61123E-04
 -1      1438-4.91288E-15 2.54364E-02-2.67359E-14
 -1      1440-2.56725E-15 2.39887E-02-2.51879E-14
 -1      1449-2.07814E-03-2.32420E-02-1.82002E-04
 -1      1451 2.07814E-03-2.32420E-02 1.82002E-04
 -1      1452-4.20692E-15-2.35277E-02-6.60881E-15
 -1      1454-6.57244E-16-2.29563E-02-1.12519E-14
 -1      1463-2.09325E-03-7.20542E-02-8.08162E-04
 -1      1465 2.09325E-03-7.20542E-02 8.08162E-04
 -1      1466 2.66187E-15-7.33228E-02-1.90417E-15
 -1      1468 1.83453E-15-7.07856E-02-5.93678E-15
 -1      1477-1.94905E-03-1.19747E-01-1.45162E-03
 -1      1479 1.94905E-03-1.19747E-01 1.45162E-03
 -1      1480 8.13701E-15-1.22025E-01-1.98404E-14
 -1      1482 5.28629E-15-1.17468E-01-2.05370E-14
 -1      1491 7.81849E-04 9.01640E-02-3.99450E-03
 -1      1493-7.81849E-04 9.01640E-02 3.99450E-03
 -1      1494-1.99944E-14 1.81299E-13-3.67984E-03
 -1      1496 8.16708E-15 1.76775E-13 3.67984E-03
 -1      1497-7.81849E-04-9.01640E-02-3.99450E-03
 -1      1499 7.81849E-04-9.01640E-02 3.99450E-03
 -1      1500 1.61637E-02 1.96249E-02 7.52124E-03
 -1      1502 1.80443E-02 1.84785E-02 7.82386E-03
 -1      1503 2.30713E-02 4.75927E-02 1.76619E-02
 -1      1505 2.39403E-02 4.52374E-02 1.77642E-02
 -1      1506 2.24050E-02 7.89030E-02 2.51869E-02
 -1      1508 2.34776E-02 7.55674E-02 2.50716E-02
 -1      1509 1.61340E-02 1.04217E-01 3.12029E-02
 -1      1511 1.66460E-02 1.00203E-01 3.07900E-02
 -1      1512 5.86852E-03 1.18840E-01 3.37774E-02
 -1      1514 6.03814E-03 1.14557E-01 3.33692E-02
 -1      1515-6.10744E-03 1.19080E-01 3.31510E-02
 -1      1517-6.45614E-03 1.14926E-01 3.26054E-02
 -1      1518-1.79316E-02 1.04393E-01 2.88705E-02
 -1      1520-1.87068E-02 1.00765E-01 2.84649E-02
 -1      1521-2.76264E-02 7.61367E-02 2.16378E-02
 -1      1523-2.87738E-02 7.33708E-02 2.12759E-02
 -1      1524-3.37838E-02 3.79923E-02 1.20695E-02
 -1      1526-3.51601E-02 3.63288E-02 1.19337E-02
 -1      1527-3.54229E-02-5.07977E-03 1.41052E-03
 -1      1529-3.68720E-02-5.51273E-03 1.41962E-03
 -1      1530-3.22906E-02-4.72545E-02-9.19168E-03
 -1      1532-3.36409E-02-4.64676E-02-8.95586E-03
 -1      1533-2.47628E-02-8.28666E-02-1.84202E-02
 -1      1535-2.58574E-02-8.09923E-02-1.80536E-02
 -1      1536-1.38640E-02-1.07071E-01-2.52760E-02
 -1      1538-1.45798E-02-1.04360E-01-2.47770E-02
 -1      1539-1.06698E-03-1.16605E-01-2.89629E-02
 -1      1541-1.32913E-03-1.13381E-01-2.84400E-02
 -1      1542 1.18719E-02-1.10179E-01-2.91790E-02
 -1      1544 1.20784E-02-1.06812E-01-2.86721E-02
 -1      1545 2.31858E-02-8.87015E-02-2.60030E-02
 -1      1547 2.38174E-02-8.55502E-02-2.56057E-02
 -1      1548 3.13147E-02-5.51304E-02-1.99922E-02
 -1      1550 3.22735E-02-5.25079E-02-1.97416E-02
 -1      1551 3.51412E-02-1.40835E-02-1.20173E-02
 -1      1553 3.62908E-02-1.22156E-02-1.19590E-02
 -1      1554 3.41211E-02 2.87882E-02-3.19966E-03
 -1      1556 3.53036E-02 2.97810E-02-3.33821E-03
 -1      1557 2.83784E-02 6.75852E-02 5.27252E-03
 -1      1559 2.94373E-02 6.77023E-02 4.95909E-03
 -1      1560 1.86565E-02 9.69191E-02 1.23061E-02
 -1      1562 1.94568E-02 9.62663E-02 1.18458E-02
 -1      1563 6.24756E-03 1.12711E-01 1.70087E-02
 -1      1565 6.69320E-03 1.11484E-01 1.64873E-02
 -1      1566-7.25706E-03 1.12590E-01 1.88951E-02
 -1      1568-7.20742E-03 1.11035E-01 1.83401E-02
 -1      1569-2.00950E-02 9.64163E-02 1.77927E-02
 -1      1571-2.04326E-02 9.47922E-02 1.73323E-02
 -1      1572-3.08163E-02 6.58442E-02 1.41054E-02
 -1      1574-3.14631E-02 6.43760E-02 1.37118E-02
 -1      1575-3.81062E-02 2.46132E-02 8.38954E-03
 -1      1577-3.89679E-02 2.34454E-02 8.20630E-03
 -1      1578-4.18935E-02-2.29848E-02 1.81976E-03
 -1      1580-4.27883E-02-2.37743E-02 1.71642E-03
 -1      1581-4.19187E-02-7.20982E-02-4.68524E-03
 -1      1583-4.27504E-02-7.26042E-02-4.60637E-03
 -1      1584-4.04528E-02-1.18375E-01-9.56752E-03
 -1      1586-4.09316E-02-1.18508E-01-9.43337E-03
 -1      1587-1.98657E-02-1.62600E-01-1.06891E-02
 -1      1589-1.99810E-02-1.62056E-01-1.03701E-02
 -1      1590 0.00000E+00 0.00000E+00-2.12236E-04
 -1      1592 0.00000E+00 0.00000E+00 2.12236E-04
 -1      1593 1.98657E-02-1.62600E-01 1.06891E-02
 -1      1595 1.99810E-02-1.62056E-01 1.03701E-02
 -1      1596-1.61637E-02 1.96249E-02-7.52124E-03
 -1      1598-1.80443E-02 1.84785E-02-7.82386E-03
 -1      1599-2.30713E-02 4.75927E-02-1.76619E-02
 -1      1601-2.39403E-02 4.52374E-02-1.77642E-02
 -1      1602-2.24050E-02 7.89030E-02-2.51869E-02
 -1      1604-2.34776E-02 7.55674E-02-2.50716E-02
 -1      1605-1.61340E-02 1.04217E-01-3.12029E-02
 -1      1607-1.66460E-02 1.00203E-01-3.07900E-02
 -1      1608-5.86852E-03 1.18840E-01-3.37774E-02
 -1      1610-6.03814E-03 1.14557E-01-3.33692E-02
 -1      1611 6.10744E-03 1.19080E-01-3.31510E-02
 -1      1613 6.45614E-03 1.14926E-01-3.26054E-02
 -1      1614 1.79316E-02 1.04393E-01-2.88705E-02
 -1      1616 1.87068E-02 1.00765E-01-2.84649E-02
 -1      1617 2.76264E-02 7.61367E-02-2.16378E-02
 -1      1619 2.87738E-02 7.33708E-02-2.12759E-02
 -1      1620 3.37838E-02 3.79923E-02-1.20695E-02
 -1      1622 3.51601E-02 3.63288E-02-1.19337E-02
 -1      1623 3.54229E-02-5.07977E-03-1.41052E-03
 -1      1625 3.68720E-02-5.51273E-03-1.41962E-03
 -1      1626 3.22906E-02-4.72545E-02 9.19168E-03
 -1      1628 3.36409E-02-4.64676E-02 8.95586E-03
 -1      1629 2.47628E-02-8.28666E-02 1.84202E-02
 -1      1631 2.58574E-02-8.09923E-02 1.80536E-02
 -1      1632 1.38640E-02-1.07071E-01 2.52760E-02
 -1      1634 1.45798E-02-1.04360E-01 2.47770E-02
 -1      1635 1.06698E-03-1.16605E-01 2.89629E-02
 -1      1637 1.32913E-03-1.13381E-01 2.84400E-02
 -1      1638-1.18719E-02-1.10179E-01 2.91790E-02
 -1      1640-1.20784E-02-1.06812E-01 2.86721E-02
 -1      1641-2.31858E-02-8.87015E-02 2.60030E-02
 -1      1643-2.38174E-02-8.55502E-02 2.56057E-02
 -1      1644-3.13147E-02-5.51304E-02 1.99922E-02
 -1      1646-3.22735E-02-5.25079E-02 1.97416E-02
 -1      1647-3.51412E-02-1.40835E-02 1.20173E-02
 -1      1649-3.62908E-02-1.22156E-02 1.19590E-02
 -1      1650-3.41211E-02 2.87882E-02 3.19966E-03
 -1      1652-3.53036E-02 2.97810E-02 3.33821E-03
 -1      1653-2.83784E-02 6.75852E-02-5.27252E-03
 -1      1655-2.94373E-02 6.77023E-02-4.95909E-03
 -1      1656-1.86565E-02 9.69191E-02-1.23061E-02
 -1      1658-1.94568E-02 9.62663E-02-1.18458E-02
 -1      1659-6.24756E-03 1.12711E-01-1.70087E-02
 -1      1661-6.69320E-03 1.11484E-01-1.64873E-02
 -1      1662 7.25706E-03 1.12590E-01-1.88951E-02
 -1      1664 7.20742E-03 1.11035E-01-1.83401E-02
 -1      1665 2.00950E-02 9.64163E-02-1.77927E-02
 -1      1667 2.04326E-02 9.47922E-02-1.73323E-02
 -1      1668 3.08163E-02 6.58442E-02-1.41054E-02
 -1      1670 3.14631E-02 6.43760E-02-1.37118E-02
 -1      1671 3.81062E-02 2.46132E-02-8.38954E-03
 -1      1673 3.89679E-02 2.34454E-02-8.20630E-03
 -1      1674 4.18935E-02-2.29848E-02-1.81976E-03
 -1      1676 4.27883E-02-2.37743E-02-1.71642E-03
 -1      1677 4.19187E-02-7.20982E-02 4.68524E-03
 -1      1679 4.27504E-02-7.26042E-02 4.60637E-03
 -1      1680 4.04528E-02-1.18375E-01 9.56752E-03
 -1      1682 4.09316E-02-1.18508E-01 9.43337E-03
 -1      1683 0.00000E+00 0.00000E+00 2.12236E-04
 -1      1685 0.00000E+00 0.00000E+00-2.12236E-04
 -1      1686 6.35547E-03-1.76157E-02-3.43456E-03
 -1      1688 7.33306E-03-1.63000E-02-3.73104E-03
 -1      1689 1.08796E-02-4.80521E-02-8.91045E-03
 -1      1691 1.13665E-02-4.51435E-02-8.96749E-03
 -1      1692 1.04144E-02-7.93513E-02-1.30126E-02
 -1      1694 1.10233E-02-7.53741E-02-1.29220E-02
 -1      1695 7.60775E-03-1.05579E-01-1.64609E-02
 -1      1697 7.92283E-03-1.00819E-01-1.62816E-02
 -1      1698 2.70513E-03-1.20305E-01-1.80971E-02
 -1      1700 2.82105E-03-1.15205E-01-1.78278E-02
 -1      1701-3.02893E-03-1.20731E-01-1.78676E-02
 -1      1703-3.20976E-03-1.15798E-01-1.76018E-02
 -1      1704-8.70040E-03-1.05797E-01-1.55998E-02
 -1      1706-9.13575E-03-1.01494E-01-1.53464E-02
 -1      1707-1.33632E-02-7.71911E-02-1.15613E-02
 -1      1709-1.40175E-02-7.39654E-02-1.13808E-02
 -1      1710-1.63207E-02-3.84732E-02-6.19835E-03
 -1      1712-1.71124E-02-3.66216E-02-6.10845E-03
 -1      1713-1.71051E-02 5.21221E-03-1.69061E-04
 -1      1715-1.79388E-02 5.51688E-03-1.84621E-04
 -1      1716-1.55896E-02 4.80147E-02 5.79812E-03
 -1      1718-1.63637E-02 4.67956E-02 5.67277E-03
 -1      1719-1.19553E-02 8.41442E-02 1.09617E-02
 -1      1721-1.25748E-02 8.15799E-02 1.07527E-02
 -1      1722-6.69616E-03 1.08706E-01 1.47092E-02
 -1      1724-7.08815E-03 1.05134E-01 1.44326E-02
 -1      1725-5.21571E-04 1.18371E-01 1.65901E-02
 -1      1727-6.41670E-04 1.14227E-01 1.62975E-02
 -1      1728 5.72074E-03 1.11842E-01 1.64275E-02
 -1      1730 5.87991E-03 1.07615E-01 1.61437E-02
 -1      1731 1.11789E-02 9.00332E-02 1.42822E-02
 -1      1733 1.15895E-02 8.61967E-02 1.40625E-02
 -1      1734 1.51005E-02 5.59495E-02 1.05039E-02
 -1      1736 1.57015E-02 5.29065E-02 1.03606E-02
 -1      1737 1.69456E-02 1.42793E-02 5.61493E-03
 -1      1739 1.76530E-02 1.23146E-02 5.58792E-03
 -1      1740 1.64529E-02-2.92480E-02 3.11818E-04
 -1      1742 1.71697E-02-3.00051E-02 3.81853E-04
 -1      1743 1.36792E-02-6.86308E-02-4.71323E-03
 -1      1745 1.43098E-02-6.82083E-02-4.52702E-03
 -1      1746 8.98636E-03-9.84270E-02-8.76743E-03
 -1      1748 9.44903E-03-9.70121E-02-8.52471E-03
 -1      1749 2.98902E-03-1.14448E-01-1.13678E-02
 -1      1751 3.22498E-03-1.12340E-01-1.10554E-02
 -1      1752-3.53245E-03-1.14377E-01-1.21564E-02
 -1      1754-3.54648E-03-1.11959E-01-1.18732E-02
 -1      1755-9.76530E-03-9.79234E-02-1.11281E-02
 -1      1757-1.00269E-02-9.55886E-02-1.08322E-02
 -1      1758-1.49336E-02-6.70278E-02-8.39313E-03
 -1      1760-1.53901E-02-6.51294E-02-8.21929E-03
 -1      1761-1.86070E-02-2.50919E-02-4.44746E-03
 -1      1763-1.92132E-02-2.38995E-02-4.28247E-03
 -1      1764-2.03407E-02 2.28923E-02 2.36967E-04
 -1      1766-2.09712E-02 2.32999E-02 2.39378E-04
 -1      1767-2.08524E-02 7.27078E-02 4.87589E-03
 -1      1769-2.14729E-02 7.23292E-02 4.87085E-03
 -1      1770-2.00931E-02 1.19001E-01 8.64942E-03
 -1      1772-2.04820E-02 1.18345E-01 8.68696E-03
 -1      1773-6.35547E-03-1.76157E-02 3.43456E-03
 -1      1775-7.33306E-03-1.63000E-02 3.73104E-03
 -1      1776-1.08796E-02-4.80521E-02 8.91045E-03
 -1      1778-1.13665E-02-4.51435E-02 8.96749E-03
 -1      1779-1.04144E-02-7.93513E-02 1.30126E-02
 -1      1781-1.10233E-02-7.53741E-02 1.29220E-02
 -1      1782-7.60775E-03-1.05579E-01 1.64609E-02
 -1      1784-7.92283E-03-1.00819E-01 1.62816E-02
 -1      1785-2.70513E-03-1.20305E-01 1.80971E-02
 -1      1787-2.82105E-03-1.15205E-01 1.78278E-02
 -1      1788 3.02893E-03-1.20731E-01 1.78676E-02
 -1      1790 3.20976E-03-1.15798E-01 1.76018E-02
 -1      1791 8.70040E-03-1.05797E-01 1.55998E-02
 -1      1793 9.13575E-03-1.01494E-01 1.53464E-02
 -1      1794 1.33632E-02-7.71911E-02 1.15613E-02
 -1      1796 1.40175E-02-7.39654E-02 1.13808E-02
 -1      1797 1.63207E-02-3.84732E-02 6.19835E-03
 -1      1799 1.71124E-02-3.66216E-02 6.10845E-03
 -1      1800 1.71051E-02 5.21221E-03 1.69061E-04
 -1      1802 1.79388E-02 5.51688E-03 1.84621E-04
 -1      1803 1.55896E-02 4.80147E-02-5.79812E-03
 -1      1805 1.63637E-02 4.67956E-02-5.67277E-03
 -1      1806 1.19553E-02 8.41442E-02-1.09617E-02
 -1      1808 1.25748E-02 8.15799E-02-1.07527E-02
 -1      1809 6.69616E-03 1.08706E-01-1.47092E-02
 -1      1811 7.08815E-03 1.05134E-01-1.44326E-02
 -1      1812 5.21571E-04 1.18371E-01-1.65901E-02
 -1      1814 6.41670E-04 1.14227E-01-1.62975E-02
 -1      1815-5.72074E-03 1.11842E-01-1.64275E-02
 -1      1817-5.87991E-03 1.07615E-01-1.61437E-02
 -1      1818-1.11789E-02 9.00332E-02-1.42822E-02
 -1      1820-1.15895E-02 8.61967E-02-1.40625E-02
 -1      1821-1.51005E-02 5.59495E-02-1.05039E-02
 -1      1823-1.57015E-02 5.29065E-02-1.03606E-02
 -1      1824-1.69456E-02 1.42793E-02-5.61493E-03
 -1      1826-1.76530E-02 1.23146E-02-5.58792E-03
 -1      1827-1.64529E-02-2.92480E-02-3.11818E-04
 -1      1829-1.71697E-02-3.00051E-02-3.81853E-04
 -1      1830-1.36792E-02-6.86308E-02 4.71323E-03
 -1      1832-1.43098E-02-6.82083E-02 4.52702E-03
 -1      1833-8.98636E-03-9.84270E-02 8.76743E-03
 -1      1835-9.44903E-03-9.70121E-02 8.52471E-03
 -1      1836-2.98902E-03-1.14448E-01 1.13678E-02
 -1      1838-3.22498E-03-1.12340E-01 1.10554E-02
 -1      1839 3.53245E-03-1.14377E-01 1.21564E-02
 -1      1841 3.54648E-03-1.11959E-01 1.18732E-02
 -1      1842 9.76530E-03-9.79234E-02 1.11281E-02
 -1      1844 1.00269E-02-9.55886E-02 1.08322E-02
 -1      1845 1.49336E-02-6.70278E-02 8.39313E-03
 -1      1847 1.53901E-02-6.51294E-02 8.21929E-03
 -1      1848 1.86070E-02-2.50919E-02 4.44746E-03
 -1      1850 1.92132E-02-2.38995E-02 4.28247E-03
 -1      1851 2.03407E-02 2.28923E-02-2.36967E-04
 -1      1853 2.09712E-02 2.32999E-02-2.39378E-04
 -1      1854 2.08524E-02 7.27078E-02-4.87589E-03
 -1      1856 2.14729E-02 7.23292E-02-4.87085E-03
 -1      1857 2.00931E-02 1.19001E-01-8.64942E-03
 -1      1859 2.04820E-02 1.18345E-01-8.68696E-03
 -1      1860-8.50243E-04-1.03062E-02 2.83586E-04
 -1      1862 8.50243E-04-1.03062E-02-2.83586E-04
 -1      1863-6.83800E-04-2.77839E-02 8.66925E-04
 -1      1865 6.83800E-04-2.77839E-02-8.66925E-04
 -1      1866-8.14560E-04-4.52635E-02 1.57002E-03
 -1      1868 8.14560E-04-4.52635E-02-1.57002E-03
 -1      1869-4.61743E-04-5.98980E-02 2.16041E-03
 -1      1871 4.61743E-04-5.98980E-02-2.16041E-03
 -1      1872-2.29844E-04-6.79503E-02 2.50901E-03
 -1      1874 2.29844E-04-6.79503E-02-2.50901E-03
 -1      1875 2.11212E-04-6.81116E-02 2.54240E-03
 -1      1877-2.11212E-04-6.81116E-02-2.54240E-03
 -1      1878 5.28610E-04-5.95870E-02 2.23348E-03
 -1      1880-5.28610E-04-5.95870E-02-2.23348E-03
 -1      1881 8.59579E-04-4.35211E-02 1.62233E-03
 -1      1883-8.59579E-04-4.35211E-02-1.62233E-03
 -1      1884 1.02454E-03-2.17614E-02 7.84868E-04
 -1      1886-1.02454E-03-2.17614E-02-7.84868E-04
 -1      1887 1.08988E-03 2.68048E-03-1.62122E-04
 -1      1889-1.08988E-03 2.68048E-03 1.62122E-04
 -1      1890 9.81429E-04 2.66058E-02-1.09048E-03
 -1      1892-9.81429E-04 2.66058E-02 1.09048E-03
 -1      1893 7.57511E-04 4.66988E-02-1.86949E-03
 -1      1895-7.57511E-04 4.66988E-02 1.86949E-03
 -1      1896 4.17038E-04 6.02607E-02-2.39303E-03
 -1      1898-4.17038E-04 6.02607E-02 2.39303E-03
 -1      1899 2.86669E-05 6.54033E-02-2.58416E-03
 -1      1901-2.86669E-05 6.54033E-02 2.58416E-03
 -1      1902-3.70941E-04 6.14369E-02-2.41940E-03
 -1      1904 3.70941E-04 6.14369E-02 2.41940E-03
 -1      1905-7.13836E-04 4.88920E-02-1.91355E-03
 -1      1907 7.13836E-04 4.88920E-02 1.91355E-03
 -1      1908-9.64239E-04 2.94925E-02-1.14317E-03
 -1      1910 9.64239E-04 2.94925E-02 1.14317E-03
 -1      1911-1.07585E-03 5.91154E-03-2.01967E-04
 -1      1913 1.07585E-03 5.91154E-03 2.01967E-04
 -1      1914-1.04603E-03-1.86079E-02 7.66453E-04
 -1      1916 1.04603E-03-1.86079E-02-7.66453E-04
 -1      1917-8.61336E-04-4.06476E-02 1.64790E-03
 -1      1919 8.61336E-04-4.06476E-02-1.64790E-03
 -1      1920-5.68622E-04-5.71579E-02 2.29508E-03
 -1      1922 5.68622E-04-5.71579E-02-2.29508E-03
 -1      1923-1.75322E-04-6.57449E-02 2.64886E-03
 -1      1925 1.75322E-04-6.57449E-02-2.64886E-03
 -1      1926 2.22622E-04-6.51686E-02 2.61398E-03
 -1      1928-2.22622E-04-6.51686E-02-2.61398E-03
 -1      1929 6.35169E-04-5.52430E-02 2.24343E-03
 -1      1931-6.35169E-04-5.52430E-02-2.24343E-03
 -1      1932 9.24670E-04-3.71747E-02 1.50203E-03
 -1      1934-9.24670E-04-3.71747E-02-1.50203E-03
 -1      1935 1.17195E-03-1.29450E-02 5.74180E-04
 -1      1937-1.17195E-03-1.29450E-02-5.74180E-04
 -1      1938 1.21112E-03 1.46393E-02-5.92460E-04
 -1      1940-1.21112E-03 1.46393E-02 5.92460E-04
 -1      1941 1.20286E-03 4.24971E-02-1.67633E-03
 -1      1943-1.20286E-03 4.24971E-02 1.67633E-03
 -1      1944 1.07525E-03 6.88364E-02-2.98854E-03
 -1      1946-1.07525E-03 6.88364E-02 2.98854E-03
 -1      1947-7.96758E-15-4.41225E-14 6.06551E-04
 -1      1949-2.25167E-15-4.37309E-14-6.06551E-04
 -1      1950-1.34510E-14-7.96954E-14 1.50494E-03
 -1      1952-1.49464E-14-7.95288E-14-1.50494E-03
 -1      1953-2.03327E-14-8.95672E-14 2.31818E-03
 -1      1955-2.00222E-14-8.92203E-14-2.31818E-03
 -1      1956-2.31308E-14-1.43982E-13 2.97091E-03
 -1      1958-1.61850E-14-1.43580E-13-2.97091E-03
 -1      1959-1.64140E-14-2.19741E-13 3.32528E-03
 -1      1961-1.25143E-14-2.19810E-13-3.32528E-03
 -1      1962-7.97626E-15-2.46015E-13 3.29769E-03
 -1      1964-8.49581E-15-2.45600E-13-3.29769E-03
 -1      1965-8.55739E-15-2.67480E-13 2.88215E-03
 -1      1967-5.19723E-15-2.67397E-13-2.88215E-03
 -1      1968-1.27702E-14-3.15220E-13 2.10946E-03
 -1      1970-7.37865E-15-3.14249E-13-2.10946E-03
 -1      1971-1.49551E-14-3.94636E-13 1.08300E-03
 -1      1973-4.41661E-15-3.94497E-13-1.08300E-03
 -1      1974-8.81673E-15-4.96716E-13-7.04598E-05
 -1      1976 1.10155E-15-4.96665E-13 7.04598E-05
 -1      1977-1.86309E-15-5.94497E-13-1.19441E-03
 -1      1979 9.50845E-15-5.94906E-13 1.19441E-03
 -1      1980-3.02015E-15-7.60378E-13-2.14040E-03
 -1      1982 1.94653E-14-7.59573E-13 2.14040E-03
 -1      1983 1.22489E-14-8.43339E-13-2.78164E-03
 -1      1985 7.12104E-15-8.44144E-13 2.78164E-03
 -1      1986 1.27971E-14-7.66401E-13-3.02983E-03
 -1      1988 7.65360E-15-7.62806E-13 3.02983E-03
 -1      1989 7.31012E-15-7.57373E-13-2.85695E-03
 -1      1991 1.45162E-14-7.62730E-13 2.85695E-03
 -1      1992 1.08819E-14-7.68913E-13-2.28086E-03
 -1      1994 9.93129E-15-7.66165E-13 2.28086E-03
 -1      1995-3.76522E-15-8.78304E-13-1.39193E-03
 -1      1997 1.98695E-14-8.79852E-13 1.39193E-03
 -1      1998 1.20043E-15-1.09480E-12-2.99791E-04
 -1      2000 1.70593E-14-1.09525E-12 2.99791E-04
 -1      2001 1.20841E-14-1.20982E-12 8.25716E-04
 -1      2003 1.80203E-14-1.20948E-12-8.25716E-04
 -1      2004 2.39513E-14-1.23040E-12 1.85135E-03
 -1      2006 2.09485E-14-1.23082E-12-1.85135E-03
 -1      2007 3.49755E-14-1.12658E-12 2.60271E-03
 -1      2009 1.76872E-14-1.12434E-12-2.60271E-03
 -1      2010 3.64535E-14-9.41837E-13 3.01070E-03
 -1      2012 1.79891E-14-9.42343E-13-3.01070E-03
 -1      2013 3.43892E-14-7.20863E-13 2.96478E-03
 -1      2015 9.07260E-15-7.19405E-13-2.96478E-03
 -1      2016 2.98546E-14-3.92891E-13 2.52313E-03
 -1      2018-8.53484E-15-3.93650E-13-2.52313E-03
 -1      2019 1.34719E-14-5.20903E-14 1.66229E-03
 -1      2021-1.46619E-14-4.97866E-14-1.66229E-03
 -1      2022 3.28427E-15 1.96815E-13 5.73836E-04
 -1      2024-1.84566E-14 1.95961E-13-5.73836E-04
 -1      2025-5.73847E-15 3.49151E-13-7.09457E-04
 -1      2027-1.66343E-14 3.51580E-13 7.09457E-04
 -1      2028-9.95384E-15 3.98175E-13-1.91842E-03
 -1      2030-1.26427E-14 4.02109E-13 1.91842E-03
 -1      2031-1.18794E-14 3.77129E-13-2.99608E-03
 -1      2033-6.96318E-15 3.76227E-13 2.99608E-03
 -1      2034 8.50243E-04 1.03062E-02 2.83586E-04
 -1      2036-8.50243E-04 1.03062E-02-2.83586E-04
 -1      2037 6.83800E-04 2.77839E-02 8.66925E-04
 -1      2039-6.83800E-04 2.77839E-02-8.66925E-04
 -1      2040 8.14560E-04 4.52635E-02 1.57002E-03
 -1      2042-8.14560E-04 4.52635E-02-1.57002E-03
 -1      2043 4.61743E-04 5.98980E-02 2.16041E-03
 -1      2045-4.61743E-04 5.98980E-02-2.16041E-03
 -1      2046 2.29844E-04 6.79503E-02 2.50901E-03
 -1      2048-2.29844E-04 6.79503E-02-2.50901E-03
 -1      2049-2.11212E-04 6.81116E-02 2.54240E-03
 -1      2051 2.11212E-04 6.81116E-02-2.54240E-03
 -1      2052-5.28610E-04 5.95870E-02 2.23348E-03
 -1      2054 5.28610E-04 5.95870E-02-2.23348E-03
 -1      2055-8.59579E-04 4.35211E-02 1.62233E-03
 -1      2057 8.59579E-04 4.35211E-02-1.62233E-03
 -1      2058-1.02454E-03 2.17614E-02 7.84868E-04
 -1      2060 1.02454E-03 2.17614E-02-7.84868E-04
 -1      2061-1.08988E-03-2.68048E-03-1.62122E-04
 -1      2063 1.08988E-03-2.68048E-03 1.62122E-04
 -1      2064-9.81429E-04-2.66058E-02-1.09048E-03
 -1      2066 9.81429E-04-2.66058E-02 1.09048E-03
 -1      2067-7.57511E-04-4.66988E-02-1.86949E-03
 -1      2069 7.57511E-04-4.66988E-02 1.86949E-03
 -1      2070-4.17038E-04-6.02607E-02-2.39303E-03
 -1      2072 4.17038E-04-6.02607E-02 2.39303E-03
 -1      2073-2.86669E-05-6.54033E-02-2.58416E-03
 -1      2075 2.86669E-05-6.54033E-02 2.58416E-03
 -1      2076 3.70941E-04-6.14369E-02-2.41940E-03
 -1      2078-3.70941E-04-6.14369E-02 2.41940E-03
 -1      2079 7.13836E-04-4.88920E-02-1.91355E-03
 -1      2081-7.13836E-04-4.88920E-02 1.91355E-03
 -1      2082 9.64239E-04-2.94925E-02-1.14317E-03
 -1      2084-9.64239E-04-2.94925E-02 1.14317E-03
 -1      2085 1.07585E-03-5.91154E-03-2.01967E-04
 -1      2087-1.07585E-03-5.91154E-03 2.01967E-04
 -1      2088 1.04603E-03 1.86079E-02 7.66453E-04
 -1      2090-1.04603E-03 1.86079E-02-7.66453E-04
 -1      2091 8.61336E-04 4.06476E-02 1.64790E-03
 -1      2093-8.61336E-04 4.06476E-02-1.64790E-03
 -1      2094 5.68622E-04 5.71579E-02 2.29508E-03
 -1      2096-5.68622E-04 5.71579E-02-2.29508E-03
 -1      2097 1.75322E-04 6.57449E-02 2.64886E-03
 -1      2099-1.75322E-04 6.57449E-02-2.64886E-03
 -1      2100-2.22622E-04 6.51686E-02 2.61398E-03
 -1      2102 2.22622E-04 6.51686E-02-2.61398E-03
 -1      2103-6.35169E-04 5.52430E-02 2.24343E-03
 -1      2105 6.35169E-04 5.52430E-02-2.24343E-03
 -1      2106-9.24670E-04 3.71747E-02 1.50203E-03
 -1      2108 9.24670E-04 3.71747E-02-1.50203E-03
 -1      2109-1.17195E-03 1.29450E-02 5.74180E-04
 -1      2111 1.17195E-03 1.29450E-02-5.74180E-04
 -1      2112-1.21112E-03-1.46393E-02-5.92460E-04
 -1      2114 1.21112E-03-1.46393E-02 5.92460E-04
 -1      2115-1.20286E-03-4.24971E-02-1.67633E-03
 -1      2117 1.20286E-03-4.24971E-02 1.67633E-03
 -1      2118-1.07525E-03-6.88364E-02-2.98854E-03
 -1      2120 1.07525E-03-6.88364E-02 2.98854E-03
 -1      2121 6.35547E-03 1.76157E-02 3.43456E-03
 -1      2123 7.33306E-03 1.63000E-02 3.73104E-03
 -1      2124 1.08796E-02 4.80521E-02 8.91045E-03
 -1      2126 1.13665E-02 4.51435E-02 8.96749E-03
 -1      2127 1.04144E-02 7.93513E-02 1.30126E-02
 -1      2129 1.10233E-02 7.53741E-02 1.29220E-02
 -1      2130 7.60775E-03 1.05579E-01 1.64609E-02
 -1      2132 7.92283E-03 1.00819E-01 1.62816E-02
 -1      2133 2.70513E-03 1.20305E-01 1.80971E-02
 -1      2135 2.82105E-03 1.15205E-01 1.78278E-02
 -1      2136-3.02893E-03 1.20731E-01 1.78676E-02
 -1      2138-3.20976E-03 1.15798E-01 1.76018E-02
 -1      2139-8.70040E-03 1.05797E-01 1.55998E-02
 -1      2141-9.13575E-03 1.01494E-01 1.53464E-02
 -1      2142-1.33632E-02 7.71911E-02 1.15613E-02
 -1      2144-1.40175E-02 7.39654E-02 1.13808E-02
 -1      2145-1.63207E-02 3.84732E-02 6.19835E-03
 -1      2147-1.71124E-02 3.66216E-02 6.10845E-03
 -1      2148-1.71051E-02-5.21221E-03 1.69061E-04
 -1      2150-1.79388E-02-5.51688E-03 1.84621E-04
 -1      2151-1.55896E-02-4.80147E-02-5.79812E-03
 -1      2153-1.63637E-02-4.67956E-02-5.67277E-03
 -1      2154-1.19553E-02-8.41442E-02-1.09617E-02
 -1      2156-1.25748E-02-8.15799E-02-1.07527E-02
 -1      2157-6.69616E-03-1.08706E-01-1.47092E-02
 -1      2159-7.08815E-03-1.05134E-01-1.44326E-02
 -1      2160-5.21571E-04-1.18371E-01-1.65901E-02
 -1      2162-6.41670E-04-1.14227E-01-1.62975E-02
 -1      2163 5.72074E-03-1.11842E-01-1.64275E-02
 -1      2165 5.87991E-03-1.07615E-01-1.61437E-02
 -1      2166 1.11789E-02-9.00332E-02-1.42822E-02
 -1      2168 1.15895E-02-8.61967E-02-1.40625E-02
 -1      2169 1.51005E-02-5.59495E-02-1.05039E-02
 -1      2171 1.57015E-02-5.29065E-02-1.03606E-02
 -1      2172 1.69456E-02-1.42793E-02-5.61493E-03
 -1      2174 1.76530E-02-1.23146E-02-5.58792E-03
 -1      2175 1.64529E-02 2.92480E-02-3.11818E-04
 -1      2177 1.71697E-02 3.00051E-02-3.81853E-04
 -1      2178 1.36792E-02 6.86308E-02 4.71323E-03
 -1      2180 1.43098E-02 6.82083E-02 4.52702E-03
 -1      2181 8.98636E-03 9.84270E-02 8.76743E-03
 -1      2183 9.44903E-03 9.70121E-02 8.52471E-03
 -1      2184 2.98902E-03 1.14448E-01 1.13678E-02
 -1      2186 3.22498E-03 1.12340E-01 1.10554E-02
 -1      2187-3.53245E-03 1.14377E-01 1.21564E-02
 -1      2189-3.54648E-03 1.11959E-01 1.18732E-02
 -1      2190-9.76530E-03 9.79234E-02 1.11281E-02
 -1      2192-1.00269E-02 9.55886E-02 1.08322E-02
 -1      2193-1.49336E-02 6.70278E-02 8.39313E-03
 -1      2195-1.53901E-02 6.51294E-02 8.21929E-03
 -1      2196-1.86070E-02 2.50919E-02 4.44746E-03
 -1      2198-1.92132E-02 2.38995E-02 4.28247E-03
 -1      2199-2.03407E-02-2.28923E-02-2.36967E-04
 -1      2201-2.09712E-02-2.32999E-02-2.39378E-04
 -1      2202-2.08524E-02-7.27078E-02-4.87589E-03
 -1      2204-2.14729E-02-7.23292E-02-4.87085E-03
 -1      2205-2.00931E-02-1.19001E-01-8.64942E-03
 -1      2207-2.04820E-02-1.18345E-01-8.68696E-03
 -1      2208-6.35547E-03 1.76157E-02-3.43456E-03
 -1      2210-7.33306E-03 1.63000E-02-3.73104E-03
 -1      2211-1.08796E-02 4.80521E-02-8.91045E-03
 -1      2213-1.13665E-02 4.51435E-02-8.96749E-03
 -1      2214-1.04144E-02 7.93513E-02-1.30126E-02
 -1      2216-1.10233E-02 7.53741E-02-1.29220E-02
 -1      2217-7.60775E-03 1.05579E-01-1.64609E-02
 -1      2219-7.92283E-03 1.00819E-01-1.62816E-02
 -1      2220-2.70513E-03 1.20305E-01-1.80971E-02
 -1      2222-2.82105E-03 1.15205E-01-1.78278E-02
 -1      2223 3.02893E-03 1.20731E-01-1.78676E-02
 -1      2225 3.20976E-03 1.15798E-01-1.76018E-02
 -1      2226 8.70040E-03 1.05797E-01-1.55998E-02
 -1      2228 9.13575E-03 1.01494E-01-1.53464E-02
 -1      2229 1.33632E-02 7.71911E-02-1.15613E-02
 -1      2231 1.40175E-02 7.39654E-02-1.13808E-02
 -1      2232 1.63207E-02 3.84732E-02-6.19835E-03
 -1      2234 1.71124E-02 3.66216E-02-6.10845E-03
 -1      2235 1.71051E-02-5.21221E-03-1.69061E-04
 -1      2237 1.79388E-02-5.51688E-03-1.84621E-04
 -1      2238 1.55896E-02-4.80147E-02 5.79812E-03
 -1      2240 1.63637E-02-4.67956E-02 5.67277E-03
 -1      2241 1.19553E-02-8.41442E-02 1.09617E-02
 -1      2243 1.25748E-02-8.15799E-02 1.07527E-02
 -1      2244 6.69616E-03-1.08706E-01 1.47092E-02
 -1      2246 7.08815E-03-1.05134E-01 1.44326E-02
 -1      2247 5.21571E-04-1.18371E-01 1.65901E-02
 -1      2249 6.41670E-04-1.14227E-01 1.62975E-02
 -1      2250-5.72074E-03-1.11842E-01 1.64275E-02
 -1      2252-5.87991E-03-1.07615E-01 1.61437E-02
 -1      2253-1.11789E-02-9.00332E-02 1.42822E-02
 -1      2255-1.15895E-02-8.61967E-02 1.40625E-02
 -1      2256-1.51005E-02-5.59495E-02 1.05039E-02
 -1      2258-1.57015E-02-5.29065E-02 1.03606E-02
 -1      2259-1.69456E-02-1.42793E-02 5.61493E-03
 -1      2261-1.76530E-02-1.23146E-02 5.58792E-03
 -1      2262-1.64529E-02 2.92480E-02 3.11818E-04
 -1      2264-1.71697E-02 3.00051E-02 3.81853E-04
 -1      2265-1.36792E-02 6.86308E-02-4.71323E-03
 -1      2267-1.43098E-02 6.82083E-02-4.52702E-03
 -1      2268-8.98636E-03 9.84270E-02-8.76743E-03
 -1      2270-9.44903E-03 9.70121E-02-8.52471E-03
 -1      2271-2.98902E-03 1.14448E-01-1.13678E-02
 -1      2273-3.22498E-03 1.12340E-01-1.10554E-02
 -1      2274 3.53245E-03 1.14377E-01-1.21564E-02
 -1      2276 3.54648E-03 1.11959E-01-1.18732E-02
 -1      2277 9.76530E-03 9.79234E-02-1.11281E-02
 -1      2279 1.00269E-02 9.55886E-02-1.08322E-02
 -1      2280 1.49336E-02 6.70278E-02-8.39313E-03
 -1      2282 1.53901E-02 6.51294E-02-8.21929E-03
 -1      2283 1.86070E-02 2.50919E-02-4.44746E-03
 -1      2285 1.92132E-02 2.38995E-02-4.28247E-03
 -1      2286 2.03407E-02-2.28923E-02 2.36967E-04
 -1      2288 2.09712E-02-2.32999E-02 2.39378E-04
 -1      2289 2.08524E-02-7.27078E-02 4.87589E-03
 -1      2291 2.14729E-02-7.23292E-02 4.87085E-03
 -1      2292 2.00931E-02-1.19001E-01 8.64942E-03
 -1      2294 2.04820E-02-1.18345E-01 8.68696E-03
 -3
    1PSTEP                        74           1           1          
    1PGM                1.000000E+00                                  
    1PGK                2.050719E+07                                  
    1PHID                         -1                                  
    1PSUBC                         0                                  
    1PMODE                        19                                  
  100CL  119 720.7309944         930                     2   19MODAL      1
 -4  STRESS      6    1
 -5  SXX         1    4    1    1
 -5  SYY         1    4    2    2
 -5  SZZ         1    4    3    3
 -5  SXY         1    4    1    2
 -5  SYZ         1    4    2    3
 -5  SZX         1    4    3    1
 -1       404 2.60475E+10 2.94648E+09 5.96349E+07-5.33491E+09 1.22534E+07-2.70400E+08
 -1       406 2.60475E+10 2.94648E+09 5.96349E+07-5.33491E+09 1.22534E+07-2.70400E+08
 -1       407 1.37305E+09 7.66345E+08-2.66179E+07-7.84234E+08-1.36504E+07-1.37654E+07
 -1       409 1.37305E+09 7.66345E+08-2.66179E+07-7.84234E+08-1.36504E+07-1.37654E+07
 -1       410-5.09763E-03 1.30510E-03 1.98680E-03-2.09263E+09-1.83932E+08-4.95297E-04
 -1       412-5.09763E-03 1.30510E-03 1.98680E-03-2.09263E+09-1.83932E+08-4.95297E-04
 -1       413-1.36984E-02-5.56205E-03-4.40104E-02 4.68588E+07-4.62190E+08 5.87113E-03
 -1       415-1.36984E-02-5.56205E-03-4.40104E-02 4.68588E+07-4.62190E+08 5.87113E-03
 -1       424 3.44644E-02 3.36468E-03-2.11000E-05-7.42817E+09 2.75367E+07-2.22765E-03
 -1       426 3.44644E-02 3.36468E-03-2.11000E-05-7.42817E+09 2.75367E+07-2.22765E-03
 -1       427 2.57362E-02 7.26176E-05 1.60448E-02-5.17890E+08-4.67077E+07 1.84667E-02
 -1       429 2.57362E-02 7.26176E-05 1.60448E-02-5.17890E+08-4.67077E+07 1.84667E-02
 -1       438-1.37305E+09-7.66345E+08 2.66179E+07-7.84234E+08-1.36504E+07 1.37654E+07
 -1       440-1.37305E+09-7.66345E+08 2.66179E+07-7.84234E+08-1.36504E+07 1.37654E+07
 -1       441-2.60475E+10-2.94648E+09-5.96349E+07-5.33491E+09 1.22534E+07 2.70400E+08
 -1       443-2.60475E+10-2.94648E+09-5.96349E+07-5.33491E+09 1.22534E+07 2.70400E+08
 -1       444-3.59428E-02-1.83416E-05-2.85952E-03 5.17890E+08-4.67077E+07 4.09759E-02
 -1       446-3.59428E-02-1.83416E-05-2.85952E-03 5.17890E+08-4.67077E+07 4.09759E-02
 -1       447-3.87254E-02-4.98044E-03 3.82662E-05 7.42817E+09 2.75367E+07 5.05567E-03
 -1       449-3.87254E-02-4.98044E-03 3.82662E-05 7.42817E+09 2.75367E+07 5.05567E-03
 -1       458-4.74147E-03-1.61164E-03-4.41514E-02-4.68588E+07-4.62190E+08 1.00303E-03
 -1       460-4.74147E-03-1.61164E-03-4.41514E-02-4.68588E+07-4.62190E+08 1.00303E-03
 -1       461 5.05662E-03 3.75581E-03 2.74181E-06 2.09263E+09-1.83932E+08 3.78863E-04
 -1       463 5.05662E-03 3.75581E-03 2.74181E-06 2.09263E+09-1.83932E+08 3.78863E-04
 -1       472 2.60475E+10 2.94648E+09 5.96349E+07 5.33491E+09 1.22534E+07 2.70400E+08
 -1       474 2.60475E+10 2.94648E+09 5.96349E+07 5.33491E+09 1.22534E+07 2.70400E+08
 -1       475 1.37305E+09 7.66345E+08-2.66179E+07 7.84234E+08-1.36504E+07 1.37654E+07
 -1       477 1.37305E+09 7.66345E+08-2.66179E+07 7.84234E+08-1.36504E+07 1.37654E+07
 -1       478-1.37305E+09-7.66345E+08 2.66179E+07 7.84234E+08-1.36504E+07-1.37654E+07
 -1       480-1.37305E+09-7.66345E+08 2.66179E+07 7.84234E+08-1.36504E+07-1.37654E+07
 -1       481-2.60475E+10-2.94648E+09-5.96349E+07 5.33491E+09 1.22534E+07-2.70400E+08
 -1       483-2.60475E+10-2.94648E+09-5.96349E+07 5.33491E+09 1.22534E+07-2.70400E+08
 -1       484 1.84350E+10 8.56127E+08-6.48325E+06-4.01764E+09 1.18013E+07-9.25034E+07
 -1       486 1.84350E+10 8.56127E+08-6.48325E+06-4.01764E+09 1.18013E+07-9.25034E+07
 -1       487 4.98784E+09-3.70910E+08 1.22970E+06-2.74483E+09 1.69439E+07 3.47257E+06
 -1       489 4.98784E+09-3.70910E+08 1.22970E+06-2.74483E+09 1.69439E+07 3.47257E+06
 -1       490-5.49411E+09 1.59606E+07-9.00290E+05-2.30005E+09 2.29765E+07-3.52063E+07
 -1       492-5.49411E+09 1.59606E+07-9.00290E+05-2.30005E+09 2.29765E+07-3.52063E+07
 -1       493-1.31806E+10-2.69605E+08-1.43291E+07-1.46871E+09 2.47245E+07-5.50914E+06
 -1       495-1.31806E+10-2.69605E+08-1.43291E+07-1.46871E+09 2.47245E+07-5.50914E+06
 -1       496-1.76837E+10-2.16043E+08-5.88426E+06-7.15143E+08 2.73928E+07-5.66624E+06
 -1       498-1.76837E+10-2.16043E+08-5.88426E+06-7.15143E+08 2.73928E+07-5.66624E+06
 -1       499-1.89625E+10-2.73018E+08-1.63031E+07 7.51476E+07 2.61858E+07 9.34596E+06
 -1       501-1.89625E+10-2.73018E+08-1.63031E+07 7.51476E+07 2.61858E+07 9.34596E+06
 -1       502-1.71238E+10-2.16603E+08-6.64619E+06 7.83699E+08 2.22980E+07 1.68206E+07
 -1       504-1.71238E+10-2.16603E+08-6.64619E+06 7.83699E+08 2.22980E+07 1.68206E+07
 -1       505-1.26293E+10-1.72431E+08-1.07462E+07 1.34903E+09 1.51020E+07 2.54959E+07
 -1       507-1.26293E+10-1.72431E+08-1.07462E+07 1.34903E+09 1.51020E+07 2.54959E+07
 -1       508-6.20778E+09-7.78504E+07-1.35581E+06 1.70548E+09 5.24476E+06 3.00521E+07
 -1       510-6.20778E+09-7.78504E+07-1.35581E+06 1.70548E+09 5.24476E+06 3.00521E+07
 -1       511 1.18221E+09 1.13981E+07-1.30067E+06 1.81411E+09-5.56219E+06 3.17338E+07
 -1       513 1.18221E+09 1.13981E+07-1.30067E+06 1.81411E+09-5.56219E+06 3.17338E+07
 -1       514 8.48444E+09 1.09844E+08 6.54419E+06 1.66473E+09-1.64479E+07 2.96693E+07
 -1       516 8.48444E+09 1.09844E+08 6.54419E+06 1.66473E+09-1.64479E+07 2.96693E+07
 -1       517 1.46681E+10 1.86743E+08 7.48473E+06 1.28209E+09-2.51990E+07 2.43264E+07
 -1       519 1.46681E+10 1.86743E+08 7.48473E+06 1.28209E+09-2.51990E+07 2.43264E+07
 -1       520 1.88690E+10 2.42460E+08 1.21799E+07 7.19843E+08-3.11294E+07 1.64114E+07
 -1       522 1.88690E+10 2.42460E+08 1.21799E+07 7.19843E+08-3.11294E+07 1.64114E+07
 -1       523 2.04992E+10 2.62310E+08 1.14361E+07 5.68942E+07-3.27814E+07 6.85349E+06
 -1       525 2.04992E+10 2.62310E+08 1.14361E+07 5.68942E+07-3.27814E+07 6.85349E+06
 -1       526 1.93274E+10 2.47865E+08 1.20852E+07-6.15853E+08-3.02804E+07-3.02755E+06
 -1       528 1.93274E+10 2.47865E+08 1.20852E+07-6.15853E+08-3.02804E+07-3.02755E+06
 -1       529 1.55075E+10 1.98638E+08 8.81590E+06-1.20558E+09-2.34941E+07-1.21032E+07
 -1       531 1.55075E+10 1.98638E+08 8.81590E+06-1.20558E+09-2.34941E+07-1.21032E+07
 -1       532 9.55638E+09 1.22152E+08 5.97227E+06-1.63204E+09-1.35928E+07-1.91656E+07
 -1       534 9.55638E+09 1.22152E+08 5.97227E+06-1.63204E+09-1.35928E+07-1.91656E+07
 -1       535 2.28181E+09 2.97149E+07 1.28279E+06-1.83692E+09-1.59653E+06-2.34832E+07
 -1       537 2.28181E+09 2.97149E+07 1.28279E+06-1.83692E+09-1.59653E+06-2.34832E+07
 -1       538-5.33096E+09-6.90900E+07-3.21305E+06-1.79368E+09 1.06216E+07-2.45387E+07
 -1       540-5.33096E+09-6.90900E+07-3.21305E+06-1.79368E+09 1.06216E+07-2.45387E+07
 -1       541-1.22543E+10-1.54514E+08-6.92136E+06-1.50940E+09 2.16478E+07-2.23875E+07
 -1       543-1.22543E+10-1.54514E+08-6.92136E+06-1.50940E+09 2.16478E+07-2.23875E+07
 -1       544-1.75668E+10-2.26194E+08-1.09451E+07-1.02667E+09 2.96081E+07-1.74663E+07
 -1       546-1.75668E+10-2.26194E+08-1.09451E+07-1.02667E+09 2.96081E+07-1.74663E+07
 -1       547-2.05792E+10-2.55377E+08-1.11655E+07-4.16248E+08 3.36176E+07-1.04814E+07
 -1       549-2.05792E+10-2.55377E+08-1.11655E+07-4.16248E+08 3.36176E+07-1.04814E+07
 -1       550-2.09466E+10-2.68312E+08-1.36145E+07 2.32985E+08 3.24713E+07-2.82527E+06
 -1       552-2.09466E+10-2.68312E+08-1.36145E+07 2.32985E+08 3.24713E+07-2.82527E+06
 -1       553-1.87219E+10-2.20128E+08-8.87559E+06 8.07794E+08 2.62758E+07 5.04510E+06
 -1       555-1.87219E+10-2.20128E+08-8.87559E+06 8.07794E+08 2.62758E+07 5.04510E+06
 -1       556-1.43798E+10-1.69285E+08-1.05517E+07 1.24547E+09 1.51599E+07 1.04482E+07
 -1       558-1.43798E+10-1.69285E+08-1.05517E+07 1.24547E+09 1.51599E+07 1.04482E+07
 -1       559-8.79208E+09-8.90124E+07-1.11783E+06 1.36066E+09-6.73831E+05 1.54309E+07
 -1       561-8.79208E+09-8.90124E+07-1.11783E+06 1.36066E+09-6.73831E+05 1.54309E+07
 -1       562-3.15910E+09 6.13739E+07-4.07203E+06 1.28283E+09-1.66376E+07 1.37838E+07
 -1       564-3.15910E+09 6.13739E+07-4.07203E+06 1.28283E+09-1.66376E+07 1.37838E+07
 -1       565 1.05741E+09-1.06873E+07 5.48027E+06 6.07715E+08-3.61939E+07 1.57418E+07
 -1       567 1.05741E+09-1.06873E+07 5.48027E+06 6.07715E+08-3.61939E+07 1.57418E+07
 -1       568 1.99488E+09 3.17128E+08 8.36337E+06-4.21794E+08-3.11880E+07 4.61250E+06
 -1       570 1.99488E+09 3.17128E+08 8.36337E+06-4.21794E+08-3.11880E+07 4.61250E+06
 -1       571 1.29234E+09 1.72754E+09 2.43551E+07-1.43843E+09-9.87914E+07-8.06088E+06
 -1       573 1.29234E+09 1.72754E+09 2.43551E+07-1.43843E+09-9.87914E+07-8.06088E+06
 -1       574 3.02327E-02 1.64092E-04-1.22786E-05-7.64861E+09-2.61342E+07-1.11683E-03
 -1       576 3.02327E-02 1.64092E-04-1.22786E-05-7.64861E+09-2.61342E+07-1.11683E-03
 -1       577 2.10788E-02 2.80253E-04 1.64011E-02-1.51493E+08-1.01780E+08 2.25324E-02
 -1       579 2.10788E-02 2.80253E-04 1.64011E-02-1.51493E+08-1.01780E+08 2.25324E-02
 -1       588 1.72923E-02-1.49458E-03-4.72181E-05-6.62851E+09-8.29483E+07-1.11319E-03
 -1       590 1.72923E-02-1.49458E-03-4.72181E-05-6.62851E+09-8.29483E+07-1.11319E-03
 -1       591 8.52581E-03 9.75234E-04 7.08175E-03-5.07936E+07-1.58837E+08 2.52418E-02
 -1       593 8.52581E-03 9.75234E-04 7.08175E-03-5.07936E+07-1.58837E+08 2.52418E-02
 -1       602 6.01292E-04 8.97929E-04 2.44785E-04-4.83332E+09-7.31374E+07-1.30704E-03
 -1       604 6.01292E-04 8.97929E-04 2.44785E-04-4.83332E+09-7.31374E+07-1.30704E-03
 -1       605-8.13956E-03 6.28666E-04-1.96077E-02-1.18550E+08-1.46051E+08 2.26144E-02
 -1       607-8.13956E-03 6.28666E-04-1.96077E-02-1.18550E+08-1.46051E+08 2.26144E-02
 -1       616-1.04861E-02 9.46760E-04 2.55466E-04-3.32032E+09-6.89441E+07-9.31011E-04
 -1       618-1.04861E-02 9.46760E-04 2.55466E-04-3.32032E+09-6.89441E+07-9.31011E-04
 -1       619-1.98941E-02 2.75246E-04-5.03759E-02-3.95429E+07-1.27283E+08 1.36867E-02
 -1       621-1.98941E-02 2.75246E-04-5.03759E-02-3.95429E+07-1.27283E+08 1.36867E-02
 -1       630-1.22366E-02-1.49071E-04 1.01566E-04-1.54708E+09-6.26332E+07-8.05006E-04
 -1       632-1.22366E-02-1.49071E-04 1.01566E-04-1.54708E+09-6.26332E+07-8.05006E-04
 -1       633-2.18092E-02-3.55491E-05-6.33302E-02-4.14463E+07-1.06713E+08-3.56873E-03
 -1       635-2.18092E-02-3.55491E-05-6.33302E-02-4.14463E+07-1.06713E+08-3.56873E-03
 -1       644-1.01535E-02-8.80390E-04 3.01600E-04 1.42986E+08-5.14136E+07-3.60676E-04
 -1       646-1.01535E-02-8.80390E-04 3.01600E-04 1.42986E+08-5.14136E+07-3.60676E-04
 -1       647-1.91889E-02-1.37793E-03-4.99081E-02 2.91086E+07-8.46912E+07-1.77395E-02
 -1       649-1.91889E-02-1.37793E-03-4.99081E-02 2.91086E+07-8.46912E+07-1.77395E-02
 -1       658-1.21114E-02-3.09527E-04 7.36713E-05 1.71135E+09-4.41195E+07-2.94937E-04
 -1       660-1.21114E-02-3.09527E-04 7.36713E-05 1.71135E+09-4.41195E+07-2.94937E-04
 -1       661-1.94170E-02-1.55359E-03-2.95932E-02 4.96445E+07-6.97118E+07-1.92074E-02
 -1       663-1.94170E-02-1.55359E-03-2.95932E-02 4.96445E+07-6.97118E+07-1.92074E-02
 -1       672-1.95596E-02 2.61891E-03 1.90735E-04 2.94018E+09-3.23097E+07 2.79523E-05
 -1       674-1.95596E-02 2.61891E-03 1.90735E-04 2.94018E+09-3.23097E+07 2.79523E-05
 -1       675-2.67614E-02-2.55218E-03-2.96186E-02 9.77050E+07-5.57012E+07-1.50369E-02
 -1       677-2.67614E-02-2.55218E-03-2.96186E-02 9.77050E+07-5.57012E+07-1.50369E-02
 -1       686-2.55177E-02 3.27505E-03 2.26475E-04 3.72585E+09-2.29386E+07-2.12276E-05
 -1       688-2.55177E-02 3.27505E-03 2.26475E-04 3.72585E+09-2.29386E+07-2.12276E-05
 -1       689-3.11063E-02-3.15841E-03-4.40909E-02 1.08786E+08-4.67098E+07-2.41010E-02
 -1       691-3.11063E-02-3.15841E-03-4.40909E-02 1.08786E+08-4.67098E+07-2.41010E-02
 -1       700-2.20937E-02 2.84165E-05-5.21637E-04 3.95997E+09-1.11741E+07-9.61190E-05
 -1       702-2.20937E-02 2.84165E-05-5.21637E-04 3.95997E+09-1.11741E+07-9.61190E-05
 -1       703-2.28113E-02 9.99654E-04-4.32663E-02 1.22055E+08-3.82795E+07-4.22856E-02
 -1       705-2.28113E-02 9.99654E-04-4.32663E-02 1.22055E+08-3.82795E+07-4.22856E-02
 -1       714-1.01342E-02-1.97735E-03-2.55361E-04 3.63721E+09-9.55434E+05 3.74098E-05
 -1       716-1.01342E-02-1.97735E-03-2.55361E-04 3.63721E+09-9.55434E+05 3.74098E-05
 -1       717-1.04338E-02-3.29207E-04-2.46253E-02 1.06928E+08-3.14322E+07-4.72665E-02
 -1       719-1.04338E-02-3.29207E-04-2.46253E-02 1.06928E+08-3.14322E+07-4.72665E-02
 -1       728 3.12948E-03-1.37803E-03-2.32816E-04 2.79934E+09 9.69072E+06 1.18746E-04
 -1       730 3.12948E-03-1.37803E-03-2.32816E-04 2.79934E+09 9.69072E+06 1.18746E-04
 -1       731 3.32675E-04-2.69293E-03-6.04504E-03 8.55865E+07-2.33202E+07-3.59626E-02
 -1       733 3.32675E-04-2.69293E-03-6.04504E-03 8.55865E+07-2.33202E+07-3.59626E-02
 -1       742 1.34912E-02 3.67403E-04 8.67605E-04 1.57291E+09 1.87635E+07-2.83378E-05
 -1       744 1.34912E-02 3.67403E-04 8.67605E-04 1.57291E+09 1.87635E+07-2.83378E-05
 -1       745 9.82700E-03 2.76830E-04 4.21636E-04 4.67242E+07-1.43025E+07-2.01833E-02
 -1       747 9.82700E-03 2.76830E-04 4.21636E-04 4.67242E+07-1.43025E+07-2.01833E-02
 -1       756 1.88928E-02-6.90877E-04 1.10823E-03 1.23443E+08 2.67519E+07-2.28769E-04
 -1       758 1.88928E-02-6.90877E-04 1.10823E-03 1.23443E+08 2.67519E+07-2.28769E-04
 -1       759 1.56351E-02 1.44749E-03-4.43744E-03 5.82604E+06-2.67560E+06-6.66016E-03
 -1       761 1.56351E-02 1.44749E-03-4.43744E-03 5.82604E+06-2.67560E+06-6.66016E-03
 -1       770 2.00171E-02-4.56220E-03-9.03785E-04-1.34522E+09 3.28905E+07-1.64667E-04
 -1       772 2.00171E-02-4.56220E-03-9.03785E-04-1.34522E+09 3.28905E+07-1.64667E-04
 -1       773 1.60779E-02 1.20653E-03-8.94754E-03-3.90860E+07 1.02957E+07 1.75797E-03
 -1       775 1.60779E-02 1.20653E-03-8.94754E-03-3.90860E+07 1.02957E+07 1.75797E-03
 -1       784 2.36154E-02-6.04004E-03-2.28226E-04-2.63448E+09 3.69678E+07-4.79499E-04
 -1       786 2.36154E-02-6.04004E-03-2.28226E-04-2.63448E+09 3.69678E+07-4.79499E-04
 -1       787 1.44609E-02-7.39092E-04-1.04741E-02-7.58836E+07 2.55973E+07 7.08294E-03
 -1       789 1.44609E-02-7.39092E-04-1.04741E-02-7.58836E+07 2.55973E+07 7.08294E-03
 -1       798 2.78817E-02-4.34762E-03-3.61264E-04-3.56529E+09 3.91874E+07-2.39102E-04
 -1       800 2.78817E-02-4.34762E-03-3.61264E-04-3.56529E+09 3.91874E+07-2.39102E-04
 -1       801 1.46692E-02-3.53652E-04-1.95007E-02-1.04844E+08 4.03623E+07 1.12935E-02
 -1       803 1.46692E-02-3.53652E-04-1.95007E-02-1.04844E+08 4.03623E+07 1.12935E-02
 -1       812 2.38959E-02-2.99066E-05-5.91084E-04-4.01414E+09 3.89269E+07-1.63931E-04
 -1       814 2.38959E-02-2.99066E-05-5.91084E-04-4.01414E+09 3.89269E+07-1.63931E-04
 -1       815 9.57458E-03 2.23599E-05-3.56125E-02-1.16688E+08 5.57056E+07 6.12355E-03
 -1       817 9.57458E-03 2.23599E-05-3.56125E-02-1.16688E+08 5.57056E+07 6.12355E-03
 -1       826 1.18052E-02 2.88908E-03-4.41059E-04-3.91852E+09 3.73168E+07-3.29334E-04
 -1       828 1.18052E-02 2.88908E-03-4.41059E-04-3.91852E+09 3.73168E+07-3.29334E-04
 -1       829-1.03184E-03-2.36559E-04-4.16454E-02-1.15942E+08 6.70276E+07-2.44237E-03
 -1       831-1.03184E-03-2.36559E-04-4.16454E-02-1.15942E+08 6.70276E+07-2.44237E-03
 -1       840-1.52016E-03 3.22601E-03 4.31240E-04-3.29984E+09 3.33183E+07-9.83579E-05
 -1       842-1.52016E-03 3.22601E-03 4.31240E-04-3.29984E+09 3.33183E+07-9.83579E-05
 -1       843-1.22933E-02-2.69812E-04-4.04424E-02-9.49374E+07 7.70798E+07 3.13028E-04
 -1       845-1.22933E-02-2.69812E-04-4.04424E-02-9.49374E+07 7.70798E+07 3.13028E-04
 -1       854-1.30553E-02 2.01482E-03 2.26080E-04-2.24371E+09 2.89957E+07-2.10624E-04
 -1       856-1.30553E-02 2.01482E-03 2.26080E-04-2.24371E+09 2.89957E+07-2.10624E-04
 -1       857-2.30194E-02-3.67525E-04-4.53520E-02-6.70020E+07 7.92981E+07 9.77934E-03
 -1       859-2.30194E-02-3.67525E-04-4.53520E-02-6.70020E+07 7.92981E+07 9.77934E-03
 -1       868-2.09334E-02 4.88818E-04 1.42217E-04-9.13009E+08 2.28577E+07 8.91439E-06
 -1       870-2.09334E-02 4.88818E-04 1.42217E-04-9.13009E+08 2.28577E+07 8.91439E-06
 -1       871-3.10704E-02 4.13808E-04-4.91516E-02-2.13363E+07 8.03630E+07 1.20817E-02
 -1       873-3.10704E-02 4.13808E-04-4.91516E-02-2.13363E+07 8.03630E+07 1.20817E-02
 -1       882-2.40786E-02-4.09842E-04 5.82874E-04 5.00609E+08 1.75679E+07-3.50629E-05
 -1       884-2.40786E-02-4.09842E-04 5.82874E-04 5.00609E+08 1.75679E+07-3.50629E-05
 -1       885-3.43412E-02-8.21080E-05-4.02286E-02 1.54702E+07 7.00300E+07 7.38692E-03
 -1       887-3.43412E-02-8.21080E-05-4.02286E-02 1.54702E+07 7.00300E+07 7.38692E-03
 -1       896-2.25625E-02-2.46841E-03-8.48889E-04 1.77029E+09 1.18281E+07 2.98211E-04
 -1       898-2.25625E-02-2.46841E-03-8.48889E-04 1.77029E+09 1.18281E+07 2.98211E-04
 -1       899-2.92920E-02 1.53527E-03-2.20897E-02 6.73832E+07 6.28350E+07 5.09070E-03
 -1       901-2.92920E-02 1.53527E-03-2.20897E-02 6.73832E+07 6.28350E+07 5.09070E-03
 -1       910-1.71559E-02-2.19867E-03 3.97265E-05 2.66752E+09 6.43114E+06-1.29814E-04
 -1       912-1.71559E-02-2.19867E-03 3.97265E-05 2.66752E+09 6.43114E+06-1.29814E-04
 -1       913-2.23087E-02 2.19774E-03-1.19045E-02 8.81077E+07 3.78645E+07 8.20471E-03
 -1       915-2.23087E-02 2.19774E-03-1.19045E-02 8.81077E+07 3.78645E+07 8.20471E-03
 -1       924-1.48920E-02 1.64211E-03 6.45369E-04 3.04090E+09 4.04445E+06 2.85129E-05
 -1       926-1.48920E-02 1.64211E-03 6.45369E-04 3.04090E+09 4.04445E+06 2.85129E-05
 -1       927-2.03250E-02 1.58938E-03-1.59161E-02 1.28050E+08 2.73645E+07 1.38525E-02
 -1       929-2.03250E-02 1.58938E-03-1.59161E-02 1.28050E+08 2.73645E+07 1.38525E-02
 -1       938-1.67200E-02 2.14204E-03 7.34851E-04 2.61009E+09-9.39213E+06-1.37030E-04
 -1       940-1.67200E-02 2.14204E-03 7.34851E-04 2.61009E+09-9.39213E+06-1.37030E-04
 -1       941-2.05226E-02 1.32249E-03-2.39523E-02 1.19623E+08-2.68722E+07 1.34107E-02
 -1       943-2.05226E-02 1.32249E-03-2.39523E-02 1.19623E+08-2.68722E+07 1.34107E-02
 -1       952-1.70925E-02-2.13873E-03 5.69399E-04 1.42151E+09-1.27986E+07-3.23379E-04
 -1       954-1.70925E-02-2.13873E-03 5.69399E-04 1.42151E+09-1.27986E+07-3.23379E-04
 -1       955-1.99980E-02 3.34851E-04-3.20433E-02 1.28100E+08-4.30444E+07 9.83115E-03
 -1       957-1.99980E-02 3.34851E-04-3.20433E-02 1.28100E+08-4.30444E+07 9.83115E-03
 -1       966-1.08036E-02-1.63126E-03 1.03335E-03-6.95853E+08-9.52425E+07 1.07536E-04
 -1       968-1.08036E-02-1.63126E-03 1.03335E-03-6.95853E+08-9.52425E+07 1.07536E-04
 -1       969-1.66099E-02-2.57927E-03-4.03268E-02 1.32196E+08-2.20642E+08 7.57759E-03
 -1       971-1.66099E-02-2.57927E-03-4.03268E-02 1.32196E+08-2.20642E+08 7.57759E-03
 -1       980 1.68416E+10 2.24639E+09 5.26194E+06-6.38154E+09 1.98951E+07-1.27546E+08
 -1       982 1.68416E+10 2.24639E+09 5.26194E+06-6.38154E+09 1.98951E+07-1.27546E+08
 -1       983-1.29234E+09-1.72754E+09-2.43551E+07-1.43843E+09-9.87914E+07 8.06088E+06
 -1       985-1.29234E+09-1.72754E+09-2.43551E+07-1.43843E+09-9.87914E+07 8.06088E+06
 -1       986-1.84350E+10-8.56127E+08 6.48325E+06-4.01764E+09 1.18013E+07 9.25034E+07
 -1       988-1.84350E+10-8.56127E+08 6.48325E+06-4.01764E+09 1.18013E+07 9.25034E+07
 -1       989-4.98784E+09 3.70910E+08-1.22970E+06-2.74483E+09 1.69439E+07-3.47257E+06
 -1       991-4.98784E+09 3.70910E+08-1.22970E+06-2.74483E+09 1.69439E+07-3.47257E+06
 -1       992 5.49411E+09-1.59606E+07 9.00290E+05-2.30005E+09 2.29765E+07 3.52063E+07
 -1       994 5.49411E+09-1.59606E+07 9.00290E+05-2.30005E+09 2.29765E+07 3.52063E+07
 -1       995 1.31806E+10 2.69605E+08 1.43291E+07-1.46871E+09 2.47245E+07 5.50914E+06
 -1       997 1.31806E+10 2.69605E+08 1.43291E+07-1.46871E+09 2.47245E+07 5.50914E+06
 -1       998 1.76837E+10 2.16043E+08 5.88426E+06-7.15143E+08 2.73928E+07 5.66624E+06
 -1      1000 1.76837E+10 2.16043E+08 5.88426E+06-7.15143E+08 2.73928E+07 5.66624E+06
 -1      1001 1.89625E+10 2.73018E+08 1.63031E+07 7.51476E+07 2.61858E+07-9.34596E+06
 -1      1003 1.89625E+10 2.73018E+08 1.63031E+07 7.51476E+07 2.61858E+07-9.34596E+06
 -1      1004 1.71238E+10 2.16603E+08 6.64619E+06 7.83699E+08 2.22980E+07-1.68206E+07
 -1      1006 1.71238E+10 2.16603E+08 6.64619E+06 7.83699E+08 2.22980E+07-1.68206E+07
 -1      1007 1.26293E+10 1.72431E+08 1.07462E+07 1.34903E+09 1.51020E+07-2.54959E+07
 -1      1009 1.26293E+10 1.72431E+08 1.07462E+07 1.34903E+09 1.51020E+07-2.54959E+07
 -1      1010 6.20778E+09 7.78504E+07 1.35581E+06 1.70548E+09 5.24476E+06-3.00521E+07
 -1      1012 6.20778E+09 7.78504E+07 1.35581E+06 1.70548E+09 5.24476E+06-3.00521E+07
 -1      1013-1.18221E+09-1.13981E+07 1.30067E+06 1.81411E+09-5.56219E+06-3.17338E+07
 -1      1015-1.18221E+09-1.13981E+07 1.30067E+06 1.81411E+09-5.56219E+06-3.17338E+07
 -1      1016-8.48444E+09-1.09844E+08-6.54419E+06 1.66473E+09-1.64479E+07-2.96693E+07
 -1      1018-8.48444E+09-1.09844E+08-6.54419E+06 1.66473E+09-1.64479E+07-2.96693E+07
 -1      1019-1.46681E+10-1.86743E+08-7.48473E+06 1.28209E+09-2.51990E+07-2.43264E+07
 -1      1021-1.46681E+10-1.86743E+08-7.48473E+06 1.28209E+09-2.51990E+07-2.43264E+07
 -1      1022-1.88690E+10-2.42460E+08-1.21799E+07 7.19843E+08-3.11294E+07-1.64114E+07
 -1      1024-1.88690E+10-2.42460E+08-1.21799E+07 7.19843E+08-3.11294E+07-1.64114E+07
 -1      1025-2.04992E+10-2.62310E+08-1.14361E+07 5.68942E+07-3.27814E+07-6.85349E+06
 -1      1027-2.04992E+10-2.62310E+08-1.14361E+07 5.68942E+07-3.27814E+07-6.85349E+06
 -1      1028-1.93274E+10-2.47865E+08-1.20852E+07-6.15853E+08-3.02804E+07 3.02755E+06
 -1      1030-1.93274E+10-2.47865E+08-1.20852E+07-6.15853E+08-3.02804E+07 3.02755E+06
 -1      1031-1.55075E+10-1.98638E+08-8.81590E+06-1.20558E+09-2.34941E+07 1.21032E+07
 -1      1033-1.55075E+10-1.98638E+08-8.81590E+06-1.20558E+09-2.34941E+07 1.21032E+07
 -1      1034-9.55638E+09-1.22152E+08-5.97227E+06-1.63204E+09-1.35928E+07 1.91656E+07
 -1      1036-9.55638E+09-1.22152E+08-5.97227E+06-1.63204E+09-1.35928E+07 1.91656E+07
 -1      1037-2.28181E+09-2.97149E+07-1.28279E+06-1.83692E+09-1.59653E+06 2.34832E+07
 -1      1039-2.28181E+09-2.97149E+07-1.28279E+06-1.83692E+09-1.59653E+06 2.34832E+07
 -1      1040 5.33096E+09 6.90900E+07 3.21305E+06-1.79368E+09 1.06216E+07 2.45387E+07
 -1      1042 5.33096E+09 6.90900E+07 3.21305E+06-1.79368E+09 1.06216E+07 2.45387E+07
 -1      1043 1.22543E+10 1.54514E+08 6.92136E+06-1.50940E+09 2.16478E+07 2.23875E+07
 -1      1045 1.22543E+10 1.54514E+08 6.92136E+06-1.50940E+09 2.16478E+07 2.23875E+07
 -1      1046 1.75668E+10 2.26194E+08 1.09451E+07-1.02667E+09 2.96081E+07 1.74663E+07
 -1      1048 1.75668E+10 2.26194E+08 1.09451E+07-1.02667E+09 2.96081E+07 1.74663E+07
 -1      1049 2.05792E+10 2.55377E+08 1.11655E+07-4.16248E+08 3.36176E+07 1.04814E+07
 -1      1051 2.05792E+10 2.55377E+08 1.11655E+07-4.16248E+08 3.36176E+07 1.04814E+07
 -1      1052 2.09466E+10 2.68312E+08 1.36145E+07 2.32985E+08 3.24713E+07 2.82527E+06
 -1      1054 2.09466E+10 2.68312E+08 1.36145E+07 2.32985E+08 3.24713E+07 2.82527E+06
 -1      1055 1.87219E+10 2.20128E+08 8.87559E+06 8.07794E+08 2.62758E+07-5.04510E+06
 -1      1057 1.87219E+10 2.20128E+08 8.87559E+06 8.07794E+08 2.62758E+07-5.04510E+06
 -1      1058 1.43798E+10 1.69285E+08 1.05517E+07 1.24547E+09 1.51599E+07-1.04482E+07
 -1      1060 1.43798E+10 1.69285E+08 1.05517E+07 1.24547E+09 1.51599E+07-1.04482E+07
 -1      1061 8.79208E+09 8.90124E+07 1.11783E+06 1.36066E+09-6.73831E+05-1.54309E+07
 -1      1063 8.79208E+09 8.90124E+07 1.11783E+06 1.36066E+09-6.73831E+05-1.54309E+07
 -1      1064 3.15910E+09-6.13739E+07 4.07203E+06 1.28283E+09-1.66376E+07-1.37838E+07
 -1      1066 3.15910E+09-6.13739E+07 4.07203E+06 1.28283E+09-1.66376E+07-1.37838E+07
 -1      1067-1.05741E+09 1.06873E+07-5.48027E+06 6.07715E+08-3.61939E+07-1.57418E+07
 -1      1069-1.05741E+09 1.06873E+07-5.48027E+06 6.07715E+08-3.61939E+07-1.57418E+07
 -1      1070-1.99488E+09-3.17128E+08-8.36337E+06-4.21794E+08-3.11880E+07-4.61250E+06
 -1      1072-1.99488E+09-3.17128E+08-8.36337E+06-4.21794E+08-3.11880E+07-4.61250E+06
 -1      1073-1.68416E+10-2.24639E+09-5.26194E+06-6.38154E+09 1.98951E+07 1.27546E+08
 -1      1075-1.68416E+10-2.24639E+09-5.26194E+06-6.38154E+09 1.98951E+07 1.27546E+08
 -1      1076 1.30872E-02-7.96779E-05 1.27791E-02-3.43693E+08-3.22769E+07 2.31269E-02
 -1      1078 1.30872E-02-7.96779E-05 1.27791E-02-3.43693E+08-3.22769E+07 2.31269E-02
 -1      1079-8.73420E-03-4.34456E-05 6.25270E-03-1.48967E-03-1.78460E+07 3.12561E-02
 -1      1081-8.73420E-03-4.34456E-05 6.25270E-03-1.48967E-03-1.78460E+07 3.12561E-02
 -1      1082-2.69247E-02 6.33703E-05 6.62375E-05 3.43693E+08-3.22769E+07 3.78505E-02
 -1      1084-2.69247E-02 6.33703E-05 6.62375E-05 3.43693E+08-3.22769E+07 3.78505E-02
 -1      1085-2.81362E-02 2.14094E-04 1.90200E-03 1.51493E+08-1.01780E+08 3.60615E-02
 -1      1087-2.81362E-02 2.14094E-04 1.90200E-03 1.51493E+08-1.01780E+08 3.60615E-02
 -1      1088-3.02668E-02-9.47446E-04-5.97835E-05 7.64861E+09-2.61342E+07 1.32133E-03
 -1      1090-3.02668E-02-9.47446E-04-5.97835E-05 7.64861E+09-2.61342E+07 1.32133E-03
 -1      1099-1.48902E-02 1.30712E-03 2.49951E-03 5.07936E+07-1.58837E+08 2.50784E-02
 -1      1101-1.48902E-02 1.30712E-03 2.49951E-03 5.07936E+07-1.58837E+08 2.50784E-02
 -1      1102-1.61807E-02 1.84536E-03-1.10865E-05 6.62851E+09-8.29483E+07-1.29612E-05
 -1      1104-1.61807E-02 1.84536E-03-1.10865E-05 6.62851E+09-8.29483E+07-1.29612E-05
 -1      1113-7.34640E-03 1.45491E-03-8.47625E-03 1.18550E+08-1.46051E+08 1.65025E-02
 -1      1115-7.34640E-03 1.45491E-03-8.47625E-03 1.18550E+08-1.46051E+08 1.65025E-02
 -1      1116-7.57360E-03-1.33649E-03 1.01328E-05 4.83332E+09-7.31374E+07 9.77984E-04
 -1      1118-7.57360E-03-1.33649E-03 1.01328E-05 4.83332E+09-7.31374E+07 9.77984E-04
 -1      1127-4.18015E-03 1.06998E-03-2.32618E-02 3.95429E+07-1.27283E+08 9.03190E-03
 -1      1129-4.18015E-03 1.06998E-03-2.32618E-02 3.95429E+07-1.27283E+08 9.03190E-03
 -1      1130-7.33137E-04-2.27052E-03 8.14199E-05 3.32032E+09-6.89441E+07 4.66819E-04
 -1      1132-7.33137E-04-2.27052E-03 8.14199E-05 3.32032E+09-6.89441E+07 4.66819E-04
 -1      1141-2.30258E-03 1.67296E-04-3.92616E-02 4.14463E+07-1.06713E+08 2.20840E-03
 -1      1143-2.30258E-03 1.67296E-04-3.92616E-02 4.14463E+07-1.06713E+08 2.20840E-03
 -1      1144 7.29871E-03 6.51807E-04 3.52621E-04 1.54708E+09-6.26332E+07 7.82641E-04
 -1      1146 7.29871E-03 6.51807E-04 3.52621E-04 1.54708E+09-6.26332E+07 7.82641E-04
 -1      1155 1.12779E-03-2.33042E-03-4.60439E-02-2.91086E+07-8.46912E+07 2.26350E-03
 -1      1157 1.12779E-03-2.33042E-03-4.60439E-02-2.91086E+07-8.46912E+07 2.26350E-03
 -1      1158 1.75040E-02 1.48675E-03 4.30524E-04-1.42986E+08-5.14136E+07 5.02802E-04
 -1      1160 1.75040E-02 1.48675E-03 4.30524E-04-1.42986E+08-5.14136E+07 5.02802E-04
 -1      1169 7.91084E-03-5.42525E-03-3.61758E-02-4.96445E+07-6.97118E+07 3.19359E-03
 -1      1171 7.91084E-03-5.42525E-03-3.61758E-02-4.96445E+07-6.97118E+07 3.19359E-03
 -1      1172 2.88544E-02-1.44452E-03-3.87847E-04-1.71135E+09-4.41195E+07 6.53203E-04
 -1      1174 2.88544E-02-1.44452E-03-3.87847E-04-1.71135E+09-4.41195E+07 6.53203E-04
 -1      1183 1.43290E-02-3.74041E-03-2.25227E-02-9.77050E+07-5.57012E+07-7.96386E-03
 -1      1185 1.43290E-02-3.74041E-03-2.25227E-02-9.77050E+07-5.57012E+07-7.96386E-03
 -1      1186 3.31955E-02-2.92638E-03-1.62780E-04-2.94018E+09-3.23097E+07 4.09688E-04
 -1      1188 3.31955E-02-2.92638E-03-1.62780E-04-2.94018E+09-3.23097E+07 4.09688E-04
 -1      1197 1.32018E-02-9.25281E-04-2.52720E-02-1.08786E+08-4.67098E+07-2.70184E-02
 -1      1199 1.32018E-02-9.25281E-04-2.52720E-02-1.08786E+08-4.67098E+07-2.70184E-02
 -1      1200 2.73077E-02-4.29757E-04 2.15530E-04-3.72585E+09-2.29386E+07 1.64141E-04
 -1      1202 2.73077E-02-4.29757E-04 2.15530E-04-3.72585E+09-2.29386E+07 1.64141E-04
 -1      1211 7.27677E-03-4.43802E-04-3.78315E-02-1.22055E+08-3.82795E+07-3.49279E-02
 -1      1213 7.27677E-03-4.43802E-04-3.78315E-02-1.22055E+08-3.82795E+07-3.49279E-02
 -1      1214 1.92531E-02 2.46814E-03 5.26294E-04-3.95997E+09-1.11741E+07 1.90549E-05
 -1      1216 1.92531E-02 2.46814E-03 5.26294E-04-3.95997E+09-1.11741E+07 1.90549E-05
 -1      1225 2.68219E-03-2.82858E-03-3.77958E-02-1.06928E+08-3.14322E+07-2.95704E-02
 -1      1227 2.68219E-03-2.82858E-03-3.77958E-02-1.06928E+08-3.14322E+07-2.95704E-02
 -1      1228 1.24228E-02 2.89239E-03 1.40558E-03-3.63721E+09-9.55434E+05 9.12827E-05
 -1      1230 1.24228E-02 2.89239E-03 1.40558E-03-3.63721E+09-9.55434E+05 9.12827E-05
 -1      1239-2.68220E-03-1.73369E-03-2.10491E-02-8.55865E+07-2.33202E+07-2.32247E-02
 -1      1241-2.68220E-03-1.73369E-03-2.10491E-02-8.55865E+07-2.33202E+07-2.32247E-02
 -1      1242 1.54567E-03 1.97285E-03 4.45604E-04-2.79934E+09 9.69072E+06-7.48201E-05
 -1      1244 1.54567E-03 1.97285E-03 4.45604E-04-2.79934E+09 9.69072E+06-7.48201E-05
 -1      1253-1.35939E-02-5.96616E-03-8.08073E-03-4.67242E+07-1.43025E+07-2.10632E-02
 -1      1255-1.35939E-02-5.96616E-03-8.08073E-03-4.67242E+07-1.43025E+07-2.10632E-02
 -1      1256-1.10495E-02 1.77225E-03 1.02586E-03-1.57291E+09 1.87635E+07 1.17484E-04
 -1      1258-1.10495E-02 1.77225E-03 1.02586E-03-1.57291E+09 1.87635E+07 1.17484E-04
 -1      1267-2.32590E-02-9.90992E-03-8.99688E-03-5.82604E+06-2.67560E+06-1.67404E-02
 -1      1269-2.32590E-02-9.90992E-03-8.99688E-03-5.82604E+06-2.67560E+06-1.67404E-02
 -1      1270-1.89395E-02 3.66145E-03 1.74844E-03-1.23443E+08 2.67519E+07 2.04144E-04
 -1      1272-1.89395E-02 3.66145E-03 1.74844E-03-1.23443E+08 2.67519E+07 2.04144E-04
 -1      1281-2.23397E-02-2.12681E-03-1.06290E-02 3.90860E+07 1.02957E+07-4.55614E-03
 -1      1283-2.23397E-02-2.12681E-03-1.06290E-02 3.90860E+07 1.02957E+07-4.55614E-03
 -1      1284-1.97694E-02 3.16632E-03-3.44813E-04 1.34522E+09 3.28905E+07 4.30985E-04
 -1      1286-1.97694E-02 3.16632E-03-3.44813E-04 1.34522E+09 3.28905E+07 4.30985E-04
 -1      1295-1.62719E-02 6.12991E-06-1.04418E-02 7.58836E+07 2.55973E+07 2.94382E-03
 -1      1297-1.62719E-02 6.12991E-06-1.04418E-02 7.58836E+07 2.55973E+07 2.94382E-03
 -1      1298-1.40538E-02-2.68310E-04 5.30243E-04 2.63448E+09 3.69678E+07 6.65674E-04
 -1      1300-1.40538E-02-2.68310E-04 5.30243E-04 2.63448E+09 3.69678E+07 6.65674E-04
 -1      1309-9.51540E-03 2.03101E-03-1.72877E-02 1.04844E+08 4.03623E+07-2.44787E-03
 -1      1311-9.51540E-03 2.03101E-03-1.72877E-02 1.04844E+08 4.03623E+07-2.44787E-03
 -1      1312-6.18684E-03-2.04663E-03 3.38703E-04 3.56529E+09 3.91874E+07 3.19386E-04
 -1      1314-6.18684E-03-2.04663E-03 3.38703E-04 3.56529E+09 3.91874E+07 3.19386E-04
 -1      1323-4.30901E-03 1.28826E-03-3.33243E-02 1.16688E+08 5.57056E+07-5.89123E-03
 -1      1325-4.30901E-03 1.28826E-03-3.33243E-02 1.16688E+08 5.57056E+07-5.89123E-03
 -1      1326 1.51089E-03-3.28866E-03-1.38167E-03 4.01414E+09 3.89269E+07 4.24960E-04
 -1      1328 1.51089E-03-3.28866E-03-1.38167E-03 4.01414E+09 3.89269E+07 4.24960E-04
 -1      1337-1.87088E-03 1.67431E-03-4.60553E-02 1.15942E+08 6.70276E+07-4.77548E-03
 -1      1339-1.87088E-03 1.67431E-03-4.60553E-02 1.15942E+08 6.70276E+07-4.77548E-03
 -1      1340 5.66173E-03-5.78593E-03 2.85178E-04 3.91852E+09 3.73168E+07 5.15053E-04
 -1      1342 5.66173E-03-5.78593E-03 2.85178E-04 3.91852E+09 3.73168E+07 5.15053E-04
 -1      1351-5.40271E-03 3.79958E-03-5.65390E-02 9.49374E+07 7.70798E+07-2.69262E-03
 -1      1353-5.40271E-03 3.79958E-03-5.65390E-02 9.49374E+07 7.70798E+07-2.69262E-03
 -1      1354 3.67308E-03-5.01034E-03 3.66241E-04 3.29984E+09 3.33183E+07 2.26072E-04
 -1      1356 3.67308E-03-5.01034E-03 3.66241E-04 3.29984E+09 3.33183E+07 2.26072E-04
 -1      1365-1.23860E-02 7.49368E-04-6.31426E-02 6.70020E+07 7.92981E+07 7.59835E-03
 -1      1367-1.23860E-02 7.49368E-04-6.31426E-02 6.70020E+07 7.92981E+07 7.59835E-03
 -1      1368 2.95639E-04-1.18482E-03-6.82473E-05 2.24371E+09 2.89957E+07 1.69922E-04
 -1      1370 2.95639E-04-1.18482E-03-6.82473E-05 2.24371E+09 2.89957E+07 1.69922E-04
 -1      1379-1.60379E-02-1.67007E-05-5.00761E-02 2.13363E+07 8.03630E+07 2.01146E-02
 -1      1381-1.60379E-02-1.67007E-05-5.00761E-02 2.13363E+07 8.03630E+07 2.01146E-02
 -1      1382-2.50006E-03-1.03450E-03 3.33786E-06 9.13009E+08 2.28577E+07 3.27162E-05
 -1      1384-2.50006E-03-1.03450E-03 3.33786E-06 9.13009E+08 2.28577E+07 3.27162E-05
 -1      1393-1.82400E-02 2.71113E-04-2.60090E-02-1.54702E+07 7.00300E+07 1.76668E-02
 -1      1395-1.82400E-02 2.71113E-04-2.60090E-02-1.54702E+07 7.00300E+07 1.76668E-02
 -1      1396-5.83506E-03-2.25979E-03-9.01520E-04-5.00609E+08 1.75679E+07 2.04039E-05
 -1      1398-5.83506E-03-2.25979E-03-9.01520E-04-5.00609E+08 1.75679E+07 2.04039E-05
 -1      1407-1.95877E-02-3.32854E-05-1.61947E-02-6.73832E+07 6.28350E+07 4.02163E-03
 -1      1409-1.95877E-02-3.32854E-05-1.61947E-02-6.73832E+07 6.28350E+07 4.02163E-03
 -1      1410-7.63464E-03-9.07332E-04-1.35428E-03-1.77029E+09 1.18281E+07-1.67942E-04
 -1      1412-7.63464E-03-9.07332E-04-1.35428E-03-1.77029E+09 1.18281E+07-1.67942E-04
 -1      1421-1.89965E-02-2.12204E-03-2.73040E-02-8.81077E+07 3.78645E+07 5.66579E-05
 -1      1423-1.89965E-02-2.12204E-03-2.73040E-02-8.81077E+07 3.78645E+07 5.66579E-05
 -1      1424-5.58031E-03 2.03308E-03 1.89751E-04-2.66752E+09 6.43114E+06-2.26982E-05
 -1      1426-5.58031E-03 2.03308E-03 1.89751E-04-2.66752E+09 6.43114E+06-2.26982E-05
 -1      1435-1.40268E-02-2.55659E-03-3.73359E-02-1.28050E+08 2.73645E+07 7.91884E-03
 -1      1437-1.40268E-02-2.55659E-03-3.73359E-02-1.28050E+08 2.73645E+07 7.91884E-03
 -1      1438-3.60131E-04 1.97113E-03 4.94629E-04-3.04090E+09 4.04445E+06 2.10728E-04
 -1      1440-3.60131E-04 1.97113E-03 4.94629E-04-3.04090E+09 4.04445E+06 2.10728E-04
 -1      1449-6.66610E-03-1.86045E-03-3.54789E-02-1.19623E+08-2.68722E+07 9.38329E-03
 -1      1451-6.66610E-03-1.86045E-03-3.54789E-02-1.19623E+08-2.68722E+07 9.38329E-03
 -1      1452 5.79023E-03 8.48174E-04 7.09116E-04-2.61009E+09-9.39213E+06 3.35288E-04
 -1      1454 5.79023E-03 8.48174E-04 7.09116E-04-2.61009E+09-9.39213E+06 3.35288E-04
 -1      1463-3.13703E-03-1.34282E-03-3.70105E-02-1.28100E+08-4.30444E+07-5.18223E-04
 -1      1465-3.13703E-03-1.34282E-03-3.70105E-02-1.28100E+08-4.30444E+07-5.18223E-04
 -1      1466 8.64704E-03 1.01686E-04 1.19271E-03-1.42151E+09-1.27986E+07 1.74510E-04
 -1      1468 8.64704E-03 1.01686E-04 1.19271E-03-1.42151E+09-1.27986E+07 1.74510E-04
 -1      1477-3.79433E-03-7.59076E-04-4.25675E-02-1.32196E+08-2.20642E+08-2.83643E-03
 -1      1479-3.79433E-03-7.59076E-04-4.25675E-02-1.32196E+08-2.20642E+08-2.83643E-03
 -1      1480 6.72299E-03 1.26040E-03 1.59878E-04 6.95853E+08-9.52425E+07-7.76917E-05
 -1      1482 6.72299E-03 1.26040E-03 1.59878E-04 6.95853E+08-9.52425E+07-7.76917E-05
 -1      1491-9.93446E-03-6.92691E-03-3.97340E-02-3.03984E+07-2.66468E+08 4.46695E-03
 -1      1493-9.93446E-03-6.92691E-03-3.97340E-02-3.03984E+07-2.66468E+08 4.46695E-03
 -1      1494-4.36699E-03-7.66838E-03-3.49630E-02-1.62362E-03-7.07451E+07 4.42361E-03
 -1      1496-4.36699E-03-7.66838E-03-3.49630E-02-1.62362E-03-7.07451E+07 4.42361E-03
 -1      1497-3.65249E-03-4.32831E-03-3.93099E-02 3.03984E+07-2.66468E+08 3.39373E-03
 -1      1499-3.65249E-03-4.32831E-03-3.93099E-02 3.03984E+07-2.66468E+08 3.39373E-03
 -1      1500 1.84350E+10 8.56127E+08-6.48325E+06 4.01764E+09 1.18013E+07 9.25034E+07
 -1      1502 1.84350E+10 8.56127E+08-6.48325E+06 4.01764E+09 1.18013E+07 9.25034E+07
 -1      1503 4.98784E+09-3.70910E+08 1.22970E+06 2.74483E+09 1.69439E+07-3.47257E+06
 -1      1505 4.98784E+09-3.70910E+08 1.22970E+06 2.74483E+09 1.69439E+07-3.47257E+06
 -1      1506-5.49411E+09 1.59606E+07-9.00290E+05 2.30005E+09 2.29765E+07 3.52063E+07
 -1      1508-5.49411E+09 1.59606E+07-9.00290E+05 2.30005E+09 2.29765E+07 3.52063E+07
 -1      1509-1.31806E+10-2.69605E+08-1.43291E+07 1.46871E+09 2.47245E+07 5.50914E+06
 -1      1511-1.31806E+10-2.69605E+08-1.43291E+07 1.46871E+09 2.47245E+07 5.50914E+06
 -1      1512-1.76837E+10-2.16043E+08-5.88426E+06 7.15143E+08 2.73928E+07 5.66624E+06
 -1      1514-1.76837E+10-2.16043E+08-5.88426E+06 7.15143E+08 2.73928E+07 5.66624E+06
 -1      1515-1.89625E+10-2.73018E+08-1.63031E+07-7.51476E+07 2.61858E+07-9.34596E+06
 -1      1517-1.89625E+10-2.73018E+08-1.63031E+07-7.51476E+07 2.61858E+07-9.34596E+06
 -1      1518-1.71238E+10-2.16603E+08-6.64619E+06-7.83699E+08 2.22980E+07-1.68206E+07
 -1      1520-1.71238E+10-2.16603E+08-6.64619E+06-7.83699E+08 2.22980E+07-1.68206E+07
 -1      1521-1.26293E+10-1.72431E+08-1.07462E+07-1.34903E+09 1.51020E+07-2.54959E+07
 -1      1523-1.26293E+10-1.72431E+08-1.07462E+07-1.34903E+09 1.51020E+07-2.54959E+07
 -1      1524-6.20778E+09-7.78504E+07-1.35581E+06-1.70548E+09 5.24476E+06-3.00521E+07
 -1      1526-6.20778E+09-7.78504E+07-1.35581E+06-1.70548E+09 5.24476E+06-3.00521E+07
 -1      1527 1.18221E+09 1.13981E+07-1.30067E+06-1.81411E+09-5.56219E+06-3.17338E+07
 -1      1529 1.18221E+09 1.13981E+07-1.30067E+06-1.81411E+09-5.56219E+06-3.17338E+07
 -1      1530 8.48444E+09 1.09844E+08 6.54419E+06-1.66473E+09-1.64479E+07-2.96693E+07
 -1      1532 8.48444E+09 1.09844E+08 6.54419E+06-1.66473E+09-1.64479E+07-2.96693E+07
 -1      1533 1.46681E+10 1.86743E+08 7.48473E+06-1.28209E+09-2.51990E+07-2.43264E+07
 -1      1535 1.46681E+10 1.86743E+08 7.48473E+06-1.28209E+09-2.51990E+07-2.43264E+07
 -1      1536 1.88690E+10 2.42460E+08 1.21799E+07-7.19843E+08-3.11294E+07-1.64114E+07
 -1      1538 1.88690E+10 2.42460E+08 1.21799E+07-7.19843E+08-3.11294E+07-1.64114E+07
 -1      1539 2.04992E+10 2.62310E+08 1.14361E+07-5.68942E+07-3.27814E+07-6.85349E+06
 -1      1541 2.04992E+10 2.62310E+08 1.14361E+07-5.68942E+07-3.27814E+07-6.85349E+06
 -1      1542 1.93274E+10 2.47865E+08 1.20852E+07 6.15853E+08-3.02804E+07 3.02755E+06
 -1      1544 1.93274E+10 2.47865E+08 1.20852E+07 6.15853E+08-3.02804E+07 3.02755E+06
 -1      1545 1.55075E+10 1.98638E+08 8.81590E+06 1.20558E+09-2.34941E+07 1.21032E+07
 -1      1547 1.55075E+10 1.98638E+08 8.81590E+06 1.20558E+09-2.34941E+07 1.21032E+07
 -1      1548 9.55638E+09 1.22152E+08 5.97227E+06 1.63204E+09-1.35928E+07 1.91656E+07
 -1      1550 9.55638E+09 1.22152E+08 5.97227E+06 1.63204E+09-1.35928E+07 1.91656E+07
 -1      1551 2.28181E+09 2.97149E+07 1.28279E+06 1.83692E+09-1.59653E+06 2.34832E+07
 -1      1553 2.28181E+09 2.97149E+07 1.28279E+06 1.83692E+09-1.59653E+06 2.34832E+07
 -1      1554-5.33096E+09-6.90900E+07-3.21305E+06 1.79368E+09 1.06216E+07 2.45387E+07
 -1      1556-5.33096E+09-6.90900E+07-3.21305E+06 1.79368E+09 1.06216E+07 2.45387E+07
 -1      1557-1.22543E+10-1.54514E+08-6.92136E+06 1.50940E+09 2.16478E+07 2.23875E+07
 -1      1559-1.22543E+10-1.54514E+08-6.92136E+06 1.50940E+09 2.16478E+07 2.23875E+07
 -1      1560-1.75668E+10-2.26194E+08-1.09451E+07 1.02667E+09 2.96081E+07 1.74663E+07
 -1      1562-1.75668E+10-2.26194E+08-1.09451E+07 1.02667E+09 2.96081E+07 1.74663E+07
 -1      1563-2.05792E+10-2.55377E+08-1.11655E+07 4.16248E+08 3.36176E+07 1.04814E+07
 -1      1565-2.05792E+10-2.55377E+08-1.11655E+07 4.16248E+08 3.36176E+07 1.04814E+07
 -1      1566-2.09466E+10-2.68312E+08-1.36145E+07-2.32985E+08 3.24713E+07 2.82527E+06
 -1      1568-2.09466E+10-2.68312E+08-1.36145E+07-2.32985E+08 3.24713E+07 2.82527E+06
 -1      1569-1.87219E+10-2.20128E+08-8.87559E+06-8.07794E+08 2.62758E+07-5.04510E+06
 -1      1571-1.87219E+10-2.20128E+08-8.87559E+06-8.07794E+08 2.62758E+07-5.04510E+06
 -1      1572-1.43798E+10-1.69285E+08-1.05517E+07-1.24547E+09 1.51599E+07-1.04482E+07
 -1      1574-1.43798E+10-1.69285E+08-1.05517E+07-1.24547E+09 1.51599E+07-1.04482E+07
 -1      1575-8.79208E+09-8.90124E+07-1.11783E+06-1.36066E+09-6.73831E+05-1.54309E+07
 -1      1577-8.79208E+09-8.90124E+07-1.11783E+06-1.36066E+09-6.73831E+05-1.54309E+07
 -1      1578-3.15910E+09 6.13739E+07-4.07203E+06-1.28283E+09-1.66376E+07-1.37838E+07
 -1      1580-3.15910E+09 6.13739E+07-4.07203E+06-1.28283E+09-1.66376E+07-1.37838E+07
 -1      1581 1.05741E+09-1.06873E+07 5.48027E+06-6.07715E+08-3.61939E+07-1.57418E+07
 -1      1583 1.05741E+09-1.06873E+07 5.48027E+06-6.07715E+08-3.61939E+07-1.57418E+07
 -1      1584 1.99488E+09 3.17128E+08 8.36337E+06 4.21794E+08-3.11880E+07-4.61250E+06
 -1      1586 1.99488E+09 3.17128E+08 8.36337E+06 4.21794E+08-3.11880E+07-4.61250E+06
 -1      1587 1.29234E+09 1.72754E+09 2.43551E+07 1.43843E+09-9.87914E+07 8.06088E+06
 -1      1589 1.29234E+09 1.72754E+09 2.43551E+07 1.43843E+09-9.87914E+07 8.06088E+06
 -1      1590 1.68416E+10 2.24639E+09 5.26194E+06 6.38154E+09 1.98951E+07 1.27546E+08
 -1      1592 1.68416E+10 2.24639E+09 5.26194E+06 6.38154E+09 1.98951E+07 1.27546E+08
 -1      1593-1.29234E+09-1.72754E+09-2.43551E+07 1.43843E+09-9.87914E+07-8.06088E+06
 -1      1595-1.29234E+09-1.72754E+09-2.43551E+07 1.43843E+09-9.87914E+07-8.06088E+06
 -1      1596-1.84350E+10-8.56127E+08 6.48325E+06 4.01764E+09 1.18013E+07-9.25034E+07
 -1      1598-1.84350E+10-8.56127E+08 6.48325E+06 4.01764E+09 1.18013E+07-9.25034E+07
 -1      1599-4.98784E+09 3.70910E+08-1.22970E+06 2.74483E+09 1.69439E+07 3.47257E+06
 -1      1601-4.98784E+09 3.70910E+08-1.22970E+06 2.74483E+09 1.69439E+07 3.47257E+06
 -1      1602 5.49411E+09-1.59606E+07 9.00290E+05 2.30005E+09 2.29765E+07-3.52063E+07
 -1      1604 5.49411E+09-1.59606E+07 9.00290E+05 2.30005E+09 2.29765E+07-3.52063E+07
 -1      1605 1.31806E+10 2.69605E+08 1.43291E+07 1.46871E+09 2.47245E+07-5.50914E+06
 -1      1607 1.31806E+10 2.69605E+08 1.43291E+07 1.46871E+09 2.47245E+07-5.50914E+06
 -1      1608 1.76837E+10 2.16043E+08 5.88426E+06 7.15143E+08 2.73928E+07-5.66624E+06
 -1      1610 1.76837E+10 2.16043E+08 5.88426E+06 7.15143E+08 2.73928E+07-5.66624E+06
 -1      1611 1.89625E+10 2.73018E+08 1.63031E+07-7.51476E+07 2.61858E+07 9.34596E+06
 -1      1613 1.89625E+10 2.73018E+08 1.63031E+07-7.51476E+07 2.61858E+07 9.34596E+06
 -1      1614 1.71238E+10 2.16603E+08 6.64619E+06-7.83699E+08 2.22980E+07 1.68206E+07
 -1      1616 1.71238E+10 2.16603E+08 6.64619E+06-7.83699E+08 2.22980E+07 1.68206E+07
 -1      1617 1.26293E+10 1.72431E+08 1.07462E+07-1.34903E+09 1.51020E+07 2.54959E+07
 -1      1619 1.26293E+10 1.72431E+08 1.07462E+07-1.34903E+09 1.51020E+07 2.54959E+07
 -1      1620 6.20778E+09 7.78504E+07 1.35581E+06-1.70548E+09 5.24476E+06 3.00521E+07
 -1      1622 6.20778E+09 7.78504E+07 1.35581E+06-1.70548E+09 5.24476E+06 3.00521E+07
 -1      1623-1.18221E+09-1.13981E+07 1.30067E+06-1.81411E+09-5.56219E+06 3.17338E+07
 -1      1625-1.18221E+09-1.13981E+07 1.30067E+06-1.81411E+09-5.56219E+06 3.17338E+07
 -1      1626-8.48444E+09-1.09844E+08-6.54419E+06-1.66473E+09-1.64479E+07 2.96693E+07
 -1      1628-8.48444E+09-1.09844E+08-6.54419E+06-1.66473E+09-1.64479E+07 2.96693E+07
 -1      1629-1.46681E+10-1.86743E+08-7.48473E+06-1.28209E+09-2.51990E+07 2.43264E+07
 -1      1631-1.46681E+10-1.86743E+08-7.48473E+06-1.28209E+09-2.51990E+07 2.43264E+07
 -1      1632-1.88690E+10-2.42460E+08-1.21799E+07-7.19843E+08-3.11294E+07 1.64114E+07
 -1      1634-1.88690E+10-2.42460E+08-1.21799E+07-7.19843E+08-3.11294E+07 1.64114E+07
 -1      1635-2.04992E+10-2.62310E+08-1.14361E+07-5.68942E+07-3.27814E+07 6.85349E+06
 -1      1637-2.04992E+10-2.62310E+08-1.14361E+07-5.68942E+07-3.27814E+07 6.85349E+06
 -1      1638-1.93274E+10-2.47865E+08-1.20852E+07 6.15853E+08-3.02804E+07-3.02755E+06
 -1      1640-1.93274E+10-2.47865E+08-1.20852E+07 6.15853E+08-3.02804E+07-3.02755E+06
 -1      1641-1.55075E+10-1.98638E+08-8.81590E+06 1.20558E+09-2.34941E+07-1.21032E+07
 -1      1643-1.55075E+10-1.98638E+08-8.81590E+06 1.20558E+09-2.34941E+07-1.21032E+07
 -1      1644-9.55638E+09-1.22152E+08-5.97227E+06 1.63204E+09-1.35928E+07-1.91656E+07
 -1      1646-9.55638E+09-1.22152E+08-5.97227E+06 1.63204E+09-1.35928E+07-1.91656E+07
 -1      1647-2.28181E+09-2.97149E+07-1.28279E+06 1.83692E+09-1.59653E+06-2.34832E+07
 -1      1649-2.28181E+09-2.97149E+07-1.28279E+06 1.83692E+09-1.59653E+06-2.34832E+07
 -1      1650 5.33096E+09 6.90900E+07 3.21305E+06 1.79368E+09 1.06216E+07-2.45387E+07
 -1      1652 5.33096E+09 6.90900E+07 3.21305E+06 1.79368E+09 1.06216E+07-2.45387E+07
 -1      1653 1.22543E+10 1.54514E+08 6.92136E+06 1.50940E+09 2.16478E+07-2.23875E+07
 -1      1655 1.22543E+10 1.54514E+08 6.92136E+06 1.50940E+09 2.16478E+07-2.23875E+07
 -1      1656 1.75668E+10 2.26194E+08 1.09451E+07 1.02667E+09 2.96081E+07-1.74663E+07
 -1      1658 1.75668E+10 2.26194E+08 1.09451E+07 1.02667E+09 2.96081E+07-1.74663E+07
 -1      1659 2.05792E+10 2.55377E+08 1.11655E+07 4.16248E+08 3.36176E+07-1.04814E+07
 -1      1661 2.05792E+10 2.55377E+08 1.11655E+07 4.16248E+08 3.36176E+07-1.04814E+07
 -1      1662 2.09466E+10 2.68312E+08 1.36145E+07-2.32985E+08 3.24713E+07-2.82527E+06
 -1      1664 2.09466E+10 2.68312E+08 1.36145E+07-2.32985E+08 3.24713E+07-2.82527E+06
 -1      1665 1.87219E+10 2.20128E+08 8.87559E+06-8.07794E+08 2.62758E+07 5.04510E+06
 -1      1667 1.87219E+10 2.20128E+08 8.87559E+06-8.07794E+08 2.62758E+07 5.04510E+06
 -1      1668 1.43798E+10 1.69285E+08 1.05517E+07-1.24547E+09 1.51599E+07 1.04482E+07
 -1      1670 1.43798E+10 1.69285E+08 1.05517E+07-1.24547E+09 1.51599E+07 1.04482E+07
 -1      1671 8.79208E+09 8.90124E+07 1.11783E+06-1.36066E+09-6.73831E+05 1.54309E+07
 -1      1673 8.79208E+09 8.90124E+07 1.11783E+06-1.36066E+09-6.73831E+05 1.54309E+07
 -1      1674 3.15910E+09-6.13739E+07 4.07203E+06-1.28283E+09-1.66376E+07 1.37838E+07
 -1      1676 3.15910E+09-6.13739E+07 4.07203E+06-1.28283E+09-1.66376E+07 1.37838E+07
 -1      1677-1.05741E+09 1.06873E+07-5.48027E+06-6.07715E+08-3.61939E+07 1.57418E+07
 -1      1679-1.05741E+09 1.06873E+07-5.48027E+06-6.07715E+08-3.61939E+07 1.57418E+07
 -1      1680-1.99488E+09-3.17128E+08-8.36337E+06 4.21794E+08-3.11880E+07 4.61250E+06
 -1      1682-1.99488E+09-3.17128E+08-8.36337E+06 4.21794E+08-3.11880E+07 4.61250E+06
 -1      1683-1.68416E+10-2.24639E+09-5.26194E+06 6.38154E+09 1.98951E+07-1.27546E+08
 -1      1685-1.68416E+10-2.24639E+09-5.26194E+06 6.38154E+09 1.98951E+07-1.27546E+08
 -1      1686 1.22743E+10 8.77474E+08 4.00004E+06-5.83312E+09-7.16645E+06-3.55462E+07
 -1      1688 1.22743E+10 8.77474E+08 4.00004E+06-5.83312E+09-7.16645E+06-3.55462E+07
 -1      1689 3.51426E+09-1.73273E+08-6.90372E+05-4.68667E+09-3.30022E+07 1.17236E+07
 -1      1691 3.51426E+09-1.73273E+08-6.90372E+05-4.68667E+09-3.30022E+07 1.17236E+07
 -1      1692-3.65335E+09-7.36899E+07-1.74898E+06-3.56668E+09-2.50804E+07-1.26333E+07
 -1      1694-3.65335E+09-7.36899E+07-1.74898E+06-3.56668E+09-2.50804E+07-1.26333E+07
 -1      1695-8.72751E+09-3.04178E+08-4.82373E+05-2.39452E+09-2.21098E+07-3.76962E+05
 -1      1697-8.72751E+09-3.04178E+08-4.82373E+05-2.39452E+09-2.21098E+07-3.76962E+05
 -1      1698-1.17758E+10-3.63483E+08-3.28668E+06-1.13111E+09-1.76202E+07-3.59667E+06
 -1      1700-1.17758E+10-3.63483E+08-3.28668E+06-1.13111E+09-1.76202E+07-3.59667E+06
 -1      1701-1.26218E+10-3.90669E+08-1.39014E+06 1.09067E+08-1.26139E+07 1.32267E+06
 -1      1703-1.26218E+10-3.90669E+08-1.39014E+06 1.09067E+08-1.26139E+07 1.32267E+06
 -1      1704-1.14085E+10-3.48194E+08-2.49604E+06 1.24753E+09-1.09108E+07 2.94313E+06
 -1      1706-1.14085E+10-3.48194E+08-2.49604E+06 1.24753E+09-1.09108E+07 2.94313E+06
 -1      1707-8.41197E+09-2.57692E+08-1.24028E+06 2.14461E+09-8.60383E+06 5.51737E+06
 -1      1709-8.41197E+09-2.57692E+08-1.24028E+06 2.14461E+09-8.60383E+06 5.51737E+06
 -1      1710-4.13544E+09-1.24689E+08-7.22963E+05 2.71567E+09-8.84692E+06 6.81976E+06
 -1      1712-4.13544E+09-1.24689E+08-7.22963E+05 2.71567E+09-8.84692E+06 6.81976E+06
 -1      1713 7.90927E+08 2.37011E+07-1.41186E+04 2.88704E+09-8.36813E+06 7.23739E+06
 -1      1715 7.90927E+08 2.37011E+07-1.41186E+04 2.88704E+09-8.36813E+06 7.23739E+06
 -1      1716 5.65706E+09 1.73282E+08 1.20460E+06 2.65097E+09-8.70166E+06 6.60213E+06
 -1      1718 5.65706E+09 1.73282E+08 1.20460E+06 2.65097E+09-8.70166E+06 6.60213E+06
 -1      1719 9.77926E+09 2.97465E+08 1.36789E+06 2.04072E+09-7.75417E+06 4.90976E+06
 -1      1721 9.77926E+09 2.97465E+08 1.36789E+06 2.04072E+09-7.75417E+06 4.90976E+06
 -1      1722 1.25789E+10 3.83272E+08 2.48762E+06 1.14638E+09-6.18297E+06 2.53181E+06
 -1      1724 1.25789E+10 3.83272E+08 2.48762E+06 1.14638E+09-6.18297E+06 2.53181E+06
 -1      1725 1.36655E+10 4.15435E+08 1.96559E+06 9.01688E+07-3.01476E+06-3.36380E+05
 -1      1727 1.36655E+10 4.15435E+08 1.96559E+06 9.01688E+07-3.01476E+06-3.36380E+05
 -1      1728 1.28840E+10 3.91798E+08 2.59251E+06-9.80537E+08 1.30502E+06-3.16993E+06
 -1      1730 1.28840E+10 3.91798E+08 2.59251E+06-9.80537E+08 1.30502E+06-3.16993E+06
 -1      1731 1.03373E+10 3.13710E+08 1.33528E+06-1.92003E+09 6.73686E+06-5.67745E+06
 -1      1733 1.03373E+10 3.13710E+08 1.33528E+06-1.92003E+09 6.73686E+06-5.67745E+06
 -1      1734 6.37002E+09 1.92915E+08 1.56327E+06-2.59866E+09 1.27973E+07-7.40716E+06
 -1      1736 6.37002E+09 1.92915E+08 1.56327E+06-2.59866E+09 1.27973E+07-7.40716E+06
 -1      1737 1.51994E+09 4.51840E+07-2.97114E+05-2.92553E+09 1.86652E+07-8.19466E+06
 -1      1739 1.51994E+09 4.51840E+07-2.97114E+05-2.92553E+09 1.86652E+07-8.19466E+06
 -1      1740-3.55494E+09-1.09422E+08 5.92926E+04-2.85610E+09 2.39692E+07-7.84404E+06
 -1      1742-3.55494E+09-1.09422E+08 5.92926E+04-2.85610E+09 2.39692E+07-7.84404E+06
 -1      1743-8.17167E+09-2.49098E+08-2.22377E+06-2.40462E+09 2.74831E+07-6.43210E+06
 -1      1745-8.17167E+09-2.49098E+08-2.22377E+06-2.40462E+09 2.74831E+07-6.43210E+06
 -1      1746-1.17132E+10-3.57167E+08-9.27027E+05-1.63519E+09 2.93019E+07-4.14086E+06
 -1      1748-1.17132E+10-3.57167E+08-9.27027E+05-1.63519E+09 2.93019E+07-4.14086E+06
 -1      1749-1.37242E+10-4.15859E+08-3.70809E+06-6.64629E+08 2.82377E+07-1.12016E+06
 -1      1751-1.37242E+10-4.15859E+08-3.70809E+06-6.64629E+08 2.82377E+07-1.12016E+06
 -1      1752-1.39711E+10-4.21886E+08-5.20234E+05 3.66797E+08 2.50196E+07 1.88204E+06
 -1      1754-1.39711E+10-4.21886E+08-5.20234E+05 3.66797E+08 2.50196E+07 1.88204E+06
 -1      1755-1.24921E+10-3.77501E+08-4.44958E+06 1.28904E+09 1.90520E+07 5.37093E+06
 -1      1757-1.24921E+10-3.77501E+08-4.44958E+06 1.28904E+09 1.90520E+07 5.37093E+06
 -1      1758-9.60786E+09-2.64115E+08 1.54524E+06 1.95650E+09 1.07955E+07 7.24927E+06
 -1      1760-9.60786E+09-2.64115E+08 1.54524E+06 1.95650E+09 1.07955E+07 7.24927E+06
 -1      1761-5.88788E+09-2.06111E+08-4.43178E+06 2.20078E+09 1.68531E+06 1.06431E+07
 -1      1763-5.88788E+09-2.06111E+08-4.43178E+06 2.20078E+09 1.68531E+06 1.06431E+07
 -1      1764-2.15209E+09 8.76797E+07 3.49274E+06 1.94646E+09-1.30148E+07 9.44831E+06
 -1      1766-2.15209E+09 8.76797E+07 3.49274E+06 1.94646E+09-1.30148E+07 9.44831E+06
 -1      1767 5.77732E+08-1.61240E+08-2.79667E+05 1.01461E+09-2.44963E+07 1.37540E+07
 -1      1769 5.77732E+08-1.61240E+08-2.79667E+05 1.01461E+09-2.44963E+07 1.37540E+07
 -1      1770 1.42276E+09 5.03063E+08-6.97339E+06-5.58823E+08-6.32153E+07 7.39941E+06
 -1      1772 1.42276E+09 5.03063E+08-6.97339E+06-5.58823E+08-6.32153E+07 7.39941E+06
 -1      1773-1.22743E+10-8.77474E+08-4.00004E+06-5.83312E+09-7.16645E+06 3.55462E+07
 -1      1775-1.22743E+10-8.77474E+08-4.00004E+06-5.83312E+09-7.16645E+06 3.55462E+07
 -1      1776-3.51426E+09 1.73273E+08 6.90372E+05-4.68667E+09-3.30022E+07-1.17236E+07
 -1      1778-3.51426E+09 1.73273E+08 6.90372E+05-4.68667E+09-3.30022E+07-1.17236E+07
 -1      1779 3.65335E+09 7.36899E+07 1.74898E+06-3.56668E+09-2.50804E+07 1.26333E+07
 -1      1781 3.65335E+09 7.36899E+07 1.74898E+06-3.56668E+09-2.50804E+07 1.26333E+07
 -1      1782 8.72751E+09 3.04178E+08 4.82373E+05-2.39452E+09-2.21098E+07 3.76962E+05
 -1      1784 8.72751E+09 3.04178E+08 4.82373E+05-2.39452E+09-2.21098E+07 3.76962E+05
 -1      1785 1.17758E+10 3.63483E+08 3.28668E+06-1.13111E+09-1.76202E+07 3.59667E+06
 -1      1787 1.17758E+10 3.63483E+08 3.28668E+06-1.13111E+09-1.76202E+07 3.59667E+06
 -1      1788 1.26218E+10 3.90669E+08 1.39014E+06 1.09067E+08-1.26139E+07-1.32267E+06
 -1      1790 1.26218E+10 3.90669E+08 1.39014E+06 1.09067E+08-1.26139E+07-1.32267E+06
 -1      1791 1.14085E+10 3.48194E+08 2.49604E+06 1.24753E+09-1.09108E+07-2.94313E+06
 -1      1793 1.14085E+10 3.48194E+08 2.49604E+06 1.24753E+09-1.09108E+07-2.94313E+06
 -1      1794 8.41197E+09 2.57692E+08 1.24028E+06 2.14461E+09-8.60383E+06-5.51737E+06
 -1      1796 8.41197E+09 2.57692E+08 1.24028E+06 2.14461E+09-8.60383E+06-5.51737E+06
 -1      1797 4.13544E+09 1.24689E+08 7.22963E+05 2.71567E+09-8.84692E+06-6.81976E+06
 -1      1799 4.13544E+09 1.24689E+08 7.22963E+05 2.71567E+09-8.84692E+06-6.81976E+06
 -1      1800-7.90927E+08-2.37011E+07 1.41186E+04 2.88704E+09-8.36813E+06-7.23739E+06
 -1      1802-7.90927E+08-2.37011E+07 1.41186E+04 2.88704E+09-8.36813E+06-7.23739E+06
 -1      1803-5.65706E+09-1.73282E+08-1.20460E+06 2.65097E+09-8.70166E+06-6.60213E+06
 -1      1805-5.65706E+09-1.73282E+08-1.20460E+06 2.65097E+09-8.70166E+06-6.60213E+06
 -1      1806-9.77926E+09-2.97465E+08-1.36789E+06 2.04072E+09-7.75417E+06-4.90976E+06
 -1      1808-9.77926E+09-2.97465E+08-1.36789E+06 2.04072E+09-7.75417E+06-4.90976E+06
 -1      1809-1.25789E+10-3.83272E+08-2.48762E+06 1.14638E+09-6.18297E+06-2.53181E+06
 -1      1811-1.25789E+10-3.83272E+08-2.48762E+06 1.14638E+09-6.18297E+06-2.53181E+06
 -1      1812-1.36655E+10-4.15435E+08-1.96559E+06 9.01688E+07-3.01476E+06 3.36380E+05
 -1      1814-1.36655E+10-4.15435E+08-1.96559E+06 9.01688E+07-3.01476E+06 3.36380E+05
 -1      1815-1.28840E+10-3.91798E+08-2.59251E+06-9.80537E+08 1.30502E+06 3.16993E+06
 -1      1817-1.28840E+10-3.91798E+08-2.59251E+06-9.80537E+08 1.30502E+06 3.16993E+06
 -1      1818-1.03373E+10-3.13710E+08-1.33528E+06-1.92003E+09 6.73686E+06 5.67745E+06
 -1      1820-1.03373E+10-3.13710E+08-1.33528E+06-1.92003E+09 6.73686E+06 5.67745E+06
 -1      1821-6.37002E+09-1.92915E+08-1.56327E+06-2.59866E+09 1.27973E+07 7.40716E+06
 -1      1823-6.37002E+09-1.92915E+08-1.56327E+06-2.59866E+09 1.27973E+07 7.40716E+06
 -1      1824-1.51994E+09-4.51840E+07 2.97114E+05-2.92553E+09 1.86652E+07 8.19466E+06
 -1      1826-1.51994E+09-4.51840E+07 2.97114E+05-2.92553E+09 1.86652E+07 8.19466E+06
 -1      1827 3.55494E+09 1.09422E+08-5.92926E+04-2.85610E+09 2.39692E+07 7.84404E+06
 -1      1829 3.55494E+09 1.09422E+08-5.92926E+04-2.85610E+09 2.39692E+07 7.84404E+06
 -1      1830 8.17167E+09 2.49098E+08 2.22377E+06-2.40462E+09 2.74831E+07 6.43210E+06
 -1      1832 8.17167E+09 2.49098E+08 2.22377E+06-2.40462E+09 2.74831E+07 6.43210E+06
 -1      1833 1.17132E+10 3.57167E+08 9.27027E+05-1.63519E+09 2.93019E+07 4.14086E+06
 -1      1835 1.17132E+10 3.57167E+08 9.27027E+05-1.63519E+09 2.93019E+07 4.14086E+06
 -1      1836 1.37242E+10 4.15859E+08 3.70809E+06-6.64629E+08 2.82377E+07 1.12016E+06
 -1      1838 1.37242E+10 4.15859E+08 3.70809E+06-6.64629E+08 2.82377E+07 1.12016E+06
 -1      1839 1.39711E+10 4.21886E+08 5.20234E+05 3.66797E+08 2.50196E+07-1.88204E+06
 -1      1841 1.39711E+10 4.21886E+08 5.20234E+05 3.66797E+08 2.50196E+07-1.88204E+06
 -1      1842 1.24921E+10 3.77501E+08 4.44958E+06 1.28904E+09 1.90520E+07-5.37093E+06
 -1      1844 1.24921E+10 3.77501E+08 4.44958E+06 1.28904E+09 1.90520E+07-5.37093E+06
 -1      1845 9.60786E+09 2.64115E+08-1.54524E+06 1.95650E+09 1.07955E+07-7.24927E+06
 -1      1847 9.60786E+09 2.64115E+08-1.54524E+06 1.95650E+09 1.07955E+07-7.24927E+06
 -1      1848 5.88788E+09 2.06111E+08 4.43178E+06 2.20078E+09 1.68531E+06-1.06431E+07
 -1      1850 5.88788E+09 2.06111E+08 4.43178E+06 2.20078E+09 1.68531E+06-1.06431E+07
 -1      1851 2.15209E+09-8.76797E+07-3.49274E+06 1.94646E+09-1.30148E+07-9.44831E+06
 -1      1853 2.15209E+09-8.76797E+07-3.49274E+06 1.94646E+09-1.30148E+07-9.44831E+06
 -1      1854-5.77732E+08 1.61240E+08 2.79667E+05 1.01461E+09-2.44963E+07-1.37540E+07
 -1      1856-5.77732E+08 1.61240E+08 2.79667E+05 1.01461E+09-2.44963E+07-1.37540E+07
 -1      1857-1.42276E+09-5.03063E+08 6.97339E+06-5.58823E+08-6.32153E+07-7.39941E+06
 -1      1859-1.42276E+09-5.03063E+08 6.97339E+06-5.58823E+08-6.32153E+07-7.39941E+06
 -1      1860 8.91554E-03 3.84474E-04 1.42527E-02-8.17719E+07-3.92103E+07 2.61832E-02
 -1      1862 8.91554E-03 3.84474E-04 1.42527E-02-8.17719E+07-3.92103E+07 2.61832E-02
 -1      1863 4.57554E-06 1.05395E-03 6.57835E-03 5.21348E+06-3.74304E+07 2.75642E-02
 -1      1865 4.57554E-06 1.05395E-03 6.57835E-03 5.21348E+06-3.74304E+07 2.75642E-02
 -1      1866-9.00469E-03 9.16693E-04-1.84430E-02-4.41883E+07-1.85551E+07 2.38490E-02
 -1      1868-9.00469E-03 9.16693E-04-1.84430E-02-4.41883E+07-1.85551E+07 2.38490E-02
 -1      1869-1.39265E-02 8.05026E-04-4.64952E-02-1.30785E+04-5.59890E+05 1.49091E-02
 -1      1871-1.39265E-02 8.05026E-04-4.64952E-02-1.30785E+04-5.59890E+05 1.49091E-02
 -1      1872-1.34848E-02 9.13569E-04-5.79604E-02-1.62000E+07 1.27285E+07-4.54802E-04
 -1      1874-1.34848E-02 9.13569E-04-5.79604E-02-1.62000E+07 1.27285E+07-4.54802E-04
 -1      1875-1.32478E-02-3.95817E-06-4.67230E-02 1.22644E+07 2.02236E+07-1.30283E-02
 -1      1877-1.32478E-02-3.95817E-06-4.67230E-02 1.22644E+07 2.02236E+07-1.30283E-02
 -1      1878-1.69063E-02-1.28725E-03-2.95064E-02 9.29097E+06 1.94175E+07-1.61742E-02
 -1      1880-1.69063E-02-1.28725E-03-2.95064E-02 9.29097E+06 1.94175E+07-1.61742E-02
 -1      1881-2.19856E-02-2.44938E-03-2.88254E-02 2.61850E+07 1.26553E+07-1.63258E-02
 -1      1883-2.19856E-02-2.44938E-03-2.88254E-02 2.61850E+07 1.26553E+07-1.63258E-02
 -1      1884-2.11179E-02-2.21109E-03-4.09399E-02 2.47998E+07 4.80055E+05-2.70722E-02
 -1      1886-2.11179E-02-2.21109E-03-4.09399E-02 2.47998E+07 4.80055E+05-2.70722E-02
 -1      1887-1.31017E-02 3.53191E-04-4.15742E-02 3.03343E+07-1.38275E+07-4.36627E-02
 -1      1889-1.31017E-02 3.53191E-04-4.15742E-02 3.03343E+07-1.38275E+07-4.36627E-02
 -1      1890-5.43430E-03-4.94075E-04-2.57251E-02 2.45012E+07-2.81093E+07-4.77198E-02
 -1      1892-5.43430E-03-4.94075E-04-2.57251E-02 2.45012E+07-2.81093E+07-4.77198E-02
 -1      1893 1.03162E-04-2.26563E-03-8.35470E-03 2.02880E+07-3.90777E+07-3.74357E-02
 -1      1895 1.03162E-04-2.26563E-03-8.35470E-03 2.02880E+07-3.90777E+07-3.74357E-02
 -1      1896 6.32149E-03-1.09364E-04-8.18508E-04 9.67161E+06-4.51766E+07-2.28643E-02
 -1      1898 6.32149E-03-1.09364E-04-8.18508E-04 9.67161E+06-4.51766E+07-2.28643E-02
 -1      1899 1.09890E-02 8.21290E-04-3.12214E-03 2.42269E+05-4.40291E+07-9.83285E-03
 -1      1901 1.09890E-02 8.21290E-04-3.12214E-03 2.42269E+05-4.40291E+07-9.83285E-03
 -1      1902 1.04481E-02-3.22707E-04-6.86087E-03-1.12426E+07-3.64570E+07-8.84102E-04
 -1      1904 1.04481E-02-3.22707E-04-6.86087E-03-1.12426E+07-3.64570E+07-8.84102E-04
 -1      1905 7.71948E-03-6.07240E-04-8.55845E-03-1.95857E+07-2.13361E+07 4.43193E-03
 -1      1907 7.71948E-03-6.07240E-04-8.55845E-03-1.95857E+07-2.13361E+07 4.43193E-03
 -1      1908 7.61361E-03-7.71564E-04-1.69468E-02-2.67783E+07-2.65294E+06 6.83122E-03
 -1      1910 7.61361E-03-7.71564E-04-1.69468E-02-2.67783E+07-2.65294E+06 6.83122E-03
 -1      1911 6.40763E-03-6.22941E-04-3.19736E-02-2.86106E+07 2.03160E+07 2.07865E-03
 -1      1913 6.40763E-03-6.22941E-04-3.19736E-02-2.86106E+07 2.03160E+07 2.07865E-03
 -1      1914-1.36128E-04-4.82661E-04-4.12631E-02-2.84372E+07 4.05838E+07-4.23532E-03
 -1      1916-1.36128E-04-4.82661E-04-4.12631E-02-2.84372E+07 4.05838E+07-4.23532E-03
 -1      1917-9.96411E-03-1.38330E-04-4.45871E-02-2.16206E+07 6.05950E+07-9.30280E-04
 -1      1919-9.96411E-03-1.38330E-04-4.45871E-02-2.16206E+07 6.05950E+07-9.30280E-04
 -1      1920-1.93465E-02 1.15976E-04-4.85012E-02-1.52598E+07 7.07924E+07 9.03772E-03
 -1      1922-1.93465E-02 1.15976E-04-4.85012E-02-1.52598E+07 7.07924E+07 9.03772E-03
 -1      1923-2.66493E-02-7.45047E-05-4.75066E-02-1.59538E+06 7.83749E+07 1.35036E-02
 -1      1925-2.66493E-02-7.45047E-05-4.75066E-02-1.59538E+06 7.83749E+07 1.35036E-02
 -1      1926-3.10378E-02-5.27676E-05-3.57792E-02 5.46428E+06 7.06169E+07 9.90029E-03
 -1      1928-3.10378E-02-5.27676E-05-3.57792E-02 5.46428E+06 7.06169E+07 9.90029E-03
 -1      1929-2.92970E-02 5.04816E-04-1.99240E-02 2.17734E+07 6.32547E+07 6.59010E-03
 -1      1931-2.92970E-02 5.04816E-04-1.99240E-02 2.17734E+07 6.32547E+07 6.59010E-03
 -1      1932-2.33386E-02 8.10869E-04-1.14952E-02 2.19498E+07 3.65301E+07 8.50704E-03
 -1      1934-2.33386E-02 8.10869E-04-1.14952E-02 2.19498E+07 3.65301E+07 8.50704E-03
 -1      1935-1.90620E-02 5.83704E-04-1.44403E-02 3.62082E+07 2.08916E+07 1.39857E-02
 -1      1937-1.90620E-02 5.83704E-04-1.44403E-02 3.62082E+07 2.08916E+07 1.39857E-02
 -1      1938-1.67199E-02 3.26773E-04-2.17190E-02 2.57170E+07-2.38618E+07 1.42231E-02
 -1      1940-1.67199E-02 3.26773E-04-2.17190E-02 2.57170E+07-2.38618E+07 1.42231E-02
 -1      1941-1.41589E-02 6.06940E-04-2.83490E-02 2.74848E+07-3.60542E+07 9.74766E-03
 -1      1943-1.41589E-02 6.06940E-04-2.83490E-02 2.74848E+07-3.60542E+07 9.74766E-03
 -1      1944-1.13646E-02-2.67325E-03-3.56269E-02 2.40062E+07-1.22502E+08 6.26552E-03
 -1      1946-1.13646E-02-2.67325E-03-3.56269E-02 2.40062E+07-1.22502E+08 6.26552E-03
 -1      1947-1.08251E-02 4.90720E-04 8.87563E-03-3.98755E-04 2.33591E+07 3.15635E-02
 -1      1949-1.08251E-02 4.90720E-04 8.87563E-03-3.98755E-04 2.33591E+07 3.15635E-02
 -1      1950-1.19416E-02 1.26214E-03 4.23486E-03 3.98481E-04 8.39765E+07 2.88415E-02
 -1      1952-1.19416E-02 1.26214E-03 4.23486E-03 3.98481E-04 8.39765E+07 2.88415E-02
 -1      1953-9.67405E-03 1.03852E-03-1.59363E-02 2.17453E-04 1.08941E+08 2.29756E-02
 -1      1955-9.67405E-03 1.03852E-03-1.59363E-02 2.17453E-04 1.08941E+08 2.29756E-02
 -1      1956-6.50327E-03 1.06274E-03-3.84297E-02-3.81947E-04 1.26163E+08 1.48243E-02
 -1      1958-6.50327E-03 1.06274E-03-3.84297E-02-3.81947E-04 1.26163E+08 1.48243E-02
 -1      1959-3.43314E-03 1.24912E-03-4.92166E-02-1.53480E-04 1.32170E+08 3.85399E-03
 -1      1961-3.43314E-03 1.24912E-03-4.92166E-02-1.53480E-04 1.32170E+08 3.85399E-03
 -1      1962-4.72579E-03 3.69128E-04-4.39400E-02 1.55747E-04 1.25138E+08-3.96415E-03
 -1      1964-4.72579E-03 3.69128E-04-4.39400E-02 1.55747E-04 1.25138E+08-3.96415E-03
 -1      1965-9.88633E-03-8.01148E-04-3.08160E-02-2.73359E-04 1.08547E+08-7.96649E-03
 -1      1967-9.88633E-03-8.01148E-04-3.08160E-02-2.73359E-04 1.08547E+08-7.96649E-03
 -1      1968-1.14381E-02-2.87442E-03-2.64718E-02-3.12449E-04 8.10119E+07-1.55076E-02
 -1      1970-1.14381E-02-2.87442E-03-2.64718E-02-3.12449E-04 8.10119E+07-1.55076E-02
 -1      1971-5.29217E-03-1.50978E-03-3.36752E-02-6.58808E-04 4.76699E+07-3.02512E-02
 -1      1973-5.29217E-03-1.50978E-03-3.36752E-02-6.58808E-04 4.76699E+07-3.02512E-02
 -1      1974 1.45236E-03 6.94765E-04-3.79758E-02-4.12213E-04 1.06245E+07-4.34290E-02
 -1      1976 1.45236E-03 6.94765E-04-3.79758E-02-4.12213E-04 1.06245E+07-4.34290E-02
 -1      1977 2.49138E-03-1.15955E-03-2.95162E-02-2.84988E-04-2.47865E+07-4.44038E-02
 -1      1979 2.49138E-03-1.15955E-03-2.95162E-02-2.84988E-04-2.47865E+07-4.44038E-02
 -1      1980 1.73786E-04-2.36155E-03-1.41309E-02-1.84304E-03-5.48352E+07-3.60764E-02
 -1      1982 1.73786E-04-2.36155E-03-1.41309E-02-1.84304E-03-5.48352E+07-3.60764E-02
 -1      1983-1.24560E-03-2.11093E-03-4.20840E-03 7.71459E-04-7.60506E+07-2.58827E-02
 -1      1985-1.24560E-03-2.11093E-03-4.20840E-03 7.71459E-04-7.60506E+07-2.58827E-02
 -1      1986-4.94896E-04-6.85175E-04-2.63954E-03 2.31325E-04-8.53826E+07-1.55901E-02
 -1      1988-4.94896E-04-6.85175E-04-2.63954E-03 2.31325E-04-8.53826E+07-1.55901E-02
 -1      1989-1.90990E-03-1.42074E-03-4.93232E-03-9.45337E-04-8.32098E+07-6.08871E-03
 -1      1991-1.90990E-03-1.42074E-03-4.93232E-03-9.45337E-04-8.32098E+07-6.08871E-03
 -1      1992-4.60529E-03-1.54119E-03-6.85861E-03 1.01946E-03-6.82695E+07-6.84711E-04
 -1      1994-4.60529E-03-1.54119E-03-6.85861E-03 1.01946E-03-6.82695E+07-6.84711E-04
 -1      1995-3.90235E-03-1.98735E-03-1.44921E-02-1.30164E-03-4.56681E+07-1.19514E-03
 -1      1997-3.90235E-03-1.98735E-03-1.44921E-02-1.30164E-03-4.56681E+07-1.19514E-03
 -1      1998 1.42496E-05-2.43667E-03-2.95599E-02-3.27863E-04-1.50736E+07-4.60553E-03
 -1      2000 1.42496E-05-2.43667E-03-2.95599E-02-3.27863E-04-1.50736E+07-4.60553E-03
 -1      2001 3.95774E-04-1.14118E-03-4.36840E-02 8.68700E-05 1.41401E+07-6.42054E-03
 -1      2003 3.95774E-04-1.14118E-03-4.36840E-02 8.68700E-05 1.41401E+07-6.42054E-03
 -1      2004-5.19732E-03 6.78558E-04-5.26562E-02 1.33947E-04 4.41102E+07-1.99826E-03
 -1      2006-5.19732E-03 6.78558E-04-5.26562E-02 1.33947E-04 4.41102E+07-1.99826E-03
 -1      2007-1.18854E-02 1.05381E-03-5.49400E-02 1.01890E-03 6.22868E+07 9.32026E-03
 -1      2009-1.18854E-02 1.05381E-03-5.49400E-02 1.01890E-03 6.22868E+07 9.32026E-03
 -1      2010-1.91615E-02-9.22195E-05-4.66281E-02 4.58394E-04 7.63868E+07 1.81805E-02
 -1      2012-1.91615E-02-9.22195E-05-4.66281E-02 4.58394E-04 7.63868E+07 1.81805E-02
 -1      2013-2.69460E-02-3.97300E-04-3.05782E-02 5.62638E-04 7.12038E+07 1.57519E-02
 -1      2015-2.69460E-02-3.97300E-04-3.05782E-02 5.62638E-04 7.12038E+07 1.57519E-02
 -1      2016-2.93202E-02-6.33840E-04-1.89113E-02 1.64492E-03 6.36743E+07 8.69657E-03
 -1      2018-2.93202E-02-6.33840E-04-1.89113E-02 1.64492E-03 6.36743E+07 8.69657E-03
 -1      2019-2.37849E-02-7.14350E-04-1.64726E-02 7.70617E-04 3.51957E+07 7.75870E-03
 -1      2021-2.37849E-02-7.14350E-04-1.64726E-02 7.70617E-04 3.51957E+07 7.75870E-03
 -1      2022-1.64071E-02-9.32551E-04-1.92767E-02 9.90596E-04 1.44188E+07 1.32134E-02
 -1      2024-1.64071E-02-9.32551E-04-1.92767E-02 9.90596E-04 1.44188E+07 1.32134E-02
 -1      2025-1.03017E-02 7.43050E-04-2.27035E-02 6.10329E-04-2.08514E+07 1.45451E-02
 -1      2027-1.03017E-02 7.43050E-04-2.27035E-02 6.10329E-04-2.08514E+07 1.45451E-02
 -1      2028-5.65088E-03 2.45320E-03-2.68023E-02 4.59570E-04-2.90640E+07 9.02739E-03
 -1      2030-5.65088E-03 2.45320E-03-2.68023E-02 4.59570E-04-2.90640E+07 9.02739E-03
 -1      2031-4.15652E-03-2.22586E-03-3.21055E-02 6.36391E-04-2.43623E+07 5.20738E-03
 -1      2033-4.15652E-03-2.22586E-03-3.21055E-02 6.36391E-04-2.43623E+07 5.20738E-03
 -1      2034-2.32694E-02 3.53419E-04 3.77450E-03 8.17719E+07-3.92103E+07 3.46773E-02
 -1      2036-2.32694E-02 3.53419E-04 3.77450E-03 8.17719E+07-3.92103E+07 3.46773E-02
 -1      2037-1.51283E-02 1.34938E-03 2.44714E-03-5.21348E+06-3.74304E+07 2.64374E-02
 -1      2039-1.51283E-02 1.34938E-03 2.44714E-03-5.21348E+06-3.74304E+07 2.64374E-02
 -1      2040-8.41233E-03 1.16361E-03-1.15352E-02 4.41883E+07-1.85551E+07 1.86850E-02
 -1      2042-8.41233E-03 1.16361E-03-1.15352E-02 4.41883E+07-1.85551E+07 1.86850E-02
 -1      2043-4.61395E-03 9.30331E-04-2.87533E-02 1.30785E+04-5.59890E+05 1.12745E-02
 -1      2045-4.61395E-03 9.30331E-04-2.87533E-02 1.30785E+04-5.59890E+05 1.12745E-02
 -1      2046-2.00428E-03 4.01421E-04-4.25521E-02 1.62000E+07 1.27285E+07 3.62863E-03
 -1      2048-2.00428E-03 4.01421E-04-4.25521E-02 1.62000E+07 1.27285E+07 3.62863E-03
 -1      2049-5.08567E-04-1.48109E-03-4.51930E-02-1.22644E+07 2.02236E+07 1.32612E-03
 -1      2051-5.08567E-04-1.48109E-03-4.51930E-02-1.22644E+07 2.02236E+07 1.32612E-03
 -1      2052 1.26684E-03-3.00332E-03-3.41941E-02-9.29097E+06 1.94175E+07 2.00847E-04
 -1      2054 1.26684E-03-3.00332E-03-3.41941E-02-9.29097E+06 1.94175E+07 2.00847E-04
 -1      2055 4.33136E-03-3.57134E-03-2.37170E-02-2.61850E+07 1.26553E+07-1.06822E-02
 -1      2057 4.33136E-03-3.57134E-03-2.37170E-02-2.61850E+07 1.26553E+07-1.06822E-02
 -1      2058 6.87352E-03-1.34054E-03-2.74167E-02-2.47998E+07 4.80055E+05-2.87387E-02
 -1      2060 6.87352E-03-1.34054E-03-2.74167E-02-2.47998E+07 4.80055E+05-2.87387E-02
 -1      2061 6.78678E-03 6.19499E-04-3.69504E-02-3.03343E+07-1.38275E+07-3.83730E-02
 -1      2063 6.78678E-03 6.19499E-04-3.69504E-02-3.03343E+07-1.38275E+07-3.83730E-02
 -1      2064 4.04986E-03-2.24437E-03-3.50016E-02-2.45012E+07-2.81093E+07-3.51024E-02
 -1      2066 4.04986E-03-2.24437E-03-3.50016E-02-2.45012E+07-2.81093E+07-3.51024E-02
 -1      2067-1.10414E-03-2.30923E-03-1.93233E-02-2.02880E+07-3.90777E+07-2.82343E-02
 -1      2069-1.10414E-03-2.30923E-03-1.93233E-02-2.02880E+07-3.90777E+07-2.82343E-02
 -1      2070-9.45054E-03-4.84623E-03-7.21944E-03-9.67161E+06-4.51766E+07-2.36417E-02
 -1      2072-9.45054E-03-4.84623E-03-7.21944E-03-9.67161E+06-4.51766E+07-2.36417E-02
 -1      2073-1.52959E-02-5.73768E-03-6.23457E-03-2.42269E+05-4.40291E+07-1.74575E-02
 -1      2075-1.52959E-02-5.73768E-03-6.23457E-03-2.42269E+05-4.40291E+07-1.74575E-02
 -1      2076-1.54889E-02-1.55817E-03-7.85970E-03 1.12426E+07-3.64570E+07-6.60369E-03
 -1      2078-1.54889E-02-1.55817E-03-7.85970E-03 1.12426E+07-3.64570E+07-6.60369E-03
 -1      2079-1.32303E-02-1.30043E-03-8.75813E-03 1.95857E+07-2.13361E+07-1.03263E-04
 -1      2081-1.32303E-02-1.30043E-03-8.75813E-03 1.95857E+07-2.13361E+07-1.03263E-04
 -1      2082-8.93906E-03-3.77109E-04-1.59395E-02 2.67783E+07-2.65294E+06-3.60353E-03
 -1      2084-8.93906E-03-3.77109E-04-1.59395E-02 2.67783E+07-2.65294E+06-3.60353E-03
 -1      2085-3.76059E-03-1.15841E-03-3.20546E-02 2.86106E+07 2.03160E+07-6.56803E-03
 -1      2087-3.76059E-03-1.15841E-03-3.20546E-02 2.86106E+07 2.03160E+07-6.56803E-03
 -1      2088-9.19458E-04 6.03559E-05-4.62712E-02 2.84372E+07 4.05838E+07-5.79414E-03
 -1      2090-9.19458E-04 6.03559E-05-4.62712E-02 2.84372E+07 4.05838E+07-5.79414E-03
 -1      2091-4.08122E-03 2.58177E-03-5.65599E-02 2.16206E+07 6.05950E+07-2.25777E-03
 -1      2093-4.08122E-03 2.58177E-03-5.65599E-02 2.16206E+07 6.05950E+07-2.25777E-03
 -1      2094-1.02416E-02 1.12875E-03-6.06860E-02 1.52598E+07 7.07924E+07 8.97139E-03
 -1      2096-1.02416E-02 1.12875E-03-6.06860E-02 1.52598E+07 7.07924E+07 8.97139E-03
 -1      2097-1.60663E-02 1.80839E-04-4.87354E-02 1.59538E+06 7.83749E+07 2.07751E-02
 -1      2099-1.60663E-02 1.80839E-04-4.87354E-02 1.59538E+06 7.83749E+07 2.07751E-02
 -1      2100-2.21988E-02-2.50030E-04-2.79178E-02-5.46428E+06 7.06169E+07 1.83785E-02
 -1      2102-2.21988E-02-2.50030E-04-2.79178E-02-5.46428E+06 7.06169E+07 1.83785E-02
 -1      2103-2.44631E-02-3.87662E-04-1.81295E-02-2.17734E+07 6.32547E+07 6.66263E-03
 -1      2105-2.44631E-02-3.87662E-04-1.81295E-02-2.17734E+07 6.32547E+07 6.66263E-03
 -1      2106-2.10989E-02-1.48737E-03-2.45816E-02-2.19498E+07 3.65301E+07 3.38235E-03
 -1      2108-2.10989E-02-1.48737E-03-2.45816E-02-2.19498E+07 3.65301E+07 3.38235E-03
 -1      2109-1.45210E-02-1.99986E-03-3.14624E-02-3.62082E+07 2.08916E+07 1.01134E-02
 -1      2111-1.45210E-02-1.99986E-03-3.14624E-02-3.62082E+07 2.08916E+07 1.01134E-02
 -1      2112-7.17615E-03 1.47295E-04-3.07001E-02-2.57170E+07-2.38618E+07 1.17190E-02
 -1      2114-7.17615E-03 1.47295E-04-3.07001E-02-2.57170E+07-2.38618E+07 1.17190E-02
 -1      2115-3.05948E-03 1.34227E-03-3.29802E-02-2.74848E+07-3.60542E+07 3.93620E-03
 -1      2117-3.05948E-03 1.34227E-03-3.29802E-02-2.74848E+07-3.60542E+07 3.93620E-03
 -1      2118-2.99406E-03-1.22179E-03-3.79257E-02-2.40062E+07-1.22502E+08 1.31243E-03
 -1      2120-2.99406E-03-1.22179E-03-3.79257E-02-2.40062E+07-1.22502E+08 1.31243E-03
 -1      2121 1.22743E+10 8.77474E+08 4.00004E+06 5.83312E+09-7.16645E+06 3.55462E+07
 -1      2123 1.22743E+10 8.77474E+08 4.00004E+06 5.83312E+09-7.16645E+06 3.55462E+07
 -1      2124 3.51426E+09-1.73273E+08-6.90372E+05 4.68667E+09-3.30022E+07-1.17236E+07
 -1      2126 3.51426E+09-1.73273E+08-6.90372E+05 4.68667E+09-3.30022E+07-1.17236E+07
 -1      2127-3.65335E+09-7.36899E+07-1.74898E+06 3.56668E+09-2.50804E+07 1.26333E+07
 -1      2129-3.65335E+09-7.36899E+07-1.74898E+06 3.56668E+09-2.50804E+07 1.26333E+07
 -1      2130-8.72751E+09-3.04178E+08-4.82373E+05 2.39452E+09-2.21098E+07 3.76962E+05
 -1      2132-8.72751E+09-3.04178E+08-4.82373E+05 2.39452E+09-2.21098E+07 3.76962E+05
 -1      2133-1.17758E+10-3.63483E+08-3.28668E+06 1.13111E+09-1.76202E+07 3.59667E+06
 -1      2135-1.17758E+10-3.63483E+08-3.28668E+06 1.13111E+09-1.76202E+07 3.59667E+06
 -1      2136-1.26218E+10-3.90669E+08-1.39014E+06-1.09067E+08-1.26139E+07-1.32267E+06
 -1      2138-1.26218E+10-3.90669E+08-1.39014E+06-1.09067E+08-1.26139E+07-1.32267E+06
 -1      2139-1.14085E+10-3.48194E+08-2.49604E+06-1.24753E+09-1.09108E+07-2.94313E+06
 -1      2141-1.14085E+10-3.48194E+08-2.49604E+06-1.24753E+09-1.09108E+07-2.94313E+06
 -1      2142-8.41197E+09-2.57692E+08-1.24028E+06-2.14461E+09-8.60383E+06-5.51737E+06
 -1      2144-8.41197E+09-2.57692E+08-1.24028E+06-2.14461E+09-8.60383E+06-5.51737E+06
 -1      2145-4.13544E+09-1.24689E+08-7.22963E+05-2.71567E+09-8.84692E+06-6.81976E+06
 -1      2147-4.13544E+09-1.24689E+08-7.22963E+05-2.71567E+09-8.84692E+06-6.81976E+06
 -1      2148 7.90927E+08 2.37011E+07-1.41186E+04-2.88704E+09-8.36813E+06-7.23739E+06
 -1      2150 7.90927E+08 2.37011E+07-1.41186E+04-2.88704E+09-8.36813E+06-7.23739E+06
 -1      2151 5.65706E+09 1.73282E+08 1.20460E+06-2.65097E+09-8.70166E+06-6.60213E+06
 -1      2153 5.65706E+09 1.73282E+08 1.20460E+06-2.65097E+09-8.70166E+06-6.60213E+06
 -1      2154 9.77926E+09 2.97465E+08 1.36789E+06-2.04072E+09-7.75417E+06-4.90976E+06
 -1      2156 9.77926E+09 2.97465E+08 1.36789E+06-2.04072E+09-7.75417E+06-4.90976E+06
 -1      2157 1.25789E+10 3.83272E+08 2.48762E+06-1.14638E+09-6.18297E+06-2.53181E+06
 -1      2159 1.25789E+10 3.83272E+08 2.48762E+06-1.14638E+09-6.18297E+06-2.53181E+06
 -1      2160 1.36655E+10 4.15435E+08 1.96559E+06-9.01688E+07-3.01476E+06 3.36380E+05
 -1      2162 1.36655E+10 4.15435E+08 1.96559E+06-9.01688E+07-3.01476E+06 3.36380E+05
 -1      2163 1.28840E+10 3.91798E+08 2.59251E+06 9.80537E+08 1.30502E+06 3.16993E+06
 -1      2165 1.28840E+10 3.91798E+08 2.59251E+06 9.80537E+08 1.30502E+06 3.16993E+06
 -1      2166 1.03373E+10 3.13710E+08 1.33528E+06 1.92003E+09 6.73686E+06 5.67745E+06
 -1      2168 1.03373E+10 3.13710E+08 1.33528E+06 1.92003E+09 6.73686E+06 5.67745E+06
 -1      2169 6.37002E+09 1.92915E+08 1.56327E+06 2.59866E+09 1.27973E+07 7.40716E+06
 -1      2171 6.37002E+09 1.92915E+08 1.56327E+06 2.59866E+09 1.27973E+07 7.40716E+06
 -1      2172 1.51994E+09 4.51840E+07-2.97114E+05 2.92553E+09 1.86652E+07 8.19466E+06
 -1      2174 1.51994E+09 4.51840E+07-2.97114E+05 2.92553E+09 1.86652E+07 8.19466E+06
 -1      2175-3.55494E+09-1.09422E+08 5.92926E+04 2.85610E+09 2.39692E+07 7.84404E+06
 -1      2177-3.55494E+09-1.09422E+08 5.92926E+04 2.85610E+09 2.39692E+07 7.84404E+06
 -1      2178-8.17167E+09-2.49098E+08-2.22377E+06 2.40462E+09 2.74831E+07 6.43210E+06
 -1      2180-8.17167E+09-2.49098E+08-2.22377E+06 2.40462E+09 2.74831E+07 6.43210E+06
 -1      2181-1.17132E+10-3.57167E+08-9.27027E+05 1.63519E+09 2.93019E+07 4.14086E+06
 -1      2183-1.17132E+10-3.57167E+08-9.27027E+05 1.63519E+09 2.93019E+07 4.14086E+06
 -1      2184-1.37242E+10-4.15859E+08-3.70809E+06 6.64629E+08 2.82377E+07 1.12016E+06
 -1      2186-1.37242E+10-4.15859E+08-3.70809E+06 6.64629E+08 2.82377E+07 1.12016E+06
 -1      2187-1.39711E+10-4.21886E+08-5.20234E+05-3.66797E+08 2.50196E+07-1.88204E+06
 -1      2189-1.39711E+10-4.21886E+08-5.20234E+05-3.66797E+08 2.50196E+07-1.88204E+06
 -1      2190-1.24921E+10-3.77501E+08-4.44958E+06-1.28904E+09 1.90520E+07-5.37093E+06
 -1      2192-1.24921E+10-3.77501E+08-4.44958E+06-1.28904E+09 1.90520E+07-5.37093E+06
 -1      2193-9.60786E+09-2.64115E+08 1.54524E+06-1.95650E+09 1.07955E+07-7.24927E+06
 -1      2195-9.60786E+09-2.64115E+08 1.54524E+06-1.95650E+09 1.07955E+07-7.24927E+06
 -1      2196-5.88788E+09-2.06111E+08-4.43178E+06-2.20078E+09 1.68531E+06-1.06431E+07
 -1      2198-5.88788E+09-2.06111E+08-4.43178E+06-2.20078E+09 1.68531E+06-1.06431E+07
 -1      2199-2.15209E+09 8.76797E+07 3.49274E+06-1.94646E+09-1.30148E+07-9.44831E+06
 -1      2201-2.15209E+09 8.76797E+07 3.49274E+06-1.94646E+09-1.30148E+07-9.44831E+06
 -1      2202 5.77732E+08-1.61240E+08-2.79667E+05-1.01461E+09-2.44963E+07-1.37540E+07
 -1      2204 5.77732E+08-1.61240E+08-2.79667E+05-1.01461E+09-2.44963E+07-1.37540E+07
 -1      2205 1.42276E+09 5.03063E+08-6.97339E+06 5.58823E+08-6.32153E+07-7.39941E+06
 -1      2207 1.42276E+09 5.03063E+08-6.97339E+06 5.58823E+08-6.32153E+07-7.39941E+06
 -1      2208-1.22743E+10-8.77474E+08-4.00004E+06 5.83312E+09-7.16645E+06-3.55462E+07
 -1      2210-1.22743E+10-8.77474E+08-4.00004E+06 5.83312E+09-7.16645E+06-3.55462E+07
 -1      2211-3.51426E+09 1.73273E+08 6.90372E+05 4.68667E+09-3.30022E+07 1.17236E+07
 -1      2213-3.51426E+09 1.73273E+08 6.90372E+05 4.68667E+09-3.30022E+07 1.17236E+07
 -1      2214 3.65335E+09 7.36899E+07 1.74898E+06 3.56668E+09-2.50804E+07-1.26333E+07
 -1      2216 3.65335E+09 7.36899E+07 1.74898E+06 3.56668E+09-2.50804E+07-1.26333E+07
 -1      2217 8.72751E+09 3.04178E+08 4.82373E+05 2.39452E+09-2.21098E+07-3.76962E+05
 -1      2219 8.72751E+09 3.04178E+08 4.82373E+05 2.39452E+09-2.21098E+07-3.76962E+05
 -1      2220 1.17758E+10 3.63483E+08 3.28668E+06 1.13111E+09-1.76202E+07-3.59667E+06
 -1      2222 1.17758E+10 3.63483E+08 3.28668E+06 1.13111E+09-1.76202E+07-3.59667E+06
 -1      2223 1.26218E+10 3.90669E+08 1.39014E+06-1.09067E+08-1.26139E+07 1.32267E+06
 -1      2225 1.26218E+10 3.90669E+08 1.39014E+06-1.09067E+08-1.26139E+07 1.32267E+06
 -1      2226 1.14085E+10 3.48194E+08 2.49604E+06-1.24753E+09-1.09108E+07 2.94313E+06
 -1      2228 1.14085E+10 3.48194E+08 2.49604E+06-1.24753E+09-1.09108E+07 2.94313E+06
 -1      2229 8.41197E+09 2.57692E+08 1.24028E+06-2.14461E+09-8.60383E+06 5.51737E+06
 -1      2231 8.41197E+09 2.57692E+08 1.24028E+06-2.14461E+09-8.60383E+06 5.51737E+06
 -1      2232 4.13544E+09 1.24689E+08 7.22963E+05-2.71567E+09-8.84692E+06 6.81976E+06
 -1      2234 4.13544E+09 1.24689E+08 7.22963E+05-2.71567E+09-8.84692E+06 6.81976E+06
 -1      2235-7.90927E+08-2.37011E+07 1.41186E+04-2.88704E+09-8.36813E+06 7.23739E+06
 -1      2237-7.90927E+08-2.37011E+07 1.41186E+04-2.88704E+09-8.36813E+06 7.23739E+06
 -1      2238-5.65706E+09-1.73282E+08-1.20460E+06-2.65097E+09-8.70166E+06 6.60213E+06
 -1      2240-5.65706E+09-1.73282E+08-1.20460E+06-2.65097E+09-8.70166E+06 6.60213E+06
 -1      2241-9.77926E+09-2.97465E+08-1.36789E+06-2.04072E+09-7.75417E+06 4.90976E+06
 -1      2243-9.77926E+09-2.97465E+08-1.36789E+06-2.04072E+09-7.75417E+06 4.90976E+06
 -1      2244-1.25789E+10-3.83272E+08-2.48762E+06-1.14638E+09-6.18297E+06 2.53181E+06
 -1      2246-1.25789E+10-3.83272E+08-2.48762E+06-1.14638E+09-6.18297E+06 2.53181E+06
 -1      2247-1.36655E+10-4.15435E+08-1.96559E+06-9.01688E+07-3.01476E+06-3.36380E+05
 -1      2249-1.36655E+10-4.15435E+08-1.96559E+06-9.01688E+07-3.01476E+06-3.36380E+05
 -1      2250-1.28840E+10-3.91798E+08-2.59251E+06 9.80537E+08 1.30502E+06-3.16993E+06
 -1      2252-1.28840E+10-3.91798E+08-2.59251E+06 9.80537E+08 1.30502E+06-3.16993E+06
 -1      2253-1.03373E+10-3.13710E+08-1.33528E+06 1.92003E+09 6.73686E+06-5.67745E+06
 -1      2255-1.03373E+10-3.13710E+08-1.33528E+06 1.92003E+09 6.73686E+06-5.67745E+06
 -1      2256-6.37002E+09-1.92915E+08-1.56327E+06 2.59866E+09 1.27973E+07-7.40716E+06
 -1      2258-6.37002E+09-1.92915E+08-1.56327E+06 2.59866E+09 1.27973E+07-7.40716E+06
 -1      2259-1.51994E+09-4.51840E+07 2.97114E+05 2.92553E+09 1.86652E+07-8.19466E+06
 -1      2261-1.51994E+09-4.51840E+07 2.97114E+05 2.92553E+09 1.86652E+07-8.19466E+06
 -1      2262 3.55494E+09 1.09422E+08-5.92926E+04 2.85610E+09 2.39692E+07-7.84404E+06
 -1      2264 3.55494E+09 1.09422E+08-5.92926E+04 2.85610E+09 2.39692E+07-7.84404E+06
 -1      2265 8.17167E+09 2.49098E+08 2.22377E+06 2.40462E+09 2.74831E+07-6.43210E+06
 -1      2267 8.17167E+09 2.49098E+08 2.22377E+06 2.40462E+09 2.74831E+07-6.43210E+06
 -1      2268 1.17132E+10 3.57167E+08 9.27027E+05 1.63519E+09 2.93019E+07-4.14086E+06
 -1      2270 1.17132E+10 3.57167E+08 9.27027E+05 1.63519E+09 2.93019E+07-4.14086E+06
 -1      2271 1.37242E+10 4.15859E+08 3.70809E+06 6.64629E+08 2.82377E+07-1.12016E+06
 -1      2273 1.37242E+10 4.15859E+08 3.70809E+06 6.64629E+08 2.82377E+07-1.12016E+06
 -1      2274 1.39711E+10 4.21886E+08 5.20234E+05-3.66797E+08 2.50196E+07 1.88204E+06
 -1      2276 1.39711E+10 4.21886E+08 5.20234E+05-3.66797E+08 2.50196E+07 1.88204E+06
 -1      2277 1.24921E+10 3.77501E+08 4.44958E+06-1.28904E+09 1.90520E+07 5.37093E+06
 -1      2279 1.24921E+10 3.77501E+08 4.44958E+06-1.28904E+09 1.90520E+07 5.37093E+06
 -1      2280 9.60786E+09 2.64115E+08-1.54524E+06-1.95650E+09 1.07955E+07 7.24927E+06
 -1      2282 9.60786E+09 2.64115E+08-1.54524E+06-1.95650E+09 1.07955E+07 7.24927E+06
 -1      2283 5.88788E+09 2.06111E+08 4.43178E+06-2.20078E+09 1.68531E+06 1.06431E+07
 -1      2285 5.88788E+09 2.06111E+08 4.43178E+06-2.20078E+09 1.68531E+06 1.06431E+07
 -1      2286 2.15209E+09-8.76797E+07-3.49274E+06-1.94646E+09-1.30148E+07 9.44831E+06
 -1      2288 2.15209E+09-8.76797E+07-3.49274E+06-1.94646E+09-1.30148E+07 9.44831E+06
 -1      2289-5.77732E+08 1.61240E+08 2.79667E+05-1.01461E+09-2.44963E+07 1.37540E+07
 -1      2291-5.77732E+08 1.61240E+08 2.79667E+05-1.01461E+09-2.44963E+07 1.37540E+07
 -1      2292-1.42276E+09-5.03063E+08 6.97339E+06 5.58823E+08-6.32153E+07 7.39941E+06
 -1      2294-1.42276E+09-5.03063E+08 6.97339E+06 5.58823E+08-6.32153E+07 7.39941E+06
 -3
    1PSTEP                        75           1           1          
    1PGM                1.000000E+00                                  
    1PGK                2.050719E+07                                  
    1PHID                         -1                                  
    1PSUBC                         0                                  
    1PMODE                        19                                  
  100CL  119 720.7309944         930                     2   19MODAL      1
 -4  FORC        4    1
 -5  F1          1    2    1    0
 -5  F2          1    2    2    0
 -5  F3          1    2    3    0
 -5  ALL         1    2    0    0    1ALL
 -1       404-5.91338E+06 1.96450E+06 2.58747E+05
 -1       406-6.67102E+06 1.86351E+06 2.58747E+05
 -1       407-3.69374E+04 1.71803E+05 1.23544E+04
 -1       409-3.69374E+04 1.71803E+05 1.23544E+04
 -1       410 4.18147E-07-1.74293E+06-1.21432E-05
 -1       412 4.15574E-07-3.81269E+06-5.96921E-06
 -1       413-4.75462E-06 3.31065E+06 1.62453E+06
 -1       415-5.36500E-06 3.31065E+06-1.62453E+06
 -1       424-5.31392E-06 1.23115E+06 9.80752E-06
 -1       426-1.18252E-05 1.12865E+06 9.52744E-06
 -1       427 1.66291E+06 1.17864E+06 2.41869E+04
 -1       429-1.66291E+06 1.17864E+06-2.41869E+04
 -1       438 3.69374E+04 1.71803E+05-1.23544E+04
 -1       440 3.69374E+04 1.71803E+05-1.23544E+04
 -1       441 5.91338E+06 1.96450E+06-2.58747E+05
 -1       443 6.67102E+06 1.86351E+06-2.58747E+05
 -1       444-1.66291E+06-1.17864E+06 2.41869E+04
 -1       446 1.66291E+06-1.17864E+06-2.41869E+04
 -1       447 2.02996E-05-1.23115E+06-6.26879E-06
 -1       449-4.13691E-06-1.12865E+06-6.40572E-06
 -1       458-2.15670E-06-3.31065E+06 1.62453E+06
 -1       460-5.37362E-07-3.31065E+06-1.62453E+06
 -1       461 3.99590E-06 1.74293E+06 5.43439E-06
 -1       463 3.75369E-06 3.81269E+06 8.24693E-06
 -1       472-5.91338E+06-1.96450E+06-2.58747E+05
 -1       474-6.67102E+06-1.86351E+06-2.58747E+05
 -1       475-3.69374E+04-1.71803E+05-1.23544E+04
 -1       477-3.69374E+04-1.71803E+05-1.23544E+04
 -1       478 3.69374E+04-1.71803E+05 1.23544E+04
 -1       480 3.69374E+04-1.71803E+05 1.23544E+04
 -1       481 5.91338E+06-1.96450E+06 2.58747E+05
 -1       483 6.67102E+06-1.86351E+06 2.58747E+05
 -1       484 2.52208E+04-5.04360E+04-1.50248E+04
 -1       486 2.52208E+04-5.04360E+04-1.50248E+04
 -1       487 3.87719E+04-1.15104E+05-3.13730E+04
 -1       489 3.87719E+04-1.15104E+05-3.13730E+04
 -1       490 3.85392E+04-1.85696E+05-4.59070E+04
 -1       492 3.85392E+04-1.85696E+05-4.59070E+04
 -1       493 2.77152E+04-2.44451E+05-5.63452E+04
 -1       495 2.77152E+04-2.44451E+05-5.63452E+04
 -1       496 9.83677E+03-2.77981E+05-6.14441E+04
 -1       498 9.83677E+03-2.77981E+05-6.14441E+04
 -1       499-1.14064E+04-2.78479E+05-6.01760E+04
 -1       501-1.14064E+04-2.78479E+05-6.01760E+04
 -1       502-3.23235E+04-2.43894E+05-5.25112E+04
 -1       504-3.23235E+04-2.43894E+05-5.25112E+04
 -1       505-4.95724E+04-1.77744E+05-3.91648E+04
 -1       507-4.95724E+04-1.77744E+05-3.91648E+04
 -1       508-6.04921E+04-8.83488E+04-2.16465E+04
 -1       510-6.04921E+04-8.83488E+04-2.16465E+04
 -1       511-6.34055E+04 1.24934E+04-1.99553E+03
 -1       513-6.34055E+04 1.24934E+04-1.99553E+03
 -1       514-5.78004E+04 1.11239E+05 1.74568E+04
 -1       516-5.78004E+04 1.11239E+05 1.74568E+04
 -1       517-4.43771E+04 1.94518E+05 3.44105E+04
 -1       519-4.43771E+04 1.94518E+05 3.44105E+04
 -1       520-2.49328E+04 2.51017E+05 4.68915E+04
 -1       522-2.49328E+04 2.51017E+05 4.68915E+04
 -1       523-2.10810E+03 2.73048E+05 5.35126E+04
 -1       525-2.10810E+03 2.73048E+05 5.35126E+04
 -1       526 2.09825E+04 2.57626E+05 5.36486E+04
 -1       528 2.09825E+04 2.57626E+05 5.36486E+04
 -1       529 4.11790E+04 2.06886E+05 4.75117E+04
 -1       531 4.11790E+04 2.06886E+05 4.75117E+04
 -1       532 5.57106E+04 1.27802E+05 3.61126E+04
 -1       534 5.57106E+04 1.27802E+05 3.61126E+04
 -1       535 6.25741E+04 3.12425E+04 2.11161E+04
 -1       537 6.25741E+04 3.12425E+04 2.11161E+04
 -1       538 6.08063E+04-6.95084E+04 4.61025E+03
 -1       540 6.08063E+04-6.95084E+04 4.61025E+03
 -1       541 5.06104E+04-1.60554E+05-1.11788E+04
 -1       543 5.06104E+04-1.60554E+05-1.11788E+04
 -1       544 3.33205E+04-2.29265E+05-2.41861E+04
 -1       546 3.33205E+04-2.29265E+05-2.41861E+04
 -1       547 1.12030E+04-2.65968E+05-3.27843E+04
 -1       549 1.12030E+04-2.65968E+05-3.27843E+04
 -1       550-1.28742E+04-2.65215E+05-3.59912E+04
 -1       552-1.28742E+04-2.65215E+05-3.59912E+04
 -1       553-3.58769E+04-2.26426E+05-3.35968E+04
 -1       555-3.58769E+04-2.26426E+05-3.35968E+04
 -1       556-5.50746E+04-1.53804E+05-2.61712E+04
 -1       558-5.50746E+04-1.53804E+05-2.61712E+04
 -1       559-6.85162E+04-5.55492E+04-1.49966E+04
 -1       561-6.85162E+04-5.55492E+04-1.49966E+04
 -1       562-7.54675E+04 5.78513E+04-1.89588E+03
 -1       564-7.54675E+04 5.78513E+04-1.89588E+03
 -1       565-7.67001E+04 1.75217E+05 1.09034E+04
 -1       567-7.67001E+04 1.75217E+05 1.09034E+04
 -1       568-7.49792E+04 2.88542E+05 2.08162E+04
 -1       570-7.49792E+04 2.88542E+05 2.08162E+04
 -1       571-4.92264E+04 3.43257E+05 1.82215E+04
 -1       573-4.92264E+04 3.43257E+05 1.82215E+04
 -1       574 7.19593E-06-7.68718E+05 8.37732E-06
 -1       576 7.11588E-06-1.29722E+06 8.10837E-06
 -1       577-7.80479E-06 8.79615E+05 4.14813E+05
 -1       579-7.79237E-06 8.79615E+05-4.14813E+05
 -1       588 9.54413E-06-3.13278E+05 3.50555E-07
 -1       590 9.47461E-06-1.21452E+06-2.01136E-07
 -1       591-6.18029E-06 4.05984E+05 7.07366E+05
 -1       593-6.24310E-06 4.05984E+05-7.07366E+05
 -1       602 8.64690E-06 1.81822E+05-7.75559E-06
 -1       604 8.50856E-06-4.87997E+05-5.11232E-06
 -1       605-4.10261E-06-4.28365E+05 5.25730E+05
 -1       607-4.11631E-06-4.28365E+05-5.25730E+05
 -1       616 3.42878E-06 9.74787E+04-2.20542E-05
 -1       618 3.25325E-06-3.19290E+05-1.88433E-05
 -1       619-3.45163E-06-6.55288E+05 3.27115E+05
 -1       621-3.31887E-06-6.55288E+05-3.27115E+05
 -1       630-2.74576E-06 2.80087E+05-2.84310E-05
 -1       632-2.91767E-06 8.22554E+04-2.67981E-05
 -1       633 8.99534E-07-1.05280E+06 1.55275E+05
 -1       635 8.53928E-07-1.05280E+06-1.55275E+05
 -1       644-4.78161E-06 1.67662E+05-2.35885E-05
 -1       646-4.80013E-06 1.33999E+05-2.06161E-05
 -1       647 5.68805E-06-1.02409E+06 2.64222E+04
 -1       649 5.83525E-06-1.02409E+06-2.64222E+04
 -1       658-2.88265E-06 2.24350E+05-1.19676E-05
 -1       660-2.80023E-06 2.23118E+05-1.12537E-05
 -1       661 8.34434E-06-9.88601E+05 9.67340E+02
 -1       663 8.89585E-06-9.88601E+05-9.67340E+02
 -1       672-1.74334E-06 1.51709E+05-1.19331E-05
 -1       674-1.76105E-06 1.11860E+05-9.03187E-06
 -1       675 1.00957E-05-6.89318E+05 3.12762E+04
 -1       677 9.94821E-06-6.89318E+05-3.12762E+04
 -1       686-5.96431E-06 1.64704E+05-1.92092E-05
 -1       688-6.16789E-06-3.42958E+03-1.65462E-05
 -1       689 1.13074E-05-3.58035E+05 1.31965E+05
 -1       691 1.09432E-05-3.58035E+05-1.31965E+05
 -1       700-1.30912E-05 1.18862E+05-1.72982E-05
 -1       702-1.32552E-05-2.00855E+05-2.16070E-05
 -1       703 1.43761E-05 7.95604E+04 2.50940E+05
 -1       705 1.44077E-05 7.95604E+04-2.50940E+05
 -1       714-1.63813E-05 1.07977E+05-1.14209E-05
 -1       716-1.59061E-05-3.67109E+05-1.31308E-05
 -1       717 1.60692E-05 4.77440E+05 3.72887E+05
 -1       719 1.68248E-05 4.77440E+05-3.72887E+05
 -1       728-1.33002E-05 6.34267E+04-3.13929E-06
 -1       730-1.31210E-05-5.16269E+05-6.34233E-06
 -1       731 1.21598E-05 8.35067E+05 4.54993E+05
 -1       733 1.23429E-05 8.35067E+05-4.54993E+05
 -1       742-1.01827E-05 2.58102E+04-8.38176E-06
 -1       744-1.01047E-05-5.85525E+05 5.26115E-07
 -1       745 7.07534E-06 1.06527E+06 4.79827E+05
 -1       747 6.82834E-06 1.06527E+06-4.79827E+05
 -1       756-4.35567E-06-3.44317E+04-1.28614E-05
 -1       758-4.45464E-06-5.76304E+05-5.53480E-07
 -1       759 2.09706E-06 1.15948E+06 4.25306E+05
 -1       761 2.33579E-06 1.15948E+06-4.25306E+05
 -1       770 1.77894E-07-9.80427E+04-4.04085E-06
 -1       772 3.21294E-07-4.70685E+05-1.59592E-05
 -1       773-7.82551E-07 1.08976E+06 2.92481E+05
 -1       775-3.29303E-07 1.08976E+06-2.92481E+05
 -1       784 8.18771E-07-1.71633E+05-7.86341E-06
 -1       786 1.28288E-06-2.80947E+05-8.95270E-06
 -1       787-3.99002E-06 8.72306E+05 8.57983E+04
 -1       789-3.40879E-06 8.72306E+05-8.57983E+04
 -1       798 3.22854E-06-2.45152E+05-1.09339E-05
 -1       800 3.20079E-06-2.98196E+04-1.42375E-05
 -1       801-4.81313E-06 5.35345E+05-1.69011E+05
 -1       803-3.91438E-06 5.35345E+05 1.69011E+05
 -1       812 5.55273E-06-3.09656E+05-1.85650E-05
 -1       814 5.71954E-06 2.60205E+05-2.50389E-05
 -1       815 5.57863E-07 1.19762E+05-4.47274E+05
 -1       817 1.04417E-06 1.19762E+05 4.47274E+05
 -1       826 6.28270E-06-3.64189E+05-1.61583E-05
 -1       828 6.44740E-06 5.36547E+05-1.84892E-05
 -1       829 3.58382E-06-3.06953E+05-7.06973E+05
 -1       831 3.51753E-06-3.06953E+05 7.06973E+05
 -1       840 5.56299E-06-3.86502E+05-1.40358E-05
 -1       842 5.72650E-06 7.87306E+05-1.11048E-05
 -1       843 2.41652E-06-7.06392E+05-9.21302E+05
 -1       845 2.78566E-06-7.06392E+05 9.21302E+05
 -1       854 7.07656E-06-3.93002E+05-1.81022E-05
 -1       856 7.37308E-06 9.41826E+05-1.38038E-05
 -1       857-2.22815E-06-9.95420E+05-1.04769E+06
 -1       859-1.55911E-06-9.95420E+05 1.04769E+06
 -1       868 7.11874E-06-3.42794E+05-2.19892E-05
 -1       870 6.40023E-06 1.03421E+06-2.05546E-05
 -1       871-3.90939E-06-1.18124E+06-1.08079E+06
 -1       873-3.47891E-06-1.18124E+06 1.08079E+06
 -1       882 4.57337E-06-2.85485E+05-2.37651E-05
 -1       884 4.90412E-06 9.71189E+05-1.68930E-05
 -1       885-3.54111E-06-1.17537E+06-9.86343E+05
 -1       887-4.08008E-06-1.17537E+06 9.86343E+05
 -1       896 1.12228E-06-1.39036E+05-8.58260E-06
 -1       898 1.64183E-06 8.85864E+05-1.69776E-05
 -1       899-4.74191E-06-1.08364E+06-8.04428E+05
 -1       901-5.28376E-06-1.08364E+06 8.04428E+05
 -1       910 3.10120E-07-1.71412E+04-9.58559E-06
 -1       912 7.30808E-07 6.01798E+05-6.24829E-06
 -1       913-4.87053E-06-7.74383E+05-4.85795E+05
 -1       915-3.88917E-06-7.74383E+05 4.85795E+05
 -1       924 2.61160E-06 2.78169E+05-1.24647E-05
 -1       926 2.83635E-06 4.70951E+05-8.16033E-06
 -1       927-4.32530E-06-5.48249E+05-1.51312E+05
 -1       929-5.83428E-06-5.48249E+05 1.51312E+05
 -1       938 3.48576E-06 4.81471E+05-2.30843E-05
 -1       940 3.88170E-06-1.74102E+04-1.19565E-05
 -1       941-5.50123E-06-5.10501E+04 3.91564E+05
 -1       943-4.87975E-06-5.10501E+04-3.91564E+05
 -1       952 2.79777E-06 1.16653E+06-2.14375E-05
 -1       954 2.65568E-06 1.02183E+05-1.19175E-05
 -1       955-3.46028E-06-8.64757E+04 8.35388E+05
 -1       957-5.08349E-06-8.64757E+04-8.35388E+05
 -1       966-7.93047E-07 1.70623E+06-2.48289E-05
 -1       968-6.91783E-07-8.93690E+05-1.57107E-05
 -1       969-3.95973E-06 4.91814E+05 2.04064E+06
 -1       971-5.50726E-06 4.91814E+05-2.04064E+06
 -1       980-5.25664E+06 1.44895E+06 1.74300E+04
 -1       982-6.03088E+06 1.29671E+06 1.74300E+04
 -1       983 4.92264E+04 3.43257E+05-1.82215E+04
 -1       985 4.92264E+04 3.43257E+05-1.82215E+04
 -1       986-2.52208E+04-5.04360E+04 1.50248E+04
 -1       988-2.52208E+04-5.04360E+04 1.50248E+04
 -1       989-3.87719E+04-1.15104E+05 3.13730E+04
 -1       991-3.87719E+04-1.15104E+05 3.13730E+04
 -1       992-3.85392E+04-1.85696E+05 4.59070E+04
 -1       994-3.85392E+04-1.85696E+05 4.59070E+04
 -1       995-2.77152E+04-2.44451E+05 5.63452E+04
 -1       997-2.77152E+04-2.44451E+05 5.63452E+04
 -1       998-9.83677E+03-2.77981E+05 6.14441E+04
 -1      1000-9.83677E+03-2.77981E+05 6.14441E+04
 -1      1001 1.14064E+04-2.78479E+05 6.01760E+04
 -1      1003 1.14064E+04-2.78479E+05 6.01760E+04
 -1      1004 3.23235E+04-2.43894E+05 5.25112E+04
 -1      1006 3.23235E+04-2.43894E+05 5.25112E+04
 -1      1007 4.95724E+04-1.77744E+05 3.91648E+04
 -1      1009 4.95724E+04-1.77744E+05 3.91648E+04
 -1      1010 6.04921E+04-8.83488E+04 2.16465E+04
 -1      1012 6.04921E+04-8.83488E+04 2.16465E+04
 -1      1013 6.34055E+04 1.24934E+04 1.99553E+03
 -1      1015 6.34055E+04 1.24934E+04 1.99553E+03
 -1      1016 5.78004E+04 1.11239E+05-1.74568E+04
 -1      1018 5.78004E+04 1.11239E+05-1.74568E+04
 -1      1019 4.43771E+04 1.94518E+05-3.44105E+04
 -1      1021 4.43771E+04 1.94518E+05-3.44105E+04
 -1      1022 2.49328E+04 2.51017E+05-4.68915E+04
 -1      1024 2.49328E+04 2.51017E+05-4.68915E+04
 -1      1025 2.10810E+03 2.73048E+05-5.35126E+04
 -1      1027 2.10810E+03 2.73048E+05-5.35126E+04
 -1      1028-2.09825E+04 2.57626E+05-5.36486E+04
 -1      1030-2.09825E+04 2.57626E+05-5.36486E+04
 -1      1031-4.11790E+04 2.06886E+05-4.75117E+04
 -1      1033-4.11790E+04 2.06886E+05-4.75117E+04
 -1      1034-5.57106E+04 1.27802E+05-3.61126E+04
 -1      1036-5.57106E+04 1.27802E+05-3.61126E+04
 -1      1037-6.25741E+04 3.12425E+04-2.11161E+04
 -1      1039-6.25741E+04 3.12425E+04-2.11161E+04
 -1      1040-6.08063E+04-6.95084E+04-4.61025E+03
 -1      1042-6.08063E+04-6.95084E+04-4.61025E+03
 -1      1043-5.06104E+04-1.60554E+05 1.11788E+04
 -1      1045-5.06104E+04-1.60554E+05 1.11788E+04
 -1      1046-3.33205E+04-2.29265E+05 2.41861E+04
 -1      1048-3.33205E+04-2.29265E+05 2.41861E+04
 -1      1049-1.12030E+04-2.65968E+05 3.27843E+04
 -1      1051-1.12030E+04-2.65968E+05 3.27843E+04
 -1      1052 1.28742E+04-2.65215E+05 3.59912E+04
 -1      1054 1.28742E+04-2.65215E+05 3.59912E+04
 -1      1055 3.58769E+04-2.26426E+05 3.35968E+04
 -1      1057 3.58769E+04-2.26426E+05 3.35968E+04
 -1      1058 5.50746E+04-1.53804E+05 2.61712E+04
 -1      1060 5.50746E+04-1.53804E+05 2.61712E+04
 -1      1061 6.85162E+04-5.55492E+04 1.49966E+04
 -1      1063 6.85162E+04-5.55492E+04 1.49966E+04
 -1      1064 7.54675E+04 5.78513E+04 1.89588E+03
 -1      1066 7.54675E+04 5.78513E+04 1.89588E+03
 -1      1067 7.67001E+04 1.75217E+05-1.09034E+04
 -1      1069 7.67001E+04 1.75217E+05-1.09034E+04
 -1      1070 7.49792E+04 2.88542E+05-2.08162E+04
 -1      1072 7.49792E+04 2.88542E+05-2.08162E+04
 -1      1073 5.25664E+06 1.44895E+06-1.74300E+04
 -1      1075 6.03088E+06 1.29671E+06-1.74300E+04
 -1      1076 2.22846E+06 8.03284E+05-7.96615E+04
 -1      1078-2.22846E+06 8.03284E+05 7.96615E+04
 -1      1079 1.16563E-05 6.57333E-06-2.07697E+05
 -1      1081-7.04260E-06 5.93689E-06 2.07697E+05
 -1      1082-2.22846E+06-8.03284E+05-7.96615E+04
 -1      1084 2.22846E+06-8.03284E+05 7.96615E+04
 -1      1085 1.05391E-05-8.79615E+05 4.14813E+05
 -1      1087 1.06326E-05-8.79615E+05-4.14813E+05
 -1      1088-1.56417E-05 7.68718E+05 2.66567E-07
 -1      1090-1.55961E-05 1.29722E+06 9.18180E-08
 -1      1099 8.58320E-06-4.05984E+05 7.07366E+05
 -1      1101 8.67560E-06-4.05984E+05-7.07366E+05
 -1      1102-1.23371E-05 3.13278E+05-1.51540E-06
 -1      1104-1.21561E-05 1.21452E+06-8.26411E-07
 -1      1113 6.59579E-06 4.28365E+05 5.25730E+05
 -1      1115 6.30749E-06 4.28365E+05-5.25730E+05
 -1      1116-6.87692E-06-1.81822E+05 2.25641E-06
 -1      1118-6.50336E-06 4.87997E+05 1.45919E-06
 -1      1127 4.06239E-06 6.55288E+05 3.27115E+05
 -1      1129 3.06678E-06 6.55288E+05-3.27115E+05
 -1      1130-4.49003E-06-9.74787E+04 3.28354E-06
 -1      1132-4.15546E-06 3.19290E+05 3.11245E-06
 -1      1141 9.95919E-07 1.05280E+06 1.55275E+05
 -1      1143 4.29769E-07 1.05280E+06-1.55275E+05
 -1      1144-3.26038E-06-2.80087E+05 1.38162E-05
 -1      1146-3.49235E-06-8.22554E+04 1.03858E-05
 -1      1155-1.68022E-06 1.02409E+06 2.64222E+04
 -1      1157-8.86248E-07 1.02409E+06-2.64222E+04
 -1      1158-3.49457E-06-1.67662E+05 1.79480E-05
 -1      1160-4.11241E-06-1.33999E+05 1.31990E-05
 -1      1169-2.14671E-06 9.88601E+05 9.67340E+02
 -1      1171-1.90733E-06 9.88601E+05-9.67340E+02
 -1      1172-2.91820E-06-2.24350E+05 1.01958E-05
 -1      1174-3.70435E-06-2.23118E+05 1.36155E-05
 -1      1183-4.33173E-06 6.89318E+05 3.12762E+04
 -1      1185-3.81943E-06 6.89318E+05-3.12762E+04
 -1      1186 2.63692E-06-1.51709E+05 7.36945E-06
 -1      1188 2.44859E-06-1.11860E+05 9.04627E-06
 -1      1197-9.10874E-06 3.58035E+05 1.31965E+05
 -1      1199-8.10694E-06 3.58035E+05-1.31965E+05
 -1      1200 7.86190E-06-1.64704E+05 1.19869E-05
 -1      1202 7.77991E-06 3.42958E+03 7.76478E-06
 -1      1211-1.33768E-05-7.95604E+04 2.50940E+05
 -1      1213-1.25080E-05-7.95604E+04-2.50940E+05
 -1      1214 9.18854E-06-1.18862E+05 1.71451E-05
 -1      1216 9.08576E-06 2.00855E+05 1.49581E-05
 -1      1225-1.12882E-05-4.77440E+05 3.72887E+05
 -1      1227-1.22347E-05-4.77440E+05-3.72887E+05
 -1      1228 9.67156E-06-1.07977E+05 2.36664E-05
 -1      1230 9.35731E-06 3.67109E+05 7.97234E-06
 -1      1239-8.72566E-06-8.35067E+05 4.54993E+05
 -1      1241-8.96906E-06-8.35067E+05-4.54993E+05
 -1      1242 1.22712E-05-6.34267E+04 8.68043E-06
 -1      1244 1.21257E-05 5.16269E+05 6.92161E-06
 -1      1253-5.25163E-06-1.06527E+06 4.79827E+05
 -1      1255-5.89788E-06-1.06527E+06-4.79827E+05
 -1      1256 1.11988E-05-2.58102E+04 9.66425E-06
 -1      1258 1.10736E-05 5.85525E+05-2.98063E-06
 -1      1267-6.67979E-06-1.15948E+06 4.25306E+05
 -1      1269-5.13642E-06-1.15948E+06-4.25306E+05
 -1      1270 7.34930E-06 3.44317E+04 1.25595E-05
 -1      1272 6.98084E-06 5.76304E+05-2.08788E-06
 -1      1281-4.29629E-06-1.08976E+06 2.92481E+05
 -1      1283-2.96706E-06-1.08976E+06-2.92481E+05
 -1      1284 5.64106E-07 9.80427E+04 6.22650E-06
 -1      1286-1.25104E-07 4.70685E+05 1.10609E-05
 -1      1295-4.28583E-07-8.72306E+05 8.57983E+04
 -1      1297-8.96114E-07-8.72306E+05-8.57983E+04
 -1      1298-4.59930E-06 1.71633E+05 9.76388E-06
 -1      1300-5.17260E-06 2.80947E+05 5.29223E-06
 -1      1309-2.73847E-06-5.35345E+05-1.69011E+05
 -1      1311-2.33565E-06-5.35345E+05 1.69011E+05
 -1      1312-4.93752E-06 2.45152E+05 1.14169E-05
 -1      1314-4.88383E-06 2.98196E+04 6.44232E-06
 -1      1323-2.81633E-06-1.19762E+05-4.47274E+05
 -1      1325-2.75025E-06-1.19762E+05 4.47274E+05
 -1      1326-2.81446E-06 3.09656E+05 6.59364E-06
 -1      1328-2.83282E-06-2.60205E+05 2.16007E-05
 -1      1337-2.01173E-06 3.06953E+05-7.06973E+05
 -1      1339-2.48346E-06 3.06953E+05 7.06973E+05
 -1      1340 9.11420E-07 3.64189E+05 1.72720E-05
 -1      1342 1.43406E-06-5.36547E+05 1.18257E-05
 -1      1351 1.17983E-06 7.06392E+05-9.21302E+05
 -1      1353 1.12457E-06 7.06392E+05 9.21302E+05
 -1      1354 2.39533E-06 3.86502E+05 1.95018E-05
 -1      1356 2.48355E-06-7.87306E+05 1.81098E-05
 -1      1365 3.46478E-06 9.95420E+05-1.04769E+06
 -1      1367 5.18824E-06 9.95420E+05 1.04769E+06
 -1      1368 1.32438E-06 3.93002E+05 2.74953E-05
 -1      1370 1.20777E-06-9.41826E+05 2.35997E-05
 -1      1379 7.14970E-06 1.18124E+06-1.08079E+06
 -1      1381 8.22926E-06 1.18124E+06 1.08079E+06
 -1      1382 3.63004E-07 3.42794E+05 2.15129E-05
 -1      1384 6.50552E-08-1.03421E+06 2.30842E-05
 -1      1393 7.02602E-06 1.17537E+06-9.86343E+05
 -1      1395 6.95322E-06 1.17537E+06 9.86343E+05
 -1      1396 3.07738E-07 2.85485E+05 7.63588E-06
 -1      1398-4.26830E-07-9.71189E+05 1.34208E-05
 -1      1407 2.57739E-06 1.08364E+06-8.04428E+05
 -1      1409 1.98795E-06 1.08364E+06 8.04428E+05
 -1      1410-4.51456E-07 1.39036E+05-2.82739E-06
 -1      1412 1.05470E-07-8.85864E+05 1.17233E-05
 -1      1421 6.00015E-07 7.74383E+05-4.85795E+05
 -1      1423 7.47688E-07 7.74383E+05 4.85795E+05
 -1      1424-1.97841E-06 1.71412E+04 1.38060E-05
 -1      1426-1.29720E-06-6.01798E+05 8.60544E-06
 -1      1435 1.42688E-06 5.48249E+05-1.51312E+05
 -1      1437 1.59636E-06 5.48249E+05 1.51312E+05
 -1      1438-2.70410E-06-2.78169E+05 1.91808E-05
 -1      1440-2.26086E-06-4.70951E+05 1.60215E-05
 -1      1449 2.88210E-06 5.10501E+04 3.91564E+05
 -1      1451 1.92969E-06 5.10501E+04-3.91564E+05
 -1      1452-2.07276E-06-4.81471E+05 2.08365E-05
 -1      1454-2.43482E-06 1.74102E+04 1.04914E-05
 -1      1463 3.91242E-07 8.64757E+04 8.35388E+05
 -1      1465-2.63480E-07 8.64757E+04-8.35388E+05
 -1      1466 2.97617E-06-1.16653E+06 2.34000E-05
 -1      1468 2.49715E-06-1.02183E+05 9.23145E-06
 -1      1477-9.83902E-07-4.91814E+05 2.04064E+06
 -1      1479 4.20256E-07-4.91814E+05-2.04064E+06
 -1      1480 5.74613E-06-1.70623E+06 2.36641E-05
 -1      1482 4.98475E-06 8.93690E+05 2.15288E-05
 -1      1491-2.19682E-06 2.58724E+05 2.01865E-06
 -1      1493-3.56897E-06 2.58724E+05-7.28825E-07
 -1      1494-2.82837E-06 3.40861E-05 1.66170E-06
 -1      1496-2.76077E-06-4.87521E-05-1.00293E-06
 -1      1497-1.72531E-07-2.58724E+05 4.67335E-06
 -1      1499 9.71446E-07-2.58724E+05 1.75739E-06
 -1      1500 2.52208E+04 5.04360E+04 1.50248E+04
 -1      1502 2.52208E+04 5.04360E+04 1.50248E+04
 -1      1503 3.87719E+04 1.15104E+05 3.13730E+04
 -1      1505 3.87719E+04 1.15104E+05 3.13730E+04
 -1      1506 3.85392E+04 1.85696E+05 4.59070E+04
 -1      1508 3.85392E+04 1.85696E+05 4.59070E+04
 -1      1509 2.77152E+04 2.44451E+05 5.63452E+04
 -1      1511 2.77152E+04 2.44451E+05 5.63452E+04
 -1      1512 9.83677E+03 2.77981E+05 6.14441E+04
 -1      1514 9.83677E+03 2.77981E+05 6.14441E+04
 -1      1515-1.14064E+04 2.78479E+05 6.01760E+04
 -1      1517-1.14064E+04 2.78479E+05 6.01760E+04
 -1      1518-3.23235E+04 2.43894E+05 5.25112E+04
 -1      1520-3.23235E+04 2.43894E+05 5.25112E+04
 -1      1521-4.95724E+04 1.77744E+05 3.91648E+04
 -1      1523-4.95724E+04 1.77744E+05 3.91648E+04
 -1      1524-6.04921E+04 8.83488E+04 2.16465E+04
 -1      1526-6.04921E+04 8.83488E+04 2.16465E+04
 -1      1527-6.34055E+04-1.24934E+04 1.99553E+03
 -1      1529-6.34055E+04-1.24934E+04 1.99553E+03
 -1      1530-5.78004E+04-1.11239E+05-1.74568E+04
 -1      1532-5.78004E+04-1.11239E+05-1.74568E+04
 -1      1533-4.43771E+04-1.94518E+05-3.44105E+04
 -1      1535-4.43771E+04-1.94518E+05-3.44105E+04
 -1      1536-2.49328E+04-2.51017E+05-4.68915E+04
 -1      1538-2.49328E+04-2.51017E+05-4.68915E+04
 -1      1539-2.10810E+03-2.73048E+05-5.35126E+04
 -1      1541-2.10810E+03-2.73048E+05-5.35126E+04
 -1      1542 2.09825E+04-2.57626E+05-5.36486E+04
 -1      1544 2.09825E+04-2.57626E+05-5.36486E+04
 -1      1545 4.11790E+04-2.06886E+05-4.75117E+04
 -1      1547 4.11790E+04-2.06886E+05-4.75117E+04
 -1      1548 5.57106E+04-1.27802E+05-3.61126E+04
 -1      1550 5.57106E+04-1.27802E+05-3.61126E+04
 -1      1551 6.25741E+04-3.12425E+04-2.11161E+04
 -1      1553 6.25741E+04-3.12425E+04-2.11161E+04
 -1      1554 6.08063E+04 6.95084E+04-4.61025E+03
 -1      1556 6.08063E+04 6.95084E+04-4.61025E+03
 -1      1557 5.06104E+04 1.60554E+05 1.11788E+04
 -1      1559 5.06104E+04 1.60554E+05 1.11788E+04
 -1      1560 3.33205E+04 2.29265E+05 2.41861E+04
 -1      1562 3.33205E+04 2.29265E+05 2.41861E+04
 -1      1563 1.12030E+04 2.65968E+05 3.27843E+04
 -1      1565 1.12030E+04 2.65968E+05 3.27843E+04
 -1      1566-1.28742E+04 2.65215E+05 3.59912E+04
 -1      1568-1.28742E+04 2.65215E+05 3.59912E+04
 -1      1569-3.58769E+04 2.26426E+05 3.35968E+04
 -1      1571-3.58769E+04 2.26426E+05 3.35968E+04
 -1      1572-5.50746E+04 1.53804E+05 2.61712E+04
 -1      1574-5.50746E+04 1.53804E+05 2.61712E+04
 -1      1575-6.85162E+04 5.55492E+04 1.49966E+04
 -1      1577-6.85162E+04 5.55492E+04 1.49966E+04
 -1      1578-7.54675E+04-5.78513E+04 1.89588E+03
 -1      1580-7.54675E+04-5.78513E+04 1.89588E+03
 -1      1581-7.67001E+04-1.75217E+05-1.09034E+04
 -1      1583-7.67001E+04-1.75217E+05-1.09034E+04
 -1      1584-7.49792E+04-2.88542E+05-2.08162E+04
 -1      1586-7.49792E+04-2.88542E+05-2.08162E+04
 -1      1587-4.92264E+04-3.43257E+05-1.82215E+04
 -1      1589-4.92264E+04-3.43257E+05-1.82215E+04
 -1      1590-5.25664E+06-1.44895E+06-1.74300E+04
 -1      1592-6.03088E+06-1.29671E+06-1.74300E+04
 -1      1593 4.92264E+04-3.43257E+05 1.82215E+04
 -1      1595 4.92264E+04-3.43257E+05 1.82215E+04
 -1      1596-2.52208E+04 5.04360E+04-1.50248E+04
 -1      1598-2.52208E+04 5.04360E+04-1.50248E+04
 -1      1599-3.87719E+04 1.15104E+05-3.13730E+04
 -1      1601-3.87719E+04 1.15104E+05-3.13730E+04
 -1      1602-3.85392E+04 1.85696E+05-4.59070E+04
 -1      1604-3.85392E+04 1.85696E+05-4.59070E+04
 -1      1605-2.77152E+04 2.44451E+05-5.63452E+04
 -1      1607-2.77152E+04 2.44451E+05-5.63452E+04
 -1      1608-9.83677E+03 2.77981E+05-6.14441E+04
 -1      1610-9.83677E+03 2.77981E+05-6.14441E+04
 -1      1611 1.14064E+04 2.78479E+05-6.01760E+04
 -1      1613 1.14064E+04 2.78479E+05-6.01760E+04
 -1      1614 3.23235E+04 2.43894E+05-5.25112E+04
 -1      1616 3.23235E+04 2.43894E+05-5.25112E+04
 -1      1617 4.95724E+04 1.77744E+05-3.91648E+04
 -1      1619 4.95724E+04 1.77744E+05-3.91648E+04
 -1      1620 6.04921E+04 8.83488E+04-2.16465E+04
 -1      1622 6.04921E+04 8.83488E+04-2.16465E+04
 -1      1623 6.34055E+04-1.24934E+04-1.99553E+03
 -1      1625 6.34055E+04-1.24934E+04-1.99553E+03
 -1      1626 5.78004E+04-1.11239E+05 1.74568E+04
 -1      1628 5.78004E+04-1.11239E+05 1.74568E+04
 -1      1629 4.43771E+04-1.94518E+05 3.44105E+04
 -1      1631 4.43771E+04-1.94518E+05 3.44105E+04
 -1      1632 2.49328E+04-2.51017E+05 4.68915E+04
 -1      1634 2.49328E+04-2.51017E+05 4.68915E+04
 -1      1635 2.10810E+03-2.73048E+05 5.35126E+04
 -1      1637 2.10810E+03-2.73048E+05 5.35126E+04
 -1      1638-2.09825E+04-2.57626E+05 5.36486E+04
 -1      1640-2.09825E+04-2.57626E+05 5.36486E+04
 -1      1641-4.11790E+04-2.06886E+05 4.75117E+04
 -1      1643-4.11790E+04-2.06886E+05 4.75117E+04
 -1      1644-5.57106E+04-1.27802E+05 3.61126E+04
 -1      1646-5.57106E+04-1.27802E+05 3.61126E+04
 -1      1647-6.25741E+04-3.12425E+04 2.11161E+04
 -1      1649-6.25741E+04-3.12425E+04 2.11161E+04
 -1      1650-6.08063E+04 6.95084E+04 4.61025E+03
 -1      1652-6.08063E+04 6.95084E+04 4.61025E+03
 -1      1653-5.06104E+04 1.60554E+05-1.11788E+04
 -1      1655-5.06104E+04 1.60554E+05-1.11788E+04
 -1      1656-3.33205E+04 2.29265E+05-2.41861E+04
 -1      1658-3.33205E+04 2.29265E+05-2.41861E+04
 -1      1659-1.12030E+04 2.65968E+05-3.27843E+04
 -1      1661-1.12030E+04 2.65968E+05-3.27843E+04
 -1      1662 1.28742E+04 2.65215E+05-3.59912E+04
 -1      1664 1.28742E+04 2.65215E+05-3.59912E+04
 -1      1665 3.58769E+04 2.26426E+05-3.35968E+04
 -1      1667 3.58769E+04 2.26426E+05-3.35968E+04
 -1      1668 5.50746E+04 1.53804E+05-2.61712E+04
 -1      1670 5.50746E+04 1.53804E+05-2.61712E+04
 -1      1671 6.85162E+04 5.55492E+04-1.49966E+04
 -1      1673 6.85162E+04 5.55492E+04-1.49966E+04
 -1      1674 7.54675E+04-5.78513E+04-1.89588E+03
 -1      1676 7.54675E+04-5.78513E+04-1.89588E+03
 -1      1677 7.67001E+04-1.75217E+05 1.09034E+04
 -1      1679 7.67001E+04-1.75217E+05 1.09034E+04
 -1      1680 7.49792E+04-2.88542E+05 2.08162E+04
 -1      1682 7.49792E+04-2.88542E+05 2.08162E+04
 -1      1683 5.25664E+06-1.44895E+06 1.74300E+04
 -1      1685 6.03088E+06-1.29671E+06 1.74300E+04
 -1      1686 3.28036E+04-9.94018E+04-1.99465E+04
 -1      1688 3.28036E+04-9.94018E+04-1.99465E+04
 -1      1689 5.09382E+04-2.29565E+05-4.18946E+04
 -1      1691 5.09382E+04-2.29565E+05-4.18946E+04
 -1      1692 5.08633E+04-3.71928E+05-6.15680E+04
 -1      1694 5.08633E+04-3.71928E+05-6.15680E+04
 -1      1695 3.65818E+04-4.90114E+05-7.58042E+04
 -1      1697 3.65818E+04-4.90114E+05-7.58042E+04
 -1      1698 1.29455E+04-5.57623E+05-8.28465E+04
 -1      1700 1.29455E+04-5.57623E+05-8.28465E+04
 -1      1701-1.51941E+04-5.58737E+05-8.12342E+04
 -1      1703-1.51941E+04-5.58737E+05-8.12342E+04
 -1      1704-4.29117E+04-4.89399E+05-7.08944E+04
 -1      1706-4.29117E+04-4.89399E+05-7.08944E+04
 -1      1707-6.57746E+04-3.56674E+05-5.27855E+04
 -1      1709-6.57746E+04-3.56674E+05-5.27855E+04
 -1      1710-8.02486E+04-1.77282E+05-2.89674E+04
 -1      1712-8.02486E+04-1.77282E+05-2.89674E+04
 -1      1713-8.41069E+04 2.50987E+04-2.23135E+03
 -1      1715-8.41069E+04 2.50987E+04-2.23135E+03
 -1      1716-7.66691E+04 2.23276E+05 2.42265E+04
 -1      1718-7.66691E+04 2.23276E+05 2.42265E+04
 -1      1719-5.88628E+04 3.90418E+05 4.72526E+04
 -1      1721-5.88628E+04 3.90418E+05 4.72526E+04
 -1      1722-3.30716E+04 5.03811E+05 6.41412E+04
 -1      1724-3.30716E+04 5.03811E+05 6.41412E+04
 -1      1725-2.79728E+03 5.48027E+05 7.29936E+04
 -1      1727-2.79728E+03 5.48027E+05 7.29936E+04
 -1      1728 2.78293E+04 5.17072E+05 7.29595E+04
 -1      1730 2.78293E+04 5.17072E+05 7.29595E+04
 -1      1731 5.46167E+04 4.15232E+05 6.43395E+04
 -1      1733 5.46167E+04 4.15232E+05 6.43395E+04
 -1      1734 7.38902E+04 2.56504E+05 4.85322E+04
 -1      1736 7.38902E+04 2.56504E+05 4.85322E+04
 -1      1737 8.29924E+04 6.27002E+04 2.78340E+04
 -1      1739 8.29924E+04 6.27002E+04 2.78340E+04
 -1      1740 8.06456E+04-1.39518E+05 5.12214E+03
 -1      1742 8.06456E+04-1.39518E+05 5.12214E+03
 -1      1743 6.71190E+04-3.22262E+05-1.65391E+04
 -1      1745 6.71190E+04-3.22262E+05-1.65391E+04
 -1      1746 4.41811E+04-4.60183E+05-3.43092E+04
 -1      1748 4.41811E+04-4.60183E+05-3.43092E+04
 -1      1749 1.48374E+04-5.33875E+05-4.59513E+04
 -1      1751 1.48374E+04-5.33875E+05-4.59513E+04
 -1      1752-1.71125E+04-5.32405E+05-5.01170E+04
 -1      1754-1.71125E+04-5.32405E+05-5.01170E+04
 -1      1755-4.76410E+04-4.54618E+05-4.65185E+04
 -1      1757-4.76410E+04-4.54618E+05-4.65185E+04
 -1      1758-7.31455E+04-3.08979E+05-3.59379E+04
 -1      1760-7.31455E+04-3.08979E+05-3.59379E+04
 -1      1761-9.10210E+04-1.11917E+05-2.01303E+04
 -1      1763-9.10210E+04-1.11917E+05-2.01303E+04
 -1      1764-1.00340E+05 1.15319E+05-1.59493E+03
 -1      1766-1.00340E+05 1.15319E+05-1.59493E+03
 -1      1767-1.02148E+05 3.50610E+05 1.66040E+04
 -1      1769-1.02148E+05 3.50610E+05 1.66040E+04
 -1      1770-9.99359E+04 5.77044E+05 3.08217E+04
 -1      1772-9.99359E+04 5.77044E+05 3.08217E+04
 -1      1773-3.28036E+04-9.94018E+04 1.99465E+04
 -1      1775-3.28036E+04-9.94018E+04 1.99465E+04
 -1      1776-5.09382E+04-2.29565E+05 4.18946E+04
 -1      1778-5.09382E+04-2.29565E+05 4.18946E+04
 -1      1779-5.08633E+04-3.71928E+05 6.15680E+04
 -1      1781-5.08633E+04-3.71928E+05 6.15680E+04
 -1      1782-3.65818E+04-4.90114E+05 7.58042E+04
 -1      1784-3.65818E+04-4.90114E+05 7.58042E+04
 -1      1785-1.29455E+04-5.57623E+05 8.28465E+04
 -1      1787-1.29455E+04-5.57623E+05 8.28465E+04
 -1      1788 1.51941E+04-5.58737E+05 8.12342E+04
 -1      1790 1.51941E+04-5.58737E+05 8.12342E+04
 -1      1791 4.29117E+04-4.89399E+05 7.08944E+04
 -1      1793 4.29117E+04-4.89399E+05 7.08944E+04
 -1      1794 6.57746E+04-3.56674E+05 5.27855E+04
 -1      1796 6.57746E+04-3.56674E+05 5.27855E+04
 -1      1797 8.02486E+04-1.77282E+05 2.89674E+04
 -1      1799 8.02486E+04-1.77282E+05 2.89674E+04
 -1      1800 8.41069E+04 2.50987E+04 2.23135E+03
 -1      1802 8.41069E+04 2.50987E+04 2.23135E+03
 -1      1803 7.66691E+04 2.23276E+05-2.42265E+04
 -1      1805 7.66691E+04 2.23276E+05-2.42265E+04
 -1      1806 5.88628E+04 3.90418E+05-4.72526E+04
 -1      1808 5.88628E+04 3.90418E+05-4.72526E+04
 -1      1809 3.30716E+04 5.03811E+05-6.41412E+04
 -1      1811 3.30716E+04 5.03811E+05-6.41412E+04
 -1      1812 2.79728E+03 5.48027E+05-7.29936E+04
 -1      1814 2.79728E+03 5.48027E+05-7.29936E+04
 -1      1815-2.78293E+04 5.17072E+05-7.29595E+04
 -1      1817-2.78293E+04 5.17072E+05-7.29595E+04
 -1      1818-5.46167E+04 4.15232E+05-6.43395E+04
 -1      1820-5.46167E+04 4.15232E+05-6.43395E+04
 -1      1821-7.38902E+04 2.56504E+05-4.85322E+04
 -1      1823-7.38902E+04 2.56504E+05-4.85322E+04
 -1      1824-8.29924E+04 6.27002E+04-2.78340E+04
 -1      1826-8.29924E+04 6.27002E+04-2.78340E+04
 -1      1827-8.06456E+04-1.39518E+05-5.12214E+03
 -1      1829-8.06456E+04-1.39518E+05-5.12214E+03
 -1      1830-6.71190E+04-3.22262E+05 1.65391E+04
 -1      1832-6.71190E+04-3.22262E+05 1.65391E+04
 -1      1833-4.41811E+04-4.60183E+05 3.43092E+04
 -1      1835-4.41811E+04-4.60183E+05 3.43092E+04
 -1      1836-1.48374E+04-5.33875E+05 4.59513E+04
 -1      1838-1.48374E+04-5.33875E+05 4.59513E+04
 -1      1839 1.71125E+04-5.32405E+05 5.01170E+04
 -1      1841 1.71125E+04-5.32405E+05 5.01170E+04
 -1      1842 4.76410E+04-4.54618E+05 4.65185E+04
 -1      1844 4.76410E+04-4.54618E+05 4.65185E+04
 -1      1845 7.31455E+04-3.08979E+05 3.59379E+04
 -1      1847 7.31455E+04-3.08979E+05 3.59379E+04
 -1      1848 9.10210E+04-1.11917E+05 2.01303E+04
 -1      1850 9.10210E+04-1.11917E+05 2.01303E+04
 -1      1851 1.00340E+05 1.15319E+05 1.59493E+03
 -1      1853 1.00340E+05 1.15319E+05 1.59493E+03
 -1      1854 1.02148E+05 3.50610E+05-1.66040E+04
 -1      1856 1.02148E+05 3.50610E+05-1.66040E+04
 -1      1857 9.99359E+04 5.77044E+05-3.08217E+04
 -1      1859 9.99359E+04 5.77044E+05-3.08217E+04
 -1      1860 7.46590E-07-7.63610E+04-4.02084E-07
 -1      1862 6.91201E-07-7.63610E+04-7.53927E-07
 -1      1863 1.51540E-06-1.77073E+05 1.12892E-06
 -1      1865 1.57078E-06-1.77073E+05 6.52792E-07
 -1      1866 1.45980E-06-2.86089E+05 1.37884E-06
 -1      1868 1.48237E-06-2.86089E+05 2.06399E-06
 -1      1869-1.70466E-06-3.75677E+05 9.56481E-07
 -1      1871-1.68422E-06-3.75677E+05 3.95840E-06
 -1      1872-3.42331E-06-4.26522E+05-3.74246E-07
 -1      1874-3.21446E-06-4.26522E+05 4.39066E-06
 -1      1875-2.10958E-06-4.26852E+05-5.10674E-07
 -1      1877-1.88831E-06-4.26852E+05 2.12748E-06
 -1      1878-2.55590E-07-3.73712E+05-9.97024E-07
 -1      1880 8.84145E-07-3.73712E+05 2.67821E-07
 -1      1881 2.23198E-06-2.72524E+05-8.89195E-07
 -1      1883 2.51134E-06-2.72524E+05 1.56368E-06
 -1      1884-1.86801E-06-1.36029E+05 5.19036E-06
 -1      1886-1.43640E-06-1.36029E+05 5.22415E-06
 -1      1887-2.74494E-06 1.77683E+04 3.63523E-06
 -1      1889-1.60134E-06 1.77683E+04 4.94227E-06
 -1      1890-5.78715E-07 1.68185E+05-5.37584E-08
 -1      1892-8.35222E-07 1.68185E+05-2.14499E-06
 -1      1893-1.08768E-07 2.94836E+05-2.15298E-06
 -1      1895-1.25555E-06 2.94836E+05-5.72737E-06
 -1      1896-1.07870E-06 3.80468E+05-5.79981E-06
 -1      1898-1.93968E-06 3.80468E+05-4.33260E-06
 -1      1899 1.10971E-06 4.13395E+05-6.36282E-06
 -1      1901 1.12491E-06 4.13395E+05-6.13549E-06
 -1      1902 5.39609E-06 3.89116E+05-5.60044E-06
 -1      1904 3.12913E-06 3.89116E+05-5.13218E-06
 -1      1905 3.91767E-06 3.10968E+05-3.75031E-06
 -1      1907 3.96989E-06 3.10968E+05-1.68508E-06
 -1      1908 2.01783E-06 1.89684E+05-2.42814E-06
 -1      1910 2.36538E-06 1.89684E+05-2.24409E-06
 -1      1911 5.15627E-06 4.19456E+04-9.39035E-07
 -1      1913 4.83758E-06 4.19456E+04 2.72255E-07
 -1      1914 6.05247E-06-1.11883E+05 5.30654E-07
 -1      1916 6.00665E-06-1.11883E+05 1.12152E-06
 -1      1917 5.28004E-06-2.50525E+05 1.23454E-06
 -1      1919 6.61684E-06-2.50525E+05 2.52465E-07
 -1      1920 2.93560E-06-3.54657E+05 2.86652E-06
 -1      1922 4.17366E-06-3.54657E+05-4.24634E-06
 -1      1923 9.80988E-07-4.09526E+05-1.56009E-06
 -1      1925 1.39160E-06-4.09526E+05-1.30085E-06
 -1      1926-7.27799E-07-4.06869E+05-4.21714E-06
 -1      1928-1.39358E-06-4.06869E+05-4.44694E-07
 -1      1929-2.65566E-06-3.45924E+05-4.45220E-06
 -1      1931-2.90256E-06-3.45924E+05 1.63726E-06
 -1      1932-3.15368E-06-2.33372E+05-2.04852E-06
 -1      1934-2.44177E-06-2.33372E+05-1.53884E-06
 -1      1935-1.65711E-06-8.19055E+04-4.84296E-06
 -1      1937-2.00226E-06-8.19055E+04-3.51796E-06
 -1      1938-2.70984E-06 9.14973E+04-1.44929E-06
 -1      1940-1.82104E-06 9.14973E+04 1.96017E-06
 -1      1941-1.01264E-06 2.69982E+05-1.05072E-06
 -1      1943-1.59231E-06 2.69982E+05-2.89772E-07
 -1      1944 2.25144E-06 4.38038E+05-1.04526E-06
 -1      1946-2.79733E-06 4.38038E+05-6.69633E-06
 -1      1947 1.07014E-06-9.40487E-06 2.83285E-06
 -1      1949 1.00118E-06 1.33263E-06 2.41685E-06
 -1      1950-5.70290E-08-1.35633E-05 4.63964E-06
 -1      1952-5.46061E-08 1.17351E-05 4.63066E-06
 -1      1953-2.37225E-07-7.58421E-06 1.71441E-06
 -1      1955-2.92202E-07 1.31596E-05 1.48034E-06
 -1      1956-6.25507E-07-5.46708E-06-2.05534E-07
 -1      1958-7.36407E-07 1.52860E-05 4.05428E-07
 -1      1959-1.60397E-06-1.56251E-05 2.90256E-07
 -1      1961-1.79478E-06 7.31425E-06 2.32114E-06
 -1      1962-1.22809E-06 6.84546E-07 2.21681E-06
 -1      1964-8.92986E-07 7.54089E-06 2.58772E-06
 -1      1965-2.54621E-06 1.30472E-05 3.33917E-06
 -1      1967-1.38317E-06-3.99945E-06 5.26472E-06
 -1      1968-3.93349E-06 3.01259E-05 1.74815E-06
 -1      1970-3.53738E-06-2.56686E-05 4.92964E-06
 -1      1971-4.95032E-06 1.52014E-05 2.22167E-06
 -1      1973-3.42130E-06-1.57500E-05 3.65993E-06
 -1      1974-3.53947E-06-1.71918E-05 3.24415E-06
 -1      1976-2.46139E-06-4.47678E-06 2.13164E-07
 -1      1977-1.53580E-06 1.30515E-05 1.45873E-06
 -1      1979-2.79649E-06-1.20373E-05-5.67416E-07
 -1      1980-1.19290E-06 2.25140E-05-3.01909E-07
 -1      1982-1.89935E-06-2.28069E-05-1.07269E-06
 -1      1983-1.06188E-06 3.99257E-06-4.71027E-06
 -1      1985 1.76936E-06-4.02999E-05-1.30873E-06
 -1      1986 1.86512E-06 1.19511E-06-6.06304E-06
 -1      1988 2.00783E-06-2.92853E-06-2.27188E-06
 -1      1989 4.58389E-06 5.74244E-06-4.77247E-06
 -1      1991 3.58394E-06-3.70395E-05-1.88678E-06
 -1      1992 1.75370E-06 1.40420E-05-2.10571E-06
 -1      1994 4.77587E-06-9.60289E-06 2.14717E-07
 -1      1995 1.18617E-06 2.59800E-05 1.22161E-06
 -1      1997 3.30586E-06-1.82342E-05 1.54474E-06
 -1      1998-2.45827E-07 2.06931E-06 2.04556E-06
 -1      2000-4.60474E-07-4.86396E-05 2.49869E-06
 -1      2001 9.61078E-07-2.88269E-06 1.70779E-06
 -1      2003 1.24567E-06-2.61322E-05 3.00641E-06
 -1      2004 2.97715E-06-1.81401E-05 2.08899E-06
 -1      2006 3.14606E-06-7.58817E-06-1.57281E-06
 -1      2007 1.34927E-06-1.70891E-05-3.32876E-06
 -1      2009 2.88170E-06 7.72467E-06-2.22071E-06
 -1      2010 4.23170E-07 1.77571E-06-4.02492E-06
 -1      2012 1.03055E-06-3.60358E-06 2.38002E-06
 -1      2013 3.08326E-07-5.36197E-06 7.05646E-07
 -1      2015 3.51167E-07-1.13068E-05 3.71875E-06
 -1      2016-9.35521E-07 1.19252E-06 6.56139E-07
 -1      2018-2.11133E-06-1.49812E-05 3.83494E-06
 -1      2019-2.24773E-06 4.69565E-06 3.82683E-06
 -1      2021-2.76869E-06-4.71427E-06 5.06880E-06
 -1      2022-2.26125E-06 1.45723E-05 1.86533E-06
 -1      2024-1.73547E-06-7.40950E-06 3.70963E-06
 -1      2025-2.75348E-06-9.05083E-06 5.32771E-06
 -1      2027-2.10794E-06 1.12618E-05 3.54344E-06
 -1      2028-9.01491E-07-2.97091E-05 5.86711E-06
 -1      2030-7.76636E-07 2.84034E-05 2.18050E-06
 -1      2031 5.98266E-07 4.38908E-05 7.93466E-06
 -1      2033 3.51938E-08-4.00408E-06-1.27481E-06
 -1      2034-3.68575E-06 7.63610E+04 4.33572E-06
 -1      2036-3.62284E-06 7.63610E+04 4.36881E-06
 -1      2037-3.48537E-06 1.77073E+05 4.37097E-06
 -1      2039-3.45201E-06 1.77073E+05 5.13864E-06
 -1      2040 1.71400E-07 2.86089E+05 8.94062E-07
 -1      2042-2.52468E-07 2.86089E+05-4.14781E-07
 -1      2043 9.98345E-07 3.75677E+05-3.41493E-07
 -1      2045 2.42315E-07 3.75677E+05-4.09176E-06
 -1      2046 1.90907E-07 4.26522E+05-1.15384E-06
 -1      2048-6.78374E-07 4.26522E+05-1.34739E-07
 -1      2049-1.04812E-06 4.26852E+05 1.29799E-06
 -1      2051-4.05147E-07 4.26852E+05 1.34045E-07
 -1      2052-3.09174E-06 3.73712E+05 3.49071E-06
 -1      2054-1.70019E-06 3.73712E+05 4.52291E-06
 -1      2055-3.13625E-06 2.72524E+05 5.76328E-06
 -1      2057-4.19140E-06 2.72524E+05 8.30493E-06
 -1      2058-4.30426E-06 1.36029E+05 4.74759E-06
 -1      2060-2.62137E-06 1.36029E+05 4.97609E-06
 -1      2061-3.02497E-06-1.77683E+04 2.91475E-06
 -1      2063-3.23744E-06-1.77683E+04-1.59387E-07
 -1      2064-3.04780E-06-1.68185E+05 1.81917E-06
 -1      2066-3.82846E-06-1.68185E+05-2.80907E-06
 -1      2067-2.36920E-07-2.94836E+05-9.46577E-07
 -1      2069-1.81972E-07-2.94836E+05-2.70298E-07
 -1      2070 1.78170E-06-3.80468E+05-2.53875E-06
 -1      2072 3.16396E-06-3.80468E+05 1.98738E-07
 -1      2073-1.54861E-07-4.13395E+05-3.56789E-06
 -1      2075 9.36270E-08-4.13395E+05-9.10415E-07
 -1      2076-8.52117E-07-3.89116E+05-3.66424E-06
 -1      2078-3.60423E-06-3.89116E+05-6.07812E-07
 -1      2079-4.82990E-06-3.10968E+05-9.69907E-07
 -1      2081-3.10837E-06-3.10968E+05 2.33779E-06
 -1      2082-5.09777E-06-1.89684E+05 4.53748E-06
 -1      2084-2.12879E-06-1.89684E+05 4.56808E-06
 -1      2085-3.82255E-06-4.19456E+04 5.47559E-07
 -1      2087-3.01388E-06-4.19456E+04 1.71491E-06
 -1      2088-1.38323E-06 1.11883E+05 9.28412E-07
 -1      2090-1.23875E-06 1.11883E+05-2.19428E-06
 -1      2091 1.87308E-06 2.50525E+05-3.41076E-06
 -1      2093 3.03565E-06 2.50525E+05-4.63955E-06
 -1      2094 2.85351E-06 3.54657E+05-3.11542E-06
 -1      2096 3.97208E-06 3.54657E+05-3.39986E-06
 -1      2097 4.51387E-06 4.09526E+05-3.93138E-06
 -1      2099 5.79605E-06 4.09526E+05-1.13941E-06
 -1      2100 4.34706E-06 4.06869E+05 1.74241E-06
 -1      2102 4.82225E-06 4.06869E+05 6.12551E-06
 -1      2103 1.58262E-06 3.45924E+05-1.15350E-06
 -1      2105 2.17507E-07 3.45924E+05 4.56633E-06
 -1      2106-7.16751E-07 2.33372E+05-1.89082E-06
 -1      2108-1.06344E-06 2.33372E+05 3.50419E-06
 -1      2109-1.80785E-06 8.19055E+04 8.20990E-07
 -1      2111-9.34136E-07 8.19055E+04 3.80562E-06
 -1      2112-1.29805E-07-9.14973E+04 7.66017E-06
 -1      2114-6.96796E-07-9.14973E+04 5.59869E-06
 -1      2115 3.27677E-06-2.69982E+05 7.99744E-06
 -1      2117 2.23864E-06-2.69982E+05 4.45210E-06
 -1      2118 2.61890E-06-4.38038E+05 4.08053E-06
 -1      2120 4.66983E-06-4.38038E+05 2.61201E-06
 -1      2121 3.28036E+04 9.94018E+04 1.99465E+04
 -1      2123 3.28036E+04 9.94018E+04 1.99465E+04
 -1      2124 5.09382E+04 2.29565E+05 4.18946E+04
 -1      2126 5.09382E+04 2.29565E+05 4.18946E+04
 -1      2127 5.08633E+04 3.71928E+05 6.15680E+04
 -1      2129 5.08633E+04 3.71928E+05 6.15680E+04
 -1      2130 3.65818E+04 4.90114E+05 7.58042E+04
 -1      2132 3.65818E+04 4.90114E+05 7.58042E+04
 -1      2133 1.29455E+04 5.57623E+05 8.28465E+04
 -1      2135 1.29455E+04 5.57623E+05 8.28465E+04
 -1      2136-1.51941E+04 5.58737E+05 8.12342E+04
 -1      2138-1.51941E+04 5.58737E+05 8.12342E+04
 -1      2139-4.29117E+04 4.89399E+05 7.08944E+04
 -1      2141-4.29117E+04 4.89399E+05 7.08944E+04
 -1      2142-6.57746E+04 3.56674E+05 5.27855E+04
 -1      2144-6.57746E+04 3.56674E+05 5.27855E+04
 -1      2145-8.02486E+04 1.77282E+05 2.89674E+04
 -1      2147-8.02486E+04 1.77282E+05 2.89674E+04
 -1      2148-8.41069E+04-2.50987E+04 2.23135E+03
 -1      2150-8.41069E+04-2.50987E+04 2.23135E+03
 -1      2151-7.66691E+04-2.23276E+05-2.42265E+04
 -1      2153-7.66691E+04-2.23276E+05-2.42265E+04
 -1      2154-5.88628E+04-3.90418E+05-4.72526E+04
 -1      2156-5.88628E+04-3.90418E+05-4.72526E+04
 -1      2157-3.30716E+04-5.03811E+05-6.41412E+04
 -1      2159-3.30716E+04-5.03811E+05-6.41412E+04
 -1      2160-2.79728E+03-5.48027E+05-7.29936E+04
 -1      2162-2.79728E+03-5.48027E+05-7.29936E+04
 -1      2163 2.78293E+04-5.17072E+05-7.29595E+04
 -1      2165 2.78293E+04-5.17072E+05-7.29595E+04
 -1      2166 5.46167E+04-4.15232E+05-6.43395E+04
 -1      2168 5.46167E+04-4.15232E+05-6.43395E+04
 -1      2169 7.38902E+04-2.56504E+05-4.85322E+04
 -1      2171 7.38902E+04-2.56504E+05-4.85322E+04
 -1      2172 8.29924E+04-6.27002E+04-2.78340E+04
 -1      2174 8.29924E+04-6.27002E+04-2.78340E+04
 -1      2175 8.06456E+04 1.39518E+05-5.12214E+03
 -1      2177 8.06456E+04 1.39518E+05-5.12214E+03
 -1      2178 6.71190E+04 3.22262E+05 1.65391E+04
 -1      2180 6.71190E+04 3.22262E+05 1.65391E+04
 -1      2181 4.41811E+04 4.60183E+05 3.43092E+04
 -1      2183 4.41811E+04 4.60183E+05 3.43092E+04
 -1      2184 1.48374E+04 5.33875E+05 4.59513E+04
 -1      2186 1.48374E+04 5.33875E+05 4.59513E+04
 -1      2187-1.71125E+04 5.32405E+05 5.01170E+04
 -1      2189-1.71125E+04 5.32405E+05 5.01170E+04
 -1      2190-4.76410E+04 4.54618E+05 4.65185E+04
 -1      2192-4.76410E+04 4.54618E+05 4.65185E+04
 -1      2193-7.31455E+04 3.08979E+05 3.59379E+04
 -1      2195-7.31455E+04 3.08979E+05 3.59379E+04
 -1      2196-9.10210E+04 1.11917E+05 2.01303E+04
 -1      2198-9.10210E+04 1.11917E+05 2.01303E+04
 -1      2199-1.00340E+05-1.15319E+05 1.59493E+03
 -1      2201-1.00340E+05-1.15319E+05 1.59493E+03
 -1      2202-1.02148E+05-3.50610E+05-1.66040E+04
 -1      2204-1.02148E+05-3.50610E+05-1.66040E+04
 -1      2205-9.99359E+04-5.77044E+05-3.08217E+04
 -1      2207-9.99359E+04-5.77044E+05-3.08217E+04
 -1      2208-3.28036E+04 9.94018E+04-1.99465E+04
 -1      2210-3.28036E+04 9.94018E+04-1.99465E+04
 -1      2211-5.09382E+04 2.29565E+05-4.18946E+04
 -1      2213-5.09382E+04 2.29565E+05-4.18946E+04
 -1      2214-5.08633E+04 3.71928E+05-6.15680E+04
 -1      2216-5.08633E+04 3.71928E+05-6.15680E+04
 -1      2217-3.65818E+04 4.90114E+05-7.58042E+04
 -1      2219-3.65818E+04 4.90114E+05-7.58042E+04
 -1      2220-1.29455E+04 5.57623E+05-8.28465E+04
 -1      2222-1.29455E+04 5.57623E+05-8.28465E+04
 -1      2223 1.51941E+04 5.58737E+05-8.12342E+04
 -1      2225 1.51941E+04 5.58737E+05-8.12342E+04
 -1      2226 4.29117E+04 4.89399E+05-7.08944E+04
 -1      2228 4.29117E+04 4.89399E+05-7.08944E+04
 -1      2229 6.57746E+04 3.56674E+05-5.27855E+04
 -1      2231 6.57746E+04 3.56674E+05-5.27855E+04
 -1      2232 8.02486E+04 1.77282E+05-2.89674E+04
 -1      2234 8.02486E+04 1.77282E+05-2.89674E+04
 -1      2235 8.41069E+04-2.50987E+04-2.23135E+03
 -1      2237 8.41069E+04-2.50987E+04-2.23135E+03
 -1      2238 7.66691E+04-2.23276E+05 2.42265E+04
 -1      2240 7.66691E+04-2.23276E+05 2.42265E+04
 -1      2241 5.88628E+04-3.90418E+05 4.72526E+04
 -1      2243 5.88628E+04-3.90418E+05 4.72526E+04
 -1      2244 3.30716E+04-5.03811E+05 6.41412E+04
 -1      2246 3.30716E+04-5.03811E+05 6.41412E+04
 -1      2247 2.79728E+03-5.48027E+05 7.29936E+04
 -1      2249 2.79728E+03-5.48027E+05 7.29936E+04
 -1      2250-2.78293E+04-5.17072E+05 7.29595E+04
 -1      2252-2.78293E+04-5.17072E+05 7.29595E+04
 -1      2253-5.46167E+04-4.15232E+05 6.43395E+04
 -1      2255-5.46167E+04-4.15232E+05 6.43395E+04
 -1      2256-7.38902E+04-2.56504E+05 4.85322E+04
 -1      2258-7.38902E+04-2.56504E+05 4.85322E+04
 -1      2259-8.29924E+04-6.27002E+04 2.78340E+04
 -1      2261-8.29924E+04-6.27002E+04 2.78340E+04
 -1      2262-8.06456E+04 1.39518E+05 5.12214E+03
 -1      2264-8.06456E+04 1.39518E+05 5.12214E+03
 -1      2265-6.71190E+04 3.22262E+05-1.65391E+04
 -1      2267-6.71190E+04 3.22262E+05-1.65391E+04
 -1      2268-4.41811E+04 4.60183E+05-3.43092E+04
 -1      2270-4.41811E+04 4.60183E+05-3.43092E+04
 -1      2271-1.48374E+04 5.33875E+05-4.59513E+04
 -1      2273-1.48374E+04 5.33875E+05-4.59513E+04
 -1      2274 1.71125E+04 5.32405E+05-5.01170E+04
 -1      2276 1.71125E+04 5.32405E+05-5.01170E+04
 -1      2277 4.76410E+04 4.54618E+05-4.65185E+04
 -1      2279 4.76410E+04 4.54618E+05-4.65185E+04
 -1      2280 7.31455E+04 3.08979E+05-3.59379E+04
 -1      2282 7.31455E+04 3.08979E+05-3.59379E+04
 -1      2283 9.10210E+04 1.11917E+05-2.01303E+04
 -1      2285 9.10210E+04 1.11917E+05-2.01303E+04
 -1      2286 1.00340E+05-1.15319E+05-1.59493E+03
 -1      2288 1.00340E+05-1.15319E+05-1.59493E+03
 -1      2289 1.02148E+05-3.50610E+05 1.66040E+04
 -1      2291 1.02148E+05-3.50610E+05 1.66040E+04
 -1      2292 9.99359E+04-5.77044E+05 3.08217E+04
 -1      2294 9.99359E+04-5.77044E+05 3.08217E+04
 -3
    1PSTEP                        76           1           1          
    1PGM                1.000000E+00                                  
    1PGK                2.050719E+07                                  
    1PHID                         -1                                  
    1PSUBC                         0                                  
    1PMODE                        19                                  
  100CL  119 720.7309944         930                     2   19MODAL      1
 -4  ERROR       1    1
 -5  STR(%)      1    1    0    0
 -1       404 0.00000E+00
 -1       406 0.00000E+00
 -1       407 0.00000E+00
 -1       409 0.00000E+00
 -1       410 0.00000E+00
 -1       412 0.00000E+00
 -1       413 0.00000E+00
 -1       415 0.00000E+00
 -1       424 0.00000E+00
 -1       426 0.00000E+00
 -1       427 0.00000E+00
 -1       429 0.00000E+00
 -1       438 0.00000E+00
 -1       440 0.00000E+00
 -1       441 0.00000E+00
 -1       443 0.00000E+00
 -1       444 0.00000E+00
 -1       446 0.00000E+00
 -1       447 0.00000E+00
 -1       449 0.00000E+00
 -1       458 0.00000E+00
 -1       460 0.00000E+00
 -1       461 0.00000E+00
 -1       463 0.00000E+00
 -1       472 0.00000E+00
 -1       474 0.00000E+00
 -1       475 0.00000E+00
 -1       477 0.00000E+00
 -1       478 0.00000E+00
 -1       480 0.00000E+00
 -1       481 0.00000E+00
 -1       483 0.00000E+00
 -1       484 0.00000E+00
 -1       486 0.00000E+00
 -1       487 0.00000E+00
 -1       489 0.00000E+00
 -1       490 0.00000E+00
 -1       492 0.00000E+00
 -1       493 0.00000E+00
 -1       495 0.00000E+00
 -1       496 0.00000E+00
 -1       498 0.00000E+00
 -1       499 0.00000E+00
 -1       501 0.00000E+00
 -1       502 0.00000E+00
 -1       504 0.00000E+00
 -1       505 0.00000E+00
 -1       507 0.00000E+00
 -1       508 0.00000E+00
 -1       510 0.00000E+00
 -1       511 0.00000E+00
 -1       513 0.00000E+00
 -1       514 0.00000E+00
 -1       516 0.00000E+00
 -1       517 0.00000E+00
 -1       519 0.00000E+00
 -1       520 0.00000E+00
 -1       522 0.00000E+00
 -1       523 0.00000E+00
 -1       525 0.00000E+00
 -1       526 0.00000E+00
 -1       528 0.00000E+00
 -1       529 0.00000E+00
 -1       531 0.00000E+00
 -1       532 0.00000E+00
 -1       534 0.00000E+00
 -1       535 0.00000E+00
 -1       537 0.00000E+00
 -1       538 0.00000E+00
 -1       540 0.00000E+00
 -1       541 0.00000E+00
 -1       543 0.00000E+00
 -1       544 0.00000E+00
 -1       546 0.00000E+00
 -1       547 0.00000E+00
 -1       549 0.00000E+00
 -1       550 0.00000E+00
 -1       552 0.00000E+00
 -1       553 0.00000E+00
 -1       555 0.00000E+00
 -1       556 0.00000E+00
 -1       558 0.00000E+00
 -1       559 0.00000E+00
 -1       561 0.00000E+00
 -1       562 0.00000E+00
 -1       564 0.00000E+00
 -1       565 0.00000E+00
 -1       567 0.00000E+00
 -1       568 0.00000E+00
 -1       570 0.00000E+00
 -1       571 0.00000E+00
 -1       573 0.00000E+00
 -1       574 0.00000E+00
 -1       576 0.00000E+00
 -1       577 0.00000E+00
 -1       579 0.00000E+00
 -1       588 0.00000E+00
 -1       590 0.00000E+00
 -1       591 0.00000E+00
 -1       593 0.00000E+00
 -1       602 0.00000E+00
 -1       604 0.00000E+00
 -1       605 0.00000E+00
 -1       607 0.00000E+00
 -1       616 0.00000E+00
 -1       618 0.00000E+00
 -1       619 0.00000E+00
 -1       621 0.00000E+00
 -1       630 0.00000E+00
 -1       632 0.00000E+00
 -1       633 0.00000E+00
 -1       635 0.00000E+00
 -1       644 0.00000E+00
 -1       646 0.00000E+00
 -1       647 0.00000E+00
 -1       649 0.00000E+00
 -1       658 0.00000E+00
 -1       660 0.00000E+00
 -1       661 0.00000E+00
 -1       663 0.00000E+00
 -1       672 0.00000E+00
 -1       674 0.00000E+00
 -1       675 0.00000E+00
 -1       677 0.00000E+00
 -1       686 0.00000E+00
 -1       688 0.00000E+00
 -1       689 0.00000E+00
 -1       691 0.00000E+00
 -1       700 0.00000E+00
 -1       702 0.00000E+00
 -1       703 0.00000E+00
 -1       705 0.00000E+00
 -1       714 0.00000E+00
 -1       716 0.00000E+00
 -1       717 0.00000E+00
 -1       719 0.00000E+00
 -1       728 0.00000E+00
 -1       730 0.00000E+00
 -1       731 0.00000E+00
 -1       733 0.00000E+00
 -1       742 0.00000E+00
 -1       744 0.00000E+00
 -1       745 0.00000E+00
 -1       747 0.00000E+00
 -1       756 0.00000E+00
 -1       758 0.00000E+00
 -1       759 0.00000E+00
 -1       761 0.00000E+00
 -1       770 0.00000E+00
 -1       772 0.00000E+00
 -1       773 0.00000E+00
 -1       775 0.00000E+00
 -1       784 0.00000E+00
 -1       786 0.00000E+00
 -1       787 0.00000E+00
 -1       789 0.00000E+00
 -1       798 0.00000E+00
 -1       800 0.00000E+00
 -1       801 0.00000E+00
 -1       803 0.00000E+00
 -1       812 0.00000E+00
 -1       814 0.00000E+00
 -1       815 0.00000E+00
 -1       817 0.00000E+00
 -1       826 0.00000E+00
 -1       828 0.00000E+00
 -1       829 0.00000E+00
 -1       831 0.00000E+00
 -1       840 0.00000E+00
 -1       842 0.00000E+00
 -1       843 0.00000E+00
 -1       845 0.00000E+00
 -1       854 0.00000E+00
 -1       856 0.00000E+00
 -1       857 0.00000E+00
 -1       859 0.00000E+00
 -1       868 0.00000E+00
 -1       870 0.00000E+00
 -1       871 0.00000E+00
 -1       873 0.00000E+00
 -1       882 0.00000E+00
 -1       884 0.00000E+00
 -1       885 0.00000E+00
 -1       887 0.00000E+00
 -1       896 0.00000E+00
 -1       898 0.00000E+00
 -1       899 0.00000E+00
 -1       901 0.00000E+00
 -1       910 0.00000E+00
 -1       912 0.00000E+00
 -1       913 0.00000E+00
 -1       915 0.00000E+00
 -1       924 0.00000E+00
 -1       926 0.00000E+00
 -1       927 0.00000E+00
 -1       929 0.00000E+00
 -1       938 0.00000E+00
 -1       940 0.00000E+00
 -1       941 0.00000E+00
 -1       943 0.00000E+00
 -1       952 0.00000E+00
 -1       954 0.00000E+00
 -1       955 0.00000E+00
 -1       957 0.00000E+00
 -1       966 0.00000E+00
 -1       968 0.00000E+00
 -1       969 0.00000E+00
 -1       971 0.00000E+00
 -1       980 0.00000E+00
 -1       982 0.00000E+00
 -1       983 0.00000E+00
 -1       985 0.00000E+00
 -1       986 0.00000E+00
 -1       988 0.00000E+00
 -1       989 0.00000E+00
 -1       991 0.00000E+00
 -1       992 0.00000E+00
 -1       994 0.00000E+00
 -1       995 0.00000E+00
 -1       997 0.00000E+00
 -1       998 0.00000E+00
 -1      1000 0.00000E+00
 -1      1001 0.00000E+00
 -1      1003 0.00000E+00
 -1      1004 0.00000E+00
 -1      1006 0.00000E+00
 -1      1007 0.00000E+00
 -1      1009 0.00000E+00
 -1      1010 0.00000E+00
 -1      1012 0.00000E+00
 -1      1013 0.00000E+00
 -1      1015 0.00000E+00
 -1      1016 0.00000E+00
 -1      1018 0.00000E+00
 -1      1019 0.00000E+00
 -1      1021 0.00000E+00
 -1      1022 0.00000E+00
 -1      1024 0.00000E+00
 -1      1025 0.00000E+00
 -1      1027 0.00000E+00
 -1      1028 0.00000E+00
 -1      1030 0.00000E+00
 -1      1031 0.00000E+00
 -1      1033 0.00000E+00
 -1      1034 0.00000E+00
 -1      1036 0.00000E+00
 -1      1037 0.00000E+00
 -1      1039 0.00000E+00
 -1      1040 0.00000E+00
 -1      1042 0.00000E+00
 -1      1043 0.00000E+00
 -1      1045 0.00000E+00
 -1      1046 0.00000E+00
 -1      1048 0.00000E+00
 -1      1049 0.00000E+00
 -1      1051 0.00000E+00
 -1      1052 0.00000E+00
 -1      1054 0.00000E+00
 -1      1055 0.00000E+00
 -1      1057 0.00000E+00
 -1      1058 0.00000E+00
 -1      1060 0.00000E+00
 -1      1061 0.00000E+00
 -1      1063 0.00000E+00
 -1      1064 0.00000E+00
 -1      1066 0.00000E+00
 -1      1067 0.00000E+00
 -1      1069 0.00000E+00
 -1      1070 0.00000E+00
 -1      1072 0.00000E+00
 -1      1073 0.00000E+00
 -1      1075 0.00000E+00
 -1      1076 0.00000E+00
 -1      1078 0.00000E+00
 -1      1079 0.00000E+00
 -1      1081 0.00000E+00
 -1      1082 0.00000E+00
 -1      1084 0.00000E+00
 -1      1085 0.00000E+00
 -1      1087 0.00000E+00
 -1      1088 0.00000E+00
 -1      1090 0.00000E+00
 -1      1099 0.00000E+00
 -1      1101 0.00000E+00
 -1      1102 0.00000E+00
 -1      1104 0.00000E+00
 -1      1113 0.00000E+00
 -1      1115 0.00000E+00
 -1      1116 0.00000E+00
 -1      1118 0.00000E+00
 -1      1127 0.00000E+00
 -1      1129 0.00000E+00
 -1      1130 0.00000E+00
 -1      1132 0.00000E+00
 -1      1141 0.00000E+00
 -1      1143 0.00000E+00
 -1      1144 0.00000E+00
 -1      1146 0.00000E+00
 -1      1155 0.00000E+00
 -1      1157 0.00000E+00
 -1      1158 0.00000E+00
 -1      1160 0.00000E+00
 -1      1169 0.00000E+00
 -1      1171 0.00000E+00
 -1      1172 0.00000E+00
 -1      1174 0.00000E+00
 -1      1183 0.00000E+00
 -1      1185 0.00000E+00
 -1      1186 0.00000E+00
 -1      1188 0.00000E+00
 -1      1197 0.00000E+00
 -1      1199 0.00000E+00
 -1      1200 0.00000E+00
 -1      1202 0.00000E+00
 -1      1211 0.00000E+00
 -1      1213 0.00000E+00
 -1      1214 0.00000E+00
 -1      1216 0.00000E+00
 -1      1225 0.00000E+00
 -1      1227 0.00000E+00
 -1      1228 0.00000E+00
 -1      1230 0.00000E+00
 -1      1239 0.00000E+00
 -1      1241 0.00000E+00
 -1      1242 0.00000E+00
 -1      1244 0.00000E+00
 -1      1253 0.00000E+00
 -1      1255 0.00000E+00
 -1      1256 0.00000E+00
 -1      1258 0.00000E+00
 -1      1267 0.00000E+00
 -1      1269 0.00000E+00
 -1      1270 0.00000E+00
 -1      1272 0.00000E+00
 -1      1281 0.00000E+00
 -1      1283 0.00000E+00
 -1      1284 0.00000E+00
 -1      1286 0.00000E+00
 -1      1295 0.00000E+00
 -1      1297 0.00000E+00
 -1      1298 0.00000E+00
 -1      1300 0.00000E+00
 -1      1309 0.00000E+00
 -1      1311 0.00000E+00
 -1      1312 0.00000E+00
 -1      1314 0.00000E+00
 -1      1323 0.00000E+00
 -1      1325 0.00000E+00
 -1      1326 0.00000E+00
 -1      1328 0.00000E+00
 -1      1337 0.00000E+00
 -1      1339 0.00000E+00
 -1      1340 0.00000E+00
 -1      1342 0.00000E+00
 -1      1351 0.00000E+00
 -1      1353 0.00000E+00
 -1      1354 0.00000E+00
 -1      1356 0.00000E+00
 -1      1365 0.00000E+00
 -1      1367 0.00000E+00
 -1      1368 0.00000E+00
 -1      1370 0.00000E+00
 -1      1379 0.00000E+00
 -1      1381 0.00000E+00
 -1      1382 0.00000E+00
 -1      1384 0.00000E+00
 -1      1393 0.00000E+00
 -1      1395 0.00000E+00
 -1      1396 0.00000E+00
 -1      1398 0.00000E+00
 -1      1407 0.00000E+00
 -1      1409 0.00000E+00
 -1      1410 0.00000E+00
 -1      1412 0.00000E+00
 -1      1421 0.00000E+00
 -1      1423 0.00000E+00
 -1      1424 0.00000E+00
 -1      1426 0.00000E+00
 -1      1435 0.00000E+00
 -1      1437 0.00000E+00
 -1      1438 0.00000E+00
 -1      1440 0.00000E+00
 -1      1449 0.00000E+00
 -1      1451 0.00000E+00
 -1      1452 0.00000E+00
 -1      1454 0.00000E+00
 -1      1463 0.00000E+00
 -1      1465 0.00000E+00
 -1      1466 0.00000E+00
 -1      1468 0.00000E+00
 -1      1477 0.00000E+00
 -1      1479 0.00000E+00
 -1      1480 0.00000E+00
 -1      1482 0.00000E+00
 -1      1491 0.00000E+00
 -1      1493 0.00000E+00
 -1      1494 0.00000E+00
 -1      1496 0.00000E+00
 -1      1497 0.00000E+00
 -1      1499 0.00000E+00
 -1      1500 0.00000E+00
 -1      1502 0.00000E+00
 -1      1503 0.00000E+00
 -1      1505 0.00000E+00
 -1      1506 0.00000E+00
 -1      1508 0.00000E+00
 -1      1509 0.00000E+00
 -1      1511 0.00000E+00
 -1      1512 0.00000E+00
 -1      1514 0.00000E+00
 -1      1515 0.00000E+00
 -1      1517 0.00000E+00
 -1      1518 0.00000E+00
 -1      1520 0.00000E+00
 -1      1521 0.00000E+00
 -1      1523 0.00000E+00
 -1      1524 0.00000E+00
 -1      1526 0.00000E+00
 -1      1527 0.00000E+00
 -1      1529 0.00000E+00
 -1      1530 0.00000E+00
 -1      1532 0.00000E+00
 -1      1533 0.00000E+00
 -1      1535 0.00000E+00
 -1      1536 0.00000E+00
 -1      1538 0.00000E+00
 -1      1539 0.00000E+00
 -1      1541 0.00000E+00
 -1      1542 0.00000E+00
 -1      1544 0.00000E+00
 -1      1545 0.00000E+00
 -1      1547 0.00000E+00
 -1      1548 0.00000E+00
 -1      1550 0.00000E+00
 -1      1551 0.00000E+00
 -1      1553 0.00000E+00
 -1      1554 0.00000E+00
 -1      1556 0.00000E+00
 -1      1557 0.00000E+00
 -1      1559 0.00000E+00
 -1      1560 0.00000E+00
 -1      1562 0.00000E+00
 -1      1563 0.00000E+00
 -1      1565 0.00000E+00
 -1      1566 0.00000E+00
 -1      1568 0.00000E+00
 -1      1569 0.00000E+00
 -1      1571 0.00000E+00
 -1      1572 0.00000E+00
 -1      1574 0.00000E+00
 -1      1575 0.00000E+00
 -1      1577 0.00000E+00
 -1      1578 0.00000E+00
 -1      1580 0.00000E+00
 -1      1581 0.00000E+00
 -1      1583 0.00000E+00
 -1      1584 0.00000E+00
 -1      1586 0.00000E+00
 -1      1587 0.00000E+00
 -1      1589 0.00000E+00
 -1      1590 0.00000E+00
 -1      1592 0.00000E+00
 -1      1593 0.00000E+00
 -1      1595 0.00000E+00
 -1      1596 0.00000E+00
 -1      1598 0.00000E+00
 -1      1599 0.00000E+00
 -1      1601 0.00000E+00
 -1      1602 0.00000E+00
 -1      1604 0.00000E+00
 -1      1605 0.00000E+00
 -1      1607 0.00000E+00
 -1      1608 0.00000E+00
 -1      1610 0.00000E+00
 -1      1611 0.00000E+00
 -1      1613 0.00000E+00
 -1      1614 0.00000E+00
 -1      1616 0.00000E+00
 -1      1617 0.00000E+00
 -1      1619 0.00000E+00
 -1      1620 0.00000E+00
 -1      1622 0.00000E+00
 -1      1623 0.00000E+00
 -1      1625 0.00000E+00
 -1      1626 0.00000E+00
 -1      1628 0.00000E+00
 -1      1629 0.00000E+00
 -1      1631 0.00000E+00
 -1      1632 0.00000E+00
 -1      1634 0.00000E+00
 -1      1635 0.00000E+00
 -1      1637 0.00000E+00
 -1      1638 0.00000E+00
 -1      1640 0.00000E+00
 -1      1641 0.00000E+00
 -1      1643 0.00000E+00
 -1      1644 0.00000E+00
 -1      1646 0.00000E+00
 -1      1647 0.00000E+00
 -1      1649 0.00000E+00
 -1      1650 0.00000E+00
 -1      1652 0.00000E+00
 -1      1653 0.00000E+00
 -1      1655 0.00000E+00
 -1      1656 0.00000E+00
 -1      1658 0.00000E+00
 -1      1659 0.00000E+00
 -1      1661 0.00000E+00
 -1      1662 0.00000E+00
 -1      1664 0.00000E+00
 -1      1665 0.00000E+00
 -1      1667 0.00000E+00
 -1      1668 0.00000E+00
 -1      1670 0.00000E+00
 -1      1671 0.00000E+00
 -1      1673 0.00000E+00
 -1      1674 0.00000E+00
 -1      1676 0.00000E+00
 -1      1677 0.00000E+00
 -1      1679 0.00000E+00
 -1      1680 0.00000E+00
 -1      1682 0.00000E+00
 -1      1683 0.00000E+00
 -1      1685 0.00000E+00
 -1      1686 0.00000E+00
 -1      1688 0.00000E+00
 -1      1689 0.00000E+00
 -1      1691 0.00000E+00
 -1      1692 0.00000E+00
 -1      1694 0.00000E+00
 -1      1695 0.00000E+00
 -1      1697 0.00000E+00
 -1      1698 0.00000E+00
 -1      1700 0.00000E+00
 -1      1701 0.00000E+00
 -1      1703 0.00000E+00
 -1      1704 0.00000E+00
 -1      1706 0.00000E+00
 -1      1707 0.00000E+00
 -1      1709 0.00000E+00
 -1      1710 0.00000E+00
 -1      1712 0.00000E+00
 -1      1713 0.00000E+00
 -1      1715 0.00000E+00
 -1      1716 0.00000E+00
 -1      1718 0.00000E+00
 -1      1719 0.00000E+00
 -1      1721 0.00000E+00
 -1      1722 0.00000E+00
 -1      1724 0.00000E+00
 -1      1725 0.00000E+00
 -1      1727 0.00000E+00
 -1      1728 0.00000E+00
 -1      1730 0.00000E+00
 -1      1731 0.00000E+00
 -1      1733 0.00000E+00
 -1      1734 0.00000E+00
 -1      1736 0.00000E+00
 -1      1737 0.00000E+00
 -1      1739 0.00000E+00
 -1      1740 0.00000E+00
 -1      1742 0.00000E+00
 -1      1743 0.00000E+00
 -1      1745 0.00000E+00
 -1      1746 0.00000E+00
 -1      1748 0.00000E+00
 -1      1749 0.00000E+00
 -1      1751 0.00000E+00
 -1      1752 0.00000E+00
 -1      1754 0.00000E+00
 -1      1755 0.00000E+00
 -1      1757 0.00000E+00
 -1      1758 0.00000E+00
 -1      1760 0.00000E+00
 -1      1761 0.00000E+00
 -1      1763 0.00000E+00
 -1      1764 0.00000E+00
 -1      1766 0.00000E+00
 -1      1767 0.00000E+00
 -1      1769 0.00000E+00
 -1      1770 0.00000E+00
 -1      1772 0.00000E+00
 -1      1773 0.00000E+00
 -1      1775 0.00000E+00
 -1      1776 0.00000E+00
 -1      1778 0.00000E+00
 -1      1779 0.00000E+00
 -1      1781 0.00000E+00
 -1      1782 0.00000E+00
 -1      1784 0.00000E+00
 -1      1785 0.00000E+00
 -1      1787 0.00000E+00
 -1      1788 0.00000E+00
 -1      1790 0.00000E+00
 -1      1791 0.00000E+00
 -1      1793 0.00000E+00
 -1      1794 0.00000E+00
 -1      1796 0.00000E+00
 -1      1797 0.00000E+00
 -1      1799 0.00000E+00
 -1      1800 0.00000E+00
 -1      1802 0.00000E+00
 -1      1803 0.00000E+00
 -1      1805 0.00000E+00
 -1      1806 0.00000E+00
 -1      1808 0.00000E+00
 -1      1809 0.00000E+00
 -1      1811 0.00000E+00
 -1      1812 0.00000E+00
 -1      1814 0.00000E+00
 -1      1815 0.00000E+00
 -1      1817 0.00000E+00
 -1      1818 0.00000E+00
 -1      1820 0.00000E+00
 -1      1821 0.00000E+00
 -1      1823 0.00000E+00
 -1      1824 0.00000E+00
 -1      1826 0.00000E+00
 -1      1827 0.00000E+00
 -1      1829 0.00000E+00
 -1      1830 0.00000E+00
 -1      1832 0.00000E+00
 -1      1833 0.00000E+00
 -1      1835 0.00000E+00
 -1      1836 0.00000E+00
 -1      1838 0.00000E+00
 -1      1839 0.00000E+00
 -1      1841 0.00000E+00
 -1      1842 0.00000E+00
 -1      1844 0.00000E+00
 -1      1845 0.00000E+00
 -1      1847 0.00000E+00
 -1      1848 0.00000E+00
 -1      1850 0.00000E+00
 -1      1851 0.00000E+00
 -1      1853 0.00000E+00
 -1      1854 0.00000E+00
 -1      1856 0.00000E+00
 -1      1857 0.00000E+00
 -1      1859 0.00000E+00
 -1      1860 0.00000E+00
 -1      1862 0.00000E+00
 -1      1863 0.00000E+00
 -1      1865 0.00000E+00
 -1      1866 0.00000E+00
 -1      1868 0.00000E+00
 -1      1869 0.00000E+00
 -1      1871 0.00000E+00
 -1      1872 0.00000E+00
 -1      1874 0.00000E+00
 -1      1875 0.00000E+00
 -1      1877 0.00000E+00
 -1      1878 0.00000E+00
 -1      1880 0.00000E+00
 -1      1881 0.00000E+00
 -1      1883 0.00000E+00
 -1      1884 0.00000E+00
 -1      1886 0.00000E+00
 -1      1887 0.00000E+00
 -1      1889 0.00000E+00
 -1      1890 0.00000E+00
 -1      1892 0.00000E+00
 -1      1893 0.00000E+00
 -1      1895 0.00000E+00
 -1      1896 0.00000E+00
 -1      1898 0.00000E+00
 -1      1899 0.00000E+00
 -1      1901 0.00000E+00
 -1      1902 0.00000E+00
 -1      1904 0.00000E+00
 -1      1905 0.00000E+00
 -1      1907 0.00000E+00
 -1      1908 0.00000E+00
 -1      1910 0.00000E+00
 -1      1911 0.00000E+00
 -1      1913 0.00000E+00
 -1      1914 0.00000E+00
 -1      1916 0.00000E+00
 -1      1917 0.00000E+00
 -1      1919 0.00000E+00
 -1      1920 0.00000E+00
 -1      1922 0.00000E+00
 -1      1923 0.00000E+00
 -1      1925 0.00000E+00
 -1      1926 0.00000E+00
 -1      1928 0.00000E+00
 -1      1929 0.00000E+00
 -1      1931 0.00000E+00
 -1      1932 0.00000E+00
 -1      1934 0.00000E+00
 -1      1935 0.00000E+00
 -1      1937 0.00000E+00
 -1      1938 0.00000E+00
 -1      1940 0.00000E+00
 -1      1941 0.00000E+00
 -1      1943 0.00000E+00
 -1      1944 0.00000E+00
 -1      1946 0.00000E+00
 -1      1947 0.00000E+00
 -1      1949 0.00000E+00
 -1      1950 0.00000E+00
 -1      1952 0.00000E+00
 -1      1953 0.00000E+00
 -1      1955 0.00000E+00
 -1      1956 0.00000E+00
 -1      1958 0.00000E+00
 -1      1959 0.00000E+00
 -1      1961 0.00000E+00
 -1      1962 0.00000E+00
 -1      1964 0.00000E+00
 -1      1965 0.00000E+00
 -1      1967 0.00000E+00
 -1      1968 0.00000E+00
 -1      1970 0.00000E+00
 -1      1971 0.00000E+00
 -1      1973 0.00000E+00
 -1      1974 0.00000E+00
 -1      1976 0.00000E+00
 -1      1977 0.00000E+00
 -1      1979 0.00000E+00
 -1      1980 0.00000E+00
 -1      1982 0.00000E+00
 -1      1983 0.00000E+00
 -1      1985 0.00000E+00
 -1      1986 0.00000E+00
 -1      1988 0.00000E+00
 -1      1989 0.00000E+00
 -1      1991 0.00000E+00
 -1      1992 0.00000E+00
 -1      1994 0.00000E+00
 -1      1995 0.00000E+00
 -1      1997 0.00000E+00
 -1      1998 0.00000E+00
 -1      2000 0.00000E+00
 -1      2001 0.00000E+00
 -1      2003 0.00000E+00
 -1      2004 0.00000E+00
 -1      2006 0.00000E+00
 -1      2007 0.00000E+00
 -1      2009 0.00000E+00
 -1      2010 0.00000E+00
 -1      2012 0.00000E+00
 -1      2013 0.00000E+00
 -1      2015 0.00000E+00
 -1      2016 0.00000E+00
 -1      2018 0.00000E+00
 -1      2019 0.00000E+00
 -1      2021 0.00000E+00
 -1      2022 0.00000E+00
 -1      2024 0.00000E+00
 -1      2025 0.00000E+00
 -1      2027 0.00000E+00
 -1      2028 0.00000E+00
 -1      2030 0.00000E+00
 -1      2031 0.00000E+00
 -1      2033 0.00000E+00
 -1      2034 0.00000E+00
 -1      2036 0.00000E+00
 -1      2037 0.00000E+00
 -1      2039 0.00000E+00
 -1      2040 0.00000E+00
 -1      2042 0.00000E+00
 -1      2043 0.00000E+00
 -1      2045 0.00000E+00
 -1      2046 0.00000E+00
 -1      2048 0.00000E+00
 -1      2049 0.00000E+00
 -1      2051 0.00000E+00
 -1      2052 0.00000E+00
 -1      2054 0.00000E+00
 -1      2055 0.00000E+00
 -1      2057 0.00000E+00
 -1      2058 0.00000E+00
 -1      2060 0.00000E+00
 -1      2061 0.00000E+00
 -1      2063 0.00000E+00
 -1      2064 0.00000E+00
 -1      2066 0.00000E+00
 -1      2067 0.00000E+00
 -1      2069 0.00000E+00
 -1      2070 0.00000E+00
 -1      2072 0.00000E+00
 -1      2073 0.00000E+00
 -1      2075 0.00000E+00
 -1      2076 0.00000E+00
 -1      2078 0.00000E+00
 -1      2079 0.00000E+00
 -1      2081 0.00000E+00
 -1      2082 0.00000E+00
 -1      2084 0.00000E+00
 -1      2085 0.00000E+00
 -1      2087 0.00000E+00
 -1      2088 0.00000E+00
 -1      2090 0.00000E+00
 -1      2091 0.00000E+00
 -1      2093 0.00000E+00
 -1      2094 0.00000E+00
 -1      2096 0.00000E+00
 -1      2097 0.00000E+00
 -1      2099 0.00000E+00
 -1      2100 0.00000E+00
 -1      2102 0.00000E+00
 -1      2103 0.00000E+00
 -1      2105 0.00000E+00
 -1      2106 0.00000E+00
 -1      2108 0.00000E+00
 -1      2109 0.00000E+00
 -1      2111 0.00000E+00
 -1      2112 0.00000E+00
 -1      2114 0.00000E+00
 -1      2115 0.00000E+00
 -1      2117 0.00000E+00
 -1      2118 0.00000E+00
 -1      2120 0.00000E+00
 -1      2121 0.00000E+00
 -1      2123 0.00000E+00
 -1      2124 0.00000E+00
 -1      2126 0.00000E+00
 -1      2127 0.00000E+00
 -1      2129 0.00000E+00
 -1      2130 0.00000E+00
 -1      2132 0.00000E+00
 -1      2133 0.00000E+00
 -1      2135 0.00000E+00
 -1      2136 0.00000E+00
 -1      2138 0.00000E+00
 -1      2139 0.00000E+00
 -1      2141 0.00000E+00
 -1      2142 0.00000E+00
 -1      2144 0.00000E+00
 -1      2145 0.00000E+00
 -1      2147 0.00000E+00
 -1      2148 0.00000E+00
 -1      2150 0.00000E+00
 -1      2151 0.00000E+00
 -1      2153 0.00000E+00
 -1      2154 0.00000E+00
 -1      2156 0.00000E+00
 -1      2157 0.00000E+00
 -1      2159 0.00000E+00
 -1      2160 0.00000E+00
 -1      2162 0.00000E+00
 -1      2163 0.00000E+00
 -1      2165 0.00000E+00
 -1      2166 0.00000E+00
 -1      2168 0.00000E+00
 -1      2169 0.00000E+00
 -1      2171 0.00000E+00
 -1      2172 0.00000E+00
 -1      2174 0.00000E+00
 -1      2175 0.00000E+00
 -1      2177 0.00000E+00
 -1      2178 0.00000E+00
 -1      2180 0.00000E+00
 -1      2181 0.00000E+00
 -1      2183 0.00000E+00
 -1      2184 0.00000E+00
 -1      2186 0.00000E+00
 -1      2187 0.00000E+00
 -1      2189 0.00000E+00
 -1      2190 0.00000E+00
 -1      2192 0.00000E+00
 -1      2193 0.00000E+00
 -1      2195 0.00000E+00
 -1      2196 0.00000E+00
 -1      2198 0.00000E+00
 -1      2199 0.00000E+00
 -1      2201 0.00000E+00
 -1      2202 0.00000E+00
 -1      2204 0.00000E+00
 -1      2205 0.00000E+00
 -1      2207 0.00000E+00
 -1      2208 0.00000E+00
 -1      2210 0.00000E+00
 -1      2211 0.00000E+00
 -1      2213 0.00000E+00
 -1      2214 0.00000E+00
 -1      2216 0.00000E+00
 -1      2217 0.00000E+00
 -1      2219 0.00000E+00
 -1      2220 0.00000E+00
 -1      2222 0.00000E+00
 -1      2223 0.00000E+00
 -1      2225 0.00000E+00
 -1      2226 0.00000E+00
 -1      2228 0.00000E+00
 -1      2229 0.00000E+00
 -1      2231 0.00000E+00
 -1      2232 0.00000E+00
 -1      2234 0.00000E+00
 -1      2235 0.00000E+00
 -1      2237 0.00000E+00
 -1      2238 0.00000E+00
 -1      2240 0.00000E+00
 -1      2241 0.00000E+00
 -1      2243 0.00000E+00
 -1      2244 0.00000E+00
 -1      2246 0.00000E+00
 -1      2247 0.00000E+00
 -1      2249 0.00000E+00
 -1      2250 0.00000E+00
 -1      2252 0.00000E+00
 -1      2253 0.00000E+00
 -1      2255 0.00000E+00
 -1      2256 0.00000E+00
 -1      2258 0.00000E+00
 -1      2259 0.00000E+00
 -1      2261 0.00000E+00
 -1      2262 0.00000E+00
 -1      2264 0.00000E+00
 -1      2265 0.00000E+00
 -1      2267 0.00000E+00
 -1      2268 0.00000E+00
 -1      2270 0.00000E+00
 -1      2271 0.00000E+00
 -1      2273 0.00000E+00
 -1      2274 0.00000E+00
 -1      2276 0.00000E+00
 -1      2277 0.00000E+00
 -1      2279 0.00000E+00
 -1      2280 0.00000E+00
 -1      2282 0.00000E+00
 -1      2283 0.00000E+00
 -1      2285 0.00000E+00
 -1      2286 0.00000E+00
 -1      2288 0.00000E+00
 -1      2289 0.00000E+00
 -1      2291 0.00000E+00
 -1      2292 0.00000E+00
 -1      2294 0.00000E+00
 -3
    1PSTEP                        77           1           1          
    1PGM                1.000000E+00                                  
    1PGK                2.226576E+07                                  
    1PHID                         -1                                  
    1PSUBC                         0                                  
    1PMODE                        20                                  
  100CL  120 750.9981907         930                     2   20MODAL      1
 -4  DISP        4    1
 -5  D1          1    2    1    0
 -5  D2          1    2    2    0
 -5  D3          1    2    3    0
 -5  ALL         1    2    0    0    1ALL
 -1       404 0.00000E+00 0.00000E+00 7.22312E-05
 -1       406 0.00000E+00-0.00000E+00-7.22312E-05
 -1       407 8.62722E-03-6.15970E-02-2.26451E-01
 -1       409 9.00893E-03-2.58732E-02-2.26462E-01
 -1       410-1.16284E-13-5.55379E-02-1.95389E-13
 -1       412-1.10274E-13-3.17052E-02-1.94988E-13
 -1       413-4.11968E-04-4.36216E-02 7.59115E-03
 -1       415 4.11968E-04-4.36216E-02-7.59115E-03
 -1       424 0.00000E+00 0.00000E+00 5.62074E-16
 -1       426 0.00000E+00 0.00000E+00-5.62074E-16
 -1       427 0.00000E+00 3.58062E-16 0.00000E+00
 -1       429 0.00000E+00-3.58062E-16 0.00000E+00
 -1       438-8.62722E-03-6.15970E-02 2.26451E-01
 -1       440-9.00893E-03-2.58732E-02 2.26462E-01
 -1       441 0.00000E+00 0.00000E+00-7.22312E-05
 -1       443 0.00000E+00-0.00000E+00 7.22312E-05
 -1       444 0.00000E+00-2.41085E-16 0.00000E+00
 -1       446 0.00000E+00 2.41085E-16 0.00000E+00
 -1       447 0.00000E+00 0.00000E+00 3.78447E-16
 -1       449 0.00000E+00 0.00000E+00-3.78447E-16
 -1       458-4.11968E-04-4.36216E-02-7.59115E-03
 -1       460 4.11968E-04-4.36216E-02 7.59115E-03
 -1       461 7.56647E-14-5.55379E-02-2.15342E-13
 -1       463 6.71100E-14-3.17052E-02-2.16590E-13
 -1       472 0.00000E+00 0.00000E+00 7.22312E-05
 -1       474 0.00000E+00 0.00000E+00-7.22312E-05
 -1       475-8.62722E-03-6.15970E-02-2.26451E-01
 -1       477-9.00893E-03-2.58732E-02-2.26462E-01
 -1       478 8.62722E-03-6.15970E-02 2.26451E-01
 -1       480 9.00893E-03-2.58732E-02 2.26462E-01
 -1       481 0.00000E+00 0.00000E+00-7.22312E-05
 -1       483 0.00000E+00 0.00000E+00 7.22312E-05
 -1       484-3.04083E-03-7.15372E-03-4.87359E-02
 -1       486 8.84359E-03 1.69342E-03-4.88016E-02
 -1       487 2.35176E-03-1.61920E-02-1.11221E-01
 -1       489 7.56364E-03 1.49906E-03-1.11326E-01
 -1       490 3.02679E-03-2.69823E-02-1.57312E-01
 -1       492 9.78467E-03-1.73569E-03-1.57351E-01
 -1       493 4.76416E-03-3.81595E-02-1.96663E-01
 -1       495 8.55618E-03-6.72376E-03-1.96653E-01
 -1       496 4.38954E-03-4.77959E-02-2.20588E-01
 -1       498 6.87907E-03-1.24546E-02-2.20541E-01
 -1       499 3.36194E-03-5.43669E-02-2.30437E-01
 -1       501 3.50158E-03-1.74402E-02-2.30321E-01
 -1       502 1.16078E-03-5.64352E-02-2.24238E-01
 -1       504-6.39081E-04-2.04396E-02-2.24114E-01
 -1       505-1.40671E-03-5.31417E-02-2.03143E-01
 -1       507-5.20051E-03-2.05233E-02-2.02992E-01
 -1       508-3.98693E-03-4.44889E-02-1.68293E-01
 -1       510-9.43456E-03-1.74255E-02-1.68178E-01
 -1       511-5.94194E-03-3.11879E-02-1.22220E-01
 -1       513-1.27093E-02-1.15317E-02-1.22132E-01
 -1       514-6.90779E-03-1.47941E-02-6.79274E-02
 -1       516-1.45310E-02-3.83731E-03-6.79071E-02
 -1       517-6.67242E-03 2.77743E-03-9.09745E-03
 -1       519-1.46453E-02 4.27974E-03-9.12750E-03
 -1       520-5.32374E-03 1.94066E-02 5.03624E-02
 -1       522-1.31134E-02 1.13890E-02 5.02755E-02
 -1       523-3.17673E-03 3.32910E-02 1.06432E-01
 -1       525-1.02556E-02 1.62942E-02 1.06318E-01
 -1       526-7.16754E-04 4.31206E-02 1.55319E-01
 -1       528-6.60401E-03 1.83327E-02 1.55193E-01
 -1       529 1.52902E-03 4.83497E-02 1.93658E-01
 -1       531-2.75710E-03 1.74615E-02 1.93549E-01
 -1       532 3.11476E-03 4.91272E-02 2.18780E-01
 -1       534 7.31587E-04 1.42742E-02 2.18700E-01
 -1       535 3.78196E-03 4.62177E-02 2.28882E-01
 -1       537 3.47794E-03 9.78634E-03 2.28844E-01
 -1       538 3.51513E-03 4.06907E-02 2.23195E-01
 -1       540 5.32149E-03 5.19766E-03 2.23193E-01
 -1       541 2.53641E-03 3.36698E-02 2.02044E-01
 -1       543 6.33661E-03 1.54923E-03 2.02068E-01
 -1       544 1.24098E-03 2.60239E-02 1.66856E-01
 -1       546 6.77463E-03-5.04808E-04 1.66888E-01
 -1       547 8.82395E-05 1.82436E-02 1.20061E-01
 -1       549 6.97047E-03-8.79961E-04 1.20085E-01
 -1       550-5.14265E-04 1.03674E-02 6.49449E-02
 -1       552 7.22949E-03-3.42495E-05 6.49457E-02
 -1       553-3.28000E-04 2.13167E-03 5.37380E-03
 -1       555 7.73737E-03 1.14253E-03 5.34805E-03
 -1       556 6.89145E-04-6.87219E-03-5.44220E-02
 -1       558 8.49040E-03 1.60408E-03-5.44727E-02
 -1       559 2.31620E-03-1.69161E-02-1.10300E-01
 -1       561 9.34365E-03 4.02647E-04-1.10362E-01
 -1       562 4.28309E-03-2.79741E-02-1.58227E-01
 -1       564 9.96405E-03-3.04257E-03-1.58287E-01
 -1       565 6.07785E-03-3.96296E-02-1.95164E-01
 -1       567 1.02046E-02-8.84432E-03-1.95208E-01
 -1       568 7.72560E-03-5.11018E-02-2.18013E-01
 -1       570 9.63171E-03-1.66478E-02-2.18033E-01
 -1       571 4.31037E-03-6.26931E-02-1.03625E-01
 -1       573 4.49297E-03-2.47155E-02-1.03610E-01
 -1       574 1.48196E-14-5.02292E-03 2.53676E-14
 -1       576 1.13660E-14 9.35948E-06 2.47797E-14
 -1       577 2.42556E-04-2.50678E-03 1.60288E-03
 -1       579-2.42556E-04-2.50678E-03-1.60288E-03
 -1       588 1.93592E-14-1.25665E-02 6.25482E-14
 -1       590 1.65218E-14-9.95121E-04 6.25670E-14
 -1       591-1.42842E-04-6.78079E-03 3.68569E-03
 -1       593 1.42842E-04-6.78079E-03-3.68569E-03
 -1       602 2.05081E-14-2.24964E-02 9.97909E-14
 -1       604 1.66393E-14-6.30571E-03 9.98827E-14
 -1       605-1.14077E-04-1.44011E-02 5.15705E-03
 -1       607 1.14077E-04-1.44011E-02-5.15705E-03
 -1       616 1.94040E-14-3.23300E-02 1.36875E-13
 -1       618 1.61093E-14-1.22082E-02 1.37246E-13
 -1       619-2.60561E-04-2.22691E-02 6.40915E-03
 -1       621 2.60561E-04-2.22691E-02-6.40915E-03
 -1       630 1.31994E-14-4.16082E-02 1.49760E-13
 -1       632 1.50002E-14-1.90927E-02 1.50568E-13
 -1       633-2.40053E-04-3.03504E-02 7.17162E-03
 -1       635 2.40053E-04-3.03504E-02-7.17162E-03
 -1       644 6.31757E-15-4.78245E-02 1.30153E-13
 -1       646 1.13558E-14-2.44931E-02 1.30514E-13
 -1       647-1.95203E-04-3.61588E-02 7.43147E-03
 -1       649 1.95203E-04-3.61588E-02-7.43147E-03
 -1       658 2.01544E-15-5.01867E-02 9.79402E-14
 -1       660 5.90183E-15-2.75177E-02 9.82501E-14
 -1       661-9.20772E-05-3.88522E-02 7.22049E-03
 -1       663 9.20772E-05-3.88522E-02-7.22049E-03
 -1       672-1.38653E-15-4.74567E-02 7.95375E-14
 -1       674-1.13923E-15-2.70462E-02 7.97379E-14
 -1       675 4.99679E-05-3.72514E-02 6.50112E-03
 -1       677-4.99679E-05-3.72514E-02-6.50112E-03
 -1       686-8.96877E-15-3.97813E-02 5.99568E-14
 -1       688-5.90822E-15-2.28737E-02 6.05649E-14
 -1       689 1.77067E-04-3.13275E-02 5.38537E-03
 -1       691-1.77067E-04-3.13275E-02-5.38537E-03
 -1       700-1.75030E-14-2.77193E-02 1.30899E-14
 -1       702-9.47542E-15-1.54876E-02 1.37255E-14
 -1       703 2.86469E-04-2.16034E-02 3.89601E-03
 -1       705-2.86469E-04-2.16034E-02-3.89601E-03
 -1       714-2.19482E-14-1.27889E-02-5.68583E-14
 -1       716-1.19691E-14-5.97820E-03-5.69535E-14
 -1       717 3.29678E-04-9.38356E-03 2.16934E-03
 -1       719-3.29678E-04-9.38356E-03-2.16934E-03
 -1       728-1.81338E-14 3.19903E-03-1.22647E-13
 -1       730-1.12940E-14 4.08031E-03-1.23045E-13
 -1       731 3.16976E-04 3.63967E-03 2.80707E-04
 -1       733-3.16976E-04 3.63967E-03-2.80707E-04
 -1       742-7.25528E-15 1.82172E-02-1.60760E-13
 -1       744-4.65186E-15 1.31122E-02-1.61565E-13
 -1       745 2.37204E-04 1.56647E-02-1.62604E-03
 -1       747-2.37204E-04 1.56647E-02 1.62604E-03
 -1       756 4.64401E-15 3.05635E-02-1.72402E-13
 -1       758 4.66799E-15 1.97381E-02-1.73373E-13
 -1       759 1.20801E-04 2.51508E-02-3.44808E-03
 -1       761-1.20801E-04 2.51508E-02 3.44808E-03
 -1       770 1.68748E-14 3.90305E-02-1.68186E-13
 -1       772 1.55993E-14 2.31780E-02-1.68604E-13
 -1       773-1.28576E-05 3.11043E-02-5.04931E-03
 -1       775 1.28576E-05 3.11043E-02 5.04931E-03
 -1       784 3.23554E-14 4.31630E-02-1.47016E-13
 -1       786 2.83738E-14 2.32896E-02-1.47876E-13
 -1       787-1.27660E-04 3.32263E-02-6.33003E-03
 -1       789 1.27660E-04 3.32263E-02 6.33003E-03
 -1       798 4.46014E-14 4.31923E-02-1.05111E-13
 -1       800 3.78743E-14 2.06317E-02-1.05277E-13
 -1       801-2.02598E-04 3.19120E-02-7.18595E-03
 -1       803 2.02598E-04 3.19120E-02 7.18595E-03
 -1       812 4.76848E-14 3.99399E-02-5.56156E-14
 -1       814 4.21782E-14 1.62183E-02-5.52810E-14
 -1       815-2.21141E-04 2.80791E-02-7.55577E-03
 -1       817 2.21141E-04 2.80791E-02 7.55577E-03
 -1       826 4.55941E-14 3.45097E-02-1.96338E-14
 -1       828 4.30780E-14 1.12905E-02-1.93767E-14
 -1       829-1.85238E-04 2.29001E-02-7.39576E-03
 -1       831 1.85238E-04 2.29001E-02 7.39576E-03
 -1       840 4.01549E-14 2.80243E-02 6.72613E-15
 -1       842 3.76856E-14 6.94595E-03 7.04064E-15
 -1       843-1.08648E-04 1.74851E-02-6.71384E-03
 -1       845 1.08648E-04 1.74851E-02 6.71384E-03
 -1       854 2.74609E-14 2.13199E-02 3.59016E-14
 -1       856 2.37611E-14 3.91104E-03 3.68683E-14
 -1       857-1.55626E-05 1.26155E-02-5.54504E-03
 -1       859 1.55626E-05 1.26155E-02 5.54504E-03
 -1       868 4.92417E-15 1.48208E-02 5.64823E-14
 -1       870 4.35313E-15 2.33534E-03 5.80025E-14
 -1       871 6.50825E-05 8.57807E-03-3.97685E-03
 -1       873-6.50825E-05 8.57807E-03 3.97685E-03
 -1       882-2.14116E-14 8.46875E-03 5.17314E-14
 -1       884-1.81817E-14 1.82957E-03 5.31570E-14
 -1       885 1.10534E-04 5.14916E-03-2.11470E-03
 -1       887-1.10534E-04 5.14916E-03 2.11470E-03
 -1       896-4.39209E-14 1.89091E-03 2.69696E-14
 -1       898-3.93458E-14 1.56012E-03 2.80697E-14
 -1       899 1.03813E-04 1.72552E-03-1.05362E-04
 -1       901-1.03813E-04 1.72552E-03 1.05362E-04
 -1       910-6.33047E-14-5.45896E-03 1.06975E-15
 -1       912-6.03325E-14 5.47171E-04 1.51152E-15
 -1       913 4.63735E-05-2.45590E-03 1.91306E-03
 -1       915-4.63735E-05-2.45590E-03-1.91306E-03
 -1       924-8.27531E-14-1.39524E-02-2.95083E-14
 -1       926-7.73827E-14-2.08349E-03-2.90004E-14
 -1       927-5.24182E-05-8.01795E-03 3.78047E-03
 -1       929 5.24182E-05-8.01795E-03-3.78047E-03
 -1       938-9.73242E-14-2.37205E-02-6.99092E-14
 -1       940-9.16357E-14-6.84287E-03-7.00344E-14
 -1       941-1.70101E-04-1.52817E-02 5.37584E-03
 -1       943 1.70101E-04-1.52817E-02-5.37584E-03
 -1       952-1.08030E-13-3.43614E-02-1.08566E-13
 -1       954-1.03357E-13-1.36952E-02-1.08566E-13
 -1       955-2.78668E-04-2.40283E-02 6.58254E-03
 -1       957 2.78668E-04-2.40283E-02-6.58254E-03
 -1       966-1.15247E-13-4.52720E-02-1.49503E-13
 -1       968-1.08893E-13-2.22759E-02-1.49952E-13
 -1       969-3.71586E-04-3.37740E-02 7.32469E-03
 -1       971 3.71586E-04-3.37740E-02-7.32469E-03
 -1       980 0.00000E+00 0.00000E+00 5.45458E-05
 -1       982 0.00000E+00-0.00000E+00-5.45458E-05
 -1       983-4.31037E-03-6.26931E-02 1.03625E-01
 -1       985-4.49297E-03-2.47155E-02 1.03610E-01
 -1       986 3.04083E-03-7.15372E-03 4.87359E-02
 -1       988-8.84359E-03 1.69342E-03 4.88016E-02
 -1       989-2.35176E-03-1.61920E-02 1.11221E-01
 -1       991-7.56364E-03 1.49906E-03 1.11326E-01
 -1       992-3.02679E-03-2.69823E-02 1.57312E-01
 -1       994-9.78467E-03-1.73569E-03 1.57351E-01
 -1       995-4.76416E-03-3.81595E-02 1.96663E-01
 -1       997-8.55618E-03-6.72376E-03 1.96653E-01
 -1       998-4.38954E-03-4.77959E-02 2.20588E-01
 -1      1000-6.87907E-03-1.24546E-02 2.20541E-01
 -1      1001-3.36194E-03-5.43669E-02 2.30437E-01
 -1      1003-3.50158E-03-1.74402E-02 2.30321E-01
 -1      1004-1.16078E-03-5.64352E-02 2.24238E-01
 -1      1006 6.39081E-04-2.04396E-02 2.24114E-01
 -1      1007 1.40671E-03-5.31417E-02 2.03143E-01
 -1      1009 5.20051E-03-2.05233E-02 2.02992E-01
 -1      1010 3.98693E-03-4.44889E-02 1.68293E-01
 -1      1012 9.43456E-03-1.74255E-02 1.68178E-01
 -1      1013 5.94194E-03-3.11879E-02 1.22220E-01
 -1      1015 1.27093E-02-1.15317E-02 1.22132E-01
 -1      1016 6.90779E-03-1.47941E-02 6.79274E-02
 -1      1018 1.45310E-02-3.83731E-03 6.79071E-02
 -1      1019 6.67242E-03 2.77743E-03 9.09745E-03
 -1      1021 1.46453E-02 4.27974E-03 9.12750E-03
 -1      1022 5.32374E-03 1.94066E-02-5.03624E-02
 -1      1024 1.31134E-02 1.13890E-02-5.02755E-02
 -1      1025 3.17673E-03 3.32910E-02-1.06432E-01
 -1      1027 1.02556E-02 1.62942E-02-1.06318E-01
 -1      1028 7.16754E-04 4.31206E-02-1.55319E-01
 -1      1030 6.60401E-03 1.83327E-02-1.55193E-01
 -1      1031-1.52902E-03 4.83497E-02-1.93658E-01
 -1      1033 2.75710E-03 1.74615E-02-1.93549E-01
 -1      1034-3.11476E-03 4.91272E-02-2.18780E-01
 -1      1036-7.31587E-04 1.42742E-02-2.18700E-01
 -1      1037-3.78196E-03 4.62177E-02-2.28882E-01
 -1      1039-3.47794E-03 9.78634E-03-2.28844E-01
 -1      1040-3.51513E-03 4.06907E-02-2.23195E-01
 -1      1042-5.32149E-03 5.19766E-03-2.23193E-01
 -1      1043-2.53641E-03 3.36698E-02-2.02044E-01
 -1      1045-6.33661E-03 1.54923E-03-2.02068E-01
 -1      1046-1.24098E-03 2.60239E-02-1.66856E-01
 -1      1048-6.77463E-03-5.04808E-04-1.66888E-01
 -1      1049-8.82395E-05 1.82436E-02-1.20061E-01
 -1      1051-6.97047E-03-8.79961E-04-1.20085E-01
 -1      1052 5.14265E-04 1.03674E-02-6.49449E-02
 -1      1054-7.22949E-03-3.42495E-05-6.49457E-02
 -1      1055 3.28000E-04 2.13167E-03-5.37380E-03
 -1      1057-7.73737E-03 1.14253E-03-5.34805E-03
 -1      1058-6.89145E-04-6.87219E-03 5.44220E-02
 -1      1060-8.49040E-03 1.60408E-03 5.44727E-02
 -1      1061-2.31620E-03-1.69161E-02 1.10300E-01
 -1      1063-9.34365E-03 4.02647E-04 1.10362E-01
 -1      1064-4.28309E-03-2.79741E-02 1.58227E-01
 -1      1066-9.96405E-03-3.04257E-03 1.58287E-01
 -1      1067-6.07785E-03-3.96296E-02 1.95164E-01
 -1      1069-1.02046E-02-8.84432E-03 1.95208E-01
 -1      1070-7.72560E-03-5.11018E-02 2.18013E-01
 -1      1072-9.63171E-03-1.66478E-02 2.18033E-01
 -1      1073 0.00000E+00 0.00000E+00-5.45458E-05
 -1      1075 0.00000E+00-0.00000E+00 5.45458E-05
 -1      1076 0.00000E+00 1.28478E-17 0.00000E+00
 -1      1078 0.00000E+00-1.28478E-17 0.00000E+00
 -1      1079 0.00000E+00-5.25296E-17 0.00000E+00
 -1      1081 0.00000E+00 5.25296E-17 0.00000E+00
 -1      1082 0.00000E+00-1.08962E-16 0.00000E+00
 -1      1084 0.00000E+00 1.08962E-16 0.00000E+00
 -1      1085 2.42556E-04-2.50678E-03-1.60288E-03
 -1      1087-2.42556E-04-2.50678E-03 1.60288E-03
 -1      1088-1.60381E-14-5.02292E-03 4.33647E-14
 -1      1090-4.95898E-15 9.35948E-06 4.32327E-14
 -1      1099-1.42842E-04-6.78079E-03-3.68569E-03
 -1      1101 1.42842E-04-6.78079E-03 3.68569E-03
 -1      1102-1.68829E-14-1.25665E-02 8.19469E-14
 -1      1104-1.66701E-14-9.95121E-04 8.17555E-14
 -1      1113-1.14077E-04-1.44011E-02-5.15705E-03
 -1      1115 1.14077E-04-1.44011E-02 5.15705E-03
 -1      1116-2.14174E-14-2.24964E-02 9.64756E-14
 -1      1118-1.79885E-14-6.30571E-03 9.68524E-14
 -1      1127-2.60561E-04-2.22691E-02-6.40915E-03
 -1      1129 2.60561E-04-2.22691E-02 6.40915E-03
 -1      1130-1.81209E-14-3.23300E-02 1.04221E-13
 -1      1132-1.83499E-14-1.22082E-02 1.04612E-13
 -1      1141-2.40053E-04-3.03504E-02-7.17162E-03
 -1      1143 2.40053E-04-3.03504E-02 7.17162E-03
 -1      1144-1.37680E-14-4.16082E-02 9.41398E-14
 -1      1146-1.54240E-14-1.90927E-02 9.47369E-14
 -1      1155-1.95203E-04-3.61588E-02-7.43147E-03
 -1      1157 1.95203E-04-3.61588E-02 7.43147E-03
 -1      1158-8.79578E-15-4.78245E-02 8.55257E-14
 -1      1160-8.20451E-15-2.44931E-02 8.61148E-14
 -1      1169-9.20772E-05-3.88522E-02-7.22049E-03
 -1      1171 9.20772E-05-3.88522E-02 7.22049E-03
 -1      1172-1.55276E-15-5.01867E-02 9.03093E-14
 -1      1174 8.03357E-16-2.75177E-02 9.05009E-14
 -1      1183 4.99679E-05-3.72514E-02-6.50112E-03
 -1      1185-4.99679E-05-3.72514E-02 6.50112E-03
 -1      1186 1.05711E-14-4.74567E-02 8.33033E-14
 -1      1188 7.90024E-15-2.70462E-02 8.38130E-14
 -1      1197 1.77067E-04-3.13275E-02-5.38537E-03
 -1      1199-1.77067E-04-3.13275E-02 5.38537E-03
 -1      1200 2.55251E-14-3.97813E-02 4.28715E-14
 -1      1202 1.78152E-14-2.28737E-02 4.38786E-14
 -1      1211 2.86469E-04-2.16034E-02-3.89601E-03
 -1      1213-2.86469E-04-2.16034E-02 3.89601E-03
 -1      1214 3.73451E-14-2.77193E-02-1.83359E-14
 -1      1216 2.82968E-14-1.54876E-02-1.84177E-14
 -1      1225 3.29678E-04-9.38356E-03-2.16934E-03
 -1      1227-3.29678E-04-9.38356E-03 2.16934E-03
 -1      1228 3.80658E-14-1.27889E-02-7.18713E-14
 -1      1230 3.25097E-14-5.97820E-03-7.22278E-14
 -1      1239 3.16976E-04 3.63967E-03-2.80707E-04
 -1      1241-3.16976E-04 3.63967E-03 2.80707E-04
 -1      1242 3.09059E-14 3.19903E-03-1.04481E-13
 -1      1244 2.76722E-14 4.08031E-03-1.04776E-13
 -1      1253 2.37204E-04 1.56647E-02 1.62604E-03
 -1      1255-2.37204E-04 1.56647E-02-1.62604E-03
 -1      1256 2.15400E-14 1.82172E-02-1.27384E-13
 -1      1258 1.84419E-14 1.31122E-02-1.27801E-13
 -1      1267 1.20801E-04 2.51508E-02 3.44808E-03
 -1      1269-1.20801E-04 2.51508E-02-3.44808E-03
 -1      1270 8.80168E-15 3.05635E-02-1.40130E-13
 -1      1272 8.19167E-15 1.97381E-02-1.40812E-13
 -1      1281-1.28576E-05 3.11043E-02 5.04931E-03
 -1      1283 1.28576E-05 3.11043E-02-5.04931E-03
 -1      1284-5.18683E-15 3.90305E-02-1.29848E-13
 -1      1286-1.73472E-15 2.31780E-02-1.30749E-13
 -1      1295-1.27660E-04 3.32263E-02 6.33003E-03
 -1      1297 1.27660E-04 3.32263E-02-6.33003E-03
 -1      1298-1.54957E-14 4.31630E-02-1.00564E-13
 -1      1300-1.03308E-14 2.32896E-02-1.00941E-13
 -1      1309-2.02598E-04 3.19120E-02 7.18595E-03
 -1      1311 2.02598E-04 3.19120E-02-7.18595E-03
 -1      1312-1.80134E-14 4.31923E-02-7.18652E-14
 -1      1314-1.47520E-14 2.06317E-02-7.14646E-14
 -1      1323-2.21141E-04 2.80791E-02 7.55577E-03
 -1      1325 2.21141E-04 2.80791E-02-7.55577E-03
 -1      1326-1.46965E-14 3.99399E-02-5.38065E-14
 -1      1328-1.29758E-14 1.62183E-02-5.40170E-14
 -1      1337-1.85238E-04 2.29001E-02 7.39576E-03
 -1      1339 1.85238E-04 2.29001E-02-7.39576E-03
 -1      1340-9.77220E-15 3.45097E-02-3.78084E-14
 -1      1342-6.84992E-15 1.12905E-02-3.72253E-14
 -1      1351-1.08648E-04 1.74851E-02 6.71384E-03
 -1      1353 1.08648E-04 1.74851E-02-6.71384E-03
 -1      1354-6.69360E-16 2.80243E-02-1.76622E-14
 -1      1356 1.87673E-15 6.94595E-03-1.78094E-14
 -1      1365-1.55626E-05 1.26155E-02 5.54504E-03
 -1      1367 1.55626E-05 1.26155E-02-5.54504E-03
 -1      1368 1.00543E-14 2.13199E-02 8.01484E-16
 -1      1370 1.23583E-14 3.91104E-03 5.09967E-16
 -1      1379 6.50825E-05 8.57807E-03 3.97685E-03
 -1      1381-6.50825E-05 8.57807E-03-3.97685E-03
 -1      1382 1.72066E-14 1.48208E-02 2.96562E-14
 -1      1384 2.28586E-14 2.33534E-03 3.01952E-14
 -1      1393 1.10534E-04 5.14916E-03 2.11470E-03
 -1      1395-1.10534E-04 5.14916E-03-2.11470E-03
 -1      1396 2.62917E-14 8.46875E-03 6.71350E-14
 -1      1398 3.13427E-14 1.82957E-03 6.70354E-14
 -1      1407 1.03813E-04 1.72552E-03 1.05362E-04
 -1      1409-1.03813E-04 1.72552E-03-1.05362E-04
 -1      1410 4.05366E-14 1.89091E-03 7.22169E-14
 -1      1412 3.76439E-14 1.56012E-03 7.34791E-14
 -1      1421 4.63735E-05-2.45590E-03-1.91306E-03
 -1      1423-4.63735E-05-2.45590E-03 1.91306E-03
 -1      1424 5.04445E-14-5.45896E-03 3.38848E-14
 -1      1426 4.30779E-14 5.47171E-04 3.47686E-14
 -1      1435-5.24182E-05-8.01795E-03-3.78047E-03
 -1      1437 5.24182E-05-8.01795E-03 3.78047E-03
 -1      1438 5.41307E-14-1.39524E-02-1.20707E-14
 -1      1440 4.94739E-14-2.08349E-03-1.25451E-14
 -1      1449-1.70101E-04-1.52817E-02-5.37584E-03
 -1      1451 1.70101E-04-1.52817E-02 5.37584E-03
 -1      1452 5.89263E-14-2.37205E-02-4.83999E-14
 -1      1454 5.56140E-14-6.84287E-03-4.67739E-14
 -1      1463-2.78668E-04-2.40283E-02-6.58254E-03
 -1      1465 2.78668E-04-2.40283E-02 6.58254E-03
 -1      1466 6.74605E-14-3.43614E-02-9.09851E-14
 -1      1468 6.03921E-14-1.36952E-02-9.10360E-14
 -1      1477-3.71586E-04-3.37740E-02-7.32469E-03
 -1      1479 3.71586E-04-3.37740E-02 7.32469E-03
 -1      1480 7.33330E-14-4.52720E-02-1.52720E-13
 -1      1482 6.43485E-14-2.22759E-02-1.51662E-13
 -1      1491-3.94188E-04 5.13028E-02 7.06686E-04
 -1      1493 3.94188E-04 5.13028E-02-7.06686E-04
 -1      1494-3.76407E-04 6.00673E-02-1.88704E-13
 -1      1496 3.76407E-04 6.00673E-02-2.12129E-13
 -1      1497-3.94188E-04 5.13028E-02-7.06686E-04
 -1      1499 3.94188E-04 5.13028E-02 7.06686E-04
 -1      1500 3.04083E-03-7.15372E-03-4.87359E-02
 -1      1502-8.84359E-03 1.69342E-03-4.88016E-02
 -1      1503-2.35176E-03-1.61920E-02-1.11221E-01
 -1      1505-7.56364E-03 1.49906E-03-1.11326E-01
 -1      1506-3.02679E-03-2.69823E-02-1.57312E-01
 -1      1508-9.78467E-03-1.73569E-03-1.57351E-01
 -1      1509-4.76416E-03-3.81595E-02-1.96663E-01
 -1      1511-8.55618E-03-6.72376E-03-1.96653E-01
 -1      1512-4.38954E-03-4.77959E-02-2.20588E-01
 -1      1514-6.87907E-03-1.24546E-02-2.20541E-01
 -1      1515-3.36194E-03-5.43669E-02-2.30437E-01
 -1      1517-3.50158E-03-1.74402E-02-2.30321E-01
 -1      1518-1.16078E-03-5.64352E-02-2.24238E-01
 -1      1520 6.39081E-04-2.04396E-02-2.24114E-01
 -1      1521 1.40671E-03-5.31417E-02-2.03143E-01
 -1      1523 5.20051E-03-2.05233E-02-2.02992E-01
 -1      1524 3.98693E-03-4.44889E-02-1.68293E-01
 -1      1526 9.43456E-03-1.74255E-02-1.68178E-01
 -1      1527 5.94194E-03-3.11879E-02-1.22220E-01
 -1      1529 1.27093E-02-1.15317E-02-1.22132E-01
 -1      1530 6.90779E-03-1.47941E-02-6.79274E-02
 -1      1532 1.45310E-02-3.83731E-03-6.79071E-02
 -1      1533 6.67242E-03 2.77743E-03-9.09745E-03
 -1      1535 1.46453E-02 4.27974E-03-9.12750E-03
 -1      1536 5.32374E-03 1.94066E-02 5.03624E-02
 -1      1538 1.31134E-02 1.13890E-02 5.02755E-02
 -1      1539 3.17673E-03 3.32910E-02 1.06432E-01
 -1      1541 1.02556E-02 1.62942E-02 1.06318E-01
 -1      1542 7.16754E-04 4.31206E-02 1.55319E-01
 -1      1544 6.60401E-03 1.83327E-02 1.55193E-01
 -1      1545-1.52902E-03 4.83497E-02 1.93658E-01
 -1      1547 2.75710E-03 1.74615E-02 1.93549E-01
 -1      1548-3.11476E-03 4.91272E-02 2.18780E-01
 -1      1550-7.31587E-04 1.42742E-02 2.18700E-01
 -1      1551-3.78196E-03 4.62177E-02 2.28882E-01
 -1      1553-3.47794E-03 9.78634E-03 2.28844E-01
 -1      1554-3.51513E-03 4.06907E-02 2.23195E-01
 -1      1556-5.32149E-03 5.19766E-03 2.23193E-01
 -1      1557-2.53641E-03 3.36698E-02 2.02044E-01
 -1      1559-6.33661E-03 1.54923E-03 2.02068E-01
 -1      1560-1.24098E-03 2.60239E-02 1.66856E-01
 -1      1562-6.77463E-03-5.04808E-04 1.66888E-01
 -1      1563-8.82395E-05 1.82436E-02 1.20061E-01
 -1      1565-6.97047E-03-8.79961E-04 1.20085E-01
 -1      1566 5.14265E-04 1.03674E-02 6.49449E-02
 -1      1568-7.22949E-03-3.42495E-05 6.49457E-02
 -1      1569 3.28000E-04 2.13167E-03 5.37380E-03
 -1      1571-7.73737E-03 1.14253E-03 5.34805E-03
 -1      1572-6.89145E-04-6.87219E-03-5.44220E-02
 -1      1574-8.49040E-03 1.60408E-03-5.44727E-02
 -1      1575-2.31620E-03-1.69161E-02-1.10300E-01
 -1      1577-9.34365E-03 4.02647E-04-1.10362E-01
 -1      1578-4.28309E-03-2.79741E-02-1.58227E-01
 -1      1580-9.96405E-03-3.04257E-03-1.58287E-01
 -1      1581-6.07785E-03-3.96296E-02-1.95164E-01
 -1      1583-1.02046E-02-8.84432E-03-1.95208E-01
 -1      1584-7.72560E-03-5.11018E-02-2.18013E-01
 -1      1586-9.63171E-03-1.66478E-02-2.18033E-01
 -1      1587-4.31037E-03-6.26931E-02-1.03625E-01
 -1      1589-4.49297E-03-2.47155E-02-1.03610E-01
 -1      1590 0.00000E+00 0.00000E+00 5.45458E-05
 -1      1592 0.00000E+00 0.00000E+00-5.45458E-05
 -1      1593 4.31037E-03-6.26931E-02 1.03625E-01
 -1      1595 4.49297E-03-2.47155E-02 1.03610E-01
 -1      1596-3.04083E-03-7.15372E-03 4.87359E-02
 -1      1598 8.84359E-03 1.69342E-03 4.88016E-02
 -1      1599 2.35176E-03-1.61920E-02 1.11221E-01
 -1      1601 7.56364E-03 1.49906E-03 1.11326E-01
 -1      1602 3.02679E-03-2.69823E-02 1.57312E-01
 -1      1604 9.78467E-03-1.73569E-03 1.57351E-01
 -1      1605 4.76416E-03-3.81595E-02 1.96663E-01
 -1      1607 8.55618E-03-6.72376E-03 1.96653E-01
 -1      1608 4.38954E-03-4.77959E-02 2.20588E-01
 -1      1610 6.87907E-03-1.24546E-02 2.20541E-01
 -1      1611 3.36194E-03-5.43669E-02 2.30437E-01
 -1      1613 3.50158E-03-1.74402E-02 2.30321E-01
 -1      1614 1.16078E-03-5.64352E-02 2.24238E-01
 -1      1616-6.39081E-04-2.04396E-02 2.24114E-01
 -1      1617-1.40671E-03-5.31417E-02 2.03143E-01
 -1      1619-5.20051E-03-2.05233E-02 2.02992E-01
 -1      1620-3.98693E-03-4.44889E-02 1.68293E-01
 -1      1622-9.43456E-03-1.74255E-02 1.68178E-01
 -1      1623-5.94194E-03-3.11879E-02 1.22220E-01
 -1      1625-1.27093E-02-1.15317E-02 1.22132E-01
 -1      1626-6.90779E-03-1.47941E-02 6.79274E-02
 -1      1628-1.45310E-02-3.83731E-03 6.79071E-02
 -1      1629-6.67242E-03 2.77743E-03 9.09745E-03
 -1      1631-1.46453E-02 4.27974E-03 9.12750E-03
 -1      1632-5.32374E-03 1.94066E-02-5.03624E-02
 -1      1634-1.31134E-02 1.13890E-02-5.02755E-02
 -1      1635-3.17673E-03 3.32910E-02-1.06432E-01
 -1      1637-1.02556E-02 1.62942E-02-1.06318E-01
 -1      1638-7.16754E-04 4.31206E-02-1.55319E-01
 -1      1640-6.60401E-03 1.83327E-02-1.55193E-01
 -1      1641 1.52902E-03 4.83497E-02-1.93658E-01
 -1      1643-2.75710E-03 1.74615E-02-1.93549E-01
 -1      1644 3.11476E-03 4.91272E-02-2.18780E-01
 -1      1646 7.31587E-04 1.42742E-02-2.18700E-01
 -1      1647 3.78196E-03 4.62177E-02-2.28882E-01
 -1      1649 3.47794E-03 9.78634E-03-2.28844E-01
 -1      1650 3.51513E-03 4.06907E-02-2.23195E-01
 -1      1652 5.32149E-03 5.19766E-03-2.23193E-01
 -1      1653 2.53641E-03 3.36698E-02-2.02044E-01
 -1      1655 6.33661E-03 1.54923E-03-2.02068E-01
 -1      1656 1.24098E-03 2.60239E-02-1.66856E-01
 -1      1658 6.77463E-03-5.04808E-04-1.66888E-01
 -1      1659 8.82395E-05 1.82436E-02-1.20061E-01
 -1      1661 6.97047E-03-8.79961E-04-1.20085E-01
 -1      1662-5.14265E-04 1.03674E-02-6.49449E-02
 -1      1664 7.22949E-03-3.42495E-05-6.49457E-02
 -1      1665-3.28000E-04 2.13167E-03-5.37380E-03
 -1      1667 7.73737E-03 1.14253E-03-5.34805E-03
 -1      1668 6.89145E-04-6.87219E-03 5.44220E-02
 -1      1670 8.49040E-03 1.60408E-03 5.44727E-02
 -1      1671 2.31620E-03-1.69161E-02 1.10300E-01
 -1      1673 9.34365E-03 4.02647E-04 1.10362E-01
 -1      1674 4.28309E-03-2.79741E-02 1.58227E-01
 -1      1676 9.96405E-03-3.04257E-03 1.58287E-01
 -1      1677 6.07785E-03-3.96296E-02 1.95164E-01
 -1      1679 1.02046E-02-8.84432E-03 1.95208E-01
 -1      1680 7.72560E-03-5.11018E-02 2.18013E-01
 -1      1682 9.63171E-03-1.66478E-02 2.18033E-01
 -1      1683 0.00000E+00 0.00000E+00-5.45458E-05
 -1      1685 0.00000E+00 0.00000E+00 5.45458E-05
 -1      1686-1.64578E-03-6.27962E-03-2.09939E-02
 -1      1688 4.14449E-03 1.52966E-03-2.10627E-02
 -1      1689 1.23667E-03-1.64312E-02-5.08538E-02
 -1      1691 3.64148E-03 2.08560E-03-5.08547E-02
 -1      1692 1.47581E-03-2.75034E-02-7.11485E-02
 -1      1694 4.67478E-03-9.80814E-04-7.11662E-02
 -1      1695 2.28087E-03-3.89616E-02-8.92429E-02
 -1      1697 4.04836E-03-5.99294E-03-8.92181E-02
 -1      1698 2.12633E-03-4.88456E-02-9.98139E-02
 -1      1700 3.27701E-03-1.16572E-02-9.97630E-02
 -1      1701 1.56546E-03-5.55588E-02-1.04208E-01
 -1      1703 1.61953E-03-1.68033E-02-1.04146E-01
 -1      1704 5.24408E-04-5.76656E-02-1.01266E-01
 -1      1706-3.37266E-04-1.98392E-02-1.01178E-01
 -1      1707-7.47542E-04-5.43025E-02-9.16589E-02
 -1      1709-2.53148E-03-2.00793E-02-9.15833E-02
 -1      1710-1.98429E-03-4.54508E-02-7.58822E-02
 -1      1712-4.54303E-03-1.70457E-02-7.58078E-02
 -1      1713-2.94221E-03-3.18638E-02-5.50753E-02
 -1      1715-6.11124E-03-1.12648E-02-5.50319E-02
 -1      1716-3.40927E-03-1.51077E-02-3.05898E-02
 -1      1718-6.98082E-03-3.64168E-03-3.05695E-02
 -1      1719-3.30628E-03 2.84636E-03-4.04247E-03
 -1      1721-7.04258E-03 4.36626E-03-4.05810E-03
 -1      1722-2.66096E-03 1.98458E-02 2.28159E-02
 -1      1724-6.31842E-03 1.13586E-02 2.27760E-02
 -1      1725-1.63084E-03 3.40427E-02 4.82040E-02
 -1      1727-4.96198E-03 1.61034E-02 4.81420E-02
 -1      1728-4.42078E-04 4.41037E-02 7.04037E-02
 -1      1730-3.22203E-03 1.79597E-02 7.03343E-02
 -1      1731 6.51057E-04 4.94661E-02 8.78884E-02
 -1      1733-1.38189E-03 1.68882E-02 8.78195E-02
 -1      1734 1.43701E-03 5.02808E-02 9.94147E-02
 -1      1736 2.97076E-04 1.35164E-02 9.93570E-02
 -1      1737 1.79000E-03 4.73236E-02 1.04131E-01
 -1      1739 1.63155E-03 8.88652E-03 1.04088E-01
 -1      1740 1.70070E-03 4.16841E-02 1.01644E-01
 -1      1742 2.54346E-03 4.23321E-03 1.01618E-01
 -1      1743 1.27210E-03 3.45070E-02 9.20687E-02
 -1      1745 3.06442E-03 6.15928E-04 9.20554E-02
 -1      1746 6.88798E-04 2.66794E-02 7.60334E-02
 -1      1748 3.30950E-03-1.29892E-03 7.60282E-02
 -1      1749 1.68215E-04 1.87042E-02 5.46457E-02
 -1      1751 3.43354E-03-1.44171E-03 5.46414E-02
 -1      1752-9.99854E-05 1.06239E-02 2.94178E-02
 -1      1754 3.57775E-03-2.88002E-04 2.94112E-02
 -1      1755 1.23780E-06 2.17725E-03 2.14188E-03
 -1      1757 3.82996E-03 1.22366E-03 2.12946E-03
 -1      1758 4.85689E-04-7.05040E-03-2.52163E-02
 -1      1760 4.18678E-03 2.02185E-03-2.52312E-02
 -1      1761 1.26147E-03-1.73207E-02-5.07524E-02
 -1      1763 4.58780E-03 1.09901E-03-5.07677E-02
 -1      1764 2.18912E-03-2.86147E-02-7.25870E-02
 -1      1766 4.87347E-03-2.12300E-03-7.25961E-02
 -1      1767 3.04950E-03-4.04732E-02-8.94081E-02
 -1      1769 4.99316E-03-7.79459E-03-8.94073E-02
 -1      1770 3.85308E-03-5.21111E-02-9.97031E-02
 -1      1772 4.74611E-03-1.55408E-02-9.96960E-02
 -1      1773 1.64578E-03-6.27962E-03 2.09939E-02
 -1      1775-4.14449E-03 1.52966E-03 2.10627E-02
 -1      1776-1.23667E-03-1.64312E-02 5.08538E-02
 -1      1778-3.64148E-03 2.08560E-03 5.08547E-02
 -1      1779-1.47581E-03-2.75034E-02 7.11485E-02
 -1      1781-4.67478E-03-9.80814E-04 7.11662E-02
 -1      1782-2.28087E-03-3.89616E-02 8.92429E-02
 -1      1784-4.04836E-03-5.99294E-03 8.92181E-02
 -1      1785-2.12633E-03-4.88456E-02 9.98139E-02
 -1      1787-3.27701E-03-1.16572E-02 9.97630E-02
 -1      1788-1.56546E-03-5.55588E-02 1.04208E-01
 -1      1790-1.61953E-03-1.68033E-02 1.04146E-01
 -1      1791-5.24408E-04-5.76656E-02 1.01266E-01
 -1      1793 3.37266E-04-1.98392E-02 1.01178E-01
 -1      1794 7.47542E-04-5.43025E-02 9.16589E-02
 -1      1796 2.53148E-03-2.00793E-02 9.15833E-02
 -1      1797 1.98429E-03-4.54508E-02 7.58822E-02
 -1      1799 4.54303E-03-1.70457E-02 7.58078E-02
 -1      1800 2.94221E-03-3.18638E-02 5.50753E-02
 -1      1802 6.11124E-03-1.12648E-02 5.50319E-02
 -1      1803 3.40927E-03-1.51077E-02 3.05898E-02
 -1      1805 6.98082E-03-3.64168E-03 3.05695E-02
 -1      1806 3.30628E-03 2.84636E-03 4.04247E-03
 -1      1808 7.04258E-03 4.36626E-03 4.05810E-03
 -1      1809 2.66096E-03 1.98458E-02-2.28159E-02
 -1      1811 6.31842E-03 1.13586E-02-2.27760E-02
 -1      1812 1.63084E-03 3.40427E-02-4.82040E-02
 -1      1814 4.96198E-03 1.61034E-02-4.81420E-02
 -1      1815 4.42078E-04 4.41037E-02-7.04037E-02
 -1      1817 3.22203E-03 1.79597E-02-7.03343E-02
 -1      1818-6.51057E-04 4.94661E-02-8.78884E-02
 -1      1820 1.38189E-03 1.68882E-02-8.78195E-02
 -1      1821-1.43701E-03 5.02808E-02-9.94147E-02
 -1      1823-2.97076E-04 1.35164E-02-9.93570E-02
 -1      1824-1.79000E-03 4.73236E-02-1.04131E-01
 -1      1826-1.63155E-03 8.88652E-03-1.04088E-01
 -1      1827-1.70070E-03 4.16841E-02-1.01644E-01
 -1      1829-2.54346E-03 4.23321E-03-1.01618E-01
 -1      1830-1.27210E-03 3.45070E-02-9.20687E-02
 -1      1832-3.06442E-03 6.15928E-04-9.20554E-02
 -1      1833-6.88798E-04 2.66794E-02-7.60334E-02
 -1      1835-3.30950E-03-1.29892E-03-7.60282E-02
 -1      1836-1.68215E-04 1.87042E-02-5.46457E-02
 -1      1838-3.43354E-03-1.44171E-03-5.46414E-02
 -1      1839 9.99854E-05 1.06239E-02-2.94178E-02
 -1      1841-3.57775E-03-2.88002E-04-2.94112E-02
 -1      1842-1.23780E-06 2.17725E-03-2.14188E-03
 -1      1844-3.82996E-03 1.22366E-03-2.12946E-03
 -1      1845-4.85689E-04-7.05040E-03 2.52163E-02
 -1      1847-4.18678E-03 2.02185E-03 2.52312E-02
 -1      1848-1.26147E-03-1.73207E-02 5.07524E-02
 -1      1850-4.58780E-03 1.09901E-03 5.07677E-02
 -1      1851-2.18912E-03-2.86147E-02 7.25870E-02
 -1      1853-4.87347E-03-2.12300E-03 7.25961E-02
 -1      1854-3.04950E-03-4.04732E-02 8.94081E-02
 -1      1856-4.99316E-03-7.79459E-03 8.94073E-02
 -1      1857-3.85308E-03-5.21111E-02 9.97031E-02
 -1      1859-4.74611E-03-1.55408E-02 9.96960E-02
 -1      1860 1.06742E-03 1.80371E-02 1.27735E-04
 -1      1862-1.06742E-03 1.80371E-02-1.27735E-04
 -1      1863 1.58434E-04 3.73118E-02 1.97908E-04
 -1      1865-1.58434E-04 3.73118E-02-1.97908E-04
 -1      1866 3.40311E-04 4.77091E-02 2.64444E-04
 -1      1868-3.40311E-04 4.77091E-02-2.64444E-04
 -1      1869-6.40117E-05 5.42940E-02 2.90238E-04
 -1      1871 6.40117E-05 5.42940E-02-2.90238E-04
 -1      1872-9.80144E-05 5.45912E-02 2.71301E-04
 -1      1874 9.80144E-05 5.45912E-02-2.71301E-04
 -1      1875-2.28874E-04 5.15346E-02 2.42639E-04
 -1      1877 2.28874E-04 5.15346E-02-2.42639E-04
 -1      1878-2.23284E-04 4.56228E-02 1.89552E-04
 -1      1880 2.23284E-04 4.56228E-02-1.89552E-04
 -1      1881-2.07502E-04 3.86089E-02 1.42177E-04
 -1      1883 2.07502E-04 3.86089E-02-1.42177E-04
 -1      1884-1.62516E-04 3.11046E-02 9.41159E-05
 -1      1886 1.62516E-04 3.11046E-02-9.41159E-05
 -1      1887-1.32561E-04 2.34870E-02 5.30408E-05
 -1      1889 1.32561E-04 2.34870E-02-5.30408E-05
 -1      1890-1.35263E-04 1.54629E-02 1.28461E-05
 -1      1892 1.35263E-04 1.54629E-02-1.28461E-05
 -1      1893-1.77528E-04 6.49924E-03-3.33069E-05
 -1      1895 1.77528E-04 6.49924E-03 3.33069E-05
 -1      1896-2.54671E-04-3.94119E-03-8.99994E-05
 -1      1898 2.54671E-04-3.94119E-03 8.99994E-05
 -1      1899-3.42765E-04-1.60447E-02-1.63205E-04
 -1      1901 3.42765E-04-1.60447E-02 1.63205E-04
 -1      1902-4.14321E-04-2.94066E-02-2.48079E-04
 -1      1904 4.14321E-04-2.94066E-02 2.48079E-04
 -1      1905-4.37622E-04-4.29544E-02-3.39392E-04
 -1      1907 4.37622E-04-4.29544E-02 3.39392E-04
 -1      1908-3.91756E-04-5.50519E-02-4.21101E-04
 -1      1910 3.91756E-04-5.50519E-02 4.21101E-04
 -1      1911-2.68572E-04-6.37939E-02-4.79568E-04
 -1      1913 2.68572E-04-6.37939E-02 4.79568E-04
 -1      1914-7.90305E-05-6.74013E-02-4.97211E-04
 -1      1916 7.90305E-05-6.74013E-02 4.97211E-04
 -1      1917 1.49942E-04-6.46433E-02-4.64942E-04
 -1      1919-1.49942E-04-6.46433E-02 4.64942E-04
 -1      1920 3.79806E-04-5.51675E-02-3.77489E-04
 -1      1922-3.79806E-04-5.51675E-02 3.77489E-04
 -1      1923 5.69076E-04-3.96638E-02-2.41128E-04
 -1      1925-5.69076E-04-3.96638E-02 2.41128E-04
 -1      1926 6.82332E-04-1.98133E-02-6.85221E-05
 -1      1928-6.82332E-04-1.98133E-02 6.85221E-05
 -1      1929 6.98857E-04 1.98153E-03 1.20916E-04
 -1      1931-6.98857E-04 1.98153E-03-1.20916E-04
 -1      1932 6.14053E-04 2.29892E-02 3.04698E-04
 -1      1934-6.14053E-04 2.29892E-02-3.04698E-04
 -1      1935 4.48759E-04 4.06707E-02 4.64907E-04
 -1      1937-4.48759E-04 4.06707E-02-4.64907E-04
 -1      1938 2.21975E-04 5.29969E-02 5.84852E-04
 -1      1940-2.21975E-04 5.29969E-02-5.84852E-04
 -1      1941-5.46460E-06 5.89317E-02 6.62133E-04
 -1      1943 5.46460E-06 5.89317E-02-6.62133E-04
 -1      1944-2.49273E-04 5.80849E-02 6.99291E-04
 -1      1946 2.49273E-04 5.80849E-02-6.99291E-04
 -1      1947 1.89228E-03 1.89024E-02 3.00662E-14
 -1      1949-1.89228E-03 1.89024E-02 3.79072E-14
 -1      1950 4.59710E-04 4.01269E-02 5.79953E-14
 -1      1952-4.59710E-04 4.01269E-02 7.49609E-14
 -1      1953 7.94699E-04 5.09455E-02 8.27324E-14
 -1      1955-7.94699E-04 5.09455E-02 1.07719E-13
 -1      1956 1.32538E-04 5.80865E-02 9.53898E-14
 -1      1958-1.32538E-04 5.80865E-02 1.28272E-13
 -1      1959 4.40246E-05 5.82010E-02 9.28803E-14
 -1      1961-4.40246E-05 5.82010E-02 1.32522E-13
 -1      1962-2.62545E-04 5.48190E-02 8.38019E-14
 -1      1964 2.62545E-04 5.48190E-02 1.27149E-13
 -1      1965-3.54490E-04 4.83147E-02 7.42843E-14
 -1      1967 3.54490E-04 4.83147E-02 1.15493E-13
 -1      1968-4.64971E-04 4.06891E-02 6.49689E-14
 -1      1970 4.64971E-04 4.06891E-02 9.75955E-14
 -1      1971-5.02099E-04 3.25606E-02 4.16507E-14
 -1      1973 5.02099E-04 3.25606E-02 6.09911E-14
 -1      1974-5.51592E-04 2.43603E-02-2.47372E-15
 -1      1976 5.51592E-04 2.43603E-02 2.02182E-15
 -1      1977-6.00203E-04 1.57401E-02-5.56083E-14
 -1      1979 6.00203E-04 1.57401E-02-6.41700E-14
 -1      1980-6.72032E-04 6.11345E-03-1.03320E-13
 -1      1982 6.72032E-04 6.11345E-03-1.21982E-13
 -1      1983-7.46546E-04-5.12755E-03-1.32467E-13
 -1      1985 7.46546E-04-5.12755E-03-1.57804E-13
 -1      1986-8.06330E-04-1.81925E-02-1.41897E-13
 -1      1988 8.06330E-04-1.81925E-02-1.69847E-13
 -1      1989-8.15785E-04-3.26482E-02-1.35881E-13
 -1      1991 8.15785E-04-3.26482E-02-1.61933E-13
 -1      1992-7.47585E-04-4.73191E-02-1.15741E-13
 -1      1994 7.47585E-04-4.73191E-02-1.35572E-13
 -1      1995-5.80915E-04-6.04121E-02-8.70415E-14
 -1      1997 5.80915E-04-6.04121E-02-9.68531E-14
 -1      1998-3.16004E-04-6.98327E-02-6.01949E-14
 -1      2000 3.16004E-04-6.98327E-02-5.68295E-14
 -1      2001 2.71774E-05-7.36259E-02-3.60822E-14
 -1      2003-2.71774E-05-7.36259E-02-1.99563E-14
 -1      2004 4.08533E-04-7.04354E-02-1.25802E-14
 -1      2006-4.08533E-04-7.04354E-02 1.39576E-14
 -1      2007 7.75174E-04-5.98715E-02 9.02750E-15
 -1      2009-7.75174E-04-5.98715E-02 4.30229E-14
 -1      2010 1.07307E-03-4.26869E-02 2.86988E-14
 -1      2012-1.07307E-03-4.26869E-02 6.67248E-14
 -1      2013 1.25413E-03-2.07245E-02 3.72202E-14
 -1      2015-1.25413E-03-2.07245E-02 7.55559E-14
 -1      2016 1.29390E-03 3.38528E-03 2.69359E-14
 -1      2018-1.29390E-03 3.38528E-03 6.12895E-14
 -1      2019 1.18173E-03 2.66496E-02 4.25918E-15
 -1      2021-1.18173E-03 2.66496E-02 2.95371E-14
 -1      2022 9.49936E-04 4.63022E-02-2.42636E-14
 -1      2024-9.49936E-04 4.63022E-02-1.01429E-14
 -1      2025 6.14051E-04 6.01306E-02-5.81341E-14
 -1      2027-6.14051E-04 6.01306E-02-5.49664E-14
 -1      2028 2.67739E-04 6.70582E-02-9.66206E-14
 -1      2030-2.67739E-04 6.70582E-02-1.03376E-13
 -1      2031-1.26961E-04 6.66797E-02-1.41479E-13
 -1      2033 1.26961E-04 6.66797E-02-1.58148E-13
 -1      2034 1.06742E-03 1.80371E-02-1.27735E-04
 -1      2036-1.06742E-03 1.80371E-02 1.27735E-04
 -1      2037 1.58434E-04 3.73118E-02-1.97908E-04
 -1      2039-1.58434E-04 3.73118E-02 1.97908E-04
 -1      2040 3.40311E-04 4.77091E-02-2.64444E-04
 -1      2042-3.40311E-04 4.77091E-02 2.64444E-04
 -1      2043-6.40117E-05 5.42940E-02-2.90238E-04
 -1      2045 6.40117E-05 5.42940E-02 2.90238E-04
 -1      2046-9.80144E-05 5.45912E-02-2.71301E-04
 -1      2048 9.80144E-05 5.45912E-02 2.71301E-04
 -1      2049-2.28874E-04 5.15346E-02-2.42639E-04
 -1      2051 2.28874E-04 5.15346E-02 2.42639E-04
 -1      2052-2.23284E-04 4.56228E-02-1.89552E-04
 -1      2054 2.23284E-04 4.56228E-02 1.89552E-04
 -1      2055-2.07502E-04 3.86089E-02-1.42177E-04
 -1      2057 2.07502E-04 3.86089E-02 1.42177E-04
 -1      2058-1.62516E-04 3.11046E-02-9.41159E-05
 -1      2060 1.62516E-04 3.11046E-02 9.41159E-05
 -1      2061-1.32561E-04 2.34870E-02-5.30408E-05
 -1      2063 1.32561E-04 2.34870E-02 5.30408E-05
 -1      2064-1.35263E-04 1.54629E-02-1.28461E-05
 -1      2066 1.35263E-04 1.54629E-02 1.28461E-05
 -1      2067-1.77528E-04 6.49924E-03 3.33069E-05
 -1      2069 1.77528E-04 6.49924E-03-3.33069E-05
 -1      2070-2.54671E-04-3.94119E-03 8.99994E-05
 -1      2072 2.54671E-04-3.94119E-03-8.99994E-05
 -1      2073-3.42765E-04-1.60447E-02 1.63205E-04
 -1      2075 3.42765E-04-1.60447E-02-1.63205E-04
 -1      2076-4.14321E-04-2.94066E-02 2.48079E-04
 -1      2078 4.14321E-04-2.94066E-02-2.48079E-04
 -1      2079-4.37622E-04-4.29544E-02 3.39392E-04
 -1      2081 4.37622E-04-4.29544E-02-3.39392E-04
 -1      2082-3.91756E-04-5.50519E-02 4.21101E-04
 -1      2084 3.91756E-04-5.50519E-02-4.21101E-04
 -1      2085-2.68572E-04-6.37939E-02 4.79568E-04
 -1      2087 2.68572E-04-6.37939E-02-4.79568E-04
 -1      2088-7.90305E-05-6.74013E-02 4.97211E-04
 -1      2090 7.90305E-05-6.74013E-02-4.97211E-04
 -1      2091 1.49942E-04-6.46433E-02 4.64942E-04
 -1      2093-1.49942E-04-6.46433E-02-4.64942E-04
 -1      2094 3.79806E-04-5.51675E-02 3.77489E-04
 -1      2096-3.79806E-04-5.51675E-02-3.77489E-04
 -1      2097 5.69076E-04-3.96638E-02 2.41128E-04
 -1      2099-5.69076E-04-3.96638E-02-2.41128E-04
 -1      2100 6.82332E-04-1.98133E-02 6.85221E-05
 -1      2102-6.82332E-04-1.98133E-02-6.85221E-05
 -1      2103 6.98857E-04 1.98153E-03-1.20916E-04
 -1      2105-6.98857E-04 1.98153E-03 1.20916E-04
 -1      2106 6.14053E-04 2.29892E-02-3.04698E-04
 -1      2108-6.14053E-04 2.29892E-02 3.04698E-04
 -1      2109 4.48759E-04 4.06707E-02-4.64907E-04
 -1      2111-4.48759E-04 4.06707E-02 4.64907E-04
 -1      2112 2.21975E-04 5.29969E-02-5.84852E-04
 -1      2114-2.21975E-04 5.29969E-02 5.84852E-04
 -1      2115-5.46460E-06 5.89317E-02-6.62133E-04
 -1      2117 5.46460E-06 5.89317E-02 6.62133E-04
 -1      2118-2.49273E-04 5.80849E-02-6.99291E-04
 -1      2120 2.49273E-04 5.80849E-02 6.99291E-04
 -1      2121 1.64578E-03-6.27962E-03-2.09939E-02
 -1      2123-4.14449E-03 1.52966E-03-2.10627E-02
 -1      2124-1.23667E-03-1.64312E-02-5.08538E-02
 -1      2126-3.64148E-03 2.08560E-03-5.08547E-02
 -1      2127-1.47581E-03-2.75034E-02-7.11485E-02
 -1      2129-4.67478E-03-9.80814E-04-7.11662E-02
 -1      2130-2.28087E-03-3.89616E-02-8.92429E-02
 -1      2132-4.04836E-03-5.99294E-03-8.92181E-02
 -1      2133-2.12633E-03-4.88456E-02-9.98139E-02
 -1      2135-3.27701E-03-1.16572E-02-9.97630E-02
 -1      2136-1.56546E-03-5.55588E-02-1.04208E-01
 -1      2138-1.61953E-03-1.68033E-02-1.04146E-01
 -1      2139-5.24408E-04-5.76656E-02-1.01266E-01
 -1      2141 3.37266E-04-1.98392E-02-1.01178E-01
 -1      2142 7.47542E-04-5.43025E-02-9.16589E-02
 -1      2144 2.53148E-03-2.00793E-02-9.15833E-02
 -1      2145 1.98429E-03-4.54508E-02-7.58822E-02
 -1      2147 4.54303E-03-1.70457E-02-7.58078E-02
 -1      2148 2.94221E-03-3.18638E-02-5.50753E-02
 -1      2150 6.11124E-03-1.12648E-02-5.50319E-02
 -1      2151 3.40927E-03-1.51077E-02-3.05898E-02
 -1      2153 6.98082E-03-3.64168E-03-3.05695E-02
 -1      2154 3.30628E-03 2.84636E-03-4.04247E-03
 -1      2156 7.04258E-03 4.36626E-03-4.05810E-03
 -1      2157 2.66096E-03 1.98458E-02 2.28159E-02
 -1      2159 6.31842E-03 1.13586E-02 2.27760E-02
 -1      2160 1.63084E-03 3.40427E-02 4.82040E-02
 -1      2162 4.96198E-03 1.61034E-02 4.81420E-02
 -1      2163 4.42078E-04 4.41037E-02 7.04037E-02
 -1      2165 3.22203E-03 1.79597E-02 7.03343E-02
 -1      2166-6.51057E-04 4.94661E-02 8.78884E-02
 -1      2168 1.38189E-03 1.68882E-02 8.78195E-02
 -1      2169-1.43701E-03 5.02808E-02 9.94147E-02
 -1      2171-2.97076E-04 1.35164E-02 9.93570E-02
 -1      2172-1.79000E-03 4.73236E-02 1.04131E-01
 -1      2174-1.63155E-03 8.88652E-03 1.04088E-01
 -1      2175-1.70070E-03 4.16841E-02 1.01644E-01
 -1      2177-2.54346E-03 4.23321E-03 1.01618E-01
 -1      2178-1.27210E-03 3.45070E-02 9.20687E-02
 -1      2180-3.06442E-03 6.15928E-04 9.20554E-02
 -1      2181-6.88798E-04 2.66794E-02 7.60334E-02
 -1      2183-3.30950E-03-1.29892E-03 7.60282E-02
 -1      2184-1.68215E-04 1.87042E-02 5.46457E-02
 -1      2186-3.43354E-03-1.44171E-03 5.46414E-02
 -1      2187 9.99854E-05 1.06239E-02 2.94178E-02
 -1      2189-3.57775E-03-2.88002E-04 2.94112E-02
 -1      2190-1.23780E-06 2.17725E-03 2.14188E-03
 -1      2192-3.82996E-03 1.22366E-03 2.12946E-03
 -1      2193-4.85689E-04-7.05040E-03-2.52163E-02
 -1      2195-4.18678E-03 2.02185E-03-2.52312E-02
 -1      2196-1.26147E-03-1.73207E-02-5.07524E-02
 -1      2198-4.58780E-03 1.09901E-03-5.07677E-02
 -1      2199-2.18912E-03-2.86147E-02-7.25870E-02
 -1      2201-4.87347E-03-2.12300E-03-7.25961E-02
 -1      2202-3.04950E-03-4.04732E-02-8.94081E-02
 -1      2204-4.99316E-03-7.79459E-03-8.94073E-02
 -1      2205-3.85308E-03-5.21111E-02-9.97031E-02
 -1      2207-4.74611E-03-1.55408E-02-9.96960E-02
 -1      2208-1.64578E-03-6.27962E-03 2.09939E-02
 -1      2210 4.14449E-03 1.52966E-03 2.10627E-02
 -1      2211 1.23667E-03-1.64312E-02 5.08538E-02
 -1      2213 3.64148E-03 2.08560E-03 5.08547E-02
 -1      2214 1.47581E-03-2.75034E-02 7.11485E-02
 -1      2216 4.67478E-03-9.80814E-04 7.11662E-02
 -1      2217 2.28087E-03-3.89616E-02 8.92429E-02
 -1      2219 4.04836E-03-5.99294E-03 8.92181E-02
 -1      2220 2.12633E-03-4.88456E-02 9.98139E-02
 -1      2222 3.27701E-03-1.16572E-02 9.97630E-02
 -1      2223 1.56546E-03-5.55588E-02 1.04208E-01
 -1      2225 1.61953E-03-1.68033E-02 1.04146E-01
 -1      2226 5.24408E-04-5.76656E-02 1.01266E-01
 -1      2228-3.37266E-04-1.98392E-02 1.01178E-01
 -1      2229-7.47542E-04-5.43025E-02 9.16589E-02
 -1      2231-2.53148E-03-2.00793E-02 9.15833E-02
 -1      2232-1.98429E-03-4.54508E-02 7.58822E-02
 -1      2234-4.54303E-03-1.70457E-02 7.58078E-02
 -1      2235-2.94221E-03-3.18638E-02 5.50753E-02
 -1      2237-6.11124E-03-1.12648E-02 5.50319E-02
 -1      2238-3.40927E-03-1.51077E-02 3.05898E-02
 -1      2240-6.98082E-03-3.64168E-03 3.05695E-02
 -1      2241-3.30628E-03 2.84636E-03 4.04247E-03
 -1      2243-7.04258E-03 4.36626E-03 4.05810E-03
 -1      2244-2.66096E-03 1.98458E-02-2.28159E-02
 -1      2246-6.31842E-03 1.13586E-02-2.27760E-02
 -1      2247-1.63084E-03 3.40427E-02-4.82040E-02
 -1      2249-4.96198E-03 1.61034E-02-4.81420E-02
 -1      2250-4.42078E-04 4.41037E-02-7.04037E-02
 -1      2252-3.22203E-03 1.79597E-02-7.03343E-02
 -1      2253 6.51057E-04 4.94661E-02-8.78884E-02
 -1      2255-1.38189E-03 1.68882E-02-8.78195E-02
 -1      2256 1.43701E-03 5.02808E-02-9.94147E-02
 -1      2258 2.97076E-04 1.35164E-02-9.93570E-02
 -1      2259 1.79000E-03 4.73236E-02-1.04131E-01
 -1      2261 1.63155E-03 8.88652E-03-1.04088E-01
 -1      2262 1.70070E-03 4.16841E-02-1.01644E-01
 -1      2264 2.54346E-03 4.23321E-03-1.01618E-01
 -1      2265 1.27210E-03 3.45070E-02-9.20687E-02
 -1      2267 3.06442E-03 6.15928E-04-9.20554E-02
 -1      2268 6.88798E-04 2.66794E-02-7.60334E-02
 -1      2270 3.30950E-03-1.29892E-03-7.60282E-02
 -1      2271 1.68215E-04 1.87042E-02-5.46457E-02
 -1      2273 3.43354E-03-1.44171E-03-5.46414E-02
 -1      2274-9.99854E-05 1.06239E-02-2.94178E-02
 -1      2276 3.57775E-03-2.88002E-04-2.94112E-02
 -1      2277 1.23780E-06 2.17725E-03-2.14188E-03
 -1      2279 3.82996E-03 1.22366E-03-2.12946E-03
 -1      2280 4.85689E-04-7.05040E-03 2.52163E-02
 -1      2282 4.18678E-03 2.02185E-03 2.52312E-02
 -1      2283 1.26147E-03-1.73207E-02 5.07524E-02
 -1      2285 4.58780E-03 1.09901E-03 5.07677E-02
 -1      2286 2.18912E-03-2.86147E-02 7.25870E-02
 -1      2288 4.87347E-03-2.12300E-03 7.25961E-02
 -1      2289 3.04950E-03-4.04732E-02 8.94081E-02
 -1      2291 4.99316E-03-7.79459E-03 8.94073E-02
 -1      2292 3.85308E-03-5.21111E-02 9.97031E-02
 -1      2294 4.74611E-03-1.55408E-02 9.96960E-02
 -3
    1PSTEP                        78           1           1          
    1PGM                1.000000E+00                                  
    1PGK                2.226576E+07                                  
    1PHID                         -1                                  
    1PSUBC                         0                                  
    1PMODE                        20                                  
  100CL  120 750.9981907         930                     2   20MODAL      1
 -4  STRESS      6    1
 -5  SXX         1    4    1    1
 -5  SYY         1    4    2    2
 -5  SZZ         1    4    3    3
 -5  SXY         1    4    1    2
 -5  SYZ         1    4    2    3
 -5  SZX         1    4    3    1
 -1       404 4.51799E+09 5.27979E+08 4.40277E+06-5.79104E+08 1.81625E+07-1.75077E+09
 -1       406 4.51799E+09 5.27979E+08 4.40277E+06-5.79104E+08 1.81625E+07-1.75077E+09
 -1       407 2.17738E+08-1.20222E+08 7.68274E+05-7.80042E+07 4.24781E+07 4.26214E+07
 -1       409 2.17738E+08-1.20222E+08 7.68274E+05-7.80042E+07 4.24781E+07 4.26214E+07
 -1       410-2.28695E-03 1.99986E-03 5.46761E-05-1.57416E+08-9.17788E+08-2.42386E-05
 -1       412-2.28695E-03 1.99986E-03 5.46761E-05-1.57416E+08-9.17788E+08-2.42386E-05
 -1       413-3.11907E-03-3.52995E-05-3.68214E-03-1.47345E+07-1.21372E+09-5.63866E-03
 -1       415-3.11907E-03-3.52995E-05-3.68214E-03-1.47345E+07-1.21372E+09-5.63866E-03
 -1       424 2.54883E-02 4.42684E-03-6.27041E-05-8.50262E+08 3.35932E+08-2.90304E-04
 -1       426 2.54883E-02 4.42684E-03-6.27041E-05-8.50262E+08 3.35932E+08-2.90304E-04
 -1       427 1.79146E-02 3.52076E-05 9.75297E-03 1.20370E+08 1.69817E+08 1.71247E-02
 -1       429 1.79146E-02 3.52076E-05 9.75297E-03 1.20370E+08 1.69817E+08 1.71247E-02
 -1       438-2.17738E+08 1.20222E+08-7.68274E+05-7.80042E+07 4.24781E+07-4.26214E+07
 -1       440-2.17738E+08 1.20222E+08-7.68274E+05-7.80042E+07 4.24781E+07-4.26214E+07
 -1       441-4.51799E+09-5.27979E+08-4.40277E+06-5.79104E+08 1.81625E+07 1.75077E+09
 -1       443-4.51799E+09-5.27979E+08-4.40277E+06-5.79104E+08 1.81625E+07 1.75077E+09
 -1       444-1.49202E-02 8.12367E-05 2.69556E-04 1.20370E+08-1.69817E+08 3.04484E-02
 -1       446-1.49202E-02 8.12367E-05 2.69556E-04 1.20370E+08-1.69817E+08 3.04484E-02
 -1       447-2.05148E-02-2.08068E-03 1.08391E-04-8.50262E+08-3.35932E+08 2.16839E-03
 -1       449-2.05148E-02-2.08068E-03 1.08391E-04-8.50262E+08-3.35932E+08 2.16839E-03
 -1       458 1.31516E-03-7.03924E-04-1.26766E-02-1.47345E+07 1.21372E+09-6.95006E-03
 -1       460 1.31516E-03-7.03924E-04-1.26766E-02-1.47345E+07 1.21372E+09-6.95006E-03
 -1       461 4.09672E-03-1.50985E-03 1.38145E-04-1.57416E+08 9.17788E+08 1.75422E-04
 -1       463 4.09672E-03-1.50985E-03 1.38145E-04-1.57416E+08 9.17788E+08 1.75422E-04
 -1       472-4.51799E+09-5.27979E+08-4.40277E+06-5.79104E+08-1.81625E+07-1.75077E+09
 -1       474-4.51799E+09-5.27979E+08-4.40277E+06-5.79104E+08-1.81625E+07-1.75077E+09
 -1       475-2.17738E+08 1.20222E+08-7.68274E+05-7.80042E+07-4.24781E+07 4.26214E+07
 -1       477-2.17738E+08 1.20222E+08-7.68274E+05-7.80042E+07-4.24781E+07 4.26214E+07
 -1       478 2.17738E+08-1.20222E+08 7.68274E+05-7.80042E+07-4.24781E+07-4.26214E+07
 -1       480 2.17738E+08-1.20222E+08 7.68274E+05-7.80042E+07-4.24781E+07-4.26214E+07
 -1       481 4.51799E+09 5.27979E+08 4.40277E+06-5.79104E+08-1.81625E+07 1.75077E+09
 -1       483 4.51799E+09 5.27979E+08 4.40277E+06-5.79104E+08-1.81625E+07 1.75077E+09
 -1       484 3.92687E+09 1.46389E+08-1.19837E+06-3.19042E+08-1.45783E+07-6.04635E+08
 -1       486 3.92687E+09 1.46389E+08-1.19837E+06-3.19042E+08-1.45783E+07-6.04635E+08
 -1       487 2.76221E+09-1.25719E+08 5.09379E+06-2.48355E+08-7.97005E+06 1.35743E+07
 -1       489 2.76221E+09-1.25719E+08 5.09379E+06-2.48355E+08-7.97005E+06 1.35743E+07
 -1       490 1.25840E+09-5.58380E+07 1.48910E+06-4.50866E+08 2.52680E+07-2.43355E+08
 -1       492 1.25840E+09-5.58380E+07 1.48910E+06-4.50866E+08 2.52680E+07-2.43355E+08
 -1       493-6.29515E+08-9.48751E+07 3.27984E+05-4.68831E+08 1.88153E+07-6.52106E+07
 -1       495-6.29515E+08-9.48751E+07 3.27984E+05-4.68831E+08 1.88153E+07-6.52106E+07
 -1       496-2.55193E+09-1.05886E+08 3.75743E+05-4.59691E+08 2.80285E+07-7.98601E+07
 -1       498-2.55193E+09-1.05886E+08 3.75743E+05-4.59691E+08 2.80285E+07-7.98601E+07
 -1       499-4.22295E+09-1.05735E+08-3.05534E+06-3.53353E+08 2.67197E+07 2.88929E+06
 -1       501-4.22295E+09-1.05735E+08-3.05534E+06-3.53353E+08 2.67197E+07 2.88929E+06
 -1       502-5.26436E+09-1.03065E+08-1.88332E+06-1.62768E+08 2.55576E+07 4.28367E+07
 -1       504-5.26436E+09-1.03065E+08-1.88332E+06-1.62768E+08 2.55576E+07 4.28367E+07
 -1       505-5.45194E+09-9.35641E+07-4.13086E+06 6.05678E+07 2.35179E+07 9.89407E+07
 -1       507-5.45194E+09-9.35641E+07-4.13086E+06 6.05678E+07 2.35179E+07 9.89407E+07
 -1       508-4.70046E+09-7.49628E+07-2.11506E+06 2.86062E+08 1.77139E+07 1.39867E+08
 -1       510-4.70046E+09-7.49628E+07-2.11506E+06 2.86062E+08 1.77139E+07 1.39867E+08
 -1       511-3.13603E+09-5.59784E+07-2.40886E+06 4.54344E+08 1.33616E+07 1.74801E+08
 -1       513-3.13603E+09-5.59784E+07-2.40886E+06 4.54344E+08 1.33616E+07 1.74801E+08
 -1       514-1.04871E+09-2.90871E+07 4.88985E+04 5.36019E+08 5.43632E+06 1.96681E+08
 -1       516-1.04871E+09-2.90871E+07 4.88985E+04 5.36019E+08 5.43632E+06 1.96681E+08
 -1       517 1.15737E+09-3.65583E+06 7.28443E+05 5.10915E+08-6.49098E+05 2.05642E+08
 -1       519 1.15737E+09-3.65583E+06 7.28443E+05 5.10915E+08-6.49098E+05 2.05642E+08
 -1       520 3.06417E+09 2.50549E+07 2.55332E+06 3.89011E+08-9.08176E+06 2.00779E+08
 -1       522 3.06417E+09 2.50549E+07 2.55332E+06 3.89011E+08-9.08176E+06 2.00779E+08
 -1       523 4.32933E+09 5.06908E+07 2.74279E+06 1.99502E+08-1.54833E+07 1.82130E+08
 -1       525 4.32933E+09 5.06908E+07 2.74279E+06 1.99502E+08-1.54833E+07 1.82130E+08
 -1       526 4.76575E+09 7.48390E+07 3.07239E+06-1.22672E+07-2.27764E+07 1.51243E+08
 -1       528 4.76575E+09 7.48390E+07 3.07239E+06-1.22672E+07-2.27764E+07 1.51243E+08
 -1       529 4.37709E+09 9.35323E+07 2.12232E+06-1.97899E+08-2.75682E+07 1.09772E+08
 -1       531 4.37709E+09 9.35323E+07 2.12232E+06-1.97899E+08-2.75682E+07 1.09772E+08
 -1       532 3.35051E+09 1.06845E+08 1.19123E+06-3.16905E+08-3.18551E+07 6.07734E+07
 -1       534 3.35051E+09 1.06845E+08 1.19123E+06-3.16905E+08-3.18551E+07 6.07734E+07
 -1       535 2.00250E+09 1.12477E+08-2.71818E+05-3.46735E+08-3.30362E+07 7.34726E+06
 -1       537 2.00250E+09 1.12477E+08-2.71818E+05-3.46735E+08-3.30362E+07 7.34726E+06
 -1       538 6.96406E+08 1.10541E+08-1.26554E+06-2.87792E+08-3.27663E+07-4.66747E+07
 -1       540 6.96406E+08 1.10541E+08-1.26554E+06-2.87792E+08-3.27663E+07-4.66747E+07
 -1       541-2.50597E+08 1.00230E+08-2.04814E+06-1.62644E+08-2.91223E+07-9.76188E+07
 -1       543-2.50597E+08 1.00230E+08-2.04814E+06-1.62644E+08-2.91223E+07-9.76188E+07
 -1       544-6.44920E+08 8.27059E+07-2.00118E+06-9.87560E+06-2.39652E+07-1.41796E+08
 -1       546-6.44920E+08 8.27059E+07-2.00118E+06-9.87560E+06-2.39652E+07-1.41796E+08
 -1       547-4.60888E+08 5.85464E+07-1.53709E+06 1.26753E+08-1.59076E+07-1.76217E+08
 -1       549-4.60888E+08 5.85464E+07-1.53709E+06 1.26753E+08-1.59076E+07-1.76217E+08
 -1       550 1.61178E+08 3.00988E+07-4.20185E+05 2.09120E+08-7.26490E+06-1.98014E+08
 -1       552 1.61178E+08 3.00988E+07-4.20185E+05 2.09120E+08-7.26490E+06-1.98014E+08
 -1       553 9.60444E+08-8.46382E+05 6.76402E+05 2.16797E+08 3.04636E+06-2.06664E+08
 -1       555 9.60444E+08-8.46382E+05 6.76402E+05 2.16797E+08 3.04636E+06-2.06664E+08
 -1       556 1.63642E+09-3.20986E+07 1.84692E+06 1.49942E+08 1.25614E+07-1.99082E+08
 -1       558 1.63642E+09-3.20986E+07 1.84692E+06 1.49942E+08 1.25614E+07-1.99082E+08
 -1       559 1.94038E+09-5.99506E+07 2.40160E+06 3.51821E+07 2.20335E+07-1.81525E+08
 -1       561 1.94038E+09-5.99506E+07 2.40160E+06 3.51821E+07 2.20335E+07-1.81525E+08
 -1       562 1.76425E+09-8.57486E+07 2.55729E+06-8.60348E+07 3.01306E+07-1.42636E+08
 -1       564 1.76425E+09-8.57486E+07 2.55729E+06-8.60348E+07 3.01306E+07-1.42636E+08
 -1       565 1.18962E+09-1.02626E+08 2.10502E+06-1.61311E+08 3.58921E+07-1.12654E+08
 -1       567 1.18962E+09-1.02626E+08 2.10502E+06-1.61311E+08 3.58921E+07-1.12654E+08
 -1       568 5.21326E+08-1.13382E+08 1.08052E+06-1.28534E+08 4.15617E+07-3.49939E+07
 -1       570 5.21326E+08-1.13382E+08 1.08052E+06-1.28534E+08 4.15617E+07-3.49939E+07
 -1       571 1.15235E+08-2.15900E+08-1.23503E+06-1.17710E+08-4.37655E+08 3.45574E+07
 -1       573 1.15235E+08-2.15900E+08-1.23503E+06-1.17710E+08-4.37655E+08 3.45574E+07
 -1       574 1.85000E-02 2.04740E-03-4.95613E-05-6.01882E+08 1.85643E+07-3.22253E-04
 -1       576 1.85000E-02 2.04740E-03-4.95613E-05-6.01882E+08 1.85643E+07-3.22253E-04
 -1       577 1.15280E-02-1.50339E-04 8.37122E-03-2.31863E+07-4.53385E+07 1.69304E-02
 -1       579 1.15280E-02-1.50339E-04 8.37122E-03-2.31863E+07-4.53385E+07 1.69304E-02
 -1       588 7.00331E-03 2.86743E-04 2.81017E-05-6.68515E+08-4.52642E+08-6.25476E-04
 -1       590 7.00331E-03 2.86743E-04 2.81017E-05-6.68515E+08-4.52642E+08-6.25476E-04
 -1       591 1.39763E-03-1.52380E-04 2.42709E-03-9.04030E+07-5.33264E+08 1.45827E-02
 -1       593 1.39763E-03-1.52380E-04 2.42709E-03-9.04030E+07-5.33264E+08 1.45827E-02
 -1       602 1.13233E-03 1.36961E-03 2.08606E-04-9.43416E+08-6.24054E+08-6.07815E-04
 -1       604 1.13233E-03 1.36961E-03 2.08606E-04-9.43416E+08-6.24054E+08-6.07815E-04
 -1       605-3.67840E-03-2.26516E-04-1.05992E-02-3.52289E+07-8.60792E+08 1.07231E-02
 -1       607-3.67840E-03-2.26516E-04-1.05992E-02-3.52289E+07-8.60792E+08 1.07231E-02
 -1       616-3.10606E-03 1.73128E-03 1.89832E-04-1.02092E+09-7.82222E+08-4.29858E-04
 -1       618-3.10606E-03 1.73128E-03 1.89832E-04-1.02092E+09-7.82222E+08-4.29858E-04
 -1       619-7.58478E-03-5.16309E-04-2.90306E-02-4.41489E+07-1.05154E+09 2.70344E-03
 -1       621-7.58478E-03-5.16309E-04-2.90306E-02-4.41489E+07-1.05154E+09 2.70344E-03
 -1       630-7.55692E-03 1.54662E-03 2.51055E-04-1.01256E+09-9.01561E+08-2.63831E-04
 -1       632-7.55692E-03 1.54662E-03 2.51055E-04-1.01256E+09-9.01561E+08-2.63831E-04
 -1       633-1.19132E-02-4.82489E-04-3.86948E-02-1.65333E+07-1.22869E+09-1.06553E-02
 -1       635-1.19132E-02-4.82489E-04-3.86948E-02-1.65333E+07-1.22869E+09-1.06553E-02
 -1       644-9.65077E-03 1.37985E-04 1.25915E-05-7.49806E+08-9.31754E+08-3.15253E-06
 -1       646-9.65077E-03 1.37985E-04 1.25915E-05-7.49806E+08-9.31754E+08-3.15253E-06
 -1       647-1.36775E-02 3.25652E-07-2.79770E-02-2.00284E+06-1.28688E+09-1.97187E-02
 -1       649-1.36775E-02 3.25652E-07-2.79770E-02-2.00284E+06-1.28688E+09-1.97187E-02
 -1       658-1.05276E-02-1.65848E-03-2.02909E-04-3.61670E+08-9.22988E+08 1.50830E-04
 -1       660-1.05276E-02-1.65848E-03-2.02909E-04-3.61670E+08-9.22988E+08 1.50830E-04
 -1       661-1.34550E-02 2.97857E-04-1.03434E-02 1.58686E+07-1.27298E+09-1.82373E-02
 -1       663-1.34550E-02 2.97857E-04-1.03434E-02 1.58686E+07-1.27298E+09-1.82373E-02
 -1       672-1.17173E-02-1.78630E-03 4.36008E-05 1.40841E+08-8.30199E+08 2.86955E-04
 -1       674-1.17173E-02-1.78630E-03 4.36008E-05 1.40841E+08-8.30199E+08 2.86955E-04
 -1       675-1.23328E-02 4.31546E-05-6.01964E-03 3.38785E+07-1.16019E+09-1.63996E-02
 -1       677-1.23328E-02 4.31546E-05-6.01964E-03 3.38785E+07-1.16019E+09-1.63996E-02
 -1       686-1.25539E-02-1.09946E-03 2.38374E-04 6.19226E+08-6.94857E+08 2.06530E-04
 -1       688-1.25539E-02-1.09946E-03 2.38374E-04 6.19226E+08-6.94857E+08 2.06530E-04
 -1       689-1.02757E-02-2.14709E-04-1.33661E-02 4.64023E+07-9.65544E+08-2.53824E-02
 -1       691-1.02757E-02-2.14709E-04-1.33661E-02 4.64023E+07-9.65544E+08-2.53824E-02
 -1       700-9.54115E-03 3.43177E-04 1.46650E-04 9.89736E+08-4.99895E+08 2.34827E-04
 -1       702-9.54115E-03 3.43177E-04 1.46650E-04 9.89736E+08-4.99895E+08 2.34827E-04
 -1       703-6.33079E-03-4.55157E-04-1.38187E-02 5.92084E+07-7.00290E+08-3.73227E-02
 -1       705-6.33079E-03-4.55157E-04-1.38187E-02 5.92084E+07-7.00290E+08-3.73227E-02
 -1       714-1.15478E-03 1.80220E-03 1.77324E-05 1.16439E+09-2.78668E+08 2.26982E-04
 -1       716-1.15478E-03 1.80220E-03 1.77324E-05 1.16439E+09-2.78668E+08 2.26982E-04
 -1       717 2.25104E-03-7.09318E-06-6.86366E-04 6.52216E+07-3.83947E+08-3.89671E-02
 -1       719 2.25104E-03-7.09318E-06-6.86366E-04 6.52216E+07-3.83947E+08-3.89671E-02
 -1       728 9.15393E-03 4.72615E-04-8.94070E-08 1.11180E+09-3.26406E+07 2.18570E-04
 -1       730 9.15393E-03 4.72615E-04-8.94070E-08 1.11180E+09-3.26406E+07 2.18570E-04
 -1       731 1.34309E-02 2.84402E-04 1.39161E-02 6.93822E+07-4.32029E+07-2.67856E-02
 -1       733 1.34309E-02 2.84402E-04 1.39161E-02 6.93822E+07-4.32029E+07-2.67856E-02
 -1       742 1.65778E-02-1.94010E-03-3.98122E-04 8.48008E+08 2.10090E+08 1.41241E-04
 -1       744 1.65778E-02-1.94010E-03-3.98122E-04 8.48008E+08 2.10090E+08 1.41241E-04
 -1       745 2.00653E-02 2.92912E-04 2.00797E-02 6.72180E+07 2.97900E+08-9.68769E-03
 -1       747 2.00653E-02 2.92912E-04 2.00797E-02 6.72180E+07 2.97900E+08-9.68769E-03
 -1       756 2.19527E-02-9.61713E-04-4.57034E-04 4.38194E+08 4.40180E+08 5.60433E-05
 -1       758 2.19527E-02-9.61713E-04-4.57034E-04 4.38194E+08 4.40180E+08 5.60433E-05
 -1       759 2.16687E-02 1.32218E-04 2.06996E-02 6.18774E+07 6.11263E+08 2.00855E-03
 -1       761 2.16687E-02 1.32218E-04 2.06996E-02 6.18774E+07 6.11263E+08 2.00855E-03
 -1       770 2.76417E-02 2.60671E-03-3.61592E-04-2.02636E+07 6.35766E+08-6.86571E-05
 -1       772 2.76417E-02 2.60671E-03-3.61592E-04-2.02636E+07 6.35766E+08-6.86571E-05
 -1       773 2.38710E-02-4.80012E-05 2.22098E-02 5.13285E+07 8.76406E+08 8.79926E-03
 -1       775 2.38710E-02-4.80012E-05 2.22098E-02 5.13285E+07 8.76406E+08 8.79926E-03
 -1       784 2.70832E-02 4.55535E-03-3.11688E-04-4.22813E+08 7.88052E+08-1.52580E-04
 -1       786 2.70832E-02 4.55535E-03-3.11688E-04-4.22813E+08 7.88052E+08-1.52580E-04
 -1       787 2.31437E-02 1.34478E-04 2.17191E-02 3.77213E+07 1.07389E+09 1.57206E-02
 -1       789 2.31437E-02 1.34478E-04 2.17191E-02 3.77213E+07 1.07389E+09 1.57206E-02
 -1       798 1.64142E-02 2.57950E-03-2.76312E-04-6.81690E+08 8.83548E+08-1.50897E-04
 -1       800 1.64142E-02 2.57950E-03-2.76312E-04-6.81690E+08 8.83548E+08-1.50897E-04
 -1       801 1.44934E-02-3.56038E-05 1.20833E-02 2.07790E+07 1.19379E+09 2.02324E-02
 -1       803 1.44934E-02-3.56038E-05 1.20833E-02 2.07790E+07 1.19379E+09 2.02324E-02
 -1       812 3.96296E-03-1.24985E-03-5.39348E-05-7.48307E+08 9.19318E+08-2.46703E-04
 -1       814 3.96296E-03-1.24985E-03-5.39348E-05-7.48307E+08 9.19318E+08-2.46703E-04
 -1       815 4.33385E-03-4.78429E-05-1.22927E-03 2.29912E+06 1.22966E+09 1.69999E-02
 -1       817 4.33385E-03-4.78429E-05-1.22927E-03 2.29912E+06 1.22966E+09 1.69999E-02
 -1       826-7.28390E-03-3.61684E-03 1.24071E-04-6.23141E+08 8.91154E+08-3.56410E-04
 -1       828-7.28390E-03-3.61684E-03 1.24071E-04-6.23141E+08 8.91154E+08-3.56410E-04
 -1       829-4.24689E-03-2.14290E-04-7.65846E-03-1.68439E+07 1.18361E+09 1.18689E-02
 -1       831-4.24689E-03-2.14290E-04-7.65846E-03-1.68439E+07 1.18361E+09 1.18689E-02
 -1       840-2.12675E-02-3.45400E-03 2.10069E-05-3.54992E+08 8.04066E+08-3.28280E-04
 -1       842-2.12675E-02-3.45400E-03 2.10069E-05-3.54992E+08 8.04066E+08-3.28280E-04
 -1       843-1.49383E-02 9.71486E-05-9.52913E-03-3.50836E+07 1.06063E+09 1.37838E-02
 -1       845-1.49383E-02 9.71486E-05-9.52913E-03-3.50836E+07 1.06063E+09 1.37838E-02
 -1       854-3.61673E-02-1.49779E-03-3.58587E-05-2.66250E+07 6.61945E+08-2.20820E-04
 -1       856-3.61673E-02-1.49779E-03-3.58587E-05-2.66250E+07 6.61945E+08-2.20820E-04
 -1       857-2.87186E-02 1.27544E-04-1.48530E-02-5.09848E+07 8.71769E+08 1.81092E-02
 -1       859-2.87186E-02 1.27544E-04-1.48530E-02-5.09848E+07 8.71769E+08 1.81092E-02
 -1       868-4.65161E-02 7.00906E-04 2.34945E-04 2.66954E+08 4.77413E+08-1.84678E-04
 -1       870-4.65161E-02 7.00906E-04 2.34945E-04 2.66954E+08 4.77413E+08-1.84678E-04
 -1       871-4.08089E-02-4.06825E-04-1.88436E-02-6.35381E+07 6.29218E+08 1.48478E-02
 -1       873-4.08089E-02-4.06825E-04-1.88436E-02-6.35381E+07 6.29218E+08 1.48478E-02
 -1       882-4.76685E-02 2.34640E-03-1.35030E-04 4.45005E+08 2.59445E+08-9.64105E-05
 -1       884-4.76685E-02 2.34640E-03-1.35030E-04 4.45005E+08 2.59445E+08-9.64105E-05
 -1       885-4.40862E-02 3.16490E-05-1.26038E-02-7.13279E+07 3.48771E+08 5.98088E-03
 -1       887-4.40862E-02 3.16490E-05-1.26038E-02-7.13279E+07 3.48771E+08 5.98088E-03
 -1       896-4.31811E-02 3.64515E-03 2.45865E-04 4.60844E+08 2.67204E+07-5.15580E-05
 -1       898-4.31811E-02 3.64515E-03 2.45865E-04 4.60844E+08 2.67204E+07-5.15580E-05
 -1       899-4.10578E-02-5.02849E-04-2.56050E-03-7.43246E+07 4.67080E+07 1.31096E-03
 -1       901-4.10578E-02-5.02849E-04-2.56050E-03-7.43246E+07 4.67080E+07 1.31096E-03
 -1       910-3.94881E-02 2.15971E-03 2.66358E-05 3.19961E+08-2.11002E+08 1.04241E-04
 -1       912-3.94881E-02 2.15971E-03 2.66358E-05 3.19961E+08-2.11002E+08 1.04241E-04
 -1       913-3.56997E-02-2.80698E-04 2.49261E-03-7.16810E+07-2.59832E+08 5.63518E-04
 -1       915-3.56997E-02-2.80698E-04 2.49261E-03-7.16810E+07-2.59832E+08 5.63518E-04
 -1       924-3.45212E-02-1.16654E-03-2.20556E-04 7.20743E+07-4.30952E+08-2.52202E-05
 -1       926-3.45212E-02-1.16654E-03-2.20556E-04 7.20743E+07-4.30952E+08-2.52202E-05
 -1       927-2.88379E-02-1.51994E-05 4.16113E-03-6.41906E+07-5.50668E+08-2.06619E-03
 -1       929-2.88379E-02-1.51994E-05 4.16113E-03-6.41906E+07-5.50668E+08-2.06619E-03
 -1       938-2.70430E-02-8.52451E-04-2.35212E-04-1.82387E+08-6.27079E+08-3.30657E-05
 -1       940-2.70430E-02-8.52451E-04-2.35212E-04-1.82387E+08-6.27079E+08-3.30657E-05
 -1       941-2.31416E-02-5.31070E-04 4.66247E-03-5.25969E+07-8.11788E+08-3.01527E-03
 -1       943-2.31416E-02-5.31070E-04 4.66247E-03-5.25969E+07-8.11788E+08-3.01527E-03
 -1       952-1.72151E-02 3.05043E-03-5.82227E-04-3.38188E+08-7.76836E+08 2.79397E-06
 -1       954-1.72151E-02 3.05043E-03-5.82227E-04-3.38188E+08-7.76836E+08 2.79397E-06
 -1       955-1.67144E-02-3.99329E-04 2.13278E-03-3.64294E+07-1.01686E+09-2.78349E-03
 -1       957-1.67144E-02-3.99329E-04 2.13278E-03-3.64294E+07-1.01686E+09-2.78349E-03
 -1       966-6.78174E-03 3.72559E-03 1.21174E-04-2.69897E+08-8.72624E+08-1.15241E-04
 -1       968-6.78174E-03 3.72559E-03 1.21174E-04-2.69897E+08-8.72624E+08-1.15241E-04
 -1       969-7.90400E-03-3.63364E-04-2.01136E-03-2.13715E+07-1.15682E+09-4.63809E-03
 -1       971-7.90400E-03-3.63364E-04-2.01136E-03-2.13715E+07-1.15682E+09-4.63809E-03
 -1       980 3.03105E+09 6.49786E+08 3.55827E+06-7.14683E+08 1.77047E+08-7.91149E+08
 -1       982 3.03105E+09 6.49786E+08 3.55827E+06-7.14683E+08 1.77047E+08-7.91149E+08
 -1       983-1.15235E+08 2.15900E+08 1.23503E+06-1.17710E+08-4.37655E+08-3.45574E+07
 -1       985-1.15235E+08 2.15900E+08 1.23503E+06-1.17710E+08-4.37655E+08-3.45574E+07
 -1       986-3.92687E+09-1.46389E+08 1.19837E+06-3.19042E+08-1.45783E+07 6.04635E+08
 -1       988-3.92687E+09-1.46389E+08 1.19837E+06-3.19042E+08-1.45783E+07 6.04635E+08
 -1       989-2.76221E+09 1.25719E+08-5.09379E+06-2.48355E+08-7.97005E+06-1.35743E+07
 -1       991-2.76221E+09 1.25719E+08-5.09379E+06-2.48355E+08-7.97005E+06-1.35743E+07
 -1       992-1.25840E+09 5.58380E+07-1.48910E+06-4.50866E+08 2.52680E+07 2.43355E+08
 -1       994-1.25840E+09 5.58380E+07-1.48910E+06-4.50866E+08 2.52680E+07 2.43355E+08
 -1       995 6.29515E+08 9.48751E+07-3.27984E+05-4.68831E+08 1.88153E+07 6.52106E+07
 -1       997 6.29515E+08 9.48751E+07-3.27984E+05-4.68831E+08 1.88153E+07 6.52106E+07
 -1       998 2.55193E+09 1.05886E+08-3.75743E+05-4.59691E+08 2.80285E+07 7.98601E+07
 -1      1000 2.55193E+09 1.05886E+08-3.75743E+05-4.59691E+08 2.80285E+07 7.98601E+07
 -1      1001 4.22295E+09 1.05735E+08 3.05534E+06-3.53353E+08 2.67197E+07-2.88929E+06
 -1      1003 4.22295E+09 1.05735E+08 3.05534E+06-3.53353E+08 2.67197E+07-2.88929E+06
 -1      1004 5.26436E+09 1.03065E+08 1.88332E+06-1.62768E+08 2.55576E+07-4.28367E+07
 -1      1006 5.26436E+09 1.03065E+08 1.88332E+06-1.62768E+08 2.55576E+07-4.28367E+07
 -1      1007 5.45194E+09 9.35641E+07 4.13086E+06 6.05678E+07 2.35179E+07-9.89407E+07
 -1      1009 5.45194E+09 9.35641E+07 4.13086E+06 6.05678E+07 2.35179E+07-9.89407E+07
 -1      1010 4.70046E+09 7.49628E+07 2.11506E+06 2.86062E+08 1.77139E+07-1.39867E+08
 -1      1012 4.70046E+09 7.49628E+07 2.11506E+06 2.86062E+08 1.77139E+07-1.39867E+08
 -1      1013 3.13603E+09 5.59784E+07 2.40886E+06 4.54344E+08 1.33616E+07-1.74801E+08
 -1      1015 3.13603E+09 5.59784E+07 2.40886E+06 4.54344E+08 1.33616E+07-1.74801E+08
 -1      1016 1.04871E+09 2.90871E+07-4.88985E+04 5.36019E+08 5.43632E+06-1.96681E+08
 -1      1018 1.04871E+09 2.90871E+07-4.88985E+04 5.36019E+08 5.43632E+06-1.96681E+08
 -1      1019-1.15737E+09 3.65583E+06-7.28443E+05 5.10915E+08-6.49098E+05-2.05642E+08
 -1      1021-1.15737E+09 3.65583E+06-7.28443E+05 5.10915E+08-6.49098E+05-2.05642E+08
 -1      1022-3.06417E+09-2.50549E+07-2.55332E+06 3.89011E+08-9.08176E+06-2.00779E+08
 -1      1024-3.06417E+09-2.50549E+07-2.55332E+06 3.89011E+08-9.08176E+06-2.00779E+08
 -1      1025-4.32933E+09-5.06908E+07-2.74279E+06 1.99502E+08-1.54833E+07-1.82130E+08
 -1      1027-4.32933E+09-5.06908E+07-2.74279E+06 1.99502E+08-1.54833E+07-1.82130E+08
 -1      1028-4.76575E+09-7.48390E+07-3.07239E+06-1.22672E+07-2.27764E+07-1.51243E+08
 -1      1030-4.76575E+09-7.48390E+07-3.07239E+06-1.22672E+07-2.27764E+07-1.51243E+08
 -1      1031-4.37709E+09-9.35323E+07-2.12232E+06-1.97899E+08-2.75682E+07-1.09772E+08
 -1      1033-4.37709E+09-9.35323E+07-2.12232E+06-1.97899E+08-2.75682E+07-1.09772E+08
 -1      1034-3.35051E+09-1.06845E+08-1.19123E+06-3.16905E+08-3.18551E+07-6.07734E+07
 -1      1036-3.35051E+09-1.06845E+08-1.19123E+06-3.16905E+08-3.18551E+07-6.07734E+07
 -1      1037-2.00250E+09-1.12477E+08 2.71818E+05-3.46735E+08-3.30362E+07-7.34726E+06
 -1      1039-2.00250E+09-1.12477E+08 2.71818E+05-3.46735E+08-3.30362E+07-7.34726E+06
 -1      1040-6.96406E+08-1.10541E+08 1.26554E+06-2.87792E+08-3.27663E+07 4.66747E+07
 -1      1042-6.96406E+08-1.10541E+08 1.26554E+06-2.87792E+08-3.27663E+07 4.66747E+07
 -1      1043 2.50597E+08-1.00230E+08 2.04814E+06-1.62644E+08-2.91223E+07 9.76188E+07
 -1      1045 2.50597E+08-1.00230E+08 2.04814E+06-1.62644E+08-2.91223E+07 9.76188E+07
 -1      1046 6.44920E+08-8.27059E+07 2.00118E+06-9.87560E+06-2.39652E+07 1.41796E+08
 -1      1048 6.44920E+08-8.27059E+07 2.00118E+06-9.87560E+06-2.39652E+07 1.41796E+08
 -1      1049 4.60888E+08-5.85464E+07 1.53709E+06 1.26753E+08-1.59076E+07 1.76217E+08
 -1      1051 4.60888E+08-5.85464E+07 1.53709E+06 1.26753E+08-1.59076E+07 1.76217E+08
 -1      1052-1.61178E+08-3.00988E+07 4.20185E+05 2.09120E+08-7.26490E+06 1.98014E+08
 -1      1054-1.61178E+08-3.00988E+07 4.20185E+05 2.09120E+08-7.26490E+06 1.98014E+08
 -1      1055-9.60444E+08 8.46382E+05-6.76402E+05 2.16797E+08 3.04636E+06 2.06664E+08
 -1      1057-9.60444E+08 8.46382E+05-6.76402E+05 2.16797E+08 3.04636E+06 2.06664E+08
 -1      1058-1.63642E+09 3.20986E+07-1.84692E+06 1.49942E+08 1.25614E+07 1.99082E+08
 -1      1060-1.63642E+09 3.20986E+07-1.84692E+06 1.49942E+08 1.25614E+07 1.99082E+08
 -1      1061-1.94038E+09 5.99506E+07-2.40160E+06 3.51821E+07 2.20335E+07 1.81525E+08
 -1      1063-1.94038E+09 5.99506E+07-2.40160E+06 3.51821E+07 2.20335E+07 1.81525E+08
 -1      1064-1.76425E+09 8.57486E+07-2.55729E+06-8.60348E+07 3.01306E+07 1.42636E+08
 -1      1066-1.76425E+09 8.57486E+07-2.55729E+06-8.60348E+07 3.01306E+07 1.42636E+08
 -1      1067-1.18962E+09 1.02626E+08-2.10502E+06-1.61311E+08 3.58921E+07 1.12654E+08
 -1      1069-1.18962E+09 1.02626E+08-2.10502E+06-1.61311E+08 3.58921E+07 1.12654E+08
 -1      1070-5.21326E+08 1.13382E+08-1.08052E+06-1.28534E+08 4.15617E+07 3.49939E+07
 -1      1072-5.21326E+08 1.13382E+08-1.08052E+06-1.28534E+08 4.15617E+07 3.49939E+07
 -1      1073-3.03105E+09-6.49786E+08-3.55827E+06-7.14683E+08 1.77047E+08 7.91149E+08
 -1      1075-3.03105E+09-6.49786E+08-3.55827E+06-7.14683E+08 1.77047E+08 7.91149E+08
 -1      1076 7.42862E-03-8.56940E-05 6.87684E-03 5.69924E+08-4.02812E+07 2.00505E-02
 -1      1078 7.42862E-03-8.56940E-05 6.87684E-03 5.69924E+08-4.02812E+07 2.00505E-02
 -1      1079-5.79384E-03 9.17911E-05 3.30204E-03 1.01948E+09-1.62125E-05 2.64571E-02
 -1      1081-5.79384E-03 9.17911E-05 3.30204E-03 1.01948E+09-1.62125E-05 2.64571E-02
 -1      1082-1.17253E-02 2.35707E-04 1.43647E-03 5.69924E+08 4.02812E+07 3.01932E-02
 -1      1084-1.17253E-02 2.35707E-04 1.43647E-03 5.69924E+08 4.02812E+07 3.01932E-02
 -1      1085-1.32461E-02 2.42523E-04 5.50581E-03-2.31863E+07 4.53385E+07 2.75216E-02
 -1      1087-1.32461E-02 2.42523E-04 5.50581E-03-2.31863E+07 4.53385E+07 2.75216E-02
 -1      1088-1.75521E-02-1.28621E-03 8.05408E-06-6.01882E+08-1.85643E+07 4.71063E-04
 -1      1090-1.75521E-02-1.28621E-03 8.05408E-06-6.01882E+08-1.85643E+07 4.71063E-04
 -1      1099-9.99273E-03-1.14569E-04 9.22225E-03-9.04030E+07 5.33264E+08 1.86924E-02
 -1      1101-9.99273E-03-1.14569E-04 9.22225E-03-9.04030E+07 5.33264E+08 1.86924E-02
 -1      1102-1.01017E-02-1.37283E-03-1.96956E-05-6.68515E+08 4.52642E+08-2.91437E-04
 -1      1104-1.01017E-02-1.37283E-03-1.96956E-05-6.68515E+08 4.52642E+08-2.91437E-04
 -1      1113-3.86411E-03-2.64814E-04 3.91398E-03-3.52289E+07 8.60792E+08 1.00732E-02
 -1      1115-3.86411E-03-2.64814E-04 3.91398E-03-3.52289E+07 8.60792E+08 1.00732E-02
 -1      1116-1.63376E-03-3.85750E-04-4.82621E-05-9.43416E+08 6.24054E+08 2.60614E-04
 -1      1118-1.63376E-03-3.85750E-04-4.82621E-05-9.43416E+08 6.24054E+08 2.60614E-04
 -1      1127 3.68115E-03 6.38930E-04-2.71712E-03-4.41489E+07 1.05154E+09 1.25018E-03
 -1      1129 3.68115E-03 6.38930E-04-2.71712E-03-4.41489E+07 1.05154E+09 1.25018E-03
 -1      1130 4.67801E-03 1.46687E-03-6.52680E-05-1.02092E+09 7.82222E+08 1.27081E-04
 -1      1132 4.67801E-03 1.46687E-03-6.52680E-05-1.02092E+09 7.82222E+08 1.27081E-04
 -1      1141 8.04854E-03 5.89560E-04-9.65826E-03-1.65333E+07 1.22869E+09-4.98950E-03
 -1      1143 8.04854E-03 5.89560E-04-9.65826E-03-1.65333E+07 1.22869E+09-4.98950E-03
 -1      1144 9.64510E-03-2.00696E-04 5.85392E-05-1.01256E+09 9.01561E+08 1.92235E-04
 -1      1146 9.64510E-03-2.00696E-04 5.85392E-05-1.01256E+09 9.01561E+08 1.92235E-04
 -1      1155 1.10677E-02-1.22378E-04-1.11647E-02-2.00284E+06 1.28688E+09-1.62043E-03
 -1      1157 1.10677E-02-1.22378E-04-1.11647E-02-2.00284E+06 1.28688E+09-1.62043E-03
 -1      1158 1.42295E-02-1.79213E-03-3.11583E-05-7.49806E+08 9.31754E+08 2.33357E-04
 -1      1160 1.42295E-02-1.79213E-03-3.11583E-05-7.49806E+08 9.31754E+08 2.33357E-04
 -1      1169 1.37702E-02 2.96602E-04-2.21223E-03 1.58686E+07 1.27298E+09-5.12086E-04
 -1      1171 1.37702E-02 2.96602E-04-2.21223E-03 1.58686E+07 1.27298E+09-5.12086E-04
 -1      1172 1.76552E-02-1.33915E-03 1.29491E-04-3.61670E+08 9.22988E+08 2.53815E-04
 -1      1174 1.76552E-02-1.33915E-03 1.29491E-04-3.61670E+08 9.22988E+08 2.53815E-04
 -1      1183 1.61447E-02 5.28253E-04 3.33533E-03 3.38785E+07 1.16019E+09-1.11131E-02
 -1      1185 1.61447E-02 5.28253E-04 3.33533E-03 3.38785E+07 1.16019E+09-1.11131E-02
 -1      1186 2.15017E-02-1.40699E-03-6.23167E-05 1.40841E+08 8.30199E+08 1.31283E-04
 -1      1188 2.15017E-02-1.40699E-03-6.23167E-05 1.40841E+08 8.30199E+08 1.31283E-04
 -1      1197 1.78050E-02 2.63830E-04-3.98587E-03 4.64023E+07 9.65544E+08-2.57954E-02
 -1      1199 1.78050E-02 2.63830E-04-3.98587E-03 4.64023E+07 9.65544E+08-2.57954E-02
 -1      1200 2.25880E-02-1.73917E-03-4.41730E-04 6.19226E+08 6.94857E+08 9.63956E-05
 -1      1202 2.25880E-02-1.73917E-03-4.41730E-04 6.19226E+08 6.94857E+08 9.63956E-05
 -1      1211 1.23494E-02-1.42466E-04-1.37180E-02 5.92084E+07 7.00290E+08-3.18328E-02
 -1      1213 1.23494E-02-1.42466E-04-1.37180E-02 5.92084E+07 7.00290E+08-3.18328E-02
 -1      1214 1.30811E-02-2.00762E-03-1.82837E-04 9.89736E+08 4.99895E+08-7.42748E-05
 -1      1216 1.30811E-02-2.00762E-03-1.82837E-04 9.89736E+08 4.99895E+08-7.42748E-05
 -1      1225 1.02426E-04 4.77558E-05-1.09011E-02 6.52216E+07 3.83947E+08-2.71505E-02
 -1      1227 1.02426E-04 4.77558E-05-1.09011E-02 6.52216E+07 3.83947E+08-2.71505E-02
 -1      1228-3.39859E-03-2.73247E-03-7.94772E-05 1.16439E+09 2.78668E+08-1.33380E-04
 -1      1230-3.39859E-03-2.73247E-03-7.94772E-05 1.16439E+09 2.78668E+08-1.33380E-04
 -1      1239-8.65291E-03 1.56248E-04 2.51448E-03 6.93822E+07 4.32029E+07-2.01794E-02
 -1      1241-8.65291E-03 1.56248E-04 2.51448E-03 6.93822E+07 4.32029E+07-2.01794E-02
 -1      1242-1.48522E-02-1.76158E-03-4.99655E-05 1.11180E+09 3.26406E+07-1.35630E-04
 -1      1244-1.48522E-02-1.76158E-03-4.99655E-05 1.11180E+09 3.26406E+07-1.35630E-04
 -1      1253-1.23270E-02 5.17580E-04 1.05599E-02 6.72180E+07-2.97900E+08-1.42911E-02
 -1      1255-1.23270E-02 5.17580E-04 1.05599E-02 6.72180E+07-2.97900E+08-1.42911E-02
 -1      1256-2.05562E-02-3.52591E-04-9.20147E-06 8.48008E+08-2.10090E+08-1.19939E-04
 -1      1258-2.05562E-02-3.52591E-04-9.20147E-06 8.48008E+08-2.10090E+08-1.19939E-04
 -1      1267-1.46414E-02 9.08357E-04 9.64508E-03 6.18774E+07-6.11263E+08-5.15669E-03
 -1      1269-1.46414E-02 9.08357E-04 9.64508E-03 6.18774E+07-6.11263E+08-5.15669E-03
 -1      1270-2.46377E-02-1.00738E-03 4.89354E-05 4.38194E+08-4.40180E+08 1.67638E-06
 -1      1272-2.46377E-02-1.00738E-03 4.89354E-05 4.38194E+08-4.40180E+08 1.67638E-06
 -1      1281-1.41680E-02 1.54226E-04 1.07963E-02 5.13285E+07-8.76406E+08 6.05949E-03
 -1      1283-1.41680E-02 1.54226E-04 1.07963E-02 5.13285E+07-8.76406E+08 6.05949E-03
 -1      1284-2.31516E-02-5.76451E-04 6.24657E-05-2.02636E+07-6.35766E+08 7.95871E-05
 -1      1286-2.31516E-02-5.76451E-04 6.24657E-05-2.02636E+07-6.35766E+08 7.95871E-05
 -1      1295-8.00104E-03 1.45931E-04 1.67253E-02 3.77213E+07-1.07389E+09 1.18320E-02
 -1      1297-8.00104E-03 1.45931E-04 1.67253E-02 3.77213E+07-1.07389E+09 1.18320E-02
 -1      1298-1.33217E-02 1.08828E-03-2.81632E-04-4.22813E+08-7.88052E+08 8.40649E-05
 -1      1300-1.33217E-02 1.08828E-03-2.81632E-04-4.22813E+08-7.88052E+08 8.40649E-05
 -1      1309 1.58397E-03-8.32157E-05 1.69458E-02 2.07790E+07-1.19379E+09 1.01345E-02
 -1      1311 1.58397E-03-8.32157E-05 1.69458E-02 2.07790E+07-1.19379E+09 1.01345E-02
 -1      1312-5.80758E-04 3.38033E-04-3.50669E-04-6.81690E+08-8.83548E+08 8.93921E-05
 -1      1314-5.80758E-04 3.38033E-04-3.50669E-04-6.81690E+08-8.83548E+08 8.93921E-05
 -1      1323 8.46335E-03-3.83668E-04 6.88889E-03 2.29912E+06-1.22966E+09 8.05768E-03
 -1      1325 8.46335E-03-3.83668E-04 6.88889E-03 2.29912E+06-1.22966E+09 8.05768E-03
 -1      1326 9.14711E-03 1.52081E-04-7.08327E-05-7.48307E+08-9.19318E+08 8.94275E-05
 -1      1328 9.14711E-03 1.52081E-04-7.08327E-05-7.48307E+08-9.19318E+08 8.94275E-05
 -1      1337 1.24327E-02-6.93817E-04-6.11895E-03-1.68439E+07-1.18361E+09 9.35851E-03
 -1      1339 1.24327E-02-6.93817E-04-6.11895E-03-1.68439E+07-1.18361E+09 9.35851E-03
 -1      1340 1.70896E-02 3.46787E-03-1.98878E-04-6.23141E+08-8.91154E+08 1.52756E-04
 -1      1342 1.70896E-02 3.46787E-03-1.98878E-04-6.23141E+08-8.91154E+08 1.52756E-04
 -1      1351 1.46809E-02-7.85508E-04-1.68330E-02-3.50836E+07-1.06063E+09 1.01079E-02
 -1      1353 1.46809E-02-7.85508E-04-1.68330E-02-3.50836E+07-1.06063E+09 1.01079E-02
 -1      1354 2.25565E-02 4.69884E-03-5.61476E-05-3.54992E+08-8.04066E+08 1.03123E-04
 -1      1356 2.25565E-02 4.69884E-03-5.61476E-05-3.54992E+08-8.04066E+08 1.03123E-04
 -1      1365 1.24688E-02 6.53076E-05-2.28204E-02-5.09848E+07-8.71769E+08 1.28637E-02
 -1      1367 1.24688E-02 6.53076E-05-2.28204E-02-5.09848E+07-8.71769E+08 1.28637E-02
 -1      1368 2.15323E-02 1.87001E-03 1.67983E-05-2.66250E+07-6.61945E+08-7.67857E-05
 -1      1370 2.15323E-02 1.87001E-03 1.67983E-05-2.66250E+07-6.61945E+08-7.67857E-05
 -1      1379 9.83936E-03 5.33753E-04-1.38111E-02-6.35381E+07-6.29218E+08 1.85054E-02
 -1      1381 9.83936E-03 5.33753E-04-1.38111E-02-6.35381E+07-6.29218E+08 1.85054E-02
 -1      1382 1.89927E-02 1.47692E-03 2.61618E-05 2.66954E+08-4.77413E+08-1.05642E-04
 -1      1384 1.89927E-02 1.47692E-03 2.61618E-05 2.66954E+08-4.77413E+08-1.05642E-04
 -1      1393 1.14100E-02 9.68652E-05 1.01050E-02-7.13279E+07-3.48771E+08 1.40961E-02
 -1      1395 1.14100E-02 9.68652E-05 1.01050E-02-7.13279E+07-3.48771E+08 1.40961E-02
 -1      1396 1.92130E-02 2.59962E-03-8.56314E-05 4.45005E+08-2.59445E+08-4.25950E-05
 -1      1398 1.92130E-02 2.59962E-03-8.56314E-05 4.45005E+08-2.59445E+08-4.25950E-05
 -1      1407 1.17975E-02 1.37058E-04 2.45397E-02-7.43246E+07-4.67080E+07-1.66516E-03
 -1      1409 1.17975E-02 1.37058E-04 2.45397E-02-7.43246E+07-4.67080E+07-1.66516E-03
 -1      1410 1.72889E-02 7.50694E-04-5.98766E-05 4.60844E+08-2.67204E+07-1.96099E-05
 -1      1412 1.72889E-02 7.50694E-04-5.98766E-05 4.60844E+08-2.67204E+07-1.96099E-05
 -1      1421 8.42041E-03-2.17319E-04 1.63459E-02-7.16810E+07 2.59832E+08-1.00511E-02
 -1      1423 8.42041E-03-2.17319E-04 1.63459E-02-7.16810E+07 2.59832E+08-1.00511E-02
 -1      1424 1.27974E-02-1.18700E-03-1.04792E-05 3.19961E+08 2.11002E+08 8.74251E-05
 -1      1426 1.27974E-02-1.18700E-03-1.04792E-05 3.19961E+08 2.11002E+08 8.74251E-05
 -1      1435 6.88801E-03-3.51380E-04 5.54095E-03-6.41906E+07 5.50668E+08-5.01159E-03
 -1      1437 6.88801E-03-3.51380E-04 5.54095E-03-6.41906E+07 5.50668E+08-5.01159E-03
 -1      1438 1.12657E-02-1.44608E-03-3.60198E-05 7.20743E+07 4.30952E+08 2.28934E-04
 -1      1440 1.12657E-02-1.44608E-03-3.60198E-05 7.20743E+07 4.30952E+08 2.28934E-04
 -1      1449 7.89224E-03 4.91230E-04 6.10197E-03-5.25969E+07 8.11788E+08-6.45619E-04
 -1      1451 7.89224E-03 4.91230E-04 6.10197E-03-5.25969E+07 8.11788E+08-6.45619E-04
 -1      1452 1.23819E-02-1.93879E-03-4.06845E-04-1.82387E+08 6.27079E+08 2.54449E-04
 -1      1454 1.23819E-02-1.93879E-03-4.06845E-04-1.82387E+08 6.27079E+08 2.54449E-04
 -1      1463 7.38739E-03 3.42794E-04 5.72346E-03-3.64294E+07 1.01686E+09-4.13230E-03
 -1      1465 7.38739E-03 3.42794E-04 5.72346E-03-3.64294E+07 1.01686E+09-4.13230E-03
 -1      1466 1.13847E-02-2.30266E-03-3.87876E-04-3.38188E+08 7.76836E+08 1.56924E-04
 -1      1468 1.13847E-02-2.30266E-03-3.87876E-04-3.38188E+08 7.76836E+08 1.56924E-04
 -1      1477 3.87994E-03-3.26304E-04-4.88990E-03-2.13715E+07 1.15682E+09-7.18861E-03
 -1      1479 3.87994E-03-3.26304E-04-4.88990E-03-2.13715E+07 1.15682E+09-7.18861E-03
 -1      1480 6.97416E-03-1.79610E-03 2.50565E-04-2.69897E+08 8.72624E+08 1.36192E-04
 -1      1482 6.97416E-03-1.79610E-03 2.50565E-04-2.69897E+08 8.72624E+08 1.36192E-04
 -1      1491-2.22725E-03-1.22397E-04-3.54312E-03-1.93359E+07-4.02768E+08-3.87474E-03
 -1      1493-2.22725E-03-1.22397E-04-3.54312E-03-1.93359E+07-4.02768E+08-3.87474E-03
 -1      1494-3.55776E-05-3.20995E-04-4.60932E-03-2.39372E+07 2.17468E-04-4.26778E-03
 -1      1496-3.55776E-05-3.20995E-04-4.60932E-03-2.39372E+07 2.17468E-04-4.26778E-03
 -1      1497 1.28972E-03-5.68210E-04-9.24557E-03-1.93359E+07 4.02768E+08-6.68739E-03
 -1      1499 1.28972E-03-5.68210E-04-9.24557E-03-1.93359E+07 4.02768E+08-6.68739E-03
 -1      1500-3.92687E+09-1.46389E+08 1.19837E+06-3.19042E+08 1.45783E+07-6.04635E+08
 -1      1502-3.92687E+09-1.46389E+08 1.19837E+06-3.19042E+08 1.45783E+07-6.04635E+08
 -1      1503-2.76221E+09 1.25719E+08-5.09379E+06-2.48355E+08 7.97005E+06 1.35743E+07
 -1      1505-2.76221E+09 1.25719E+08-5.09379E+06-2.48355E+08 7.97005E+06 1.35743E+07
 -1      1506-1.25840E+09 5.58380E+07-1.48910E+06-4.50866E+08-2.52680E+07-2.43355E+08
 -1      1508-1.25840E+09 5.58380E+07-1.48910E+06-4.50866E+08-2.52680E+07-2.43355E+08
 -1      1509 6.29515E+08 9.48751E+07-3.27984E+05-4.68831E+08-1.88153E+07-6.52106E+07
 -1      1511 6.29515E+08 9.48751E+07-3.27984E+05-4.68831E+08-1.88153E+07-6.52106E+07
 -1      1512 2.55193E+09 1.05886E+08-3.75743E+05-4.59691E+08-2.80285E+07-7.98601E+07
 -1      1514 2.55193E+09 1.05886E+08-3.75743E+05-4.59691E+08-2.80285E+07-7.98601E+07
 -1      1515 4.22295E+09 1.05735E+08 3.05534E+06-3.53353E+08-2.67197E+07 2.88929E+06
 -1      1517 4.22295E+09 1.05735E+08 3.05534E+06-3.53353E+08-2.67197E+07 2.88929E+06
 -1      1518 5.26436E+09 1.03065E+08 1.88332E+06-1.62768E+08-2.55576E+07 4.28367E+07
 -1      1520 5.26436E+09 1.03065E+08 1.88332E+06-1.62768E+08-2.55576E+07 4.28367E+07
 -1      1521 5.45194E+09 9.35641E+07 4.13086E+06 6.05678E+07-2.35179E+07 9.89407E+07
 -1      1523 5.45194E+09 9.35641E+07 4.13086E+06 6.05678E+07-2.35179E+07 9.89407E+07
 -1      1524 4.70046E+09 7.49628E+07 2.11506E+06 2.86062E+08-1.77139E+07 1.39867E+08
 -1      1526 4.70046E+09 7.49628E+07 2.11506E+06 2.86062E+08-1.77139E+07 1.39867E+08
 -1      1527 3.13603E+09 5.59784E+07 2.40886E+06 4.54344E+08-1.33616E+07 1.74801E+08
 -1      1529 3.13603E+09 5.59784E+07 2.40886E+06 4.54344E+08-1.33616E+07 1.74801E+08
 -1      1530 1.04871E+09 2.90871E+07-4.88985E+04 5.36019E+08-5.43632E+06 1.96681E+08
 -1      1532 1.04871E+09 2.90871E+07-4.88985E+04 5.36019E+08-5.43632E+06 1.96681E+08
 -1      1533-1.15737E+09 3.65583E+06-7.28443E+05 5.10915E+08 6.49098E+05 2.05642E+08
 -1      1535-1.15737E+09 3.65583E+06-7.28443E+05 5.10915E+08 6.49098E+05 2.05642E+08
 -1      1536-3.06417E+09-2.50549E+07-2.55332E+06 3.89011E+08 9.08176E+06 2.00779E+08
 -1      1538-3.06417E+09-2.50549E+07-2.55332E+06 3.89011E+08 9.08176E+06 2.00779E+08
 -1      1539-4.32933E+09-5.06908E+07-2.74279E+06 1.99502E+08 1.54833E+07 1.82130E+08
 -1      1541-4.32933E+09-5.06908E+07-2.74279E+06 1.99502E+08 1.54833E+07 1.82130E+08
 -1      1542-4.76575E+09-7.48390E+07-3.07239E+06-1.22672E+07 2.27764E+07 1.51243E+08
 -1      1544-4.76575E+09-7.48390E+07-3.07239E+06-1.22672E+07 2.27764E+07 1.51243E+08
 -1      1545-4.37709E+09-9.35323E+07-2.12232E+06-1.97899E+08 2.75682E+07 1.09772E+08
 -1      1547-4.37709E+09-9.35323E+07-2.12232E+06-1.97899E+08 2.75682E+07 1.09772E+08
 -1      1548-3.35051E+09-1.06845E+08-1.19123E+06-3.16905E+08 3.18551E+07 6.07734E+07
 -1      1550-3.35051E+09-1.06845E+08-1.19123E+06-3.16905E+08 3.18551E+07 6.07734E+07
 -1      1551-2.00250E+09-1.12477E+08 2.71818E+05-3.46735E+08 3.30362E+07 7.34726E+06
 -1      1553-2.00250E+09-1.12477E+08 2.71818E+05-3.46735E+08 3.30362E+07 7.34726E+06
 -1      1554-6.96406E+08-1.10541E+08 1.26554E+06-2.87792E+08 3.27663E+07-4.66747E+07
 -1      1556-6.96406E+08-1.10541E+08 1.26554E+06-2.87792E+08 3.27663E+07-4.66747E+07
 -1      1557 2.50597E+08-1.00230E+08 2.04814E+06-1.62644E+08 2.91223E+07-9.76188E+07
 -1      1559 2.50597E+08-1.00230E+08 2.04814E+06-1.62644E+08 2.91223E+07-9.76188E+07
 -1      1560 6.44920E+08-8.27059E+07 2.00118E+06-9.87560E+06 2.39652E+07-1.41796E+08
 -1      1562 6.44920E+08-8.27059E+07 2.00118E+06-9.87560E+06 2.39652E+07-1.41796E+08
 -1      1563 4.60888E+08-5.85464E+07 1.53709E+06 1.26753E+08 1.59076E+07-1.76217E+08
 -1      1565 4.60888E+08-5.85464E+07 1.53709E+06 1.26753E+08 1.59076E+07-1.76217E+08
 -1      1566-1.61178E+08-3.00988E+07 4.20185E+05 2.09120E+08 7.26490E+06-1.98014E+08
 -1      1568-1.61178E+08-3.00988E+07 4.20185E+05 2.09120E+08 7.26490E+06-1.98014E+08
 -1      1569-9.60444E+08 8.46382E+05-6.76402E+05 2.16797E+08-3.04636E+06-2.06664E+08
 -1      1571-9.60444E+08 8.46382E+05-6.76402E+05 2.16797E+08-3.04636E+06-2.06664E+08
 -1      1572-1.63642E+09 3.20986E+07-1.84692E+06 1.49942E+08-1.25614E+07-1.99082E+08
 -1      1574-1.63642E+09 3.20986E+07-1.84692E+06 1.49942E+08-1.25614E+07-1.99082E+08
 -1      1575-1.94038E+09 5.99506E+07-2.40160E+06 3.51821E+07-2.20335E+07-1.81525E+08
 -1      1577-1.94038E+09 5.99506E+07-2.40160E+06 3.51821E+07-2.20335E+07-1.81525E+08
 -1      1578-1.76425E+09 8.57486E+07-2.55729E+06-8.60348E+07-3.01306E+07-1.42636E+08
 -1      1580-1.76425E+09 8.57486E+07-2.55729E+06-8.60348E+07-3.01306E+07-1.42636E+08
 -1      1581-1.18962E+09 1.02626E+08-2.10502E+06-1.61311E+08-3.58921E+07-1.12654E+08
 -1      1583-1.18962E+09 1.02626E+08-2.10502E+06-1.61311E+08-3.58921E+07-1.12654E+08
 -1      1584-5.21326E+08 1.13382E+08-1.08052E+06-1.28534E+08-4.15617E+07-3.49939E+07
 -1      1586-5.21326E+08 1.13382E+08-1.08052E+06-1.28534E+08-4.15617E+07-3.49939E+07
 -1      1587-1.15235E+08 2.15900E+08 1.23503E+06-1.17710E+08 4.37655E+08 3.45574E+07
 -1      1589-1.15235E+08 2.15900E+08 1.23503E+06-1.17710E+08 4.37655E+08 3.45574E+07
 -1      1590-3.03105E+09-6.49786E+08-3.55827E+06-7.14683E+08-1.77047E+08-7.91149E+08
 -1      1592-3.03105E+09-6.49786E+08-3.55827E+06-7.14683E+08-1.77047E+08-7.91149E+08
 -1      1593 1.15235E+08-2.15900E+08-1.23503E+06-1.17710E+08 4.37655E+08-3.45574E+07
 -1      1595 1.15235E+08-2.15900E+08-1.23503E+06-1.17710E+08 4.37655E+08-3.45574E+07
 -1      1596 3.92687E+09 1.46389E+08-1.19837E+06-3.19042E+08 1.45783E+07 6.04635E+08
 -1      1598 3.92687E+09 1.46389E+08-1.19837E+06-3.19042E+08 1.45783E+07 6.04635E+08
 -1      1599 2.76221E+09-1.25719E+08 5.09379E+06-2.48355E+08 7.97005E+06-1.35743E+07
 -1      1601 2.76221E+09-1.25719E+08 5.09379E+06-2.48355E+08 7.97005E+06-1.35743E+07
 -1      1602 1.25840E+09-5.58380E+07 1.48910E+06-4.50866E+08-2.52680E+07 2.43355E+08
 -1      1604 1.25840E+09-5.58380E+07 1.48910E+06-4.50866E+08-2.52680E+07 2.43355E+08
 -1      1605-6.29515E+08-9.48751E+07 3.27984E+05-4.68831E+08-1.88153E+07 6.52106E+07
 -1      1607-6.29515E+08-9.48751E+07 3.27984E+05-4.68831E+08-1.88153E+07 6.52106E+07
 -1      1608-2.55193E+09-1.05886E+08 3.75743E+05-4.59691E+08-2.80285E+07 7.98601E+07
 -1      1610-2.55193E+09-1.05886E+08 3.75743E+05-4.59691E+08-2.80285E+07 7.98601E+07
 -1      1611-4.22295E+09-1.05735E+08-3.05534E+06-3.53353E+08-2.67197E+07-2.88929E+06
 -1      1613-4.22295E+09-1.05735E+08-3.05534E+06-3.53353E+08-2.67197E+07-2.88929E+06
 -1      1614-5.26436E+09-1.03065E+08-1.88332E+06-1.62768E+08-2.55576E+07-4.28367E+07
 -1      1616-5.26436E+09-1.03065E+08-1.88332E+06-1.62768E+08-2.55576E+07-4.28367E+07
 -1      1617-5.45194E+09-9.35641E+07-4.13086E+06 6.05678E+07-2.35179E+07-9.89407E+07
 -1      1619-5.45194E+09-9.35641E+07-4.13086E+06 6.05678E+07-2.35179E+07-9.89407E+07
 -1      1620-4.70046E+09-7.49628E+07-2.11506E+06 2.86062E+08-1.77139E+07-1.39867E+08
 -1      1622-4.70046E+09-7.49628E+07-2.11506E+06 2.86062E+08-1.77139E+07-1.39867E+08
 -1      1623-3.13603E+09-5.59784E+07-2.40886E+06 4.54344E+08-1.33616E+07-1.74801E+08
 -1      1625-3.13603E+09-5.59784E+07-2.40886E+06 4.54344E+08-1.33616E+07-1.74801E+08
 -1      1626-1.04871E+09-2.90871E+07 4.88985E+04 5.36019E+08-5.43632E+06-1.96681E+08
 -1      1628-1.04871E+09-2.90871E+07 4.88985E+04 5.36019E+08-5.43632E+06-1.96681E+08
 -1      1629 1.15737E+09-3.65583E+06 7.28443E+05 5.10915E+08 6.49098E+05-2.05642E+08
 -1      1631 1.15737E+09-3.65583E+06 7.28443E+05 5.10915E+08 6.49098E+05-2.05642E+08
 -1      1632 3.06417E+09 2.50549E+07 2.55332E+06 3.89011E+08 9.08176E+06-2.00779E+08
 -1      1634 3.06417E+09 2.50549E+07 2.55332E+06 3.89011E+08 9.08176E+06-2.00779E+08
 -1      1635 4.32933E+09 5.06908E+07 2.74279E+06 1.99502E+08 1.54833E+07-1.82130E+08
 -1      1637 4.32933E+09 5.06908E+07 2.74279E+06 1.99502E+08 1.54833E+07-1.82130E+08
 -1      1638 4.76575E+09 7.48390E+07 3.07239E+06-1.22672E+07 2.27764E+07-1.51243E+08
 -1      1640 4.76575E+09 7.48390E+07 3.07239E+06-1.22672E+07 2.27764E+07-1.51243E+08
 -1      1641 4.37709E+09 9.35323E+07 2.12232E+06-1.97899E+08 2.75682E+07-1.09772E+08
 -1      1643 4.37709E+09 9.35323E+07 2.12232E+06-1.97899E+08 2.75682E+07-1.09772E+08
 -1      1644 3.35051E+09 1.06845E+08 1.19123E+06-3.16905E+08 3.18551E+07-6.07734E+07
 -1      1646 3.35051E+09 1.06845E+08 1.19123E+06-3.16905E+08 3.18551E+07-6.07734E+07
 -1      1647 2.00250E+09 1.12477E+08-2.71818E+05-3.46735E+08 3.30362E+07-7.34726E+06
 -1      1649 2.00250E+09 1.12477E+08-2.71818E+05-3.46735E+08 3.30362E+07-7.34726E+06
 -1      1650 6.96406E+08 1.10541E+08-1.26554E+06-2.87792E+08 3.27663E+07 4.66747E+07
 -1      1652 6.96406E+08 1.10541E+08-1.26554E+06-2.87792E+08 3.27663E+07 4.66747E+07
 -1      1653-2.50597E+08 1.00230E+08-2.04814E+06-1.62644E+08 2.91223E+07 9.76188E+07
 -1      1655-2.50597E+08 1.00230E+08-2.04814E+06-1.62644E+08 2.91223E+07 9.76188E+07
 -1      1656-6.44920E+08 8.27059E+07-2.00118E+06-9.87560E+06 2.39652E+07 1.41796E+08
 -1      1658-6.44920E+08 8.27059E+07-2.00118E+06-9.87560E+06 2.39652E+07 1.41796E+08
 -1      1659-4.60888E+08 5.85464E+07-1.53709E+06 1.26753E+08 1.59076E+07 1.76217E+08
 -1      1661-4.60888E+08 5.85464E+07-1.53709E+06 1.26753E+08 1.59076E+07 1.76217E+08
 -1      1662 1.61178E+08 3.00988E+07-4.20185E+05 2.09120E+08 7.26490E+06 1.98014E+08
 -1      1664 1.61178E+08 3.00988E+07-4.20185E+05 2.09120E+08 7.26490E+06 1.98014E+08
 -1      1665 9.60444E+08-8.46382E+05 6.76402E+05 2.16797E+08-3.04636E+06 2.06664E+08
 -1      1667 9.60444E+08-8.46382E+05 6.76402E+05 2.16797E+08-3.04636E+06 2.06664E+08
 -1      1668 1.63642E+09-3.20986E+07 1.84692E+06 1.49942E+08-1.25614E+07 1.99082E+08
 -1      1670 1.63642E+09-3.20986E+07 1.84692E+06 1.49942E+08-1.25614E+07 1.99082E+08
 -1      1671 1.94038E+09-5.99506E+07 2.40160E+06 3.51821E+07-2.20335E+07 1.81525E+08
 -1      1673 1.94038E+09-5.99506E+07 2.40160E+06 3.51821E+07-2.20335E+07 1.81525E+08
 -1      1674 1.76425E+09-8.57486E+07 2.55729E+06-8.60348E+07-3.01306E+07 1.42636E+08
 -1      1676 1.76425E+09-8.57486E+07 2.55729E+06-8.60348E+07-3.01306E+07 1.42636E+08
 -1      1677 1.18962E+09-1.02626E+08 2.10502E+06-1.61311E+08-3.58921E+07 1.12654E+08
 -1      1679 1.18962E+09-1.02626E+08 2.10502E+06-1.61311E+08-3.58921E+07 1.12654E+08
 -1      1680 5.21326E+08-1.13382E+08 1.08052E+06-1.28534E+08-4.15617E+07 3.49939E+07
 -1      1682 5.21326E+08-1.13382E+08 1.08052E+06-1.28534E+08-4.15617E+07 3.49939E+07
 -1      1683 3.03105E+09 6.49786E+08 3.55827E+06-7.14683E+08-1.77047E+08 7.91149E+08
 -1      1685 3.03105E+09 6.49786E+08 3.55827E+06-7.14683E+08-1.77047E+08 7.91149E+08
 -1      1686 2.64313E+09 2.02764E+08 1.30417E+06-4.60462E+08 1.99299E+06-2.07076E+08
 -1      1688 2.64313E+09 2.02764E+08 1.30417E+06-4.60462E+08 1.99299E+06-2.07076E+08
 -1      1689 1.81068E+09-2.23329E+08-2.76857E+06-4.58435E+08-2.30306E+08 1.05513E+08
 -1      1691 1.81068E+09-2.23329E+08-2.76857E+06-4.58435E+08-2.30306E+08 1.05513E+08
 -1      1692 7.84108E+08-1.46163E+08 5.06070E+05-6.97141E+08-2.99393E+08-4.36481E+07
 -1      1694 7.84108E+08-1.46163E+08 5.06070E+05-6.97141E+08-2.99393E+08-4.36481E+07
 -1      1695-4.53553E+08-1.81831E+08-1.17640E+06-7.44878E+08-3.81703E+08 2.50677E+07
 -1      1697-4.53553E+08-1.81831E+08-1.17640E+06-7.44878E+08-3.81703E+08 2.50677E+07
 -1      1698-1.73629E+09-2.10331E+08-1.25107E+06-7.36128E+08-4.36766E+08-7.27719E+06
 -1      1700-1.73629E+09-2.10331E+08-1.25107E+06-7.36128E+08-4.36766E+08-7.27719E+06
 -1      1701-2.83365E+09-1.79146E+08-4.01143E+05-5.51580E+08-4.52517E+08 5.21041E+06
 -1      1703-2.83365E+09-1.79146E+08-4.01143E+05-5.51580E+08-4.52517E+08 5.21041E+06
 -1      1704-3.51897E+09-1.78957E+08-1.48581E+06-2.62219E+08-4.48715E+08-2.16708E+06
 -1      1706-3.51897E+09-1.78957E+08-1.48581E+06-2.62219E+08-4.48715E+08-2.16708E+06
 -1      1707-3.63589E+09-1.44083E+08-2.46841E+05 1.00705E+08-4.03341E+08-1.55869E+06
 -1      1709-3.63589E+09-1.44083E+08-2.46841E+05 1.00705E+08-4.03341E+08-1.55869E+06
 -1      1710-3.13342E+09-1.21779E+08-1.08108E+06 4.52644E+08-3.38571E+08-3.81442E+06
 -1      1712-3.13342E+09-1.21779E+08-1.08108E+06 4.52644E+08-3.38571E+08-3.81442E+06
 -1      1713-2.09268E+09-8.79930E+07-1.25849E+05 7.22040E+08-2.43267E+08-4.85960E+06
 -1      1715-2.09268E+09-8.79930E+07-1.25849E+05 7.22040E+08-2.43267E+08-4.85960E+06
 -1      1716-7.06912E+08-5.57690E+07-5.27642E+05 8.50206E+08-1.36616E+08-5.44618E+06
 -1      1718-7.06912E+08-5.57690E+07-5.27642E+05 8.50206E+08-1.36616E+08-5.44618E+06
 -1      1719 7.58918E+08-1.80051E+07 1.25911E+05 8.11356E+08-1.66448E+07-5.69128E+06
 -1      1721 7.58918E+08-1.80051E+07 1.25911E+05 8.11356E+08-1.66448E+07-5.69128E+06
 -1      1722 2.02790E+09 2.32343E+07 3.68431E+04 6.18509E+08 1.00504E+08-5.08424E+06
 -1      1724 2.02790E+09 2.32343E+07 3.68431E+04 6.18509E+08 1.00504E+08-5.08424E+06
 -1      1725 2.87505E+09 6.87448E+07 4.91193E+05 3.18848E+08 2.12348E+08-4.26892E+06
 -1      1727 2.87505E+09 6.87448E+07 4.91193E+05 3.18848E+08 2.12348E+08-4.26892E+06
 -1      1728 3.17562E+09 1.16268E+08 5.59992E+05-1.62654E+07 3.06495E+08-2.94841E+06
 -1      1730 3.17562E+09 1.16268E+08 5.59992E+05-1.62654E+07 3.06495E+08-2.94841E+06
 -1      1731 2.93161E+09 1.62116E+08 8.67500E+05-3.10356E+08 3.80242E+08-1.66587E+06
 -1      1733 2.93161E+09 1.62116E+08 8.67500E+05-3.10356E+08 3.80242E+08-1.66587E+06
 -1      1734 2.26469E+09 2.01180E+08 9.46186E+05-4.99298E+08 4.25847E+08-3.48124E+05
 -1      1736 2.26469E+09 2.01180E+08 9.46186E+05-4.99298E+08 4.25847E+08-3.48124E+05
 -1      1737 1.38248E+09 2.27611E+08 1.09562E+06-5.47521E+08 4.43141E+08 7.09020E+05
 -1      1739 1.38248E+09 2.27611E+08 1.09562E+06-5.47521E+08 4.43141E+08 7.09020E+05
 -1      1740 5.23104E+08 2.36287E+08 1.05969E+06-4.55466E+08 4.29194E+08 1.52869E+06
 -1      1742 5.23104E+08 2.36287E+08 1.05969E+06-4.55466E+08 4.29194E+08 1.52869E+06
 -1      1743-1.04856E+08 2.23770E+08 1.02918E+06-2.58818E+08 3.87472E+08 2.08540E+06
 -1      1745-1.04856E+08 2.23770E+08 1.02918E+06-2.58818E+08 3.87472E+08 2.08540E+06
 -1      1746-3.73973E+08 1.89284E+08 8.14397E+05-1.82503E+07 3.18990E+08 2.41711E+06
 -1      1748-3.73973E+08 1.89284E+08 8.14397E+05-1.82503E+07 3.18990E+08 2.41711E+06
 -1      1749-2.66462E+08 1.35546E+08 6.32844E+05 1.96854E+08 2.30753E+08 2.63858E+06
 -1      1751-2.66462E+08 1.35546E+08 6.32844E+05 1.96854E+08 2.30753E+08 2.63858E+06
 -1      1752 1.26528E+08 6.73266E+07 2.64767E+05 3.27062E+08 1.26090E+08 2.84534E+06
 -1      1754 1.26528E+08 6.73266E+07 2.64767E+05 3.27062E+08 1.26090E+08 2.84534E+06
 -1      1755 6.35154E+08-6.35562E+06 2.72399E+04 3.38820E+08 1.48834E+07 2.83553E+06
 -1      1757 6.35154E+08-6.35562E+06 2.72399E+04 3.38820E+08 1.48834E+07 2.83553E+06
 -1      1758 1.06358E+09-7.97414E+07-3.81758E+05 2.34951E+08-9.92205E+07 3.43670E+06
 -1      1760 1.06358E+09-7.97414E+07-3.81758E+05 2.34951E+08-9.92205E+07 3.43670E+06
 -1      1761 1.25044E+09-1.39708E+08-5.79701E+05 5.36282E+07-2.04459E+08 2.27398E+06
 -1      1763 1.25044E+09-1.39708E+08-5.79701E+05 5.36282E+07-2.04459E+08 2.27398E+06
 -1      1764 1.12588E+09-1.87858E+08-8.36284E+05-1.34211E+08-2.98474E+08 4.89631E+06
 -1      1766 1.12588E+09-1.87858E+08-8.36284E+05-1.34211E+08-2.98474E+08 4.89631E+06
 -1      1767 7.48163E+08-2.10301E+08-1.04621E+06-2.49749E+08-3.70472E+08-1.90595E+06
 -1      1769 7.48163E+08-2.10301E+08-1.04621E+06-2.49749E+08-3.70472E+08-1.90595E+06
 -1      1770 3.13564E+08-2.11765E+08-8.42079E+05-1.99215E+08-4.15531E+08 1.07731E+07
 -1      1772 3.13564E+08-2.11765E+08-8.42079E+05-1.99215E+08-4.15531E+08 1.07731E+07
 -1      1773-2.64313E+09-2.02764E+08-1.30417E+06-4.60462E+08 1.99299E+06 2.07076E+08
 -1      1775-2.64313E+09-2.02764E+08-1.30417E+06-4.60462E+08 1.99299E+06 2.07076E+08
 -1      1776-1.81068E+09 2.23329E+08 2.76857E+06-4.58435E+08-2.30306E+08-1.05513E+08
 -1      1778-1.81068E+09 2.23329E+08 2.76857E+06-4.58435E+08-2.30306E+08-1.05513E+08
 -1      1779-7.84108E+08 1.46163E+08-5.06070E+05-6.97141E+08-2.99393E+08 4.36481E+07
 -1      1781-7.84108E+08 1.46163E+08-5.06070E+05-6.97141E+08-2.99393E+08 4.36481E+07
 -1      1782 4.53553E+08 1.81831E+08 1.17640E+06-7.44878E+08-3.81703E+08-2.50677E+07
 -1      1784 4.53553E+08 1.81831E+08 1.17640E+06-7.44878E+08-3.81703E+08-2.50677E+07
 -1      1785 1.73629E+09 2.10331E+08 1.25107E+06-7.36128E+08-4.36766E+08 7.27719E+06
 -1      1787 1.73629E+09 2.10331E+08 1.25107E+06-7.36128E+08-4.36766E+08 7.27719E+06
 -1      1788 2.83365E+09 1.79146E+08 4.01143E+05-5.51580E+08-4.52517E+08-5.21041E+06
 -1      1790 2.83365E+09 1.79146E+08 4.01143E+05-5.51580E+08-4.52517E+08-5.21041E+06
 -1      1791 3.51897E+09 1.78957E+08 1.48581E+06-2.62219E+08-4.48715E+08 2.16708E+06
 -1      1793 3.51897E+09 1.78957E+08 1.48581E+06-2.62219E+08-4.48715E+08 2.16708E+06
 -1      1794 3.63589E+09 1.44083E+08 2.46841E+05 1.00705E+08-4.03341E+08 1.55869E+06
 -1      1796 3.63589E+09 1.44083E+08 2.46841E+05 1.00705E+08-4.03341E+08 1.55869E+06
 -1      1797 3.13342E+09 1.21779E+08 1.08108E+06 4.52644E+08-3.38571E+08 3.81442E+06
 -1      1799 3.13342E+09 1.21779E+08 1.08108E+06 4.52644E+08-3.38571E+08 3.81442E+06
 -1      1800 2.09268E+09 8.79930E+07 1.25849E+05 7.22040E+08-2.43267E+08 4.85960E+06
 -1      1802 2.09268E+09 8.79930E+07 1.25849E+05 7.22040E+08-2.43267E+08 4.85960E+06
 -1      1803 7.06912E+08 5.57690E+07 5.27642E+05 8.50206E+08-1.36616E+08 5.44618E+06
 -1      1805 7.06912E+08 5.57690E+07 5.27642E+05 8.50206E+08-1.36616E+08 5.44618E+06
 -1      1806-7.58918E+08 1.80051E+07-1.25911E+05 8.11356E+08-1.66448E+07 5.69128E+06
 -1      1808-7.58918E+08 1.80051E+07-1.25911E+05 8.11356E+08-1.66448E+07 5.69128E+06
 -1      1809-2.02790E+09-2.32343E+07-3.68431E+04 6.18509E+08 1.00504E+08 5.08424E+06
 -1      1811-2.02790E+09-2.32343E+07-3.68431E+04 6.18509E+08 1.00504E+08 5.08424E+06
 -1      1812-2.87505E+09-6.87448E+07-4.91193E+05 3.18848E+08 2.12348E+08 4.26892E+06
 -1      1814-2.87505E+09-6.87448E+07-4.91193E+05 3.18848E+08 2.12348E+08 4.26892E+06
 -1      1815-3.17562E+09-1.16268E+08-5.59992E+05-1.62654E+07 3.06495E+08 2.94841E+06
 -1      1817-3.17562E+09-1.16268E+08-5.59992E+05-1.62654E+07 3.06495E+08 2.94841E+06
 -1      1818-2.93161E+09-1.62116E+08-8.67500E+05-3.10356E+08 3.80242E+08 1.66587E+06
 -1      1820-2.93161E+09-1.62116E+08-8.67500E+05-3.10356E+08 3.80242E+08 1.66587E+06
 -1      1821-2.26469E+09-2.01180E+08-9.46186E+05-4.99298E+08 4.25847E+08 3.48124E+05
 -1      1823-2.26469E+09-2.01180E+08-9.46186E+05-4.99298E+08 4.25847E+08 3.48124E+05
 -1      1824-1.38248E+09-2.27611E+08-1.09562E+06-5.47521E+08 4.43141E+08-7.09020E+05
 -1      1826-1.38248E+09-2.27611E+08-1.09562E+06-5.47521E+08 4.43141E+08-7.09020E+05
 -1      1827-5.23104E+08-2.36287E+08-1.05969E+06-4.55466E+08 4.29194E+08-1.52869E+06
 -1      1829-5.23104E+08-2.36287E+08-1.05969E+06-4.55466E+08 4.29194E+08-1.52869E+06
 -1      1830 1.04856E+08-2.23770E+08-1.02918E+06-2.58818E+08 3.87472E+08-2.08540E+06
 -1      1832 1.04856E+08-2.23770E+08-1.02918E+06-2.58818E+08 3.87472E+08-2.08540E+06
 -1      1833 3.73973E+08-1.89284E+08-8.14397E+05-1.82503E+07 3.18990E+08-2.41711E+06
 -1      1835 3.73973E+08-1.89284E+08-8.14397E+05-1.82503E+07 3.18990E+08-2.41711E+06
 -1      1836 2.66462E+08-1.35546E+08-6.32844E+05 1.96854E+08 2.30753E+08-2.63858E+06
 -1      1838 2.66462E+08-1.35546E+08-6.32844E+05 1.96854E+08 2.30753E+08-2.63858E+06
 -1      1839-1.26528E+08-6.73266E+07-2.64767E+05 3.27062E+08 1.26090E+08-2.84534E+06
 -1      1841-1.26528E+08-6.73266E+07-2.64767E+05 3.27062E+08 1.26090E+08-2.84534E+06
 -1      1842-6.35154E+08 6.35562E+06-2.72399E+04 3.38820E+08 1.48834E+07-2.83553E+06
 -1      1844-6.35154E+08 6.35562E+06-2.72399E+04 3.38820E+08 1.48834E+07-2.83553E+06
 -1      1845-1.06358E+09 7.97414E+07 3.81758E+05 2.34951E+08-9.92205E+07-3.43670E+06
 -1      1847-1.06358E+09 7.97414E+07 3.81758E+05 2.34951E+08-9.92205E+07-3.43670E+06
 -1      1848-1.25044E+09 1.39708E+08 5.79701E+05 5.36282E+07-2.04459E+08-2.27398E+06
 -1      1850-1.25044E+09 1.39708E+08 5.79701E+05 5.36282E+07-2.04459E+08-2.27398E+06
 -1      1851-1.12588E+09 1.87858E+08 8.36284E+05-1.34211E+08-2.98474E+08-4.89631E+06
 -1      1853-1.12588E+09 1.87858E+08 8.36284E+05-1.34211E+08-2.98474E+08-4.89631E+06
 -1      1854-7.48163E+08 2.10301E+08 1.04621E+06-2.49749E+08-3.70472E+08 1.90595E+06
 -1      1856-7.48163E+08 2.10301E+08 1.04621E+06-2.49749E+08-3.70472E+08 1.90595E+06
 -1      1857-3.13564E+08 2.11765E+08 8.42079E+05-1.99215E+08-4.15531E+08-1.07731E+07
 -1      1859-3.13564E+08 2.11765E+08 8.42079E+05-1.99215E+08-4.15531E+08-1.07731E+07
 -1      1860 3.58383E-03-1.87703E-04 6.70954E-03 1.31855E+08-9.59766E+07 1.93519E-02
 -1      1862 3.58383E-03-1.87703E-04 6.70954E-03 1.31855E+08-9.59766E+07 1.93519E-02
 -1      1863-2.49571E-03-2.94482E-04 2.32040E-03-7.27766E+07-2.09164E+08 1.66119E-02
 -1      1865-2.49571E-03-2.94482E-04 2.32040E-03-7.27766E+07-2.09164E+08 1.66119E-02
 -1      1866-4.12674E-03-2.59027E-04-9.36547E-03 3.91082E+07-3.03751E+08 1.14241E-02
 -1      1868-4.12674E-03-2.59027E-04-9.36547E-03 3.91082E+07-3.03751E+08 1.14241E-02
 -1      1869-3.60393E-03-8.68182E-05-2.54402E-02-2.47058E+07-3.79201E+08 1.57951E-03
 -1      1871-3.60393E-03-8.68182E-05-2.54402E-02-2.47058E+07-3.79201E+08 1.57951E-03
 -1      1872-5.27284E-03-1.36314E-04-3.44862E-02 6.46178E+06-4.33546E+08-1.11682E-02
 -1      1874-5.27284E-03-1.36314E-04-3.44862E-02 6.46178E+06-4.33546E+08-1.11682E-02
 -1      1875-8.44871E-03 6.12909E-06-2.63086E-02-9.10322E+06-4.54747E+08-1.85668E-02
 -1      1877-8.44871E-03 6.12909E-06-2.63086E-02-9.10322E+06-4.54747E+08-1.85668E-02
 -1      1878-1.06638E-02 5.23415E-04-1.08673E-02-6.79943E+05-4.48133E+08-1.70664E-02
 -1      1880-1.06638E-02 5.23415E-04-1.08673E-02-6.79943E+05-4.48133E+08-1.70664E-02
 -1      1881-9.54297E-03 2.53501E-04-5.15515E-03-1.94833E+06-4.08117E+08-1.70360E-02
 -1      1883-9.54297E-03 2.53501E-04-5.15515E-03-1.94833E+06-4.08117E+08-1.70360E-02
 -1      1884-4.82066E-03-3.73342E-04-9.46061E-03 1.00282E+06-3.40728E+08-2.74672E-02
 -1      1886-4.82066E-03-3.73342E-04-9.46061E-03 1.00282E+06-3.40728E+08-2.74672E-02
 -1      1887 4.76822E-04-4.85386E-04-1.03423E-02 2.17861E+06-2.48916E+08-3.89848E-02
 -1      1889 4.76822E-04-4.85386E-04-1.03423E-02 2.17861E+06-2.48916E+08-3.89848E-02
 -1      1890 5.72375E-03-3.34284E-05-7.76378E-04 2.63951E+06-1.40113E+08-3.97514E-02
 -1      1892 5.72375E-03-3.34284E-05-7.76378E-04 2.63951E+06-1.40113E+08-3.97514E-02
 -1      1893 1.14312E-02 2.07304E-04 1.22661E-02 2.32684E+06-2.25177E+07-2.78004E-02
 -1      1895 1.14312E-02 2.07304E-04 1.22661E-02 2.32684E+06-2.25177E+07-2.78004E-02
 -1      1896 1.48845E-02 1.98222E-04 2.00925E-02 7.30615E+05 9.56107E+07-1.11141E-02
 -1      1898 1.48845E-02 1.98222E-04 2.00925E-02 7.30615E+05 9.56107E+07-1.11141E-02
 -1      1899 1.57008E-02 1.94312E-04 2.30470E-02-1.10326E+06 2.04968E+08 1.17183E-03
 -1      1901 1.57008E-02 1.94312E-04 2.30470E-02-1.10326E+06 2.04968E+08 1.17183E-03
 -1      1902 1.66831E-02 1.40200E-04 2.54981E-02-3.21941E+06 2.98632E+08 9.14391E-03
 -1      1904 1.66831E-02 1.40200E-04 2.54981E-02-3.21941E+06 2.98632E+08 9.14391E-03
 -1      1905 1.62652E-02 8.05060E-05 2.49787E-02-4.61443E+06 3.69616E+08 1.62452E-02
 -1      1907 1.62652E-02 8.05060E-05 2.49787E-02-4.61443E+06 3.69616E+08 1.62452E-02
 -1      1908 1.18924E-02-3.74877E-05 1.54746E-02-5.15829E+06 4.14339E+08 1.98847E-02
 -1      1910 1.18924E-02-3.74877E-05 1.54746E-02-5.15829E+06 4.14339E+08 1.98847E-02
 -1      1911 6.01622E-03-1.13801E-04 1.45372E-03-4.42703E+06 4.29895E+08 1.70529E-02
 -1      1913 6.01622E-03-1.13801E-04 1.45372E-03-4.42703E+06 4.29895E+08 1.70529E-02
 -1      1914 1.78706E-05-2.01660E-04-6.90732E-03-2.63065E+06 4.16694E+08 1.34342E-02
 -1      1916 1.78706E-05-2.01660E-04-6.90732E-03-2.63065E+06 4.16694E+08 1.34342E-02
 -1      1917-7.61997E-03-7.64486E-05-1.04706E-02-5.94212E+04 3.75914E+08 1.53670E-02
 -1      1919-7.61997E-03-7.64486E-05-1.04706E-02-5.94212E+04 3.75914E+08 1.53670E-02
 -1      1920-1.80670E-02 5.69055E-05-1.49327E-02 2.70821E+06 3.11275E+08 1.91971E-02
 -1      1922-1.80670E-02 5.69055E-05-1.49327E-02 2.70821E+06 3.11275E+08 1.91971E-02
 -1      1923-2.90980E-02 1.17955E-04-1.53556E-02 5.07119E+06 2.27029E+08 1.65111E-02
 -1      1925-2.90980E-02 1.17955E-04-1.53556E-02 5.07119E+06 2.27029E+08 1.65111E-02
 -1      1926-3.49563E-02 2.88328E-04-6.46192E-03 6.45347E+06 1.28923E+08 7.60760E-03
 -1      1928-3.49563E-02 2.88328E-04-6.46192E-03 6.45347E+06 1.28923E+08 7.60760E-03
 -1      1929-3.43289E-02 1.19165E-04 3.58156E-03 6.76019E+06 2.32001E+07 1.34486E-03
 -1      1931-3.43289E-02 1.19165E-04 3.58156E-03 6.76019E+06 2.32001E+07 1.34486E-03
 -1      1932-2.94008E-02 8.56016E-05 6.90578E-03 5.36979E+06-8.36690E+07-4.28614E-04
 -1      1934-2.94008E-02 8.56016E-05 6.90578E-03 5.36979E+06-8.36690E+07-4.28614E-04
 -1      1935-2.30805E-02 3.83604E-05 7.00947E-03 4.10236E+06-1.84301E+08-2.22657E-03
 -1      1937-2.30805E-02 3.83604E-05 7.00947E-03 4.10236E+06-1.84301E+08-2.22657E-03
 -1      1938-1.86618E-02-1.61656E-04 6.77644E-03 4.36854E+04-2.72706E+08-2.58296E-03
 -1      1940-1.86618E-02-1.61656E-04 6.77644E-03 4.36854E+04-2.72706E+08-2.58296E-03
 -1      1941-1.35968E-02-2.13822E-04 3.81072E-03 1.09210E+06-3.41719E+08-2.38968E-03
 -1      1943-1.35968E-02-2.13822E-04 3.81072E-03 1.09210E+06-3.41719E+08-2.38968E-03
 -1      1944-6.13996E-03-2.59624E-04-1.13699E-03-6.59774E+06-3.86433E+08-3.49669E-03
 -1      1946-6.13996E-03-2.59624E-04-1.13699E-03-6.59774E+06-3.86433E+08-3.49669E-03
 -1      1947-7.14394E-03-4.03064E-05 5.26098E-03 2.86897E+08-1.14527E-04 2.50925E-02
 -1      1949-7.14394E-03-4.03064E-05 5.26098E-03 2.86897E+08-1.14527E-04 2.50925E-02
 -1      1950-8.63473E-03-3.34817E-04 4.17690E-03-5.51503E+07-1.66595E-04 2.06405E-02
 -1      1952-8.63473E-03-3.34817E-04 4.17690E-03-5.51503E+07-1.66595E-04 2.06405E-02
 -1      1953-5.49107E-03-2.34506E-04-4.81078E-03 1.13445E+08-7.57426E-05 1.22526E-02
 -1      1955-5.49107E-03-2.34506E-04-4.81078E-03 1.13445E+08-7.57426E-05 1.22526E-02
 -1      1956 7.96213E-04 2.77571E-04-1.70461E-02-5.26271E+06-1.38313E-04 5.23141E-05
 -1      1958 7.96213E-04 2.77571E-04-1.70461E-02-5.26271E+06-1.38313E-04 5.23141E-05
 -1      1959 3.55249E-03 1.91637E-04-2.48684E-02 2.94569E+07-3.60787E-04-1.03308E-02
 -1      1961 3.55249E-03 1.91637E-04-2.48684E-02 2.94569E+07-3.60787E-04-1.03308E-02
 -1      1962 1.53494E-03 1.03816E-04-2.04624E-02-1.62036E+07-6.17474E-04-1.36183E-02
 -1      1964 1.53494E-03 1.03816E-04-2.04624E-02-1.62036E+07-6.17474E-04-1.36183E-02
 -1      1965-2.07861E-03 5.49957E-04-8.83355E-03-1.72285E+07-6.72549E-04-1.26142E-02
 -1      1967-2.07861E-03 5.49957E-04-8.83355E-03-1.72285E+07-6.72549E-04-1.26142E-02
 -1      1968-2.49947E-03 2.31417E-04-3.16010E-03-3.77751E+07-4.84869E-04-1.68959E-02
 -1      1970-2.49947E-03 2.31417E-04-3.16010E-03-3.77751E+07-4.84869E-04-1.68959E-02
 -1      1971 3.76245E-03-6.42519E-04-5.55446E-03-4.43966E+07-1.72965E-04-2.94752E-02
 -1      1973 3.76245E-03-6.42519E-04-5.55446E-03-4.43966E+07-1.72965E-04-2.94752E-02
 -1      1974 1.02117E-02-5.77875E-04-7.72758E-03-5.48512E+07 8.01533E-05-3.90120E-02
 -1      1976 1.02117E-02-5.77875E-04-7.72758E-03-5.48512E+07 8.01533E-05-3.90120E-02
 -1      1977 9.80681E-03 2.79813E-05-2.43741E-03-5.99426E+07 3.73870E-05-3.75831E-02
 -1      1979 9.80681E-03 2.79813E-05-2.43741E-03-5.99426E+07 3.73870E-05-3.75831E-02
 -1      1980 6.60344E-03 3.08004E-04 9.03864E-03-6.47285E+07-2.06023E-04-2.70020E-02
 -1      1982 6.60344E-03 3.08004E-04 9.03864E-03-6.47285E+07-2.06023E-04-2.70020E-02
 -1      1983 5.08529E-03 4.50643E-04 1.85609E-02-6.57567E+07-5.01789E-04-1.29041E-02
 -1      1985 5.08529E-03 4.50643E-04 1.85609E-02-6.57567E+07-5.01789E-04-1.29041E-02
 -1      1986 4.52323E-03 3.49620E-04 2.33763E-02-6.40839E+07-7.47532E-04-3.67184E-04
 -1      1988 4.52323E-03 3.49620E-04 2.33763E-02-6.40839E+07-7.47532E-04-3.67184E-04
 -1      1989 4.03572E-03 3.59145E-04 2.71208E-02-5.77673E+07-8.79765E-04 9.89658E-03
 -1      1991 4.03572E-03 3.59145E-04 2.71208E-02-5.77673E+07-8.79765E-04 9.89658E-03
 -1      1992 4.46142E-03 1.92632E-04 2.78887E-02-4.69501E+07-8.34778E-04 1.69388E-02
 -1      1994 4.46142E-03 1.92632E-04 2.78887E-02-4.69501E+07-8.34778E-04 1.69388E-02
 -1      1995 6.55849E-03-9.23198E-05 2.01788E-02-3.10955E+07-7.44671E-04 1.79390E-02
 -1      1997 6.55849E-03-9.23198E-05 2.01788E-02-3.10955E+07-7.44671E-04 1.79390E-02
 -1      1998 7.91689E-03-2.57274E-04 6.30235E-03-1.11532E+07-8.41781E-04 1.49083E-02
 -1      2000 7.91689E-03-2.57274E-04 6.30235E-03-1.11532E+07-8.41781E-04 1.49083E-02
 -1      2001 7.37837E-03-1.35427E-04-5.26517E-03 1.15826E+07-9.41277E-04 1.34747E-02
 -1      2003 7.37837E-03-1.35427E-04-5.26517E-03 1.15826E+07-9.41277E-04 1.34747E-02
 -1      2004 5.56167E-03 9.29251E-05-1.22075E-02 3.49647E+07-9.62451E-04 1.50666E-02
 -1      2006 5.56167E-03 9.29251E-05-1.22075E-02 3.49647E+07-9.62451E-04 1.50666E-02
 -1      2007 2.08811E-04 4.23739E-04-1.56995E-02 5.64013E+07-1.02563E-03 1.80432E-02
 -1      2009 2.08811E-04 4.23739E-04-1.56995E-02 5.64013E+07-1.02563E-03 1.80432E-02
 -1      2010-9.08337E-03 7.82218E-04-1.06136E-02 7.36805E+07-1.07712E-03 1.76406E-02
 -1      2012-9.08337E-03 7.82218E-04-1.06136E-02 7.36805E+07-1.07712E-03 1.76406E-02
 -1      2013-1.73745E-02 6.59156E-04 3.79544E-03 8.42349E+07-9.85159E-04 9.77331E-03
 -1      2015-1.73745E-02 6.59156E-04 3.79544E-03 8.42349E+07-9.85159E-04 9.77331E-03
 -1      2016-1.96006E-02 2.89712E-04 1.50874E-02 8.78450E+07-8.33767E-04 1.01494E-05
 -1      2018-1.96006E-02 2.89712E-04 1.50874E-02 8.78450E+07-8.33767E-04 1.01494E-05
 -1      2019-1.53881E-02 1.52926E-04 1.55092E-02 8.24205E+07-5.28090E-04-4.26868E-03
 -1      2021-1.53881E-02 1.52926E-04 1.55092E-02 8.24205E+07-5.28090E-04-4.26868E-03
 -1      2022-1.02252E-02 1.79167E-04 1.21825E-02 7.23953E+07-2.81475E-04-3.96163E-03
 -1      2024-1.02252E-02 1.79167E-04 1.21825E-02 7.23953E+07-2.81475E-04-3.96163E-03
 -1      2025-8.53425E-03-3.02728E-05 1.04928E-02 5.26842E+07-1.49772E-04-2.88888E-03
 -1      2027-8.53425E-03-3.02728E-05 1.04928E-02 5.26842E+07-1.49772E-04-2.88888E-03
 -1      2028-6.26543E-03-9.52565E-05 7.11364E-03 3.86136E+07-1.99243E-04-3.81428E-03
 -1      2030-6.26543E-03-9.52565E-05 7.11364E-03 3.86136E+07-1.99243E-04-3.81428E-03
 -1      2031-1.99206E-03-2.12577E-04-1.54264E-04 8.17602E+06-9.52631E-05-4.72639E-03
 -1      2033-1.99206E-03-2.12577E-04-1.54264E-04 8.17602E+06-9.52631E-05-4.72639E-03
 -1      2034-1.15868E-02 1.93488E-04 5.48996E-03 1.31855E+08 9.59766E+07 2.79667E-02
 -1      2036-1.15868E-02 1.93488E-04 5.48996E-03 1.31855E+08 9.59766E+07 2.79667E-02
 -1      2037-1.04366E-02-1.73810E-04 7.68116E-03-7.27766E+07 2.09164E+08 2.06662E-02
 -1      2039-1.04366E-02-1.73810E-04 7.68116E-03-7.27766E+07 2.09164E+08 2.06662E-02
 -1      2040-5.13558E-03-2.21143E-04 1.21209E-03 3.91082E+07 3.03751E+08 1.12267E-02
 -1      2042-5.13558E-03-2.21143E-04 1.21209E-03 3.91082E+07 3.03751E+08 1.12267E-02
 -1      2043 2.44833E-03 4.25700E-04-7.47973E-03-2.47058E+07 3.79201E+08 4.49607E-04
 -1      2045 2.44833E-03 4.25700E-04-7.47973E-03-2.47058E+07 3.79201E+08 4.49607E-04
 -1      2046 6.89299E-03 3.81487E-04-1.45587E-02 6.46178E+06 4.33546E+08-6.98503E-03
 -1      2048 6.89299E-03 3.81487E-04-1.45587E-02 6.46178E+06 4.33546E+08-6.98503E-03
 -1      2049 8.67874E-03 3.66602E-05-1.37246E-02-9.10322E+06 4.54747E+08-5.72104E-03
 -1      2051 8.67874E-03 3.66602E-05-1.37246E-02-9.10322E+06 4.54747E+08-5.72104E-03
 -1      2052 8.74278E-03 3.23772E-04-4.24405E-03-6.79943E+05 4.48133E+08-4.92252E-03
 -1      2054 8.74278E-03 3.23772E-04-4.24405E-03-6.79943E+05 4.48133E+08-4.92252E-03
 -1      2055 8.94942E-03 2.63620E-04 6.52887E-04-1.94833E+06 4.08117E+08-1.36163E-02
 -1      2057 8.94942E-03 2.63620E-04 6.52887E-04-1.94833E+06 4.08117E+08-1.36163E-02
 -1      2058 1.23477E-02-2.44616E-04-4.76982E-03 1.00282E+06 3.40728E+08-2.75969E-02
 -1      2060 1.23477E-02-2.44616E-04-4.76982E-03 1.00282E+06 3.40728E+08-2.75969E-02
 -1      2061 1.27442E-02-3.91301E-04-1.11536E-02 2.17861E+06 2.48916E+08-3.46050E-02
 -1      2063 1.27442E-02-3.91301E-04-1.11536E-02 2.17861E+06 2.48916E+08-3.46050E-02
 -1      2064 5.25979E-03 8.17410E-05-7.45479E-03 2.63951E+06 1.40113E+08-3.08905E-02
 -1      2066 5.25979E-03 8.17410E-05-7.45479E-03 2.63951E+06 1.40113E+08-3.08905E-02
 -1      2067-2.43878E-03 3.21025E-04 4.98788E-03 2.32684E+06 2.25177E+07-2.26841E-02
 -1      2069-2.43878E-03 3.21025E-04 4.98788E-03 2.32684E+06 2.25177E+07-2.26841E-02
 -1      2070-5.93006E-03 6.57667E-04 1.37882E-02 7.30615E+05-9.56107E+07-1.37793E-02
 -1      2072-5.93006E-03 6.57667E-04 1.37882E-02 7.30615E+05-9.56107E+07-1.37793E-02
 -1      2073-7.66387E-03 6.75595E-04 1.55017E-02-1.10326E+06-2.04968E+08-3.11308E-03
 -1      2075-7.66387E-03 6.75595E-04 1.55017E-02-1.10326E+06-2.04968E+08-3.11308E-03
 -1      2076-7.79591E-03 2.72058E-04 1.81258E-02-3.21941E+06-2.98632E+08 8.18205E-03
 -1      2078-7.79591E-03 2.72058E-04 1.81258E-02-3.21941E+06-2.98632E+08 8.18205E-03
 -1      2079-4.23247E-03 2.52331E-04 2.21322E-02-4.61443E+06-3.69616E+08 1.44699E-02
 -1      2081-4.23247E-03 2.52331E-04 2.21322E-02-4.61443E+06-3.69616E+08 1.44699E-02
 -1      2082 2.70481E-03-1.14242E-04 1.92188E-02-5.15829E+06-4.14339E+08 1.32377E-02
 -1      2084 2.70481E-03-1.14242E-04 1.92188E-02-5.15829E+06-4.14339E+08 1.32377E-02
 -1      2085 8.29928E-03-3.59229E-04 7.67844E-03-4.42703E+06-4.29895E+08 1.03842E-02
 -1      2087 8.29928E-03-3.59229E-04 7.67844E-03-4.42703E+06-4.29895E+08 1.03842E-02
 -1      2088 1.14534E-02-3.87820E-04-5.24655E-03-2.63065E+06-4.16694E+08 1.06542E-02
 -1      2090 1.14534E-02-3.87820E-04-5.24655E-03-2.63065E+06-4.16694E+08 1.06542E-02
 -1      2091 1.30530E-02-1.74806E-04-1.49179E-02-5.94212E+04-3.75914E+08 1.16454E-02
 -1      2093 1.30530E-02-1.74806E-04-1.49179E-02-5.94212E+04-3.75914E+08 1.16454E-02
 -1      2094 1.01509E-02 4.63259E-04-1.96035E-02 2.70821E+06-3.11275E+08 1.43326E-02
 -1      2096 1.01509E-02 4.63259E-04-1.96035E-02 2.70821E+06-3.11275E+08 1.43326E-02
 -1      2097 4.52989E-03 7.27727E-04-1.15854E-02 5.07119E+06-2.27029E+08 1.78061E-02
 -1      2099 4.52989E-03 7.27727E-04-1.15854E-02 5.07119E+06-2.27029E+08 1.78061E-02
 -1      2100 1.24365E-03 4.35085E-04 9.00793E-03 6.45347E+06-1.28923E+08 1.22042E-02
 -1      2102 1.24365E-03 4.35085E-04 9.00793E-03 6.45347E+06-1.28923E+08 1.22042E-02
 -1      2103 9.81038E-05-1.23485E-05 2.24954E-02 6.76019E+06-2.32001E+07-1.51181E-03
 -1      2105 9.81038E-05-1.23485E-05 2.24954E-02 6.76019E+06-2.32001E+07-1.51181E-03
 -1      2106 3.73134E-04-1.81684E-04 1.80227E-02 5.36979E+06 8.36690E+07-8.58385E-03
 -1      2108 3.73134E-04-1.81684E-04 1.80227E-02 5.36979E+06 8.36690E+07-8.58385E-03
 -1      2109 1.88025E-03-4.24825E-05 1.00241E-02 4.10236E+06 1.84301E+08-5.27395E-03
 -1      2111 1.88025E-03-4.24825E-05 1.00241E-02 4.10236E+06 1.84301E+08-5.27395E-03
 -1      2112 2.50286E-03 1.11463E-04 9.09859E-03 4.36854E+04 2.72706E+08-2.13637E-03
 -1      2114 2.50286E-03 1.11463E-04 9.09859E-03 4.36854E+04 2.72706E+08-2.13637E-03
 -1      2115 2.66783E-03 9.02981E-05 7.23104E-03 1.09210E+06 3.41719E+08-4.88249E-03
 -1      2117 2.66783E-03 9.02981E-05 7.23104E-03 1.09210E+06 3.41719E+08-4.88249E-03
 -1      2118 2.13587E-03-2.97787E-04-2.46791E-03-6.59774E+06 3.86433E+08-7.14305E-03
 -1      2120 2.13587E-03-2.97787E-04-2.46791E-03-6.59774E+06 3.86433E+08-7.14305E-03
 -1      2121-2.64313E+09-2.02764E+08-1.30417E+06-4.60462E+08-1.99299E+06-2.07076E+08
 -1      2123-2.64313E+09-2.02764E+08-1.30417E+06-4.60462E+08-1.99299E+06-2.07076E+08
 -1      2124-1.81068E+09 2.23329E+08 2.76857E+06-4.58435E+08 2.30306E+08 1.05513E+08
 -1      2126-1.81068E+09 2.23329E+08 2.76857E+06-4.58435E+08 2.30306E+08 1.05513E+08
 -1      2127-7.84108E+08 1.46163E+08-5.06070E+05-6.97141E+08 2.99393E+08-4.36481E+07
 -1      2129-7.84108E+08 1.46163E+08-5.06070E+05-6.97141E+08 2.99393E+08-4.36481E+07
 -1      2130 4.53553E+08 1.81831E+08 1.17640E+06-7.44878E+08 3.81703E+08 2.50677E+07
 -1      2132 4.53553E+08 1.81831E+08 1.17640E+06-7.44878E+08 3.81703E+08 2.50677E+07
 -1      2133 1.73629E+09 2.10331E+08 1.25107E+06-7.36128E+08 4.36766E+08-7.27719E+06
 -1      2135 1.73629E+09 2.10331E+08 1.25107E+06-7.36128E+08 4.36766E+08-7.27719E+06
 -1      2136 2.83365E+09 1.79146E+08 4.01143E+05-5.51580E+08 4.52517E+08 5.21041E+06
 -1      2138 2.83365E+09 1.79146E+08 4.01143E+05-5.51580E+08 4.52517E+08 5.21041E+06
 -1      2139 3.51897E+09 1.78957E+08 1.48581E+06-2.62219E+08 4.48715E+08-2.16708E+06
 -1      2141 3.51897E+09 1.78957E+08 1.48581E+06-2.62219E+08 4.48715E+08-2.16708E+06
 -1      2142 3.63589E+09 1.44083E+08 2.46841E+05 1.00705E+08 4.03341E+08-1.55869E+06
 -1      2144 3.63589E+09 1.44083E+08 2.46841E+05 1.00705E+08 4.03341E+08-1.55869E+06
 -1      2145 3.13342E+09 1.21779E+08 1.08108E+06 4.52644E+08 3.38571E+08-3.81442E+06
 -1      2147 3.13342E+09 1.21779E+08 1.08108E+06 4.52644E+08 3.38571E+08-3.81442E+06
 -1      2148 2.09268E+09 8.79930E+07 1.25849E+05 7.22040E+08 2.43267E+08-4.85960E+06
 -1      2150 2.09268E+09 8.79930E+07 1.25849E+05 7.22040E+08 2.43267E+08-4.85960E+06
 -1      2151 7.06912E+08 5.57690E+07 5.27642E+05 8.50206E+08 1.36616E+08-5.44618E+06
 -1      2153 7.06912E+08 5.57690E+07 5.27642E+05 8.50206E+08 1.36616E+08-5.44618E+06
 -1      2154-7.58918E+08 1.80051E+07-1.25911E+05 8.11356E+08 1.66448E+07-5.69128E+06
 -1      2156-7.58918E+08 1.80051E+07-1.25911E+05 8.11356E+08 1.66448E+07-5.69128E+06
 -1      2157-2.02790E+09-2.32343E+07-3.68431E+04 6.18509E+08-1.00504E+08-5.08424E+06
 -1      2159-2.02790E+09-2.32343E+07-3.68431E+04 6.18509E+08-1.00504E+08-5.08424E+06
 -1      2160-2.87505E+09-6.87448E+07-4.91193E+05 3.18848E+08-2.12348E+08-4.26892E+06
 -1      2162-2.87505E+09-6.87448E+07-4.91193E+05 3.18848E+08-2.12348E+08-4.26892E+06
 -1      2163-3.17562E+09-1.16268E+08-5.59992E+05-1.62654E+07-3.06495E+08-2.94841E+06
 -1      2165-3.17562E+09-1.16268E+08-5.59992E+05-1.62654E+07-3.06495E+08-2.94841E+06
 -1      2166-2.93161E+09-1.62116E+08-8.67500E+05-3.10356E+08-3.80242E+08-1.66587E+06
 -1      2168-2.93161E+09-1.62116E+08-8.67500E+05-3.10356E+08-3.80242E+08-1.66587E+06
 -1      2169-2.26469E+09-2.01180E+08-9.46186E+05-4.99298E+08-4.25847E+08-3.48124E+05
 -1      2171-2.26469E+09-2.01180E+08-9.46186E+05-4.99298E+08-4.25847E+08-3.48124E+05
 -1      2172-1.38248E+09-2.27611E+08-1.09562E+06-5.47521E+08-4.43141E+08 7.09020E+05
 -1      2174-1.38248E+09-2.27611E+08-1.09562E+06-5.47521E+08-4.43141E+08 7.09020E+05
 -1      2175-5.23104E+08-2.36287E+08-1.05969E+06-4.55466E+08-4.29194E+08 1.52869E+06
 -1      2177-5.23104E+08-2.36287E+08-1.05969E+06-4.55466E+08-4.29194E+08 1.52869E+06
 -1      2178 1.04856E+08-2.23770E+08-1.02918E+06-2.58818E+08-3.87472E+08 2.08540E+06
 -1      2180 1.04856E+08-2.23770E+08-1.02918E+06-2.58818E+08-3.87472E+08 2.08540E+06
 -1      2181 3.73973E+08-1.89284E+08-8.14397E+05-1.82503E+07-3.18990E+08 2.41711E+06
 -1      2183 3.73973E+08-1.89284E+08-8.14397E+05-1.82503E+07-3.18990E+08 2.41711E+06
 -1      2184 2.66462E+08-1.35546E+08-6.32844E+05 1.96854E+08-2.30753E+08 2.63858E+06
 -1      2186 2.66462E+08-1.35546E+08-6.32844E+05 1.96854E+08-2.30753E+08 2.63858E+06
 -1      2187-1.26528E+08-6.73266E+07-2.64767E+05 3.27062E+08-1.26090E+08 2.84534E+06
 -1      2189-1.26528E+08-6.73266E+07-2.64767E+05 3.27062E+08-1.26090E+08 2.84534E+06
 -1      2190-6.35154E+08 6.35562E+06-2.72399E+04 3.38820E+08-1.48834E+07 2.83553E+06
 -1      2192-6.35154E+08 6.35562E+06-2.72399E+04 3.38820E+08-1.48834E+07 2.83553E+06
 -1      2193-1.06358E+09 7.97414E+07 3.81758E+05 2.34951E+08 9.92205E+07 3.43670E+06
 -1      2195-1.06358E+09 7.97414E+07 3.81758E+05 2.34951E+08 9.92205E+07 3.43670E+06
 -1      2196-1.25044E+09 1.39708E+08 5.79701E+05 5.36282E+07 2.04459E+08 2.27398E+06
 -1      2198-1.25044E+09 1.39708E+08 5.79701E+05 5.36282E+07 2.04459E+08 2.27398E+06
 -1      2199-1.12588E+09 1.87858E+08 8.36284E+05-1.34211E+08 2.98474E+08 4.89631E+06
 -1      2201-1.12588E+09 1.87858E+08 8.36284E+05-1.34211E+08 2.98474E+08 4.89631E+06
 -1      2202-7.48163E+08 2.10301E+08 1.04621E+06-2.49749E+08 3.70472E+08-1.90595E+06
 -1      2204-7.48163E+08 2.10301E+08 1.04621E+06-2.49749E+08 3.70472E+08-1.90595E+06
 -1      2205-3.13564E+08 2.11765E+08 8.42079E+05-1.99215E+08 4.15531E+08 1.07731E+07
 -1      2207-3.13564E+08 2.11765E+08 8.42079E+05-1.99215E+08 4.15531E+08 1.07731E+07
 -1      2208 2.64313E+09 2.02764E+08 1.30417E+06-4.60462E+08-1.99299E+06 2.07076E+08
 -1      2210 2.64313E+09 2.02764E+08 1.30417E+06-4.60462E+08-1.99299E+06 2.07076E+08
 -1      2211 1.81068E+09-2.23329E+08-2.76857E+06-4.58435E+08 2.30306E+08-1.05513E+08
 -1      2213 1.81068E+09-2.23329E+08-2.76857E+06-4.58435E+08 2.30306E+08-1.05513E+08
 -1      2214 7.84108E+08-1.46163E+08 5.06070E+05-6.97141E+08 2.99393E+08 4.36481E+07
 -1      2216 7.84108E+08-1.46163E+08 5.06070E+05-6.97141E+08 2.99393E+08 4.36481E+07
 -1      2217-4.53553E+08-1.81831E+08-1.17640E+06-7.44878E+08 3.81703E+08-2.50677E+07
 -1      2219-4.53553E+08-1.81831E+08-1.17640E+06-7.44878E+08 3.81703E+08-2.50677E+07
 -1      2220-1.73629E+09-2.10331E+08-1.25107E+06-7.36128E+08 4.36766E+08 7.27719E+06
 -1      2222-1.73629E+09-2.10331E+08-1.25107E+06-7.36128E+08 4.36766E+08 7.27719E+06
 -1      2223-2.83365E+09-1.79146E+08-4.01143E+05-5.51580E+08 4.52517E+08-5.21041E+06
 -1      2225-2.83365E+09-1.79146E+08-4.01143E+05-5.51580E+08 4.52517E+08-5.21041E+06
 -1      2226-3.51897E+09-1.78957E+08-1.48581E+06-2.62219E+08 4.48715E+08 2.16708E+06
 -1      2228-3.51897E+09-1.78957E+08-1.48581E+06-2.62219E+08 4.48715E+08 2.16708E+06
 -1      2229-3.63589E+09-1.44083E+08-2.46841E+05 1.00705E+08 4.03341E+08 1.55869E+06
 -1      2231-3.63589E+09-1.44083E+08-2.46841E+05 1.00705E+08 4.03341E+08 1.55869E+06
 -1      2232-3.13342E+09-1.21779E+08-1.08108E+06 4.52644E+08 3.38571E+08 3.81442E+06
 -1      2234-3.13342E+09-1.21779E+08-1.08108E+06 4.52644E+08 3.38571E+08 3.81442E+06
 -1      2235-2.09268E+09-8.79930E+07-1.25849E+05 7.22040E+08 2.43267E+08 4.85960E+06
 -1      2237-2.09268E+09-8.79930E+07-1.25849E+05 7.22040E+08 2.43267E+08 4.85960E+06
 -1      2238-7.06912E+08-5.57690E+07-5.27642E+05 8.50206E+08 1.36616E+08 5.44618E+06
 -1      2240-7.06912E+08-5.57690E+07-5.27642E+05 8.50206E+08 1.36616E+08 5.44618E+06
 -1      2241 7.58918E+08-1.80051E+07 1.25911E+05 8.11356E+08 1.66448E+07 5.69128E+06
 -1      2243 7.58918E+08-1.80051E+07 1.25911E+05 8.11356E+08 1.66448E+07 5.69128E+06
 -1      2244 2.02790E+09 2.32343E+07 3.68431E+04 6.18509E+08-1.00504E+08 5.08424E+06
 -1      2246 2.02790E+09 2.32343E+07 3.68431E+04 6.18509E+08-1.00504E+08 5.08424E+06
 -1      2247 2.87505E+09 6.87448E+07 4.91193E+05 3.18848E+08-2.12348E+08 4.26892E+06
 -1      2249 2.87505E+09 6.87448E+07 4.91193E+05 3.18848E+08-2.12348E+08 4.26892E+06
 -1      2250 3.17562E+09 1.16268E+08 5.59992E+05-1.62654E+07-3.06495E+08 2.94841E+06
 -1      2252 3.17562E+09 1.16268E+08 5.59992E+05-1.62654E+07-3.06495E+08 2.94841E+06
 -1      2253 2.93161E+09 1.62116E+08 8.67500E+05-3.10356E+08-3.80242E+08 1.66587E+06
 -1      2255 2.93161E+09 1.62116E+08 8.67500E+05-3.10356E+08-3.80242E+08 1.66587E+06
 -1      2256 2.26469E+09 2.01180E+08 9.46186E+05-4.99298E+08-4.25847E+08 3.48124E+05
 -1      2258 2.26469E+09 2.01180E+08 9.46186E+05-4.99298E+08-4.25847E+08 3.48124E+05
 -1      2259 1.38248E+09 2.27611E+08 1.09562E+06-5.47521E+08-4.43141E+08-7.09020E+05
 -1      2261 1.38248E+09 2.27611E+08 1.09562E+06-5.47521E+08-4.43141E+08-7.09020E+05
 -1      2262 5.23104E+08 2.36287E+08 1.05969E+06-4.55466E+08-4.29194E+08-1.52869E+06
 -1      2264 5.23104E+08 2.36287E+08 1.05969E+06-4.55466E+08-4.29194E+08-1.52869E+06
 -1      2265-1.04856E+08 2.23770E+08 1.02918E+06-2.58818E+08-3.87472E+08-2.08540E+06
 -1      2267-1.04856E+08 2.23770E+08 1.02918E+06-2.58818E+08-3.87472E+08-2.08540E+06
 -1      2268-3.73973E+08 1.89284E+08 8.14397E+05-1.82503E+07-3.18990E+08-2.41711E+06
 -1      2270-3.73973E+08 1.89284E+08 8.14397E+05-1.82503E+07-3.18990E+08-2.41711E+06
 -1      2271-2.66462E+08 1.35546E+08 6.32844E+05 1.96854E+08-2.30753E+08-2.63858E+06
 -1      2273-2.66462E+08 1.35546E+08 6.32844E+05 1.96854E+08-2.30753E+08-2.63858E+06
 -1      2274 1.26528E+08 6.73266E+07 2.64767E+05 3.27062E+08-1.26090E+08-2.84534E+06
 -1      2276 1.26528E+08 6.73266E+07 2.64767E+05 3.27062E+08-1.26090E+08-2.84534E+06
 -1      2277 6.35154E+08-6.35562E+06 2.72399E+04 3.38820E+08-1.48834E+07-2.83553E+06
 -1      2279 6.35154E+08-6.35562E+06 2.72399E+04 3.38820E+08-1.48834E+07-2.83553E+06
 -1      2280 1.06358E+09-7.97414E+07-3.81758E+05 2.34951E+08 9.92205E+07-3.43670E+06
 -1      2282 1.06358E+09-7.97414E+07-3.81758E+05 2.34951E+08 9.92205E+07-3.43670E+06
 -1      2283 1.25044E+09-1.39708E+08-5.79701E+05 5.36282E+07 2.04459E+08-2.27398E+06
 -1      2285 1.25044E+09-1.39708E+08-5.79701E+05 5.36282E+07 2.04459E+08-2.27398E+06
 -1      2286 1.12588E+09-1.87858E+08-8.36284E+05-1.34211E+08 2.98474E+08-4.89631E+06
 -1      2288 1.12588E+09-1.87858E+08-8.36284E+05-1.34211E+08 2.98474E+08-4.89631E+06
 -1      2289 7.48163E+08-2.10301E+08-1.04621E+06-2.49749E+08 3.70472E+08 1.90595E+06
 -1      2291 7.48163E+08-2.10301E+08-1.04621E+06-2.49749E+08 3.70472E+08 1.90595E+06
 -1      2292 3.13564E+08-2.11765E+08-8.42079E+05-1.99215E+08 4.15531E+08-1.07731E+07
 -1      2294 3.13564E+08-2.11765E+08-8.42079E+05-1.99215E+08 4.15531E+08-1.07731E+07
 -3
    1PSTEP                        79           1           1          
    1PGM                1.000000E+00                                  
    1PGK                2.226576E+07                                  
    1PHID                         -1                                  
    1PSUBC                         0                                  
    1PMODE                        20                                  
  100CL  120 750.9981907         930                     2   20MODAL      1
 -4  FORC        4    1
 -5  F1          1    2    1    0
 -5  F2          1    2    2    0
 -5  F3          1    2    3    0
 -5  ALL         1    2    0    0    1ALL
 -1       404 1.46318E+06 6.99110E+05 1.72048E+06
 -1       406-3.39893E+06-1.29731E+05 1.72048E+06
 -1       407 8.69304E+03-5.14787E+04-2.14952E+05
 -1       409 8.69304E+03-5.14787E+04-2.14952E+05
 -1       410-1.23158E-06 3.59071E+06-3.42482E-06
 -1       412-1.19780E-06-3.25929E+06-2.98618E-06
 -1       413 5.25895E-07-2.53500E+05 5.37645E+06
 -1       415 3.86994E-07-2.53500E+05-5.37645E+06
 -1       424-6.17781E-06-3.34126E+05 3.89870E-06
 -1       426-5.39946E-06-1.63463E+05 3.39239E-06
 -1       427-5.19411E+05 3.36406E+06-7.13186E+05
 -1       429 5.19411E+05 3.36406E+06 7.13186E+05
 -1       438-8.69304E+03-5.14787E+04 2.14952E+05
 -1       440-8.69304E+03-5.14787E+04 2.14952E+05
 -1       441-1.46318E+06 6.99110E+05-1.72048E+06
 -1       443 3.39893E+06-1.29731E+05-1.72048E+06
 -1       444-5.19411E+05 3.36406E+06 7.13186E+05
 -1       446 5.19411E+05 3.36406E+06-7.13186E+05
 -1       447 1.09191E-05-3.34126E+05 6.14946E-07
 -1       449-1.38700E-06-1.63463E+05-4.93014E-09
 -1       458-9.10193E-07-2.53500E+05-5.37645E+06
 -1       460-1.50636E-06-2.53500E+05 5.37645E+06
 -1       461 1.04465E-06 3.59071E+06 6.50672E-06
 -1       463 9.51983E-07-3.25929E+06 5.33350E-06
 -1       472-1.46318E+06 6.99110E+05 1.72048E+06
 -1       474 3.39893E+06-1.29731E+05 1.72048E+06
 -1       475-8.69304E+03-5.14787E+04-2.14952E+05
 -1       477-8.69304E+03-5.14787E+04-2.14952E+05
 -1       478 8.69304E+03-5.14787E+04 2.14952E+05
 -1       480 8.69304E+03-5.14787E+04 2.14952E+05
 -1       481 1.46318E+06 6.99110E+05-1.72048E+06
 -1       483-3.39893E+06-1.29731E+05-1.72048E+06
 -1       484 5.20900E+03-8.20577E+03-1.00118E+05
 -1       486 5.20900E+03-8.20577E+03-1.00118E+05
 -1       487 9.43211E+03-2.08200E+04-2.06572E+05
 -1       489 9.43211E+03-2.08200E+04-2.06572E+05
 -1       490 1.20065E+04-3.87037E+04-3.00296E+05
 -1       492 1.20065E+04-3.87037E+04-3.00296E+05
 -1       493 1.24322E+04-5.93347E+04-3.71844E+05
 -1       495 1.24322E+04-5.93347E+04-3.71844E+05
 -1       496 1.04593E+04-7.88926E+04-4.18476E+05
 -1       498 1.04593E+04-7.88926E+04-4.18476E+05
 -1       499 6.21796E+03-9.34857E+04-4.36299E+05
 -1       501 6.21796E+03-9.34857E+04-4.36299E+05
 -1       502 2.62131E+02-9.97080E+04-4.24744E+05
 -1       504 2.62131E+02-9.97080E+04-4.24744E+05
 -1       505-6.47257E+03-9.53792E+04-3.84532E+05
 -1       507-6.47257E+03-9.53792E+04-3.84532E+05
 -1       508-1.28562E+04-8.00877E+04-3.18574E+05
 -1       510-1.28562E+04-8.00877E+04-3.18574E+05
 -1       511-1.77834E+04-5.53291E+04-2.31291E+05
 -1       513-1.77834E+04-5.53291E+04-2.31291E+05
 -1       514-2.04118E+04-2.42793E+04-1.28543E+05
 -1       516-2.04118E+04-2.42793E+04-1.28543E+05
 -1       517-2.03370E+04 8.81958E+03-1.71576E+04
 -1       519-2.03370E+04 8.81958E+03-1.71576E+04
 -1       520-1.76735E+04 3.94868E+04 9.54365E+04
 -1       522-1.76735E+04 3.94868E+04 9.54365E+04
 -1       523-1.30159E+04 6.38721E+04 2.01692E+05
 -1       525-1.30159E+04 6.38721E+04 2.01692E+05
 -1       526-7.29239E+03 7.94595E+04 2.94410E+05
 -1       528-7.29239E+03 7.94595E+04 2.94410E+05
 -1       529-1.54666E+03 8.54515E+04 3.67215E+05
 -1       531-1.54666E+03 8.54515E+04 3.67215E+05
 -1       532 3.29886E+03 8.27523E+04 4.15002E+05
 -1       534 3.29886E+03 8.27523E+04 4.15002E+05
 -1       535 6.64042E+03 7.35701E+04 4.34319E+05
 -1       537 6.64042E+03 7.35701E+04 4.34319E+05
 -1       538 8.30423E+03 6.07510E+04 4.23649E+05
 -1       540 8.30423E+03 6.07510E+04 4.23649E+05
 -1       541 8.54667E+03 4.70172E+04 3.83573E+05
 -1       543 8.54667E+03 4.70172E+04 3.83573E+05
 -1       544 7.94675E+03 3.43049E+04 3.16769E+05
 -1       546 7.94675E+03 3.43049E+04 3.16769E+05
 -1       547 7.22172E+03 2.33637E+04 2.27860E+05
 -1       549 7.22172E+03 2.33637E+04 2.27860E+05
 -1       550 7.01585E+03 1.37108E+04 1.23083E+05
 -1       552 7.01585E+03 1.37108E+04 1.23083E+05
 -1       553 7.71917E+03 3.93584E+03 9.84905E+03
 -1       555 7.71917E+03 3.93584E+03 9.84905E+03
 -1       556 9.36625E+03-7.74027E+03-1.03839E+05
 -1       558 9.36625E+03-7.74027E+03-1.03839E+05
 -1       559 1.16436E+04-2.28162E+04-2.09944E+05
 -1       561 1.16436E+04-2.28162E+04-2.09944E+05
 -1       562 1.40117E+04-4.19729E+04-3.01088E+05
 -1       564 1.40117E+04-4.19729E+04-3.01088E+05
 -1       565 1.59135E+04-6.48111E+04-3.70895E+05
 -1       567 1.59135E+04-6.48111E+04-3.70895E+05
 -1       568 1.70353E+04-8.99937E+04-4.14813E+05
 -1       570 1.70353E+04-8.99937E+04-4.14813E+05
 -1       571 1.15803E+04-1.02886E+05-2.82417E+05
 -1       573 1.15803E+04-1.02886E+05-2.82417E+05
 -1       574 9.66301E-06 1.57271E+05 5.69723E-06
 -1       576 9.70568E-06-1.29566E+06 5.10797E-06
 -1       577-3.68313E-06 5.82388E+05 1.14038E+06
 -1       579-3.63987E-06 5.82388E+05-1.14038E+06
 -1       588 6.89801E-06 3.98308E+06 1.64990E-06
 -1       590 6.83972E-06-2.50932E+06 2.05514E-06
 -1       591-4.04302E-06-7.26027E+05 5.09578E+06
 -1       593-4.01299E-06-7.26027E+05-5.09578E+06
 -1       602 2.93038E-06 5.04776E+06-3.41537E-06
 -1       604 2.97304E-06-4.64974E+06-1.42366E-06
 -1       605-3.05453E-06-2.15305E+05 7.61141E+06
 -1       607-3.23744E-06-2.15305E+05-7.61141E+06
 -1       616 1.76178E-06 6.51140E+06-1.42191E-05
 -1       618 1.81772E-06-5.50193E+06-1.22186E-05
 -1       619 1.23379E-06-5.66236E+05 9.42907E+06
 -1       621 8.19467E-07-5.66236E+05-9.42907E+06
 -1       630-1.46038E-06 7.20434E+06-1.96608E-05
 -1       632-1.58908E-06-6.59701E+06-1.68148E-05
 -1       633 5.50098E-06-4.16765E+05 1.08325E+07
 -1       635 5.05785E-06-4.16765E+05-1.08325E+07
 -1       644-4.42758E-06 7.49009E+06-1.25833E-05
 -1       646-4.59574E-06-6.92355E+06-1.22973E-05
 -1       647 7.50226E-06-4.41993E+05 1.13130E+07
 -1       649 7.13624E-06-4.41993E+05-1.13130E+07
 -1       658-6.46790E-06 7.27073E+06-1.74170E-06
 -1       660-6.42303E-06-6.92172E+06-3.47336E-06
 -1       661 7.34334E-06-3.60699E+05 1.11394E+07
 -1       663 7.16423E-06-3.60699E+05-1.11394E+07
 -1       672-8.06297E-06 6.55634E+06-1.73106E-06
 -1       674-7.91537E-06-6.32397E+06-1.38480E-06
 -1       675 7.39214E-06-3.03672E+05 1.01095E+07
 -1       677 7.72566E-06-3.03672E+05-1.01095E+07
 -1       686-1.00231E-05 5.44657E+06-1.02333E-05
 -1       688-1.00099E-05-5.27975E+06-7.78122E-06
 -1       689 1.10298E-05-2.43203E+05 8.41892E+06
 -1       691 1.13261E-05-2.43203E+05-8.41892E+06
 -1       700-1.27331E-05 3.96493E+06-9.15514E-06
 -1       702-1.27101E-05-3.81292E+06-7.42147E-06
 -1       703 1.44777E-05-1.82756E+05 6.10471E+06
 -1       705 1.45338E-05-1.82756E+05-6.10471E+06
 -1       714-1.38516E-05 2.24829E+06-3.64089E-07
 -1       716-1.38292E-05-2.06629E+06-2.28698E-07
 -1       717 1.32635E-05-1.28375E+05 3.38645E+06
 -1       719 1.32843E-05-1.28375E+05-3.38645E+06
 -1       728-9.89958E-06 3.70173E+05 4.48825E-06
 -1       730-9.81954E-06-1.78046E+05 4.35489E-06
 -1       731 8.20978E-06-6.02570E+04 4.30288E+05
 -1       733 8.28097E-06-6.02570E+04-4.30288E+05
 -1       742-1.89586E-06-1.52716E+06 6.19079E-06
 -1       744-1.91030E-06 1.69070E+06 2.14454E-06
 -1       745 3.28761E-06 1.79227E+04-2.52565E+06
 -1       747 3.34033E-06 1.79227E+04 2.52565E+06
 -1       756 2.00984E-06-3.34059E+06 4.74395E-06
 -1       758 1.93641E-06 3.38996E+06 1.29199E-07
 -1       759-1.05928E-06 1.18823E+05-5.28270E+06
 -1       761-1.29393E-06 1.18823E+05 5.28270E+06
 -1       770 2.75966E-06-4.93761E+06 4.91511E-06
 -1       772 2.59768E-06 4.79320E+06 1.80426E-06
 -1       773-4.89555E-06 2.33377E+05-7.63755E+06
 -1       775-5.14063E-06 2.33377E+05 7.63755E+06
 -1       784 7.07697E-06-6.21708E+06 6.22699E-06
 -1       786 6.90303E-06 5.80830E+06 3.24526E-06
 -1       787-5.19056E-06 3.56898E+05-9.43853E+06
 -1       789-5.16609E-06 3.56898E+05 9.43853E+06
 -1       798 9.69111E-06-7.07868E+06 2.71236E-06
 -1       800 9.83568E-06 6.38455E+06 4.19909E-07
 -1       801-4.87178E-06 4.70028E+05-1.05671E+07
 -1       803-4.91846E-06 4.70028E+05 1.05671E+07
 -1       812 6.54761E-06-7.45914E+06-3.37064E-06
 -1       814 6.56861E-06 6.51025E+06-3.54385E-06
 -1       815-4.83052E-06 5.56471E+05-1.09643E+07
 -1       817-4.92643E-06 5.56471E+05 1.09643E+07
 -1       826 5.41399E-06-7.31795E+06-5.03445E-06
 -1       828 5.14196E-06 6.20736E+06-3.90124E-06
 -1       829-2.98823E-06 5.95972E+05-1.06158E+07
 -1       831-2.82027E-06 5.95972E+05 1.06158E+07
 -1       840 6.79725E-06-6.66046E+06-1.83620E-06
 -1       842 6.64304E-06 5.52288E+06-1.85394E-06
 -1       843-2.55745E-06 5.77337E+05-9.56250E+06
 -1       845-2.51588E-06 5.77337E+05 9.56250E+06
 -1       854 6.59659E-06-5.52367E+06-4.87092E-06
 -1       856 6.55981E-06 4.51749E+06-4.98014E-06
 -1       857-3.93617E-06 4.94626E+05-7.88114E+06
 -1       859-3.93425E-06 4.94626E+05 7.88114E+06
 -1       868 3.13055E-06-3.99197E+06-1.23953E-05
 -1       870 3.26801E-06 3.26190E+06-9.68771E-06
 -1       871-4.77300E-06 3.55437E+05-5.69345E+06
 -1       873-4.69731E-06 3.55437E+05 5.69345E+06
 -1       882-1.17067E-06-2.17149E+06-8.66426E-06
 -1       884-1.09627E-06 1.82441E+06-9.50258E-06
 -1       885-4.23704E-06 1.74290E+05-3.13632E+06
 -1       887-4.16804E-06 1.74290E+05 3.13632E+06
 -1       896-1.04126E-06-2.06409E+05-5.07401E-06
 -1       898-1.00310E-06 2.84202E+05-2.59147E-06
 -1       899-1.53372E-06-2.45611E+04-3.85073E+05
 -1       901-1.65816E-06-2.45611E+04 3.85073E+05
 -1       910 3.88445E-08 1.76537E+06-3.30711E-06
 -1       912 8.82665E-08-1.29406E+06-3.29247E-06
 -1       913-1.41196E-06-2.14311E+05 2.40130E+06
 -1       915-1.61007E-06-2.14311E+05-2.40130E+06
 -1       924-1.84805E-06 3.58353E+06-2.50867E-06
 -1       926-1.82791E-06-2.80901E+06-4.63736E-06
 -1       927-7.20924E-07-3.74270E+05 5.01741E+06
 -1       929-7.26293E-07-3.74270E+05-5.01741E+06
 -1       938-3.02062E-06 5.12443E+06 5.38212E-08
 -1       940-3.08690E-06-4.21095E+06-2.54220E-06
 -1       941 1.54250E-09-4.72921E+05 7.32718E+06
 -1       943-1.53464E-07-4.72921E+05-7.32718E+06
 -1       952-5.14376E-06 6.27230E+06 1.09424E-06
 -1       954-5.17800E-06-5.34504E+06-4.39240E-06
 -1       955-7.05157E-07-5.30833E+05 9.11826E+06
 -1       957-5.05366E-07-5.30833E+05-9.11826E+06
 -1       966-4.15849E-06 6.89574E+06-5.36169E-06
 -1       968-4.16533E-06-6.21263E+06-4.70451E-06
 -1       969-9.91095E-08-4.78354E+05 1.02885E+07
 -1       971-1.77926E-07-4.78354E+05-1.02885E+07
 -1       980 1.40152E+06 6.45632E+05-2.91426E+03
 -1       982-3.38386E+06-9.78769E+04-2.91426E+03
 -1       983-1.15803E+04-1.02886E+05 2.82417E+05
 -1       985-1.15803E+04-1.02886E+05 2.82417E+05
 -1       986-5.20900E+03-8.20577E+03 1.00118E+05
 -1       988-5.20900E+03-8.20577E+03 1.00118E+05
 -1       989-9.43211E+03-2.08200E+04 2.06572E+05
 -1       991-9.43211E+03-2.08200E+04 2.06572E+05
 -1       992-1.20065E+04-3.87037E+04 3.00296E+05
 -1       994-1.20065E+04-3.87037E+04 3.00296E+05
 -1       995-1.24322E+04-5.93347E+04 3.71844E+05
 -1       997-1.24322E+04-5.93347E+04 3.71844E+05
 -1       998-1.04593E+04-7.88926E+04 4.18476E+05
 -1      1000-1.04593E+04-7.88926E+04 4.18476E+05
 -1      1001-6.21796E+03-9.34857E+04 4.36299E+05
 -1      1003-6.21796E+03-9.34857E+04 4.36299E+05
 -1      1004-2.62131E+02-9.97080E+04 4.24744E+05
 -1      1006-2.62131E+02-9.97080E+04 4.24744E+05
 -1      1007 6.47257E+03-9.53792E+04 3.84532E+05
 -1      1009 6.47257E+03-9.53792E+04 3.84532E+05
 -1      1010 1.28562E+04-8.00877E+04 3.18574E+05
 -1      1012 1.28562E+04-8.00877E+04 3.18574E+05
 -1      1013 1.77834E+04-5.53291E+04 2.31291E+05
 -1      1015 1.77834E+04-5.53291E+04 2.31291E+05
 -1      1016 2.04118E+04-2.42793E+04 1.28543E+05
 -1      1018 2.04118E+04-2.42793E+04 1.28543E+05
 -1      1019 2.03370E+04 8.81958E+03 1.71576E+04
 -1      1021 2.03370E+04 8.81958E+03 1.71576E+04
 -1      1022 1.76735E+04 3.94868E+04-9.54365E+04
 -1      1024 1.76735E+04 3.94868E+04-9.54365E+04
 -1      1025 1.30159E+04 6.38721E+04-2.01692E+05
 -1      1027 1.30159E+04 6.38721E+04-2.01692E+05
 -1      1028 7.29239E+03 7.94595E+04-2.94410E+05
 -1      1030 7.29239E+03 7.94595E+04-2.94410E+05
 -1      1031 1.54666E+03 8.54515E+04-3.67215E+05
 -1      1033 1.54666E+03 8.54515E+04-3.67215E+05
 -1      1034-3.29886E+03 8.27523E+04-4.15002E+05
 -1      1036-3.29886E+03 8.27523E+04-4.15002E+05
 -1      1037-6.64042E+03 7.35701E+04-4.34319E+05
 -1      1039-6.64042E+03 7.35701E+04-4.34319E+05
 -1      1040-8.30423E+03 6.07510E+04-4.23649E+05
 -1      1042-8.30423E+03 6.07510E+04-4.23649E+05
 -1      1043-8.54667E+03 4.70172E+04-3.83573E+05
 -1      1045-8.54667E+03 4.70172E+04-3.83573E+05
 -1      1046-7.94675E+03 3.43049E+04-3.16769E+05
 -1      1048-7.94675E+03 3.43049E+04-3.16769E+05
 -1      1049-7.22172E+03 2.33637E+04-2.27860E+05
 -1      1051-7.22172E+03 2.33637E+04-2.27860E+05
 -1      1052-7.01585E+03 1.37108E+04-1.23083E+05
 -1      1054-7.01585E+03 1.37108E+04-1.23083E+05
 -1      1055-7.71917E+03 3.93584E+03-9.84905E+03
 -1      1057-7.71917E+03 3.93584E+03-9.84905E+03
 -1      1058-9.36625E+03-7.74027E+03 1.03839E+05
 -1      1060-9.36625E+03-7.74027E+03 1.03839E+05
 -1      1061-1.16436E+04-2.28162E+04 2.09944E+05
 -1      1063-1.16436E+04-2.28162E+04 2.09944E+05
 -1      1064-1.40117E+04-4.19729E+04 3.01088E+05
 -1      1066-1.40117E+04-4.19729E+04 3.01088E+05
 -1      1067-1.59135E+04-6.48111E+04 3.70895E+05
 -1      1069-1.59135E+04-6.48111E+04 3.70895E+05
 -1      1070-1.70353E+04-8.99937E+04 4.14813E+05
 -1      1072-1.70353E+04-8.99937E+04 4.14813E+05
 -1      1073-1.40152E+06 6.45632E+05 2.91426E+03
 -1      1075 3.38386E+06-9.78769E+04 2.91426E+03
 -1      1076-3.56175E+06-3.43686E+06-1.08542E+05
 -1      1078 3.56175E+06-3.43686E+06 1.08542E+05
 -1      1079-6.08467E+06-8.34682E+05-8.99107E-06
 -1      1081 6.08467E+06-8.34682E+05-1.31393E-05
 -1      1082-3.56175E+06-3.43686E+06 1.08542E+05
 -1      1084 3.56175E+06-3.43686E+06-1.08542E+05
 -1      1085 9.70821E-06 5.82388E+05-1.14038E+06
 -1      1087 9.74245E-06 5.82388E+05 1.14038E+06
 -1      1088-5.00533E-06 1.57271E+05-3.47428E-07
 -1      1090-5.00341E-06-1.29566E+06-2.32320E-07
 -1      1099 7.06319E-06-7.26027E+05-5.09578E+06
 -1      1101 6.80833E-06-7.26027E+05 5.09578E+06
 -1      1102-5.19905E-06 3.98308E+06-4.57910E-06
 -1      1104-5.32276E-06-2.50932E+06-4.38860E-06
 -1      1113 2.98201E-06-2.15305E+05-7.61141E+06
 -1      1115 2.38036E-06-2.15305E+05 7.61141E+06
 -1      1116-5.97254E-06 5.04776E+06-7.91705E-07
 -1      1118-6.13438E-06-4.64974E+06-2.09905E-08
 -1      1127-4.99840E-08-5.66236E+05-9.42907E+06
 -1      1129-5.57842E-07-5.66236E+05 9.42907E+06
 -1      1130-3.13581E-06 6.51140E+06-3.61266E-06
 -1      1132-3.28399E-06-5.50193E+06-2.81288E-06
 -1      1141-2.48300E-06-4.16765E+05-1.08325E+07
 -1      1143-2.86223E-06-4.16765E+05 1.08325E+07
 -1      1144-8.90603E-07 7.20434E+06 3.17151E-07
 -1      1146-1.07574E-06-6.59701E+06 1.31514E-07
 -1      1155-1.54287E-06-4.41993E+05-1.13130E+07
 -1      1157-2.04493E-06-4.41993E+05 1.13130E+07
 -1      1158-3.73439E-07 7.49009E+06 5.94483E-06
 -1      1160-4.52077E-07-6.92355E+06 6.49577E-06
 -1      1169-1.27725E-06-3.60699E+05-1.11394E+07
 -1      1171-1.70739E-06-3.60699E+05 1.11394E+07
 -1      1172 6.25252E-07 7.27073E+06 4.03537E-06
 -1      1174 6.52915E-07-6.92172E+06 2.75694E-06
 -1      1183-5.57462E-06-3.03672E+05-1.01095E+07
 -1      1185-5.94780E-06-3.03672E+05 1.01095E+07
 -1      1186 2.37684E-06 6.55634E+06-2.76180E-06
 -1      1188 2.28270E-06-6.32397E+06-2.10553E-06
 -1      1197-1.00349E-05-2.43203E+05-8.41892E+06
 -1      1199-1.01397E-05-2.43203E+05 8.41892E+06
 -1      1200 7.35054E-06 5.44657E+06-6.67968E-08
 -1      1202 7.27758E-06-5.27975E+06 4.37114E-06
 -1      1211-9.71740E-06-1.82756E+05-6.10471E+06
 -1      1213-9.86051E-06-1.82756E+05 6.10471E+06
 -1      1214 1.36770E-05 3.96493E+06 8.41239E-06
 -1      1216 1.37794E-05-3.81292E+06 9.76214E-06
 -1      1225-8.60346E-06-1.28375E+05-3.38645E+06
 -1      1227-8.92562E-06-1.28375E+05 3.38645E+06
 -1      1228 1.28149E-05 2.24829E+06 6.27395E-06
 -1      1230 1.30105E-05-2.06629E+06 6.73150E-06
 -1      1239-7.79610E-06-6.02570E+04-4.30288E+05
 -1      1241-8.14048E-06-6.02570E+04 4.30288E+05
 -1      1242 6.17797E-06 3.70173E+05-1.08570E-06
 -1      1244 6.32304E-06-1.78046E+05-6.68679E-07
 -1      1253-5.35452E-06 1.79227E+04 2.52565E+06
 -1      1255-5.46032E-06 1.79227E+04-2.52565E+06
 -1      1256 2.41515E-06-1.52716E+06-4.13876E-06
 -1      1258 2.54214E-06 1.69070E+06-4.02777E-06
 -1      1267-1.59748E-06 1.18823E+05 5.28270E+06
 -1      1269-1.91841E-06 1.18823E+05-5.28270E+06
 -1      1270 4.19823E-08-3.34059E+06-4.57261E-07
 -1      1272 1.49768E-07 3.38996E+06-1.00608E-06
 -1      1281 1.45872E-06 2.33377E+05 7.63755E+06
 -1      1283 1.28784E-06 2.33377E+05-7.63755E+06
 -1      1284-2.42301E-06-4.93761E+06 2.87242E-06
 -1      1286-2.38288E-06 4.79320E+06 1.96044E-06
 -1      1295 2.09802E-06 3.56898E+05 9.43853E+06
 -1      1297 2.36462E-06 3.56898E+05-9.43853E+06
 -1      1298-3.67058E-06-6.21708E+06-2.90533E-06
 -1      1300-3.53992E-06 5.80830E+06-5.15879E-07
 -1      1309 2.01906E-06 4.70028E+05 1.05671E+07
 -1      1311 2.25266E-06 4.70028E+05-1.05671E+07
 -1      1312-3.32377E-06-7.07868E+06-5.33905E-06
 -1      1314-3.25464E-06 6.38455E+06-1.87218E-06
 -1      1323 2.74203E-06 5.56471E+05 1.09643E+07
 -1      1325 3.05992E-06 5.56471E+05-1.09643E+07
 -1      1326-3.76079E-06-7.45914E+06 1.72976E-06
 -1      1328-3.78022E-06 6.51025E+06 2.04342E-06
 -1      1337 3.17654E-06 5.95972E+05 1.06158E+07
 -1      1339 3.39744E-06 5.95972E+05-1.06158E+07
 -1      1340-6.21956E-06-7.31795E+06 2.35593E-06
 -1      1342-6.21082E-06 6.20736E+06 4.29330E-06
 -1      1351 4.21509E-06 5.77337E+05 9.56250E+06
 -1      1353 4.12144E-06 5.77337E+05-9.56250E+06
 -1      1354-5.68107E-06-6.66046E+06 4.24180E-06
 -1      1356-5.71236E-06 5.52288E+06 4.26676E-06
 -1      1365 6.64068E-06 4.94626E+05 7.88114E+06
 -1      1367 6.31032E-06 4.94626E+05-7.88114E+06
 -1      1368-4.96990E-06-5.52367E+06 1.05277E-05
 -1      1370-5.04958E-06 4.51749E+06 9.75301E-06
 -1      1379 7.13123E-06 3.55437E+05 5.69345E+06
 -1      1381 6.89017E-06 3.55437E+05-5.69345E+06
 -1      1382-7.61934E-06-3.99197E+06 8.37299E-06
 -1      1384-7.67464E-06 3.26190E+06 8.18150E-06
 -1      1393 3.95253E-06 1.74290E+05 3.13632E+06
 -1      1395 4.27728E-06 1.74290E+05-3.13632E+06
 -1      1396-5.93436E-06-2.17149E+06-4.84609E-06
 -1      1398-5.86661E-06 1.82441E+06-4.42313E-06
 -1      1407-3.25854E-08-2.45611E+04 3.85073E+05
 -1      1409 3.86821E-07-2.45611E+04-3.85073E+05
 -1      1410 1.83628E-07-2.06409E+05-1.09531E-05
 -1      1412 1.40996E-07 2.84202E+05-9.64780E-06
 -1      1421-2.32197E-06-2.14311E+05-2.40130E+06
 -1      1423-2.22965E-06-2.14311E+05 2.40130E+06
 -1      1424 2.07815E-06 1.76537E+06-1.58973E-06
 -1      1426 2.02850E-06-1.29406E+06-9.56272E-07
 -1      1435-2.21106E-06-3.74270E+05-5.01741E+06
 -1      1437-2.29110E-06-3.74270E+05 5.01741E+06
 -1      1438-1.73910E-07 3.58353E+06 5.50506E-06
 -1      1440-8.36153E-08-2.80901E+06 5.28082E-06
 -1      1449-7.97820E-07-4.72921E+05-7.32718E+06
 -1      1451-1.13931E-06-4.72921E+05 7.32718E+06
 -1      1452-1.25429E-06 5.12443E+06-9.14542E-07
 -1      1454-1.11638E-06-4.21095E+06 3.86404E-06
 -1      1463-5.32080E-07-5.30833E+05-9.11826E+06
 -1      1465-1.05220E-06-5.30833E+05 9.11826E+06
 -1      1466-5.02048E-07 6.27230E+06-1.26947E-06
 -1      1468-6.45879E-07-5.34504E+06 2.04445E-06
 -1      1477-8.36844E-07-4.78354E+05-1.02885E+07
 -1      1479-1.63576E-06-4.78354E+05 1.02885E+07
 -1      1480 5.44664E-07 6.89574E+06 5.91753E-06
 -1      1482 3.61884E-07-6.21263E+06 4.48517E-06
 -1      1491-1.74008E-06 1.25949E+05-1.68787E-06
 -1      1493-1.90887E-06 1.25949E+05-1.31277E-06
 -1      1494 8.62085E-07 2.21843E+05-9.78905E-07
 -1      1496 6.58496E-07 2.21843E+05-8.46841E-07
 -1      1497 1.39439E-06 1.25949E+05-1.14764E-06
 -1      1499 6.25740E-07 1.25949E+05-9.81447E-07
 -1      1500-5.20900E+03-8.20577E+03-1.00118E+05
 -1      1502-5.20900E+03-8.20577E+03-1.00118E+05
 -1      1503-9.43211E+03-2.08200E+04-2.06572E+05
 -1      1505-9.43211E+03-2.08200E+04-2.06572E+05
 -1      1506-1.20065E+04-3.87037E+04-3.00296E+05
 -1      1508-1.20065E+04-3.87037E+04-3.00296E+05
 -1      1509-1.24322E+04-5.93347E+04-3.71844E+05
 -1      1511-1.24322E+04-5.93347E+04-3.71844E+05
 -1      1512-1.04593E+04-7.88926E+04-4.18476E+05
 -1      1514-1.04593E+04-7.88926E+04-4.18476E+05
 -1      1515-6.21796E+03-9.34857E+04-4.36299E+05
 -1      1517-6.21796E+03-9.34857E+04-4.36299E+05
 -1      1518-2.62131E+02-9.97080E+04-4.24744E+05
 -1      1520-2.62131E+02-9.97080E+04-4.24744E+05
 -1      1521 6.47257E+03-9.53792E+04-3.84532E+05
 -1      1523 6.47257E+03-9.53792E+04-3.84532E+05
 -1      1524 1.28562E+04-8.00877E+04-3.18574E+05
 -1      1526 1.28562E+04-8.00877E+04-3.18574E+05
 -1      1527 1.77834E+04-5.53291E+04-2.31291E+05
 -1      1529 1.77834E+04-5.53291E+04-2.31291E+05
 -1      1530 2.04118E+04-2.42793E+04-1.28543E+05
 -1      1532 2.04118E+04-2.42793E+04-1.28543E+05
 -1      1533 2.03370E+04 8.81958E+03-1.71576E+04
 -1      1535 2.03370E+04 8.81958E+03-1.71576E+04
 -1      1536 1.76735E+04 3.94868E+04 9.54365E+04
 -1      1538 1.76735E+04 3.94868E+04 9.54365E+04
 -1      1539 1.30159E+04 6.38721E+04 2.01692E+05
 -1      1541 1.30159E+04 6.38721E+04 2.01692E+05
 -1      1542 7.29239E+03 7.94595E+04 2.94410E+05
 -1      1544 7.29239E+03 7.94595E+04 2.94410E+05
 -1      1545 1.54666E+03 8.54515E+04 3.67215E+05
 -1      1547 1.54666E+03 8.54515E+04 3.67215E+05
 -1      1548-3.29886E+03 8.27523E+04 4.15002E+05
 -1      1550-3.29886E+03 8.27523E+04 4.15002E+05
 -1      1551-6.64042E+03 7.35701E+04 4.34319E+05
 -1      1553-6.64042E+03 7.35701E+04 4.34319E+05
 -1      1554-8.30423E+03 6.07510E+04 4.23649E+05
 -1      1556-8.30423E+03 6.07510E+04 4.23649E+05
 -1      1557-8.54667E+03 4.70172E+04 3.83573E+05
 -1      1559-8.54667E+03 4.70172E+04 3.83573E+05
 -1      1560-7.94675E+03 3.43049E+04 3.16769E+05
 -1      1562-7.94675E+03 3.43049E+04 3.16769E+05
 -1      1563-7.22172E+03 2.33637E+04 2.27860E+05
 -1      1565-7.22172E+03 2.33637E+04 2.27860E+05
 -1      1566-7.01585E+03 1.37108E+04 1.23083E+05
 -1      1568-7.01585E+03 1.37108E+04 1.23083E+05
 -1      1569-7.71917E+03 3.93584E+03 9.84905E+03
 -1      1571-7.71917E+03 3.93584E+03 9.84905E+03
 -1      1572-9.36625E+03-7.74027E+03-1.03839E+05
 -1      1574-9.36625E+03-7.74027E+03-1.03839E+05
 -1      1575-1.16436E+04-2.28162E+04-2.09944E+05
 -1      1577-1.16436E+04-2.28162E+04-2.09944E+05
 -1      1578-1.40117E+04-4.19729E+04-3.01088E+05
 -1      1580-1.40117E+04-4.19729E+04-3.01088E+05
 -1      1581-1.59135E+04-6.48111E+04-3.70895E+05
 -1      1583-1.59135E+04-6.48111E+04-3.70895E+05
 -1      1584-1.70353E+04-8.99937E+04-4.14813E+05
 -1      1586-1.70353E+04-8.99937E+04-4.14813E+05
 -1      1587-1.15803E+04-1.02886E+05-2.82417E+05
 -1      1589-1.15803E+04-1.02886E+05-2.82417E+05
 -1      1590-1.40152E+06 6.45632E+05-2.91426E+03
 -1      1592 3.38386E+06-9.78769E+04-2.91426E+03
 -1      1593 1.15803E+04-1.02886E+05 2.82417E+05
 -1      1595 1.15803E+04-1.02886E+05 2.82417E+05
 -1      1596 5.20900E+03-8.20577E+03 1.00118E+05
 -1      1598 5.20900E+03-8.20577E+03 1.00118E+05
 -1      1599 9.43211E+03-2.08200E+04 2.06572E+05
 -1      1601 9.43211E+03-2.08200E+04 2.06572E+05
 -1      1602 1.20065E+04-3.87037E+04 3.00296E+05
 -1      1604 1.20065E+04-3.87037E+04 3.00296E+05
 -1      1605 1.24322E+04-5.93347E+04 3.71844E+05
 -1      1607 1.24322E+04-5.93347E+04 3.71844E+05
 -1      1608 1.04593E+04-7.88926E+04 4.18476E+05
 -1      1610 1.04593E+04-7.88926E+04 4.18476E+05
 -1      1611 6.21796E+03-9.34857E+04 4.36299E+05
 -1      1613 6.21796E+03-9.34857E+04 4.36299E+05
 -1      1614 2.62131E+02-9.97080E+04 4.24744E+05
 -1      1616 2.62131E+02-9.97080E+04 4.24744E+05
 -1      1617-6.47257E+03-9.53792E+04 3.84532E+05
 -1      1619-6.47257E+03-9.53792E+04 3.84532E+05
 -1      1620-1.28562E+04-8.00877E+04 3.18574E+05
 -1      1622-1.28562E+04-8.00877E+04 3.18574E+05
 -1      1623-1.77834E+04-5.53291E+04 2.31291E+05
 -1      1625-1.77834E+04-5.53291E+04 2.31291E+05
 -1      1626-2.04118E+04-2.42793E+04 1.28543E+05
 -1      1628-2.04118E+04-2.42793E+04 1.28543E+05
 -1      1629-2.03370E+04 8.81958E+03 1.71576E+04
 -1      1631-2.03370E+04 8.81958E+03 1.71576E+04
 -1      1632-1.76735E+04 3.94868E+04-9.54365E+04
 -1      1634-1.76735E+04 3.94868E+04-9.54365E+04
 -1      1635-1.30159E+04 6.38721E+04-2.01692E+05
 -1      1637-1.30159E+04 6.38721E+04-2.01692E+05
 -1      1638-7.29239E+03 7.94595E+04-2.94410E+05
 -1      1640-7.29239E+03 7.94595E+04-2.94410E+05
 -1      1641-1.54666E+03 8.54515E+04-3.67215E+05
 -1      1643-1.54666E+03 8.54515E+04-3.67215E+05
 -1      1644 3.29886E+03 8.27523E+04-4.15002E+05
 -1      1646 3.29886E+03 8.27523E+04-4.15002E+05
 -1      1647 6.64042E+03 7.35701E+04-4.34319E+05
 -1      1649 6.64042E+03 7.35701E+04-4.34319E+05
 -1      1650 8.30423E+03 6.07510E+04-4.23649E+05
 -1      1652 8.30423E+03 6.07510E+04-4.23649E+05
 -1      1653 8.54667E+03 4.70172E+04-3.83573E+05
 -1      1655 8.54667E+03 4.70172E+04-3.83573E+05
 -1      1656 7.94675E+03 3.43049E+04-3.16769E+05
 -1      1658 7.94675E+03 3.43049E+04-3.16769E+05
 -1      1659 7.22172E+03 2.33637E+04-2.27860E+05
 -1      1661 7.22172E+03 2.33637E+04-2.27860E+05
 -1      1662 7.01585E+03 1.37108E+04-1.23083E+05
 -1      1664 7.01585E+03 1.37108E+04-1.23083E+05
 -1      1665 7.71917E+03 3.93584E+03-9.84905E+03
 -1      1667 7.71917E+03 3.93584E+03-9.84905E+03
 -1      1668 9.36625E+03-7.74027E+03 1.03839E+05
 -1      1670 9.36625E+03-7.74027E+03 1.03839E+05
 -1      1671 1.16436E+04-2.28162E+04 2.09944E+05
 -1      1673 1.16436E+04-2.28162E+04 2.09944E+05
 -1      1674 1.40117E+04-4.19729E+04 3.01088E+05
 -1      1676 1.40117E+04-4.19729E+04 3.01088E+05
 -1      1677 1.59135E+04-6.48111E+04 3.70895E+05
 -1      1679 1.59135E+04-6.48111E+04 3.70895E+05
 -1      1680 1.70353E+04-8.99937E+04 4.14813E+05
 -1      1682 1.70353E+04-8.99937E+04 4.14813E+05
 -1      1683 1.40152E+06 6.45632E+05 2.91426E+03
 -1      1685-3.38386E+06-9.78769E+04 2.91426E+03
 -1      1686 6.84746E+03-1.60756E+04-1.30947E+05
 -1      1688 6.84746E+03-1.60756E+04-1.30947E+05
 -1      1689 1.24858E+04-4.12045E+04-2.70910E+05
 -1      1691 1.24858E+04-4.12045E+04-2.70910E+05
 -1      1692 1.59068E+04-7.71904E+04-3.94002E+05
 -1      1694 1.59068E+04-7.71904E+04-3.94002E+05
 -1      1695 1.64493E+04-1.18644E+05-4.87785E+05
 -1      1697 1.64493E+04-1.18644E+05-4.87785E+05
 -1      1698 1.38308E+04-1.57962E+05-5.48876E+05
 -1      1700 1.38308E+04-1.57962E+05-5.48876E+05
 -1      1701 8.20233E+03-1.87353E+05-5.72135E+05
 -1      1703 8.20233E+03-1.87353E+05-5.72135E+05
 -1      1704 3.08629E+02-1.99915E+05-5.56889E+05
 -1      1706 3.08629E+02-1.99915E+05-5.56889E+05
 -1      1707-8.61252E+03-1.91297E+05-5.04090E+05
 -1      1709-8.61252E+03-1.91297E+05-5.04090E+05
 -1      1710-1.70681E+04-1.60641E+05-4.17578E+05
 -1      1712-1.70681E+04-1.60641E+05-4.17578E+05
 -1      1713-2.35943E+04-1.10965E+05-3.03141E+05
 -1      1715-2.35943E+04-1.10965E+05-3.03141E+05
 -1      1716-2.70785E+04-4.86477E+04-1.68449E+05
 -1      1718-2.70785E+04-4.86477E+04-1.68449E+05
 -1      1719-2.69846E+04 1.77789E+04-2.24284E+04
 -1      1721-2.69846E+04 1.77789E+04-2.24284E+04
 -1      1722-2.34639E+04 7.93065E+04 1.25206E+05
 -1      1724-2.34639E+04 7.93065E+04 1.25206E+05
 -1      1725-1.73013E+04 1.28196E+05 2.64576E+05
 -1      1727-1.73013E+04 1.28196E+05 2.64576E+05
 -1      1728-9.72328E+03 1.59395E+05 3.86246E+05
 -1      1730-9.72328E+03 1.59395E+05 3.86246E+05
 -1      1731-2.10937E+03 1.71311E+05 4.81846E+05
 -1      1733-2.10937E+03 1.71311E+05 4.81846E+05
 -1      1734 4.32069E+03 1.65777E+05 5.44656E+05
 -1      1736 4.32069E+03 1.65777E+05 5.44656E+05
 -1      1737 8.76761E+03 1.47247E+05 5.70112E+05
 -1      1739 8.76761E+03 1.47247E+05 5.70112E+05
 -1      1740 1.09997E+04 1.21457E+05 5.56189E+05
 -1      1742 1.09997E+04 1.21457E+05 5.56189E+05
 -1      1743 1.13531E+04 9.38894E+04 5.03621E+05
 -1      1745 1.13531E+04 9.38894E+04 5.03621E+05
 -1      1746 1.05905E+04 6.84384E+04 4.15906E+05
 -1      1748 1.05905E+04 6.84384E+04 4.15906E+05
 -1      1749 9.65721E+03 4.66049E+04 2.99113E+05
 -1      1751 9.65721E+03 4.66049E+04 2.99113E+05
 -1      1752 9.40305E+03 2.74049E+04 1.61444E+05
 -1      1754 9.40305E+03 2.74049E+04 1.61444E+05
 -1      1755 1.03426E+04 7.98369E+03 1.26569E+04
 -1      1757 1.03426E+04 7.98369E+03 1.26569E+04
 -1      1758 1.25228E+04-1.52537E+04-1.36713E+05
 -1      1760 1.25228E+04-1.52537E+04-1.36713E+05
 -1      1761 1.55315E+04-4.53396E+04-2.76088E+05
 -1      1763 1.55315E+04-4.53396E+04-2.76088E+05
 -1      1764 1.86601E+04-8.36470E+04-3.95774E+05
 -1      1766 1.86601E+04-8.36470E+04-3.95774E+05
 -1      1767 2.11807E+04-1.29375E+05-4.87400E+05
 -1      1769 2.11807E+04-1.29375E+05-4.87400E+05
 -1      1770 2.26836E+04-1.79814E+05-5.45028E+05
 -1      1772 2.26836E+04-1.79814E+05-5.45028E+05
 -1      1773-6.84746E+03-1.60756E+04 1.30947E+05
 -1      1775-6.84746E+03-1.60756E+04 1.30947E+05
 -1      1776-1.24858E+04-4.12045E+04 2.70910E+05
 -1      1778-1.24858E+04-4.12045E+04 2.70910E+05
 -1      1779-1.59068E+04-7.71904E+04 3.94002E+05
 -1      1781-1.59068E+04-7.71904E+04 3.94002E+05
 -1      1782-1.64493E+04-1.18644E+05 4.87785E+05
 -1      1784-1.64493E+04-1.18644E+05 4.87785E+05
 -1      1785-1.38308E+04-1.57962E+05 5.48876E+05
 -1      1787-1.38308E+04-1.57962E+05 5.48876E+05
 -1      1788-8.20233E+03-1.87353E+05 5.72135E+05
 -1      1790-8.20233E+03-1.87353E+05 5.72135E+05
 -1      1791-3.08628E+02-1.99915E+05 5.56889E+05
 -1      1793-3.08628E+02-1.99915E+05 5.56889E+05
 -1      1794 8.61252E+03-1.91297E+05 5.04090E+05
 -1      1796 8.61252E+03-1.91297E+05 5.04090E+05
 -1      1797 1.70681E+04-1.60641E+05 4.17578E+05
 -1      1799 1.70681E+04-1.60641E+05 4.17578E+05
 -1      1800 2.35943E+04-1.10965E+05 3.03141E+05
 -1      1802 2.35943E+04-1.10965E+05 3.03141E+05
 -1      1803 2.70785E+04-4.86477E+04 1.68449E+05
 -1      1805 2.70785E+04-4.86477E+04 1.68449E+05
 -1      1806 2.69846E+04 1.77789E+04 2.24284E+04
 -1      1808 2.69846E+04 1.77789E+04 2.24284E+04
 -1      1809 2.34639E+04 7.93065E+04-1.25206E+05
 -1      1811 2.34639E+04 7.93065E+04-1.25206E+05
 -1      1812 1.73013E+04 1.28196E+05-2.64576E+05
 -1      1814 1.73013E+04 1.28196E+05-2.64576E+05
 -1      1815 9.72328E+03 1.59395E+05-3.86246E+05
 -1      1817 9.72328E+03 1.59395E+05-3.86246E+05
 -1      1818 2.10937E+03 1.71311E+05-4.81846E+05
 -1      1820 2.10937E+03 1.71311E+05-4.81846E+05
 -1      1821-4.32069E+03 1.65777E+05-5.44656E+05
 -1      1823-4.32069E+03 1.65777E+05-5.44656E+05
 -1      1824-8.76761E+03 1.47247E+05-5.70112E+05
 -1      1826-8.76761E+03 1.47247E+05-5.70112E+05
 -1      1827-1.09997E+04 1.21457E+05-5.56189E+05
 -1      1829-1.09997E+04 1.21457E+05-5.56189E+05
 -1      1830-1.13531E+04 9.38894E+04-5.03621E+05
 -1      1832-1.13531E+04 9.38894E+04-5.03621E+05
 -1      1833-1.05905E+04 6.84384E+04-4.15906E+05
 -1      1835-1.05905E+04 6.84384E+04-4.15906E+05
 -1      1836-9.65721E+03 4.66049E+04-2.99113E+05
 -1      1838-9.65721E+03 4.66049E+04-2.99113E+05
 -1      1839-9.40305E+03 2.74049E+04-1.61444E+05
 -1      1841-9.40305E+03 2.74049E+04-1.61444E+05
 -1      1842-1.03426E+04 7.98369E+03-1.26569E+04
 -1      1844-1.03426E+04 7.98369E+03-1.26569E+04
 -1      1845-1.25228E+04-1.52537E+04 1.36713E+05
 -1      1847-1.25228E+04-1.52537E+04 1.36713E+05
 -1      1848-1.55315E+04-4.53396E+04 2.76088E+05
 -1      1850-1.55315E+04-4.53396E+04 2.76088E+05
 -1      1851-1.86601E+04-8.36470E+04 3.95774E+05
 -1      1853-1.86601E+04-8.36470E+04 3.95774E+05
 -1      1854-2.11807E+04-1.29375E+05 4.87400E+05
 -1      1856-2.11807E+04-1.29375E+05 4.87400E+05
 -1      1857-2.26836E+04-1.79814E+05 5.45028E+05
 -1      1859-2.26836E+04-1.79814E+05 5.45028E+05
 -1      1860 8.15387E-07 1.00012E+05 1.94943E-06
 -1      1862 8.81075E-07 1.00012E+05 2.25669E-06
 -1      1863-7.48732E-08 1.88070E+05 1.30203E-06
 -1      1865-2.43581E-07 1.88070E+05 1.64634E-06
 -1      1866-1.66627E-06 2.42526E+05 2.16585E-06
 -1      1868-2.18135E-06 2.42526E+05 2.35280E-06
 -1      1869 4.96753E-07 2.62023E+05 2.36193E-06
 -1      1871-1.64533E-07 2.62023E+05 2.04656E-06
 -1      1872 2.63009E-06 2.53753E+05 1.45670E-06
 -1      1874 1.79793E-06 2.53753E+05 1.01082E-06
 -1      1875 2.39902E-06 2.26038E+05-1.93199E-07
 -1      1877 1.72377E-06 2.26038E+05-3.90595E-07
 -1      1878 1.49801E-07 1.89681E+05-1.43279E-06
 -1      1880-1.94192E-07 1.89681E+05-1.15343E-06
 -1      1881-2.44428E-06 1.52882E+05 1.73071E-06
 -1      1883-2.48938E-06 1.52882E+05 2.54685E-06
 -1      1884-1.27592E-06 1.20850E+05 1.84144E-06
 -1      1886-1.48515E-06 1.20850E+05 2.47129E-06
 -1      1887 3.45488E-07 9.40351E+04 2.30593E-08
 -1      1889-8.56799E-08 9.40351E+04-1.16979E-07
 -1      1890-1.44874E-06 6.90736E+04-1.47943E-06
 -1      1892-1.16896E-06 6.90736E+04-2.15251E-06
 -1      1893-1.55524E-06 4.01346E+04-5.52412E-06
 -1      1895-1.10142E-06 4.01346E+04-5.83938E-06
 -1      1896 6.48182E-07 1.37633E+03-6.94554E-06
 -1      1898 6.84215E-07 1.37633E+03-6.92831E-06
 -1      1899 7.45820E-07-5.07151E+04-6.09446E-06
 -1      1901 3.61177E-07-5.07151E+04-5.99155E-06
 -1      1902-6.05476E-07-1.15484E+05-5.82300E-06
 -1      1904-9.00862E-07-1.15484E+05-6.33521E-06
 -1      1905 6.16925E-07-1.87409E+05-5.66909E-06
 -1      1907 4.71449E-07-1.87409E+05-6.52086E-06
 -1      1908 2.43152E-06-2.56736E+05-3.15309E-06
 -1      1910 2.39579E-06-2.56736E+05-2.93046E-06
 -1      1911 1.95461E-06-3.11349E+05-1.11846E-07
 -1      1913 2.09899E-06-3.11349E+05 2.13804E-07
 -1      1914 1.59345E-06-3.39449E+05 2.88936E-07
 -1      1916 2.11014E-06-3.39449E+05-5.83390E-07
 -1      1917 2.21274E-06-3.32383E+05-1.02507E-06
 -1      1919 2.43301E-06-3.32383E+05-1.00849E-06
 -1      1920 3.64465E-06-2.86942E+05-9.51135E-07
 -1      1922 3.68466E-06-2.86942E+05 4.76335E-07
 -1      1923 2.67186E-06-2.06528E+05 5.95301E-07
 -1      1925 2.78871E-06-2.06528E+05 5.00211E-07
 -1      1926 2.08134E-07-1.00884E+05-1.54406E-06
 -1      1928 1.24109E-07-1.00884E+05-2.10655E-06
 -1      1929-7.16395E-07 1.55567E+04-4.01318E-06
 -1      1931-1.29979E-06 1.55567E+04-5.11207E-06
 -1      1932-2.19800E-06 1.26380E+05-2.72759E-06
 -1      1934-2.41617E-06 1.26380E+05-3.52620E-06
 -1      1935-2.26017E-06 2.16204E+05-1.15162E-06
 -1      1937-2.26574E-06 2.16204E+05-1.44417E-06
 -1      1938-1.51945E-06 2.73483E+05-2.46343E-06
 -1      1940-1.34738E-06 2.73483E+05-2.35412E-06
 -1      1941-3.85275E-06 2.92038E+05-1.16556E-06
 -1      1943-3.26222E-06 2.92038E+05-7.25408E-07
 -1      1944-4.77317E-06 2.71553E+05-1.03090E-06
 -1      1946-4.37347E-06 2.71553E+05-1.92863E-07
 -1      1947-2.87988E-06 1.42159E+05 1.32263E-06
 -1      1949-2.85562E-06 1.42159E+05 1.83691E-06
 -1      1950-1.71027E-06 2.72891E+05-5.20582E-07
 -1      1952-2.26118E-06 2.72891E+05 8.87519E-07
 -1      1953-2.20737E-06 3.63698E+05 1.82419E-06
 -1      1955-3.24667E-06 3.63698E+05 2.72098E-06
 -1      1956-2.12949E-06 4.09807E+05 1.41427E-06
 -1      1958-2.78911E-06 4.09807E+05 1.66414E-06
 -1      1959-4.00429E-07 4.17427E+05-2.30662E-06
 -1      1961-1.30538E-06 4.17427E+05-2.42575E-06
 -1      1962-1.39556E-06 3.94051E+05-3.45737E-06
 -1      1964-2.07954E-06 3.94051E+05-3.36147E-06
 -1      1965-7.39452E-07 3.50919E+05-3.00032E-06
 -1      1967-1.61366E-06 3.50919E+05-2.54650E-06
 -1      1968-5.84667E-07 2.97061E+05 3.07239E-06
 -1      1970-2.06161E-06 2.97061E+05 3.68661E-06
 -1      1971-3.67650E-06 2.39074E+05 6.26791E-06
 -1      1973-5.07827E-06 2.39074E+05 6.64012E-06
 -1      1974-3.16487E-06 1.79029E+05 2.43501E-06
 -1      1976-4.06134E-06 1.79029E+05 2.56847E-06
 -1      1977-1.12681E-06 1.15430E+05-9.66767E-07
 -1      1979-1.15158E-06 1.15430E+05-1.37582E-06
 -1      1980 2.17636E-09 4.44933E+04-4.81891E-06
 -1      1982 7.92401E-08 4.44933E+04-5.20855E-06
 -1      1983 1.21056E-06-3.73554E+04-4.90073E-06
 -1      1985 7.30059E-07-3.73554E+04-4.97788E-06
 -1      1986 1.32870E-06-1.31149E+05-2.62881E-06
 -1      1988 1.05602E-06-1.31149E+05-2.84595E-06
 -1      1989 1.71769E-07-2.33573E+05-2.09870E-06
 -1      1991-1.28925E-07-2.33573E+05-2.97552E-06
 -1      1992-8.87045E-07-3.36394E+05-1.44988E-06
 -1      1994-1.61054E-06-3.36394E+05-2.02365E-06
 -1      1995-2.50326E-07-4.27300E+05-8.34425E-08
 -1      1997-2.29538E-07-4.27300E+05 3.71274E-08
 -1      1998 1.66456E-06-4.92045E+05-1.13703E-06
 -1      2000 2.43800E-06-4.92045E+05-8.63327E-07
 -1      2001 1.17658E-06-5.17425E+05-1.16646E-06
 -1      2003 1.93050E-06-5.17425E+05-1.10940E-06
 -1      2004 2.19416E-06-4.94374E+05-3.90355E-08
 -1      2006 2.51381E-06-4.94374E+05 3.88867E-07
 -1      2007 5.73962E-06-4.20423E+05-3.08795E-07
 -1      2009 5.54316E-06-4.20423E+05-8.31478E-07
 -1      2010 5.86658E-06-3.00894E+05 2.02510E-06
 -1      2012 5.53367E-06-3.00894E+05-9.35979E-08
 -1      2013 2.45776E-06-1.48493E+05 2.08849E-06
 -1      2015 2.32296E-06-1.48493E+05 4.70060E-07
 -1      2016 2.97575E-07 1.86341E+04-1.43268E-06
 -1      2018 2.76662E-07 1.86341E+04-2.42275E-06
 -1      2019-5.33473E-07 1.80020E+05-3.09427E-06
 -1      2021-4.15559E-07 1.80020E+05-3.76390E-06
 -1      2022-2.43857E-07 3.16333E+05-2.04663E-06
 -1      2024-7.52516E-08 3.16333E+05-2.03188E-06
 -1      2025 2.06255E-07 4.12635E+05-2.25506E-06
 -1      2027 5.23669E-07 4.12635E+05-9.97128E-07
 -1      2028-5.53868E-07 4.60223E+05-9.22970E-07
 -1      2030-2.27548E-07 4.60223E+05-3.35363E-07
 -1      2031 5.61988E-07 4.57420E+05-9.80016E-07
 -1      2033 5.02339E-07 4.57420E+05-3.81224E-07
 -1      2034 2.31895E-06 1.00012E+05 2.29635E-06
 -1      2036 2.33902E-06 1.00012E+05 2.55706E-06
 -1      2037 1.66175E-06 1.88070E+05 1.98133E-06
 -1      2039 1.02120E-06 1.88070E+05 2.48640E-06
 -1      2040-2.66480E-06 2.42526E+05 2.23983E-06
 -1      2042-3.93514E-06 2.42526E+05 2.83669E-06
 -1      2043-3.46630E-06 2.62023E+05 5.32818E-07
 -1      2045-4.44847E-06 2.62023E+05 8.32209E-07
 -1      2046-2.82484E-06 2.53753E+05-4.05196E-06
 -1      2048-3.60391E-06 2.53753E+05-4.23085E-06
 -1      2049-3.82232E-06 2.26038E+05-3.88305E-06
 -1      2051-4.60107E-06 2.26038E+05-3.29211E-06
 -1      2052-1.91076E-06 1.89681E+05 1.25729E-08
 -1      2054-3.08999E-06 1.89681E+05-6.17292E-08
 -1      2055-1.73006E-06 1.52882E+05 3.28268E-06
 -1      2057-2.97665E-06 1.52882E+05 3.15520E-06
 -1      2058-4.46335E-06 1.20850E+05 5.07012E-06
 -1      2060-5.44625E-06 1.20850E+05 5.31069E-06
 -1      2061-1.17246E-06 9.40351E+04 2.96277E-06
 -1      2063-1.63789E-06 9.40351E+04 2.95101E-06
 -1      2064 2.35085E-06 6.90736E+04-3.47849E-07
 -1      2066 1.56669E-06 6.90736E+04-9.70904E-08
 -1      2067 7.47739E-07 4.01346E+04-1.84734E-06
 -1      2069 8.22131E-08 4.01346E+04-2.25171E-06
 -1      2070 1.30624E-06 1.37633E+03-1.68360E-06
 -1      2072 9.28477E-07 1.37633E+03-1.69466E-06
 -1      2073 2.28579E-06-5.07151E+04 2.19501E-07
 -1      2075 1.92703E-06-5.07151E+04 5.50644E-08
 -1      2076 1.97917E-06-1.15484E+05 2.91676E-06
 -1      2078 2.01349E-06-1.15484E+05 1.72280E-06
 -1      2079 6.53137E-07-1.87409E+05 4.47473E-06
 -1      2081 5.89545E-07-1.87409E+05 3.67874E-06
 -1      2082-8.70714E-07-2.56736E+05 3.42738E-06
 -1      2084-7.19527E-07-2.56736E+05 3.48064E-06
 -1      2085-6.80007E-07-3.11349E+05 9.47330E-07
 -1      2087 2.08882E-07-3.11349E+05 1.14774E-06
 -1      2088-1.06121E-06-3.39449E+05-3.82017E-07
 -1      2090-4.60692E-07-3.39449E+05 1.93511E-07
 -1      2091 1.08518E-06-3.32383E+05 1.09521E-06
 -1      2093 1.01528E-06-3.32383E+05 1.42437E-06
 -1      2094 4.00937E-06-2.86942E+05 1.35670E-06
 -1      2096 3.50145E-06-2.86942E+05 4.90167E-07
 -1      2097 2.51541E-06-2.06528E+05 2.74595E-06
 -1      2099 2.15199E-06-2.06528E+05 7.68865E-07
 -1      2100 5.59417E-08-1.00884E+05 5.27391E-06
 -1      2102 3.83405E-07-1.00884E+05 3.19531E-06
 -1      2103-4.17749E-08 1.55567E+04 4.23845E-06
 -1      2105 7.27041E-07 1.55567E+04 3.01551E-06
 -1      2106-7.51108E-07 1.26380E+05 1.80159E-06
 -1      2108-4.16589E-07 1.26380E+05 1.27131E-06
 -1      2109-9.13496E-07 2.16204E+05 2.00549E-06
 -1      2111-9.14893E-07 2.16204E+05 1.99414E-06
 -1      2112-6.38283E-08 2.73483E+05 2.14978E-06
 -1      2114-4.29387E-07 2.73483E+05 2.87645E-06
 -1      2115-9.49000E-07 2.92038E+05 3.16855E-06
 -1      2117-1.63251E-06 2.92038E+05 3.52373E-06
 -1      2118 7.18122E-07 2.71553E+05 1.51270E-06
 -1      2120-4.35502E-07 2.71553E+05 1.12162E-06
 -1      2121-6.84746E+03-1.60756E+04-1.30947E+05
 -1      2123-6.84746E+03-1.60756E+04-1.30947E+05
 -1      2124-1.24858E+04-4.12045E+04-2.70910E+05
 -1      2126-1.24858E+04-4.12045E+04-2.70910E+05
 -1      2127-1.59068E+04-7.71904E+04-3.94002E+05
 -1      2129-1.59068E+04-7.71904E+04-3.94002E+05
 -1      2130-1.64493E+04-1.18644E+05-4.87785E+05
 -1      2132-1.64493E+04-1.18644E+05-4.87785E+05
 -1      2133-1.38308E+04-1.57962E+05-5.48876E+05
 -1      2135-1.38308E+04-1.57962E+05-5.48876E+05
 -1      2136-8.20233E+03-1.87353E+05-5.72135E+05
 -1      2138-8.20233E+03-1.87353E+05-5.72135E+05
 -1      2139-3.08629E+02-1.99915E+05-5.56889E+05
 -1      2141-3.08629E+02-1.99915E+05-5.56889E+05
 -1      2142 8.61252E+03-1.91297E+05-5.04090E+05
 -1      2144 8.61252E+03-1.91297E+05-5.04090E+05
 -1      2145 1.70681E+04-1.60641E+05-4.17578E+05
 -1      2147 1.70681E+04-1.60641E+05-4.17578E+05
 -1      2148 2.35943E+04-1.10965E+05-3.03141E+05
 -1      2150 2.35943E+04-1.10965E+05-3.03141E+05
 -1      2151 2.70785E+04-4.86477E+04-1.68449E+05
 -1      2153 2.70785E+04-4.86477E+04-1.68449E+05
 -1      2154 2.69846E+04 1.77789E+04-2.24284E+04
 -1      2156 2.69846E+04 1.77789E+04-2.24284E+04
 -1      2157 2.34639E+04 7.93065E+04 1.25206E+05
 -1      2159 2.34639E+04 7.93065E+04 1.25206E+05
 -1      2160 1.73013E+04 1.28196E+05 2.64576E+05
 -1      2162 1.73013E+04 1.28196E+05 2.64576E+05
 -1      2163 9.72328E+03 1.59395E+05 3.86246E+05
 -1      2165 9.72328E+03 1.59395E+05 3.86246E+05
 -1      2166 2.10937E+03 1.71311E+05 4.81846E+05
 -1      2168 2.10937E+03 1.71311E+05 4.81846E+05
 -1      2169-4.32069E+03 1.65777E+05 5.44656E+05
 -1      2171-4.32069E+03 1.65777E+05 5.44656E+05
 -1      2172-8.76761E+03 1.47247E+05 5.70112E+05
 -1      2174-8.76761E+03 1.47247E+05 5.70112E+05
 -1      2175-1.09997E+04 1.21457E+05 5.56189E+05
 -1      2177-1.09997E+04 1.21457E+05 5.56189E+05
 -1      2178-1.13531E+04 9.38894E+04 5.03621E+05
 -1      2180-1.13531E+04 9.38894E+04 5.03621E+05
 -1      2181-1.05905E+04 6.84384E+04 4.15906E+05
 -1      2183-1.05905E+04 6.84384E+04 4.15906E+05
 -1      2184-9.65721E+03 4.66049E+04 2.99113E+05
 -1      2186-9.65721E+03 4.66049E+04 2.99113E+05
 -1      2187-9.40305E+03 2.74049E+04 1.61444E+05
 -1      2189-9.40305E+03 2.74049E+04 1.61444E+05
 -1      2190-1.03426E+04 7.98369E+03 1.26569E+04
 -1      2192-1.03426E+04 7.98369E+03 1.26569E+04
 -1      2193-1.25228E+04-1.52537E+04-1.36713E+05
 -1      2195-1.25228E+04-1.52537E+04-1.36713E+05
 -1      2196-1.55315E+04-4.53396E+04-2.76088E+05
 -1      2198-1.55315E+04-4.53396E+04-2.76088E+05
 -1      2199-1.86601E+04-8.36470E+04-3.95774E+05
 -1      2201-1.86601E+04-8.36470E+04-3.95774E+05
 -1      2202-2.11807E+04-1.29375E+05-4.87400E+05
 -1      2204-2.11807E+04-1.29375E+05-4.87400E+05
 -1      2205-2.26836E+04-1.79814E+05-5.45028E+05
 -1      2207-2.26836E+04-1.79814E+05-5.45028E+05
 -1      2208 6.84746E+03-1.60756E+04 1.30947E+05
 -1      2210 6.84746E+03-1.60756E+04 1.30947E+05
 -1      2211 1.24858E+04-4.12045E+04 2.70910E+05
 -1      2213 1.24858E+04-4.12045E+04 2.70910E+05
 -1      2214 1.59068E+04-7.71904E+04 3.94002E+05
 -1      2216 1.59068E+04-7.71904E+04 3.94002E+05
 -1      2217 1.64493E+04-1.18644E+05 4.87785E+05
 -1      2219 1.64493E+04-1.18644E+05 4.87785E+05
 -1      2220 1.38308E+04-1.57962E+05 5.48876E+05
 -1      2222 1.38308E+04-1.57962E+05 5.48876E+05
 -1      2223 8.20233E+03-1.87353E+05 5.72135E+05
 -1      2225 8.20233E+03-1.87353E+05 5.72135E+05
 -1      2226 3.08628E+02-1.99915E+05 5.56889E+05
 -1      2228 3.08628E+02-1.99915E+05 5.56889E+05
 -1      2229-8.61252E+03-1.91297E+05 5.04090E+05
 -1      2231-8.61252E+03-1.91297E+05 5.04090E+05
 -1      2232-1.70681E+04-1.60641E+05 4.17578E+05
 -1      2234-1.70681E+04-1.60641E+05 4.17578E+05
 -1      2235-2.35943E+04-1.10965E+05 3.03141E+05
 -1      2237-2.35943E+04-1.10965E+05 3.03141E+05
 -1      2238-2.70785E+04-4.86477E+04 1.68449E+05
 -1      2240-2.70785E+04-4.86477E+04 1.68449E+05
 -1      2241-2.69846E+04 1.77789E+04 2.24284E+04
 -1      2243-2.69846E+04 1.77789E+04 2.24284E+04
 -1      2244-2.34639E+04 7.93065E+04-1.25206E+05
 -1      2246-2.34639E+04 7.93065E+04-1.25206E+05
 -1      2247-1.73013E+04 1.28196E+05-2.64576E+05
 -1      2249-1.73013E+04 1.28196E+05-2.64576E+05
 -1      2250-9.72328E+03 1.59395E+05-3.86246E+05
 -1      2252-9.72328E+03 1.59395E+05-3.86246E+05
 -1      2253-2.10937E+03 1.71311E+05-4.81846E+05
 -1      2255-2.10937E+03 1.71311E+05-4.81846E+05
 -1      2256 4.32069E+03 1.65777E+05-5.44656E+05
 -1      2258 4.32069E+03 1.65777E+05-5.44656E+05
 -1      2259 8.76761E+03 1.47247E+05-5.70112E+05
 -1      2261 8.76761E+03 1.47247E+05-5.70112E+05
 -1      2262 1.09997E+04 1.21457E+05-5.56189E+05
 -1      2264 1.09997E+04 1.21457E+05-5.56189E+05
 -1      2265 1.13531E+04 9.38894E+04-5.03621E+05
 -1      2267 1.13531E+04 9.38894E+04-5.03621E+05
 -1      2268 1.05905E+04 6.84384E+04-4.15906E+05
 -1      2270 1.05905E+04 6.84384E+04-4.15906E+05
 -1      2271 9.65721E+03 4.66049E+04-2.99113E+05
 -1      2273 9.65721E+03 4.66049E+04-2.99113E+05
 -1      2274 9.40305E+03 2.74049E+04-1.61444E+05
 -1      2276 9.40305E+03 2.74049E+04-1.61444E+05
 -1      2277 1.03426E+04 7.98369E+03-1.26569E+04
 -1      2279 1.03426E+04 7.98369E+03-1.26569E+04
 -1      2280 1.25228E+04-1.52537E+04 1.36713E+05
 -1      2282 1.25228E+04-1.52537E+04 1.36713E+05
 -1      2283 1.55315E+04-4.53396E+04 2.76088E+05
 -1      2285 1.55315E+04-4.53396E+04 2.76088E+05
 -1      2286 1.86601E+04-8.36470E+04 3.95774E+05
 -1      2288 1.86601E+04-8.36470E+04 3.95774E+05
 -1      2289 2.11807E+04-1.29375E+05 4.87400E+05
 -1      2291 2.11807E+04-1.29375E+05 4.87400E+05
 -1      2292 2.26836E+04-1.79814E+05 5.45028E+05
 -1      2294 2.26836E+04-1.79814E+05 5.45028E+05
 -3
    1PSTEP                        80           1           1          
    1PGM                1.000000E+00                                  
    1PGK                2.226576E+07                                  
    1PHID                         -1                                  
    1PSUBC                         0                                  
    1PMODE                        20                                  
  100CL  120 750.9981907         930                     2   20MODAL      1
 -4  ERROR       1    1
 -5  STR(%)      1    1    0    0
 -1       404 0.00000E+00
 -1       406 0.00000E+00
 -1       407 0.00000E+00
 -1       409 0.00000E+00
 -1       410 0.00000E+00
 -1       412 0.00000E+00
 -1       413 0.00000E+00
 -1       415 0.00000E+00
 -1       424 0.00000E+00
 -1       426 0.00000E+00
 -1       427 0.00000E+00
 -1       429 0.00000E+00
 -1       438 0.00000E+00
 -1       440 0.00000E+00
 -1       441 0.00000E+00
 -1       443 0.00000E+00
 -1       444 0.00000E+00
 -1       446 0.00000E+00
 -1       447 0.00000E+00
 -1       449 0.00000E+00
 -1       458 0.00000E+00
 -1       460 0.00000E+00
 -1       461 0.00000E+00
 -1       463 0.00000E+00
 -1       472 0.00000E+00
 -1       474 0.00000E+00
 -1       475 0.00000E+00
 -1       477 0.00000E+00
 -1       478 0.00000E+00
 -1       480 0.00000E+00
 -1       481 0.00000E+00
 -1       483 0.00000E+00
 -1       484 0.00000E+00
 -1       486 0.00000E+00
 -1       487 0.00000E+00
 -1       489 0.00000E+00
 -1       490 0.00000E+00
 -1       492 0.00000E+00
 -1       493 0.00000E+00
 -1       495 0.00000E+00
 -1       496 0.00000E+00
 -1       498 0.00000E+00
 -1       499 0.00000E+00
 -1       501 0.00000E+00
 -1       502 0.00000E+00
 -1       504 0.00000E+00
 -1       505 0.00000E+00
 -1       507 0.00000E+00
 -1       508 0.00000E+00
 -1       510 0.00000E+00
 -1       511 0.00000E+00
 -1       513 0.00000E+00
 -1       514 0.00000E+00
 -1       516 0.00000E+00
 -1       517 0.00000E+00
 -1       519 0.00000E+00
 -1       520 0.00000E+00
 -1       522 0.00000E+00
 -1       523 0.00000E+00
 -1       525 0.00000E+00
 -1       526 0.00000E+00
 -1       528 0.00000E+00
 -1       529 0.00000E+00
 -1       531 0.00000E+00
 -1       532 0.00000E+00
 -1       534 0.00000E+00
 -1       535 0.00000E+00
 -1       537 0.00000E+00
 -1       538 0.00000E+00
 -1       540 0.00000E+00
 -1       541 0.00000E+00
 -1       543 0.00000E+00
 -1       544 0.00000E+00
 -1       546 0.00000E+00
 -1       547 0.00000E+00
 -1       549 0.00000E+00
 -1       550 0.00000E+00
 -1       552 0.00000E+00
 -1       553 0.00000E+00
 -1       555 0.00000E+00
 -1       556 0.00000E+00
 -1       558 0.00000E+00
 -1       559 0.00000E+00
 -1       561 0.00000E+00
 -1       562 0.00000E+00
 -1       564 0.00000E+00
 -1       565 0.00000E+00
 -1       567 0.00000E+00
 -1       568 0.00000E+00
 -1       570 0.00000E+00
 -1       571 0.00000E+00
 -1       573 0.00000E+00
 -1       574 0.00000E+00
 -1       576 0.00000E+00
 -1       577 0.00000E+00
 -1       579 0.00000E+00
 -1       588 0.00000E+00
 -1       590 0.00000E+00
 -1       591 0.00000E+00
 -1       593 0.00000E+00
 -1       602 0.00000E+00
 -1       604 0.00000E+00
 -1       605 0.00000E+00
 -1       607 0.00000E+00
 -1       616 0.00000E+00
 -1       618 0.00000E+00
 -1       619 0.00000E+00
 -1       621 0.00000E+00
 -1       630 0.00000E+00
 -1       632 0.00000E+00
 -1       633 0.00000E+00
 -1       635 0.00000E+00
 -1       644 0.00000E+00
 -1       646 0.00000E+00
 -1       647 0.00000E+00
 -1       649 0.00000E+00
 -1       658 0.00000E+00
 -1       660 0.00000E+00
 -1       661 0.00000E+00
 -1       663 0.00000E+00
 -1       672 0.00000E+00
 -1       674 0.00000E+00
 -1       675 0.00000E+00
 -1       677 0.00000E+00
 -1       686 0.00000E+00
 -1       688 0.00000E+00
 -1       689 0.00000E+00
 -1       691 0.00000E+00
 -1       700 0.00000E+00
 -1       702 0.00000E+00
 -1       703 0.00000E+00
 -1       705 0.00000E+00
 -1       714 0.00000E+00
 -1       716 0.00000E+00
 -1       717 0.00000E+00
 -1       719 0.00000E+00
 -1       728 0.00000E+00
 -1       730 0.00000E+00
 -1       731 0.00000E+00
 -1       733 0.00000E+00
 -1       742 0.00000E+00
 -1       744 0.00000E+00
 -1       745 0.00000E+00
 -1       747 0.00000E+00
 -1       756 0.00000E+00
 -1       758 0.00000E+00
 -1       759 0.00000E+00
 -1       761 0.00000E+00
 -1       770 0.00000E+00
 -1       772 0.00000E+00
 -1       773 0.00000E+00
 -1       775 0.00000E+00
 -1       784 0.00000E+00
 -1       786 0.00000E+00
 -1       787 0.00000E+00
 -1       789 0.00000E+00
 -1       798 0.00000E+00
 -1       800 0.00000E+00
 -1       801 0.00000E+00
 -1       803 0.00000E+00
 -1       812 0.00000E+00
 -1       814 0.00000E+00
 -1       815 0.00000E+00
 -1       817 0.00000E+00
 -1       826 0.00000E+00
 -1       828 0.00000E+00
 -1       829 0.00000E+00
 -1       831 0.00000E+00
 -1       840 0.00000E+00
 -1       842 0.00000E+00
 -1       843 0.00000E+00
 -1       845 0.00000E+00
 -1       854 0.00000E+00
 -1       856 0.00000E+00
 -1       857 0.00000E+00
 -1       859 0.00000E+00
 -1       868 0.00000E+00
 -1       870 0.00000E+00
 -1       871 0.00000E+00
 -1       873 0.00000E+00
 -1       882 0.00000E+00
 -1       884 0.00000E+00
 -1       885 0.00000E+00
 -1       887 0.00000E+00
 -1       896 0.00000E+00
 -1       898 0.00000E+00
 -1       899 0.00000E+00
 -1       901 0.00000E+00
 -1       910 0.00000E+00
 -1       912 0.00000E+00
 -1       913 0.00000E+00
 -1       915 0.00000E+00
 -1       924 0.00000E+00
 -1       926 0.00000E+00
 -1       927 0.00000E+00
 -1       929 0.00000E+00
 -1       938 0.00000E+00
 -1       940 0.00000E+00
 -1       941 0.00000E+00
 -1       943 0.00000E+00
 -1       952 0.00000E+00
 -1       954 0.00000E+00
 -1       955 0.00000E+00
 -1       957 0.00000E+00
 -1       966 0.00000E+00
 -1       968 0.00000E+00
 -1       969 0.00000E+00
 -1       971 0.00000E+00
 -1       980 0.00000E+00
 -1       982 0.00000E+00
 -1       983 0.00000E+00
 -1       985 0.00000E+00
 -1       986 0.00000E+00
 -1       988 0.00000E+00
 -1       989 0.00000E+00
 -1       991 0.00000E+00
 -1       992 0.00000E+00
 -1       994 0.00000E+00
 -1       995 0.00000E+00
 -1       997 0.00000E+00
 -1       998 0.00000E+00
 -1      1000 0.00000E+00
 -1      1001 0.00000E+00
 -1      1003 0.00000E+00
 -1      1004 0.00000E+00
 -1      1006 0.00000E+00
 -1      1007 0.00000E+00
 -1      1009 0.00000E+00
 -1      1010 0.00000E+00
 -1      1012 0.00000E+00
 -1      1013 0.00000E+00
 -1      1015 0.00000E+00
 -1      1016 0.00000E+00
 -1      1018 0.00000E+00
 -1      1019 0.00000E+00
 -1      1021 0.00000E+00
 -1      1022 0.00000E+00
 -1      1024 0.00000E+00
 -1      1025 0.00000E+00
 -1      1027 0.00000E+00
 -1      1028 0.00000E+00
 -1      1030 0.00000E+00
 -1      1031 0.00000E+00
 -1      1033 0.00000E+00
 -1      1034 0.00000E+00
 -1      1036 0.00000E+00
 -1      1037 0.00000E+00
 -1      1039 0.00000E+00
 -1      1040 0.00000E+00
 -1      1042 0.00000E+00
 -1      1043 0.00000E+00
 -1      1045 0.00000E+00
 -1      1046 0.00000E+00
 -1      1048 0.00000E+00
 -1      1049 0.00000E+00
 -1      1051 0.00000E+00
 -1      1052 0.00000E+00
 -1      1054 0.00000E+00
 -1      1055 0.00000E+00
 -1      1057 0.00000E+00
 -1      1058 0.00000E+00
 -1      1060 0.00000E+00
 -1      1061 0.00000E+00
 -1      1063 0.00000E+00
 -1      1064 0.00000E+00
 -1      1066 0.00000E+00
 -1      1067 0.00000E+00
 -1      1069 0.00000E+00
 -1      1070 0.00000E+00
 -1      1072 0.00000E+00
 -1      1073 0.00000E+00
 -1      1075 0.00000E+00
 -1      1076 0.00000E+00
 -1      1078 0.00000E+00
 -1      1079 0.00000E+00
 -1      1081 0.00000E+00
 -1      1082 0.00000E+00
 -1      1084 0.00000E+00
 -1      1085 0.00000E+00
 -1      1087 0.00000E+00
 -1      1088 0.00000E+00
 -1      1090 0.00000E+00
 -1      1099 0.00000E+00
 -1      1101 0.00000E+00
 -1      1102 0.00000E+00
 -1      1104 0.00000E+00
 -1      1113 0.00000E+00
 -1      1115 0.00000E+00
 -1      1116 0.00000E+00
 -1      1118 0.00000E+00
 -1      1127 0.00000E+00
 -1      1129 0.00000E+00
 -1      1130 0.00000E+00
 -1      1132 0.00000E+00
 -1      1141 0.00000E+00
 -1      1143 0.00000E+00
 -1      1144 0.00000E+00
 -1      1146 0.00000E+00
 -1      1155 0.00000E+00
 -1      1157 0.00000E+00
 -1      1158 0.00000E+00
 -1      1160 0.00000E+00
 -1      1169 0.00000E+00
 -1      1171 0.00000E+00
 -1      1172 0.00000E+00
 -1      1174 0.00000E+00
 -1      1183 0.00000E+00
 -1      1185 0.00000E+00
 -1      1186 0.00000E+00
 -1      1188 0.00000E+00
 -1      1197 0.00000E+00
 -1      1199 0.00000E+00
 -1      1200 0.00000E+00
 -1      1202 0.00000E+00
 -1      1211 0.00000E+00
 -1      1213 0.00000E+00
 -1      1214 0.00000E+00
 -1      1216 0.00000E+00
 -1      1225 0.00000E+00
 -1      1227 0.00000E+00
 -1      1228 0.00000E+00
 -1      1230 0.00000E+00
 -1      1239 0.00000E+00
 -1      1241 0.00000E+00
 -1      1242 0.00000E+00
 -1      1244 0.00000E+00
 -1      1253 0.00000E+00
 -1      1255 0.00000E+00
 -1      1256 0.00000E+00
 -1      1258 0.00000E+00
 -1      1267 0.00000E+00
 -1      1269 0.00000E+00
 -1      1270 0.00000E+00
 -1      1272 0.00000E+00
 -1      1281 0.00000E+00
 -1      1283 0.00000E+00
 -1      1284 0.00000E+00
 -1      1286 0.00000E+00
 -1      1295 0.00000E+00
 -1      1297 0.00000E+00
 -1      1298 0.00000E+00
 -1      1300 0.00000E+00
 -1      1309 0.00000E+00
 -1      1311 0.00000E+00
 -1      1312 0.00000E+00
 -1      1314 0.00000E+00
 -1      1323 0.00000E+00
 -1      1325 0.00000E+00
 -1      1326 0.00000E+00
 -1      1328 0.00000E+00
 -1      1337 0.00000E+00
 -1      1339 0.00000E+00
 -1      1340 0.00000E+00
 -1      1342 0.00000E+00
 -1      1351 0.00000E+00
 -1      1353 0.00000E+00
 -1      1354 0.00000E+00
 -1      1356 0.00000E+00
 -1      1365 0.00000E+00
 -1      1367 0.00000E+00
 -1      1368 0.00000E+00
 -1      1370 0.00000E+00
 -1      1379 0.00000E+00
 -1      1381 0.00000E+00
 -1      1382 0.00000E+00
 -1      1384 0.00000E+00
 -1      1393 0.00000E+00
 -1      1395 0.00000E+00
 -1      1396 0.00000E+00
 -1      1398 0.00000E+00
 -1      1407 0.00000E+00
 -1      1409 0.00000E+00
 -1      1410 0.00000E+00
 -1      1412 0.00000E+00
 -1      1421 0.00000E+00
 -1      1423 0.00000E+00
 -1      1424 0.00000E+00
 -1      1426 0.00000E+00
 -1      1435 0.00000E+00
 -1      1437 0.00000E+00
 -1      1438 0.00000E+00
 -1      1440 0.00000E+00
 -1      1449 0.00000E+00
 -1      1451 0.00000E+00
 -1      1452 0.00000E+00
 -1      1454 0.00000E+00
 -1      1463 0.00000E+00
 -1      1465 0.00000E+00
 -1      1466 0.00000E+00
 -1      1468 0.00000E+00
 -1      1477 0.00000E+00
 -1      1479 0.00000E+00
 -1      1480 0.00000E+00
 -1      1482 0.00000E+00
 -1      1491 0.00000E+00
 -1      1493 0.00000E+00
 -1      1494 0.00000E+00
 -1      1496 0.00000E+00
 -1      1497 0.00000E+00
 -1      1499 0.00000E+00
 -1      1500 0.00000E+00
 -1      1502 0.00000E+00
 -1      1503 0.00000E+00
 -1      1505 0.00000E+00
 -1      1506 0.00000E+00
 -1      1508 0.00000E+00
 -1      1509 0.00000E+00
 -1      1511 0.00000E+00
 -1      1512 0.00000E+00
 -1      1514 0.00000E+00
 -1      1515 0.00000E+00
 -1      1517 0.00000E+00
 -1      1518 0.00000E+00
 -1      1520 0.00000E+00
 -1      1521 0.00000E+00
 -1      1523 0.00000E+00
 -1      1524 0.00000E+00
 -1      1526 0.00000E+00
 -1      1527 0.00000E+00
 -1      1529 0.00000E+00
 -1      1530 0.00000E+00
 -1      1532 0.00000E+00
 -1      1533 0.00000E+00
 -1      1535 0.00000E+00
 -1      1536 0.00000E+00
 -1      1538 0.00000E+00
 -1      1539 0.00000E+00
 -1      1541 0.00000E+00
 -1      1542 0.00000E+00
 -1      1544 0.00000E+00
 -1      1545 0.00000E+00
 -1      1547 0.00000E+00
 -1      1548 0.00000E+00
 -1      1550 0.00000E+00
 -1      1551 0.00000E+00
 -1      1553 0.00000E+00
 -1      1554 0.00000E+00
 -1      1556 0.00000E+00
 -1      1557 0.00000E+00
 -1      1559 0.00000E+00
 -1      1560 0.00000E+00
 -1      1562 0.00000E+00
 -1      1563 0.00000E+00
 -1      1565 0.00000E+00
 -1      1566 0.00000E+00
 -1      1568 0.00000E+00
 -1      1569 0.00000E+00
 -1      1571 0.00000E+00
 -1      1572 0.00000E+00
 -1      1574 0.00000E+00
 -1      1575 0.00000E+00
 -1      1577 0.00000E+00
 -1      1578 0.00000E+00
 -1      1580 0.00000E+00
 -1      1581 0.00000E+00
 -1      1583 0.00000E+00
 -1      1584 0.00000E+00
 -1      1586 0.00000E+00
 -1      1587 0.00000E+00
 -1      1589 0.00000E+00
 -1      1590 0.00000E+00
 -1      1592 0.00000E+00
 -1      1593 0.00000E+00
 -1      1595 0.00000E+00
 -1      1596 0.00000E+00
 -1      1598 0.00000E+00
 -1      1599 0.00000E+00
 -1      1601 0.00000E+00
 -1      1602 0.00000E+00
 -1      1604 0.00000E+00
 -1      1605 0.00000E+00
 -1      1607 0.00000E+00
 -1      1608 0.00000E+00
 -1      1610 0.00000E+00
 -1      1611 0.00000E+00
 -1      1613 0.00000E+00
 -1      1614 0.00000E+00
 -1      1616 0.00000E+00
 -1      1617 0.00000E+00
 -1      1619 0.00000E+00
 -1      1620 0.00000E+00
 -1      1622 0.00000E+00
 -1      1623 0.00000E+00
 -1      1625 0.00000E+00
 -1      1626 0.00000E+00
 -1      1628 0.00000E+00
 -1      1629 0.00000E+00
 -1      1631 0.00000E+00
 -1      1632 0.00000E+00
 -1      1634 0.00000E+00
 -1      1635 0.00000E+00
 -1      1637 0.00000E+00
 -1      1638 0.00000E+00
 -1      1640 0.00000E+00
 -1      1641 0.00000E+00
 -1      1643 0.00000E+00
 -1      1644 0.00000E+00
 -1      1646 0.00000E+00
 -1      1647 0.00000E+00
 -1      1649 0.00000E+00
 -1      1650 0.00000E+00
 -1      1652 0.00000E+00
 -1      1653 0.00000E+00
 -1      1655 0.00000E+00
 -1      1656 0.00000E+00
 -1      1658 0.00000E+00
 -1      1659 0.00000E+00
 -1      1661 0.00000E+00
 -1      1662 0.00000E+00
 -1      1664 0.00000E+00
 -1      1665 0.00000E+00
 -1      1667 0.00000E+00
 -1      1668 0.00000E+00
 -1      1670 0.00000E+00
 -1      1671 0.00000E+00
 -1      1673 0.00000E+00
 -1      1674 0.00000E+00
 -1      1676 0.00000E+00
 -1      1677 0.00000E+00
 -1      1679 0.00000E+00
 -1      1680 0.00000E+00
 -1      1682 0.00000E+00
 -1      1683 0.00000E+00
 -1      1685 0.00000E+00
 -1      1686 0.00000E+00
 -1      1688 0.00000E+00
 -1      1689 0.00000E+00
 -1      1691 0.00000E+00
 -1      1692 0.00000E+00
 -1      1694 0.00000E+00
 -1      1695 0.00000E+00
 -1      1697 0.00000E+00
 -1      1698 0.00000E+00
 -1      1700 0.00000E+00
 -1      1701 0.00000E+00
 -1      1703 0.00000E+00
 -1      1704 0.00000E+00
 -1      1706 0.00000E+00
 -1      1707 0.00000E+00
 -1      1709 0.00000E+00
 -1      1710 0.00000E+00
 -1      1712 0.00000E+00
 -1      1713 0.00000E+00
 -1      1715 0.00000E+00
 -1      1716 0.00000E+00
 -1      1718 0.00000E+00
 -1      1719 0.00000E+00
 -1      1721 0.00000E+00
 -1      1722 0.00000E+00
 -1      1724 0.00000E+00
 -1      1725 0.00000E+00
 -1      1727 0.00000E+00
 -1      1728 0.00000E+00
 -1      1730 0.00000E+00
 -1      1731 0.00000E+00
 -1      1733 0.00000E+00
 -1      1734 0.00000E+00
 -1      1736 0.00000E+00
 -1      1737 0.00000E+00
 -1      1739 0.00000E+00
 -1      1740 0.00000E+00
 -1      1742 0.00000E+00
 -1      1743 0.00000E+00
 -1      1745 0.00000E+00
 -1      1746 0.00000E+00
 -1      1748 0.00000E+00
 -1      1749 0.00000E+00
 -1      1751 0.00000E+00
 -1      1752 0.00000E+00
 -1      1754 0.00000E+00
 -1      1755 0.00000E+00
 -1      1757 0.00000E+00
 -1      1758 0.00000E+00
 -1      1760 0.00000E+00
 -1      1761 0.00000E+00
 -1      1763 0.00000E+00
 -1      1764 0.00000E+00
 -1      1766 0.00000E+00
 -1      1767 0.00000E+00
 -1      1769 0.00000E+00
 -1      1770 0.00000E+00
 -1      1772 0.00000E+00
 -1      1773 0.00000E+00
 -1      1775 0.00000E+00
 -1      1776 0.00000E+00
 -1      1778 0.00000E+00
 -1      1779 0.00000E+00
 -1      1781 0.00000E+00
 -1      1782 0.00000E+00
 -1      1784 0.00000E+00
 -1      1785 0.00000E+00
 -1      1787 0.00000E+00
 -1      1788 0.00000E+00
 -1      1790 0.00000E+00
 -1      1791 0.00000E+00
 -1      1793 0.00000E+00
 -1      1794 0.00000E+00
 -1      1796 0.00000E+00
 -1      1797 0.00000E+00
 -1      1799 0.00000E+00
 -1      1800 0.00000E+00
 -1      1802 0.00000E+00
 -1      1803 0.00000E+00
 -1      1805 0.00000E+00
 -1      1806 0.00000E+00
 -1      1808 0.00000E+00
 -1      1809 0.00000E+00
 -1      1811 0.00000E+00
 -1      1812 0.00000E+00
 -1      1814 0.00000E+00
 -1      1815 0.00000E+00
 -1      1817 0.00000E+00
 -1      1818 0.00000E+00
 -1      1820 0.00000E+00
 -1      1821 0.00000E+00
 -1      1823 0.00000E+00
 -1      1824 0.00000E+00
 -1      1826 0.00000E+00
 -1      1827 0.00000E+00
 -1      1829 0.00000E+00
 -1      1830 0.00000E+00
 -1      1832 0.00000E+00
 -1      1833 0.00000E+00
 -1      1835 0.00000E+00
 -1      1836 0.00000E+00
 -1      1838 0.00000E+00
 -1      1839 0.00000E+00
 -1      1841 0.00000E+00
 -1      1842 0.00000E+00
 -1      1844 0.00000E+00
 -1      1845 0.00000E+00
 -1      1847 0.00000E+00
 -1      1848 0.00000E+00
 -1      1850 0.00000E+00
 -1      1851 0.00000E+00
 -1      1853 0.00000E+00
 -1      1854 0.00000E+00
 -1      1856 0.00000E+00
 -1      1857 0.00000E+00
 -1      1859 0.00000E+00
 -1      1860 0.00000E+00
 -1      1862 0.00000E+00
 -1      1863 0.00000E+00
 -1      1865 0.00000E+00
 -1      1866 0.00000E+00
 -1      1868 0.00000E+00
 -1      1869 0.00000E+00
 -1      1871 0.00000E+00
 -1      1872 0.00000E+00
 -1      1874 0.00000E+00
 -1      1875 0.00000E+00
 -1      1877 0.00000E+00
 -1      1878 0.00000E+00
 -1      1880 0.00000E+00
 -1      1881 0.00000E+00
 -1      1883 0.00000E+00
 -1      1884 0.00000E+00
 -1      1886 0.00000E+00
 -1      1887 0.00000E+00
 -1      1889 0.00000E+00
 -1      1890 0.00000E+00
 -1      1892 0.00000E+00
 -1      1893 0.00000E+00
 -1      1895 0.00000E+00
 -1      1896 0.00000E+00
 -1      1898 0.00000E+00
 -1      1899 0.00000E+00
 -1      1901 0.00000E+00
 -1      1902 0.00000E+00
 -1      1904 0.00000E+00
 -1      1905 0.00000E+00
 -1      1907 0.00000E+00
 -1      1908 0.00000E+00
 -1      1910 0.00000E+00
 -1      1911 0.00000E+00
 -1      1913 0.00000E+00
 -1      1914 0.00000E+00
 -1      1916 0.00000E+00
 -1      1917 0.00000E+00
 -1      1919 0.00000E+00
 -1      1920 0.00000E+00
 -1      1922 0.00000E+00
 -1      1923 0.00000E+00
 -1      1925 0.00000E+00
 -1      1926 0.00000E+00
 -1      1928 0.00000E+00
 -1      1929 0.00000E+00
 -1      1931 0.00000E+00
 -1      1932 0.00000E+00
 -1      1934 0.00000E+00
 -1      1935 0.00000E+00
 -1      1937 0.00000E+00
 -1      1938 0.00000E+00
 -1      1940 0.00000E+00
 -1      1941 0.00000E+00
 -1      1943 0.00000E+00
 -1      1944 0.00000E+00
 -1      1946 0.00000E+00
 -1      1947 0.00000E+00
 -1      1949 0.00000E+00
 -1      1950 0.00000E+00
 -1      1952 0.00000E+00
 -1      1953 0.00000E+00
 -1      1955 0.00000E+00
 -1      1956 0.00000E+00
 -1      1958 0.00000E+00
 -1      1959 0.00000E+00
 -1      1961 0.00000E+00
 -1      1962 0.00000E+00
 -1      1964 0.00000E+00
 -1      1965 0.00000E+00
 -1      1967 0.00000E+00
 -1      1968 0.00000E+00
 -1      1970 0.00000E+00
 -1      1971 0.00000E+00
 -1      1973 0.00000E+00
 -1      1974 0.00000E+00
 -1      1976 0.00000E+00
 -1      1977 0.00000E+00
 -1      1979 0.00000E+00
 -1      1980 0.00000E+00
 -1      1982 0.00000E+00
 -1      1983 0.00000E+00
 -1      1985 0.00000E+00
 -1      1986 0.00000E+00
 -1      1988 0.00000E+00
 -1      1989 0.00000E+00
 -1      1991 0.00000E+00
 -1      1992 0.00000E+00
 -1      1994 0.00000E+00
 -1      1995 0.00000E+00
 -1      1997 0.00000E+00
 -1      1998 0.00000E+00
 -1      2000 0.00000E+00
 -1      2001 0.00000E+00
 -1      2003 0.00000E+00
 -1      2004 0.00000E+00
 -1      2006 0.00000E+00
 -1      2007 0.00000E+00
 -1      2009 0.00000E+00
 -1      2010 0.00000E+00
 -1      2012 0.00000E+00
 -1      2013 0.00000E+00
 -1      2015 0.00000E+00
 -1      2016 0.00000E+00
 -1      2018 0.00000E+00
 -1      2019 0.00000E+00
 -1      2021 0.00000E+00
 -1      2022 0.00000E+00
 -1      2024 0.00000E+00
 -1      2025 0.00000E+00
 -1      2027 0.00000E+00
 -1      2028 0.00000E+00
 -1      2030 0.00000E+00
 -1      2031 0.00000E+00
 -1      2033 0.00000E+00
 -1      2034 0.00000E+00
 -1      2036 0.00000E+00
 -1      2037 0.00000E+00
 -1      2039 0.00000E+00
 -1      2040 0.00000E+00
 -1      2042 0.00000E+00
 -1      2043 0.00000E+00
 -1      2045 0.00000E+00
 -1      2046 0.00000E+00
 -1      2048 0.00000E+00
 -1      2049 0.00000E+00
 -1      2051 0.00000E+00
 -1      2052 0.00000E+00
 -1      2054 0.00000E+00
 -1      2055 0.00000E+00
 -1      2057 0.00000E+00
 -1      2058 0.00000E+00
 -1      2060 0.00000E+00
 -1      2061 0.00000E+00
 -1      2063 0.00000E+00
 -1      2064 0.00000E+00
 -1      2066 0.00000E+00
 -1      2067 0.00000E+00
 -1      2069 0.00000E+00
 -1      2070 0.00000E+00
 -1      2072 0.00000E+00
 -1      2073 0.00000E+00
 -1      2075 0.00000E+00
 -1      2076 0.00000E+00
 -1      2078 0.00000E+00
 -1      2079 0.00000E+00
 -1      2081 0.00000E+00
 -1      2082 0.00000E+00
 -1      2084 0.00000E+00
 -1      2085 0.00000E+00
 -1      2087 0.00000E+00
 -1      2088 0.00000E+00
 -1      2090 0.00000E+00
 -1      2091 0.00000E+00
 -1      2093 0.00000E+00
 -1      2094 0.00000E+00
 -1      2096 0.00000E+00
 -1      2097 0.00000E+00
 -1      2099 0.00000E+00
 -1      2100 0.00000E+00
 -1      2102 0.00000E+00
 -1      2103 0.00000E+00
 -1      2105 0.00000E+00
 -1      2106 0.00000E+00
 -1      2108 0.00000E+00
 -1      2109 0.00000E+00
 -1      2111 0.00000E+00
 -1      2112 0.00000E+00
 -1      2114 0.00000E+00
 -1      2115 0.00000E+00
 -1      2117 0.00000E+00
 -1      2118 0.00000E+00
 -1      2120 0.00000E+00
 -1      2121 0.00000E+00
 -1      2123 0.00000E+00
 -1      2124 0.00000E+00
 -1      2126 0.00000E+00
 -1      2127 0.00000E+00
 -1      2129 0.00000E+00
 -1      2130 0.00000E+00
 -1      2132 0.00000E+00
 -1      2133 0.00000E+00
 -1      2135 0.00000E+00
 -1      2136 0.00000E+00
 -1      2138 0.00000E+00
 -1      2139 0.00000E+00
 -1      2141 0.00000E+00
 -1      2142 0.00000E+00
 -1      2144 0.00000E+00
 -1      2145 0.00000E+00
 -1      2147 0.00000E+00
 -1      2148 0.00000E+00
 -1      2150 0.00000E+00
 -1      2151 0.00000E+00
 -1      2153 0.00000E+00
 -1      2154 0.00000E+00
 -1      2156 0.00000E+00
 -1      2157 0.00000E+00
 -1      2159 0.00000E+00
 -1      2160 0.00000E+00
 -1      2162 0.00000E+00
 -1      2163 0.00000E+00
 -1      2165 0.00000E+00
 -1      2166 0.00000E+00
 -1      2168 0.00000E+00
 -1      2169 0.00000E+00
 -1      2171 0.00000E+00
 -1      2172 0.00000E+00
 -1      2174 0.00000E+00
 -1      2175 0.00000E+00
 -1      2177 0.00000E+00
 -1      2178 0.00000E+00
 -1      2180 0.00000E+00
 -1      2181 0.00000E+00
 -1      2183 0.00000E+00
 -1      2184 0.00000E+00
 -1      2186 0.00000E+00
 -1      2187 0.00000E+00
 -1      2189 0.00000E+00
 -1      2190 0.00000E+00
 -1      2192 0.00000E+00
 -1      2193 0.00000E+00
 -1      2195 0.00000E+00
 -1      2196 0.00000E+00
 -1      2198 0.00000E+00
 -1      2199 0.00000E+00
 -1      2201 0.00000E+00
 -1      2202 0.00000E+00
 -1      2204 0.00000E+00
 -1      2205 0.00000E+00
 -1      2207 0.00000E+00
 -1      2208 0.00000E+00
 -1      2210 0.00000E+00
 -1      2211 0.00000E+00
 -1      2213 0.00000E+00
 -1      2214 0.00000E+00
 -1      2216 0.00000E+00
 -1      2217 0.00000E+00
 -1      2219 0.00000E+00
 -1      2220 0.00000E+00
 -1      2222 0.00000E+00
 -1      2223 0.00000E+00
 -1      2225 0.00000E+00
 -1      2226 0.00000E+00
 -1      2228 0.00000E+00
 -1      2229 0.00000E+00
 -1      2231 0.00000E+00
 -1      2232 0.00000E+00
 -1      2234 0.00000E+00
 -1      2235 0.00000E+00
 -1      2237 0.00000E+00
 -1      2238 0.00000E+00
 -1      2240 0.00000E+00
 -1      2241 0.00000E+00
 -1      2243 0.00000E+00
 -1      2244 0.00000E+00
 -1      2246 0.00000E+00
 -1      2247 0.00000E+00
 -1      2249 0.00000E+00
 -1      2250 0.00000E+00
 -1      2252 0.00000E+00
 -1      2253 0.00000E+00
 -1      2255 0.00000E+00
 -1      2256 0.00000E+00
 -1      2258 0.00000E+00
 -1      2259 0.00000E+00
 -1      2261 0.00000E+00
 -1      2262 0.00000E+00
 -1      2264 0.00000E+00
 -1      2265 0.00000E+00
 -1      2267 0.00000E+00
 -1      2268 0.00000E+00
 -1      2270 0.00000E+00
 -1      2271 0.00000E+00
 -1      2273 0.00000E+00
 -1      2274 0.00000E+00
 -1      2276 0.00000E+00
 -1      2277 0.00000E+00
 -1      2279 0.00000E+00
 -1      2280 0.00000E+00
 -1      2282 0.00000E+00
 -1      2283 0.00000E+00
 -1      2285 0.00000E+00
 -1      2286 0.00000E+00
 -1      2288 0.00000E+00
 -1      2289 0.00000E+00
 -1      2291 0.00000E+00
 -1      2292 0.00000E+00
 -1      2294 0.00000E+00
 -3
 9999
