    1C
    1UUSER                                                              
    1UDATE              17.october.2022                                 
    1UTIME              08:44:48                                        
    1UHOST                                                              
    1UPGM               CalculiX                                        
    1UVERSION           Version 2.20                             
    1UCOMPILETIME       Fri Jul 29 19:13:05 CEST 2022                    
    1UDIR                                                               
    1UDBN                                                               
    1UMAT    1S420                                                      
    2C                           930                                     1
 -1       404 0.00000E+00 5.90000E-01 2.93250E-01
 -1       406 0.00000E+00 5.90000E-01 3.06750E-01
 -1       407 3.00000E+00 5.90000E-01 2.93250E-01
 -1       409 3.00000E+00 5.90000E-01 3.06750E-01
 -1       410 3.00000E+00 5.00000E-01 2.93250E-01
 -1       412 3.00000E+00 5.00000E-01 3.06750E-01
 -1       413 3.00000E+00 4.95700E-01 3.00000E-01
 -1       415 3.00000E+00 5.04300E-01 3.00000E-01
 -1       424 0.00000E+00 5.00000E-01 2.93250E-01
 -1       426 0.00000E+00 5.00000E-01 3.06750E-01
 -1       427 0.00000E+00 4.95700E-01 3.00000E-01
 -1       429 0.00000E+00 5.04300E-01 3.00000E-01
 -1       438 3.00000E+00 4.10000E-01 2.93250E-01
 -1       440 3.00000E+00 4.10000E-01 3.06750E-01
 -1       441 0.00000E+00 4.10000E-01 2.93250E-01
 -1       443 0.00000E+00 4.10000E-01 3.06750E-01
 -1       444 0.00000E+00 4.95700E-01 7.00000E-01
 -1       446 0.00000E+00 5.04300E-01 7.00000E-01
 -1       447 0.00000E+00 5.00000E-01 7.06750E-01
 -1       449 0.00000E+00 5.00000E-01 6.93250E-01
 -1       458 3.00000E+00 4.95700E-01 7.00000E-01
 -1       460 3.00000E+00 5.04300E-01 7.00000E-01
 -1       461 3.00000E+00 5.00000E-01 7.06750E-01
 -1       463 3.00000E+00 5.00000E-01 6.93250E-01
 -1       472 0.00000E+00 4.10000E-01 7.06750E-01
 -1       474 0.00000E+00 4.10000E-01 6.93250E-01
 -1       475 3.00000E+00 4.10000E-01 7.06750E-01
 -1       477 3.00000E+00 4.10000E-01 6.93250E-01
 -1       478 3.00000E+00 5.90000E-01 7.06750E-01
 -1       480 3.00000E+00 5.90000E-01 6.93250E-01
 -1       481 0.00000E+00 5.90000E-01 7.06750E-01
 -1       483 0.00000E+00 5.90000E-01 6.93250E-01
 -1       484 1.00000E-01 5.90000E-01 2.93250E-01
 -1       486 1.00000E-01 5.90000E-01 3.06750E-01
 -1       487 2.00000E-01 5.90000E-01 2.93250E-01
 -1       489 2.00000E-01 5.90000E-01 3.06750E-01
 -1       490 3.00000E-01 5.90000E-01 2.93250E-01
 -1       492 3.00000E-01 5.90000E-01 3.06750E-01
 -1       493 4.00000E-01 5.90000E-01 2.93250E-01
 -1       495 4.00000E-01 5.90000E-01 3.06750E-01
 -1       496 5.00000E-01 5.90000E-01 2.93250E-01
 -1       498 5.00000E-01 5.90000E-01 3.06750E-01
 -1       499 6.00000E-01 5.90000E-01 2.93250E-01
 -1       501 6.00000E-01 5.90000E-01 3.06750E-01
 -1       502 7.00000E-01 5.90000E-01 2.93250E-01
 -1       504 7.00000E-01 5.90000E-01 3.06750E-01
 -1       505 8.00000E-01 5.90000E-01 2.93250E-01
 -1       507 8.00000E-01 5.90000E-01 3.06750E-01
 -1       508 9.00000E-01 5.90000E-01 2.93250E-01
 -1       510 9.00000E-01 5.90000E-01 3.06750E-01
 -1       511 1.00000E+00 5.90000E-01 2.93250E-01
 -1       513 1.00000E+00 5.90000E-01 3.06750E-01
 -1       514 1.10000E+00 5.90000E-01 2.93250E-01
 -1       516 1.10000E+00 5.90000E-01 3.06750E-01
 -1       517 1.20000E+00 5.90000E-01 2.93250E-01
 -1       519 1.20000E+00 5.90000E-01 3.06750E-01
 -1       520 1.30000E+00 5.90000E-01 2.93250E-01
 -1       522 1.30000E+00 5.90000E-01 3.06750E-01
 -1       523 1.40000E+00 5.90000E-01 2.93250E-01
 -1       525 1.40000E+00 5.90000E-01 3.06750E-01
 -1       526 1.50000E+00 5.90000E-01 2.93250E-01
 -1       528 1.50000E+00 5.90000E-01 3.06750E-01
 -1       529 1.60000E+00 5.90000E-01 2.93250E-01
 -1       531 1.60000E+00 5.90000E-01 3.06750E-01
 -1       532 1.70000E+00 5.90000E-01 2.93250E-01
 -1       534 1.70000E+00 5.90000E-01 3.06750E-01
 -1       535 1.80000E+00 5.90000E-01 2.93250E-01
 -1       537 1.80000E+00 5.90000E-01 3.06750E-01
 -1       538 1.90000E+00 5.90000E-01 2.93250E-01
 -1       540 1.90000E+00 5.90000E-01 3.06750E-01
 -1       541 2.00000E+00 5.90000E-01 2.93250E-01
 -1       543 2.00000E+00 5.90000E-01 3.06750E-01
 -1       544 2.10000E+00 5.90000E-01 2.93250E-01
 -1       546 2.10000E+00 5.90000E-01 3.06750E-01
 -1       547 2.20000E+00 5.90000E-01 2.93250E-01
 -1       549 2.20000E+00 5.90000E-01 3.06750E-01
 -1       550 2.30000E+00 5.90000E-01 2.93250E-01
 -1       552 2.30000E+00 5.90000E-01 3.06750E-01
 -1       553 2.40000E+00 5.90000E-01 2.93250E-01
 -1       555 2.40000E+00 5.90000E-01 3.06750E-01
 -1       556 2.50000E+00 5.90000E-01 2.93250E-01
 -1       558 2.50000E+00 5.90000E-01 3.06750E-01
 -1       559 2.60000E+00 5.90000E-01 2.93250E-01
 -1       561 2.60000E+00 5.90000E-01 3.06750E-01
 -1       562 2.70000E+00 5.90000E-01 2.93250E-01
 -1       564 2.70000E+00 5.90000E-01 3.06750E-01
 -1       565 2.80000E+00 5.90000E-01 2.93250E-01
 -1       567 2.80000E+00 5.90000E-01 3.06750E-01
 -1       568 2.90000E+00 5.90000E-01 2.93250E-01
 -1       570 2.90000E+00 5.90000E-01 3.06750E-01
 -1       571 3.00000E+00 5.45000E-01 2.93250E-01
 -1       573 3.00000E+00 5.45000E-01 3.06750E-01
 -1       574 1.00000E-01 5.00000E-01 2.93250E-01
 -1       576 1.00000E-01 5.00000E-01 3.06750E-01
 -1       577 1.00000E-01 4.95700E-01 3.00000E-01
 -1       579 1.00000E-01 5.04300E-01 3.00000E-01
 -1       588 2.00000E-01 5.00000E-01 2.93250E-01
 -1       590 2.00000E-01 5.00000E-01 3.06750E-01
 -1       591 2.00000E-01 4.95700E-01 3.00000E-01
 -1       593 2.00000E-01 5.04300E-01 3.00000E-01
 -1       602 3.00000E-01 5.00000E-01 2.93250E-01
 -1       604 3.00000E-01 5.00000E-01 3.06750E-01
 -1       605 3.00000E-01 4.95700E-01 3.00000E-01
 -1       607 3.00000E-01 5.04300E-01 3.00000E-01
 -1       616 4.00000E-01 5.00000E-01 2.93250E-01
 -1       618 4.00000E-01 5.00000E-01 3.06750E-01
 -1       619 4.00000E-01 4.95700E-01 3.00000E-01
 -1       621 4.00000E-01 5.04300E-01 3.00000E-01
 -1       630 5.00000E-01 5.00000E-01 2.93250E-01
 -1       632 5.00000E-01 5.00000E-01 3.06750E-01
 -1       633 5.00000E-01 4.95700E-01 3.00000E-01
 -1       635 5.00000E-01 5.04300E-01 3.00000E-01
 -1       644 6.00000E-01 5.00000E-01 2.93250E-01
 -1       646 6.00000E-01 5.00000E-01 3.06750E-01
 -1       647 6.00000E-01 4.95700E-01 3.00000E-01
 -1       649 6.00000E-01 5.04300E-01 3.00000E-01
 -1       658 7.00000E-01 5.00000E-01 2.93250E-01
 -1       660 7.00000E-01 5.00000E-01 3.06750E-01
 -1       661 7.00000E-01 4.95700E-01 3.00000E-01
 -1       663 7.00000E-01 5.04300E-01 3.00000E-01
 -1       672 8.00000E-01 5.00000E-01 2.93250E-01
 -1       674 8.00000E-01 5.00000E-01 3.06750E-01
 -1       675 8.00000E-01 4.95700E-01 3.00000E-01
 -1       677 8.00000E-01 5.04300E-01 3.00000E-01
 -1       686 9.00000E-01 5.00000E-01 2.93250E-01
 -1       688 9.00000E-01 5.00000E-01 3.06750E-01
 -1       689 9.00000E-01 4.95700E-01 3.00000E-01
 -1       691 9.00000E-01 5.04300E-01 3.00000E-01
 -1       700 1.00000E+00 5.00000E-01 2.93250E-01
 -1       702 1.00000E+00 5.00000E-01 3.06750E-01
 -1       703 1.00000E+00 4.95700E-01 3.00000E-01
 -1       705 1.00000E+00 5.04300E-01 3.00000E-01
 -1       714 1.10000E+00 5.00000E-01 2.93250E-01
 -1       716 1.10000E+00 5.00000E-01 3.06750E-01
 -1       717 1.10000E+00 4.95700E-01 3.00000E-01
 -1       719 1.10000E+00 5.04300E-01 3.00000E-01
 -1       728 1.20000E+00 5.00000E-01 2.93250E-01
 -1       730 1.20000E+00 5.00000E-01 3.06750E-01
 -1       731 1.20000E+00 4.95700E-01 3.00000E-01
 -1       733 1.20000E+00 5.04300E-01 3.00000E-01
 -1       742 1.30000E+00 5.00000E-01 2.93250E-01
 -1       744 1.30000E+00 5.00000E-01 3.06750E-01
 -1       745 1.30000E+00 4.95700E-01 3.00000E-01
 -1       747 1.30000E+00 5.04300E-01 3.00000E-01
 -1       756 1.40000E+00 5.00000E-01 2.93250E-01
 -1       758 1.40000E+00 5.00000E-01 3.06750E-01
 -1       759 1.40000E+00 4.95700E-01 3.00000E-01
 -1       761 1.40000E+00 5.04300E-01 3.00000E-01
 -1       770 1.50000E+00 5.00000E-01 2.93250E-01
 -1       772 1.50000E+00 5.00000E-01 3.06750E-01
 -1       773 1.50000E+00 4.95700E-01 3.00000E-01
 -1       775 1.50000E+00 5.04300E-01 3.00000E-01
 -1       784 1.60000E+00 5.00000E-01 2.93250E-01
 -1       786 1.60000E+00 5.00000E-01 3.06750E-01
 -1       787 1.60000E+00 4.95700E-01 3.00000E-01
 -1       789 1.60000E+00 5.04300E-01 3.00000E-01
 -1       798 1.70000E+00 5.00000E-01 2.93250E-01
 -1       800 1.70000E+00 5.00000E-01 3.06750E-01
 -1       801 1.70000E+00 4.95700E-01 3.00000E-01
 -1       803 1.70000E+00 5.04300E-01 3.00000E-01
 -1       812 1.80000E+00 5.00000E-01 2.93250E-01
 -1       814 1.80000E+00 5.00000E-01 3.06750E-01
 -1       815 1.80000E+00 4.95700E-01 3.00000E-01
 -1       817 1.80000E+00 5.04300E-01 3.00000E-01
 -1       826 1.90000E+00 5.00000E-01 2.93250E-01
 -1       828 1.90000E+00 5.00000E-01 3.06750E-01
 -1       829 1.90000E+00 4.95700E-01 3.00000E-01
 -1       831 1.90000E+00 5.04300E-01 3.00000E-01
 -1       840 2.00000E+00 5.00000E-01 2.93250E-01
 -1       842 2.00000E+00 5.00000E-01 3.06750E-01
 -1       843 2.00000E+00 4.95700E-01 3.00000E-01
 -1       845 2.00000E+00 5.04300E-01 3.00000E-01
 -1       854 2.10000E+00 5.00000E-01 2.93250E-01
 -1       856 2.10000E+00 5.00000E-01 3.06750E-01
 -1       857 2.10000E+00 4.95700E-01 3.00000E-01
 -1       859 2.10000E+00 5.04300E-01 3.00000E-01
 -1       868 2.20000E+00 5.00000E-01 2.93250E-01
 -1       870 2.20000E+00 5.00000E-01 3.06750E-01
 -1       871 2.20000E+00 4.95700E-01 3.00000E-01
 -1       873 2.20000E+00 5.04300E-01 3.00000E-01
 -1       882 2.30000E+00 5.00000E-01 2.93250E-01
 -1       884 2.30000E+00 5.00000E-01 3.06750E-01
 -1       885 2.30000E+00 4.95700E-01 3.00000E-01
 -1       887 2.30000E+00 5.04300E-01 3.00000E-01
 -1       896 2.40000E+00 5.00000E-01 2.93250E-01
 -1       898 2.40000E+00 5.00000E-01 3.06750E-01
 -1       899 2.40000E+00 4.95700E-01 3.00000E-01
 -1       901 2.40000E+00 5.04300E-01 3.00000E-01
 -1       910 2.50000E+00 5.00000E-01 2.93250E-01
 -1       912 2.50000E+00 5.00000E-01 3.06750E-01
 -1       913 2.50000E+00 4.95700E-01 3.00000E-01
 -1       915 2.50000E+00 5.04300E-01 3.00000E-01
 -1       924 2.60000E+00 5.00000E-01 2.93250E-01
 -1       926 2.60000E+00 5.00000E-01 3.06750E-01
 -1       927 2.60000E+00 4.95700E-01 3.00000E-01
 -1       929 2.60000E+00 5.04300E-01 3.00000E-01
 -1       938 2.70000E+00 5.00000E-01 2.93250E-01
 -1       940 2.70000E+00 5.00000E-01 3.06750E-01
 -1       941 2.70000E+00 4.95700E-01 3.00000E-01
 -1       943 2.70000E+00 5.04300E-01 3.00000E-01
 -1       952 2.80000E+00 5.00000E-01 2.93250E-01
 -1       954 2.80000E+00 5.00000E-01 3.06750E-01
 -1       955 2.80000E+00 4.95700E-01 3.00000E-01
 -1       957 2.80000E+00 5.04300E-01 3.00000E-01
 -1       966 2.90000E+00 5.00000E-01 2.93250E-01
 -1       968 2.90000E+00 5.00000E-01 3.06750E-01
 -1       969 2.90000E+00 4.95700E-01 3.00000E-01
 -1       971 2.90000E+00 5.04300E-01 3.00000E-01
 -1       980 0.00000E+00 5.45000E-01 2.93250E-01
 -1       982 0.00000E+00 5.45000E-01 3.06750E-01
 -1       983 3.00000E+00 4.55000E-01 2.93250E-01
 -1       985 3.00000E+00 4.55000E-01 3.06750E-01
 -1       986 1.00000E-01 4.10000E-01 2.93250E-01
 -1       988 1.00000E-01 4.10000E-01 3.06750E-01
 -1       989 2.00000E-01 4.10000E-01 2.93250E-01
 -1       991 2.00000E-01 4.10000E-01 3.06750E-01
 -1       992 3.00000E-01 4.10000E-01 2.93250E-01
 -1       994 3.00000E-01 4.10000E-01 3.06750E-01
 -1       995 4.00000E-01 4.10000E-01 2.93250E-01
 -1       997 4.00000E-01 4.10000E-01 3.06750E-01
 -1       998 5.00000E-01 4.10000E-01 2.93250E-01
 -1      1000 5.00000E-01 4.10000E-01 3.06750E-01
 -1      1001 6.00000E-01 4.10000E-01 2.93250E-01
 -1      1003 6.00000E-01 4.10000E-01 3.06750E-01
 -1      1004 7.00000E-01 4.10000E-01 2.93250E-01
 -1      1006 7.00000E-01 4.10000E-01 3.06750E-01
 -1      1007 8.00000E-01 4.10000E-01 2.93250E-01
 -1      1009 8.00000E-01 4.10000E-01 3.06750E-01
 -1      1010 9.00000E-01 4.10000E-01 2.93250E-01
 -1      1012 9.00000E-01 4.10000E-01 3.06750E-01
 -1      1013 1.00000E+00 4.10000E-01 2.93250E-01
 -1      1015 1.00000E+00 4.10000E-01 3.06750E-01
 -1      1016 1.10000E+00 4.10000E-01 2.93250E-01
 -1      1018 1.10000E+00 4.10000E-01 3.06750E-01
 -1      1019 1.20000E+00 4.10000E-01 2.93250E-01
 -1      1021 1.20000E+00 4.10000E-01 3.06750E-01
 -1      1022 1.30000E+00 4.10000E-01 2.93250E-01
 -1      1024 1.30000E+00 4.10000E-01 3.06750E-01
 -1      1025 1.40000E+00 4.10000E-01 2.93250E-01
 -1      1027 1.40000E+00 4.10000E-01 3.06750E-01
 -1      1028 1.50000E+00 4.10000E-01 2.93250E-01
 -1      1030 1.50000E+00 4.10000E-01 3.06750E-01
 -1      1031 1.60000E+00 4.10000E-01 2.93250E-01
 -1      1033 1.60000E+00 4.10000E-01 3.06750E-01
 -1      1034 1.70000E+00 4.10000E-01 2.93250E-01
 -1      1036 1.70000E+00 4.10000E-01 3.06750E-01
 -1      1037 1.80000E+00 4.10000E-01 2.93250E-01
 -1      1039 1.80000E+00 4.10000E-01 3.06750E-01
 -1      1040 1.90000E+00 4.10000E-01 2.93250E-01
 -1      1042 1.90000E+00 4.10000E-01 3.06750E-01
 -1      1043 2.00000E+00 4.10000E-01 2.93250E-01
 -1      1045 2.00000E+00 4.10000E-01 3.06750E-01
 -1      1046 2.10000E+00 4.10000E-01 2.93250E-01
 -1      1048 2.10000E+00 4.10000E-01 3.06750E-01
 -1      1049 2.20000E+00 4.10000E-01 2.93250E-01
 -1      1051 2.20000E+00 4.10000E-01 3.06750E-01
 -1      1052 2.30000E+00 4.10000E-01 2.93250E-01
 -1      1054 2.30000E+00 4.10000E-01 3.06750E-01
 -1      1055 2.40000E+00 4.10000E-01 2.93250E-01
 -1      1057 2.40000E+00 4.10000E-01 3.06750E-01
 -1      1058 2.50000E+00 4.10000E-01 2.93250E-01
 -1      1060 2.50000E+00 4.10000E-01 3.06750E-01
 -1      1061 2.60000E+00 4.10000E-01 2.93250E-01
 -1      1063 2.60000E+00 4.10000E-01 3.06750E-01
 -1      1064 2.70000E+00 4.10000E-01 2.93250E-01
 -1      1066 2.70000E+00 4.10000E-01 3.06750E-01
 -1      1067 2.80000E+00 4.10000E-01 2.93250E-01
 -1      1069 2.80000E+00 4.10000E-01 3.06750E-01
 -1      1070 2.90000E+00 4.10000E-01 2.93250E-01
 -1      1072 2.90000E+00 4.10000E-01 3.06750E-01
 -1      1073 0.00000E+00 4.55000E-01 2.93250E-01
 -1      1075 0.00000E+00 4.55000E-01 3.06750E-01
 -1      1076 0.00000E+00 4.95700E-01 4.00000E-01
 -1      1078 0.00000E+00 5.04300E-01 4.00000E-01
 -1      1079 0.00000E+00 4.95700E-01 5.00000E-01
 -1      1081 0.00000E+00 5.04300E-01 5.00000E-01
 -1      1082 0.00000E+00 4.95700E-01 6.00000E-01
 -1      1084 0.00000E+00 5.04300E-01 6.00000E-01
 -1      1085 1.00000E-01 4.95700E-01 7.00000E-01
 -1      1087 1.00000E-01 5.04300E-01 7.00000E-01
 -1      1088 1.00000E-01 5.00000E-01 7.06750E-01
 -1      1090 1.00000E-01 5.00000E-01 6.93250E-01
 -1      1099 2.00000E-01 4.95700E-01 7.00000E-01
 -1      1101 2.00000E-01 5.04300E-01 7.00000E-01
 -1      1102 2.00000E-01 5.00000E-01 7.06750E-01
 -1      1104 2.00000E-01 5.00000E-01 6.93250E-01
 -1      1113 3.00000E-01 4.95700E-01 7.00000E-01
 -1      1115 3.00000E-01 5.04300E-01 7.00000E-01
 -1      1116 3.00000E-01 5.00000E-01 7.06750E-01
 -1      1118 3.00000E-01 5.00000E-01 6.93250E-01
 -1      1127 4.00000E-01 4.95700E-01 7.00000E-01
 -1      1129 4.00000E-01 5.04300E-01 7.00000E-01
 -1      1130 4.00000E-01 5.00000E-01 7.06750E-01
 -1      1132 4.00000E-01 5.00000E-01 6.93250E-01
 -1      1141 5.00000E-01 4.95700E-01 7.00000E-01
 -1      1143 5.00000E-01 5.04300E-01 7.00000E-01
 -1      1144 5.00000E-01 5.00000E-01 7.06750E-01
 -1      1146 5.00000E-01 5.00000E-01 6.93250E-01
 -1      1155 6.00000E-01 4.95700E-01 7.00000E-01
 -1      1157 6.00000E-01 5.04300E-01 7.00000E-01
 -1      1158 6.00000E-01 5.00000E-01 7.06750E-01
 -1      1160 6.00000E-01 5.00000E-01 6.93250E-01
 -1      1169 7.00000E-01 4.95700E-01 7.00000E-01
 -1      1171 7.00000E-01 5.04300E-01 7.00000E-01
 -1      1172 7.00000E-01 5.00000E-01 7.06750E-01
 -1      1174 7.00000E-01 5.00000E-01 6.93250E-01
 -1      1183 8.00000E-01 4.95700E-01 7.00000E-01
 -1      1185 8.00000E-01 5.04300E-01 7.00000E-01
 -1      1186 8.00000E-01 5.00000E-01 7.06750E-01
 -1      1188 8.00000E-01 5.00000E-01 6.93250E-01
 -1      1197 9.00000E-01 4.95700E-01 7.00000E-01
 -1      1199 9.00000E-01 5.04300E-01 7.00000E-01
 -1      1200 9.00000E-01 5.00000E-01 7.06750E-01
 -1      1202 9.00000E-01 5.00000E-01 6.93250E-01
 -1      1211 1.00000E+00 4.95700E-01 7.00000E-01
 -1      1213 1.00000E+00 5.04300E-01 7.00000E-01
 -1      1214 1.00000E+00 5.00000E-01 7.06750E-01
 -1      1216 1.00000E+00 5.00000E-01 6.93250E-01
 -1      1225 1.10000E+00 4.95700E-01 7.00000E-01
 -1      1227 1.10000E+00 5.04300E-01 7.00000E-01
 -1      1228 1.10000E+00 5.00000E-01 7.06750E-01
 -1      1230 1.10000E+00 5.00000E-01 6.93250E-01
 -1      1239 1.20000E+00 4.95700E-01 7.00000E-01
 -1      1241 1.20000E+00 5.04300E-01 7.00000E-01
 -1      1242 1.20000E+00 5.00000E-01 7.06750E-01
 -1      1244 1.20000E+00 5.00000E-01 6.93250E-01
 -1      1253 1.30000E+00 4.95700E-01 7.00000E-01
 -1      1255 1.30000E+00 5.04300E-01 7.00000E-01
 -1      1256 1.30000E+00 5.00000E-01 7.06750E-01
 -1      1258 1.30000E+00 5.00000E-01 6.93250E-01
 -1      1267 1.40000E+00 4.95700E-01 7.00000E-01
 -1      1269 1.40000E+00 5.04300E-01 7.00000E-01
 -1      1270 1.40000E+00 5.00000E-01 7.06750E-01
 -1      1272 1.40000E+00 5.00000E-01 6.93250E-01
 -1      1281 1.50000E+00 4.95700E-01 7.00000E-01
 -1      1283 1.50000E+00 5.04300E-01 7.00000E-01
 -1      1284 1.50000E+00 5.00000E-01 7.06750E-01
 -1      1286 1.50000E+00 5.00000E-01 6.93250E-01
 -1      1295 1.60000E+00 4.95700E-01 7.00000E-01
 -1      1297 1.60000E+00 5.04300E-01 7.00000E-01
 -1      1298 1.60000E+00 5.00000E-01 7.06750E-01
 -1      1300 1.60000E+00 5.00000E-01 6.93250E-01
 -1      1309 1.70000E+00 4.95700E-01 7.00000E-01
 -1      1311 1.70000E+00 5.04300E-01 7.00000E-01
 -1      1312 1.70000E+00 5.00000E-01 7.06750E-01
 -1      1314 1.70000E+00 5.00000E-01 6.93250E-01
 -1      1323 1.80000E+00 4.95700E-01 7.00000E-01
 -1      1325 1.80000E+00 5.04300E-01 7.00000E-01
 -1      1326 1.80000E+00 5.00000E-01 7.06750E-01
 -1      1328 1.80000E+00 5.00000E-01 6.93250E-01
 -1      1337 1.90000E+00 4.95700E-01 7.00000E-01
 -1      1339 1.90000E+00 5.04300E-01 7.00000E-01
 -1      1340 1.90000E+00 5.00000E-01 7.06750E-01
 -1      1342 1.90000E+00 5.00000E-01 6.93250E-01
 -1      1351 2.00000E+00 4.95700E-01 7.00000E-01
 -1      1353 2.00000E+00 5.04300E-01 7.00000E-01
 -1      1354 2.00000E+00 5.00000E-01 7.06750E-01
 -1      1356 2.00000E+00 5.00000E-01 6.93250E-01
 -1      1365 2.10000E+00 4.95700E-01 7.00000E-01
 -1      1367 2.10000E+00 5.04300E-01 7.00000E-01
 -1      1368 2.10000E+00 5.00000E-01 7.06750E-01
 -1      1370 2.10000E+00 5.00000E-01 6.93250E-01
 -1      1379 2.20000E+00 4.95700E-01 7.00000E-01
 -1      1381 2.20000E+00 5.04300E-01 7.00000E-01
 -1      1382 2.20000E+00 5.00000E-01 7.06750E-01
 -1      1384 2.20000E+00 5.00000E-01 6.93250E-01
 -1      1393 2.30000E+00 4.95700E-01 7.00000E-01
 -1      1395 2.30000E+00 5.04300E-01 7.00000E-01
 -1      1396 2.30000E+00 5.00000E-01 7.06750E-01
 -1      1398 2.30000E+00 5.00000E-01 6.93250E-01
 -1      1407 2.40000E+00 4.95700E-01 7.00000E-01
 -1      1409 2.40000E+00 5.04300E-01 7.00000E-01
 -1      1410 2.40000E+00 5.00000E-01 7.06750E-01
 -1      1412 2.40000E+00 5.00000E-01 6.93250E-01
 -1      1421 2.50000E+00 4.95700E-01 7.00000E-01
 -1      1423 2.50000E+00 5.04300E-01 7.00000E-01
 -1      1424 2.50000E+00 5.00000E-01 7.06750E-01
 -1      1426 2.50000E+00 5.00000E-01 6.93250E-01
 -1      1435 2.60000E+00 4.95700E-01 7.00000E-01
 -1      1437 2.60000E+00 5.04300E-01 7.00000E-01
 -1      1438 2.60000E+00 5.00000E-01 7.06750E-01
 -1      1440 2.60000E+00 5.00000E-01 6.93250E-01
 -1      1449 2.70000E+00 4.95700E-01 7.00000E-01
 -1      1451 2.70000E+00 5.04300E-01 7.00000E-01
 -1      1452 2.70000E+00 5.00000E-01 7.06750E-01
 -1      1454 2.70000E+00 5.00000E-01 6.93250E-01
 -1      1463 2.80000E+00 4.95700E-01 7.00000E-01
 -1      1465 2.80000E+00 5.04300E-01 7.00000E-01
 -1      1466 2.80000E+00 5.00000E-01 7.06750E-01
 -1      1468 2.80000E+00 5.00000E-01 6.93250E-01
 -1      1477 2.90000E+00 4.95700E-01 7.00000E-01
 -1      1479 2.90000E+00 5.04300E-01 7.00000E-01
 -1      1480 2.90000E+00 5.00000E-01 7.06750E-01
 -1      1482 2.90000E+00 5.00000E-01 6.93250E-01
 -1      1491 3.00000E+00 4.95700E-01 4.00000E-01
 -1      1493 3.00000E+00 5.04300E-01 4.00000E-01
 -1      1494 3.00000E+00 4.95700E-01 5.00000E-01
 -1      1496 3.00000E+00 5.04300E-01 5.00000E-01
 -1      1497 3.00000E+00 4.95700E-01 6.00000E-01
 -1      1499 3.00000E+00 5.04300E-01 6.00000E-01
 -1      1500 1.00000E-01 4.10000E-01 7.06750E-01
 -1      1502 1.00000E-01 4.10000E-01 6.93250E-01
 -1      1503 2.00000E-01 4.10000E-01 7.06750E-01
 -1      1505 2.00000E-01 4.10000E-01 6.93250E-01
 -1      1506 3.00000E-01 4.10000E-01 7.06750E-01
 -1      1508 3.00000E-01 4.10000E-01 6.93250E-01
 -1      1509 4.00000E-01 4.10000E-01 7.06750E-01
 -1      1511 4.00000E-01 4.10000E-01 6.93250E-01
 -1      1512 5.00000E-01 4.10000E-01 7.06750E-01
 -1      1514 5.00000E-01 4.10000E-01 6.93250E-01
 -1      1515 6.00000E-01 4.10000E-01 7.06750E-01
 -1      1517 6.00000E-01 4.10000E-01 6.93250E-01
 -1      1518 7.00000E-01 4.10000E-01 7.06750E-01
 -1      1520 7.00000E-01 4.10000E-01 6.93250E-01
 -1      1521 8.00000E-01 4.10000E-01 7.06750E-01
 -1      1523 8.00000E-01 4.10000E-01 6.93250E-01
 -1      1524 9.00000E-01 4.10000E-01 7.06750E-01
 -1      1526 9.00000E-01 4.10000E-01 6.93250E-01
 -1      1527 1.00000E+00 4.10000E-01 7.06750E-01
 -1      1529 1.00000E+00 4.10000E-01 6.93250E-01
 -1      1530 1.10000E+00 4.10000E-01 7.06750E-01
 -1      1532 1.10000E+00 4.10000E-01 6.93250E-01
 -1      1533 1.20000E+00 4.10000E-01 7.06750E-01
 -1      1535 1.20000E+00 4.10000E-01 6.93250E-01
 -1      1536 1.30000E+00 4.10000E-01 7.06750E-01
 -1      1538 1.30000E+00 4.10000E-01 6.93250E-01
 -1      1539 1.40000E+00 4.10000E-01 7.06750E-01
 -1      1541 1.40000E+00 4.10000E-01 6.93250E-01
 -1      1542 1.50000E+00 4.10000E-01 7.06750E-01
 -1      1544 1.50000E+00 4.10000E-01 6.93250E-01
 -1      1545 1.60000E+00 4.10000E-01 7.06750E-01
 -1      1547 1.60000E+00 4.10000E-01 6.93250E-01
 -1      1548 1.70000E+00 4.10000E-01 7.06750E-01
 -1      1550 1.70000E+00 4.10000E-01 6.93250E-01
 -1      1551 1.80000E+00 4.10000E-01 7.06750E-01
 -1      1553 1.80000E+00 4.10000E-01 6.93250E-01
 -1      1554 1.90000E+00 4.10000E-01 7.06750E-01
 -1      1556 1.90000E+00 4.10000E-01 6.93250E-01
 -1      1557 2.00000E+00 4.10000E-01 7.06750E-01
 -1      1559 2.00000E+00 4.10000E-01 6.93250E-01
 -1      1560 2.10000E+00 4.10000E-01 7.06750E-01
 -1      1562 2.10000E+00 4.10000E-01 6.93250E-01
 -1      1563 2.20000E+00 4.10000E-01 7.06750E-01
 -1      1565 2.20000E+00 4.10000E-01 6.93250E-01
 -1      1566 2.30000E+00 4.10000E-01 7.06750E-01
 -1      1568 2.30000E+00 4.10000E-01 6.93250E-01
 -1      1569 2.40000E+00 4.10000E-01 7.06750E-01
 -1      1571 2.40000E+00 4.10000E-01 6.93250E-01
 -1      1572 2.50000E+00 4.10000E-01 7.06750E-01
 -1      1574 2.50000E+00 4.10000E-01 6.93250E-01
 -1      1575 2.60000E+00 4.10000E-01 7.06750E-01
 -1      1577 2.60000E+00 4.10000E-01 6.93250E-01
 -1      1578 2.70000E+00 4.10000E-01 7.06750E-01
 -1      1580 2.70000E+00 4.10000E-01 6.93250E-01
 -1      1581 2.80000E+00 4.10000E-01 7.06750E-01
 -1      1583 2.80000E+00 4.10000E-01 6.93250E-01
 -1      1584 2.90000E+00 4.10000E-01 7.06750E-01
 -1      1586 2.90000E+00 4.10000E-01 6.93250E-01
 -1      1587 3.00000E+00 4.55000E-01 7.06750E-01
 -1      1589 3.00000E+00 4.55000E-01 6.93250E-01
 -1      1590 0.00000E+00 4.55000E-01 7.06750E-01
 -1      1592 0.00000E+00 4.55000E-01 6.93250E-01
 -1      1593 3.00000E+00 5.45000E-01 7.06750E-01
 -1      1595 3.00000E+00 5.45000E-01 6.93250E-01
 -1      1596 1.00000E-01 5.90000E-01 7.06750E-01
 -1      1598 1.00000E-01 5.90000E-01 6.93250E-01
 -1      1599 2.00000E-01 5.90000E-01 7.06750E-01
 -1      1601 2.00000E-01 5.90000E-01 6.93250E-01
 -1      1602 3.00000E-01 5.90000E-01 7.06750E-01
 -1      1604 3.00000E-01 5.90000E-01 6.93250E-01
 -1      1605 4.00000E-01 5.90000E-01 7.06750E-01
 -1      1607 4.00000E-01 5.90000E-01 6.93250E-01
 -1      1608 5.00000E-01 5.90000E-01 7.06750E-01
 -1      1610 5.00000E-01 5.90000E-01 6.93250E-01
 -1      1611 6.00000E-01 5.90000E-01 7.06750E-01
 -1      1613 6.00000E-01 5.90000E-01 6.93250E-01
 -1      1614 7.00000E-01 5.90000E-01 7.06750E-01
 -1      1616 7.00000E-01 5.90000E-01 6.93250E-01
 -1      1617 8.00000E-01 5.90000E-01 7.06750E-01
 -1      1619 8.00000E-01 5.90000E-01 6.93250E-01
 -1      1620 9.00000E-01 5.90000E-01 7.06750E-01
 -1      1622 9.00000E-01 5.90000E-01 6.93250E-01
 -1      1623 1.00000E+00 5.90000E-01 7.06750E-01
 -1      1625 1.00000E+00 5.90000E-01 6.93250E-01
 -1      1626 1.10000E+00 5.90000E-01 7.06750E-01
 -1      1628 1.10000E+00 5.90000E-01 6.93250E-01
 -1      1629 1.20000E+00 5.90000E-01 7.06750E-01
 -1      1631 1.20000E+00 5.90000E-01 6.93250E-01
 -1      1632 1.30000E+00 5.90000E-01 7.06750E-01
 -1      1634 1.30000E+00 5.90000E-01 6.93250E-01
 -1      1635 1.40000E+00 5.90000E-01 7.06750E-01
 -1      1637 1.40000E+00 5.90000E-01 6.93250E-01
 -1      1638 1.50000E+00 5.90000E-01 7.06750E-01
 -1      1640 1.50000E+00 5.90000E-01 6.93250E-01
 -1      1641 1.60000E+00 5.90000E-01 7.06750E-01
 -1      1643 1.60000E+00 5.90000E-01 6.93250E-01
 -1      1644 1.70000E+00 5.90000E-01 7.06750E-01
 -1      1646 1.70000E+00 5.90000E-01 6.93250E-01
 -1      1647 1.80000E+00 5.90000E-01 7.06750E-01
 -1      1649 1.80000E+00 5.90000E-01 6.93250E-01
 -1      1650 1.90000E+00 5.90000E-01 7.06750E-01
 -1      1652 1.90000E+00 5.90000E-01 6.93250E-01
 -1      1653 2.00000E+00 5.90000E-01 7.06750E-01
 -1      1655 2.00000E+00 5.90000E-01 6.93250E-01
 -1      1656 2.10000E+00 5.90000E-01 7.06750E-01
 -1      1658 2.10000E+00 5.90000E-01 6.93250E-01
 -1      1659 2.20000E+00 5.90000E-01 7.06750E-01
 -1      1661 2.20000E+00 5.90000E-01 6.93250E-01
 -1      1662 2.30000E+00 5.90000E-01 7.06750E-01
 -1      1664 2.30000E+00 5.90000E-01 6.93250E-01
 -1      1665 2.40000E+00 5.90000E-01 7.06750E-01
 -1      1667 2.40000E+00 5.90000E-01 6.93250E-01
 -1      1668 2.50000E+00 5.90000E-01 7.06750E-01
 -1      1670 2.50000E+00 5.90000E-01 6.93250E-01
 -1      1671 2.60000E+00 5.90000E-01 7.06750E-01
 -1      1673 2.60000E+00 5.90000E-01 6.93250E-01
 -1      1674 2.70000E+00 5.90000E-01 7.06750E-01
 -1      1676 2.70000E+00 5.90000E-01 6.93250E-01
 -1      1677 2.80000E+00 5.90000E-01 7.06750E-01
 -1      1679 2.80000E+00 5.90000E-01 6.93250E-01
 -1      1680 2.90000E+00 5.90000E-01 7.06750E-01
 -1      1682 2.90000E+00 5.90000E-01 6.93250E-01
 -1      1683 0.00000E+00 5.45000E-01 7.06750E-01
 -1      1685 0.00000E+00 5.45000E-01 6.93250E-01
 -1      1686 1.00000E-01 5.45000E-01 2.93250E-01
 -1      1688 1.00000E-01 5.45000E-01 3.06750E-01
 -1      1689 2.00000E-01 5.45000E-01 2.93250E-01
 -1      1691 2.00000E-01 5.45000E-01 3.06750E-01
 -1      1692 3.00000E-01 5.45000E-01 2.93250E-01
 -1      1694 3.00000E-01 5.45000E-01 3.06750E-01
 -1      1695 4.00000E-01 5.45000E-01 2.93250E-01
 -1      1697 4.00000E-01 5.45000E-01 3.06750E-01
 -1      1698 5.00000E-01 5.45000E-01 2.93250E-01
 -1      1700 5.00000E-01 5.45000E-01 3.06750E-01
 -1      1701 6.00000E-01 5.45000E-01 2.93250E-01
 -1      1703 6.00000E-01 5.45000E-01 3.06750E-01
 -1      1704 7.00000E-01 5.45000E-01 2.93250E-01
 -1      1706 7.00000E-01 5.45000E-01 3.06750E-01
 -1      1707 8.00000E-01 5.45000E-01 2.93250E-01
 -1      1709 8.00000E-01 5.45000E-01 3.06750E-01
 -1      1710 9.00000E-01 5.45000E-01 2.93250E-01
 -1      1712 9.00000E-01 5.45000E-01 3.06750E-01
 -1      1713 1.00000E+00 5.45000E-01 2.93250E-01
 -1      1715 1.00000E+00 5.45000E-01 3.06750E-01
 -1      1716 1.10000E+00 5.45000E-01 2.93250E-01
 -1      1718 1.10000E+00 5.45000E-01 3.06750E-01
 -1      1719 1.20000E+00 5.45000E-01 2.93250E-01
 -1      1721 1.20000E+00 5.45000E-01 3.06750E-01
 -1      1722 1.30000E+00 5.45000E-01 2.93250E-01
 -1      1724 1.30000E+00 5.45000E-01 3.06750E-01
 -1      1725 1.40000E+00 5.45000E-01 2.93250E-01
 -1      1727 1.40000E+00 5.45000E-01 3.06750E-01
 -1      1728 1.50000E+00 5.45000E-01 2.93250E-01
 -1      1730 1.50000E+00 5.45000E-01 3.06750E-01
 -1      1731 1.60000E+00 5.45000E-01 2.93250E-01
 -1      1733 1.60000E+00 5.45000E-01 3.06750E-01
 -1      1734 1.70000E+00 5.45000E-01 2.93250E-01
 -1      1736 1.70000E+00 5.45000E-01 3.06750E-01
 -1      1737 1.80000E+00 5.45000E-01 2.93250E-01
 -1      1739 1.80000E+00 5.45000E-01 3.06750E-01
 -1      1740 1.90000E+00 5.45000E-01 2.93250E-01
 -1      1742 1.90000E+00 5.45000E-01 3.06750E-01
 -1      1743 2.00000E+00 5.45000E-01 2.93250E-01
 -1      1745 2.00000E+00 5.45000E-01 3.06750E-01
 -1      1746 2.10000E+00 5.45000E-01 2.93250E-01
 -1      1748 2.10000E+00 5.45000E-01 3.06750E-01
 -1      1749 2.20000E+00 5.45000E-01 2.93250E-01
 -1      1751 2.20000E+00 5.45000E-01 3.06750E-01
 -1      1752 2.30000E+00 5.45000E-01 2.93250E-01
 -1      1754 2.30000E+00 5.45000E-01 3.06750E-01
 -1      1755 2.40000E+00 5.45000E-01 2.93250E-01
 -1      1757 2.40000E+00 5.45000E-01 3.06750E-01
 -1      1758 2.50000E+00 5.45000E-01 2.93250E-01
 -1      1760 2.50000E+00 5.45000E-01 3.06750E-01
 -1      1761 2.60000E+00 5.45000E-01 2.93250E-01
 -1      1763 2.60000E+00 5.45000E-01 3.06750E-01
 -1      1764 2.70000E+00 5.45000E-01 2.93250E-01
 -1      1766 2.70000E+00 5.45000E-01 3.06750E-01
 -1      1767 2.80000E+00 5.45000E-01 2.93250E-01
 -1      1769 2.80000E+00 5.45000E-01 3.06750E-01
 -1      1770 2.90000E+00 5.45000E-01 2.93250E-01
 -1      1772 2.90000E+00 5.45000E-01 3.06750E-01
 -1      1773 1.00000E-01 4.55000E-01 2.93250E-01
 -1      1775 1.00000E-01 4.55000E-01 3.06750E-01
 -1      1776 2.00000E-01 4.55000E-01 2.93250E-01
 -1      1778 2.00000E-01 4.55000E-01 3.06750E-01
 -1      1779 3.00000E-01 4.55000E-01 2.93250E-01
 -1      1781 3.00000E-01 4.55000E-01 3.06750E-01
 -1      1782 4.00000E-01 4.55000E-01 2.93250E-01
 -1      1784 4.00000E-01 4.55000E-01 3.06750E-01
 -1      1785 5.00000E-01 4.55000E-01 2.93250E-01
 -1      1787 5.00000E-01 4.55000E-01 3.06750E-01
 -1      1788 6.00000E-01 4.55000E-01 2.93250E-01
 -1      1790 6.00000E-01 4.55000E-01 3.06750E-01
 -1      1791 7.00000E-01 4.55000E-01 2.93250E-01
 -1      1793 7.00000E-01 4.55000E-01 3.06750E-01
 -1      1794 8.00000E-01 4.55000E-01 2.93250E-01
 -1      1796 8.00000E-01 4.55000E-01 3.06750E-01
 -1      1797 9.00000E-01 4.55000E-01 2.93250E-01
 -1      1799 9.00000E-01 4.55000E-01 3.06750E-01
 -1      1800 1.00000E+00 4.55000E-01 2.93250E-01
 -1      1802 1.00000E+00 4.55000E-01 3.06750E-01
 -1      1803 1.10000E+00 4.55000E-01 2.93250E-01
 -1      1805 1.10000E+00 4.55000E-01 3.06750E-01
 -1      1806 1.20000E+00 4.55000E-01 2.93250E-01
 -1      1808 1.20000E+00 4.55000E-01 3.06750E-01
 -1      1809 1.30000E+00 4.55000E-01 2.93250E-01
 -1      1811 1.30000E+00 4.55000E-01 3.06750E-01
 -1      1812 1.40000E+00 4.55000E-01 2.93250E-01
 -1      1814 1.40000E+00 4.55000E-01 3.06750E-01
 -1      1815 1.50000E+00 4.55000E-01 2.93250E-01
 -1      1817 1.50000E+00 4.55000E-01 3.06750E-01
 -1      1818 1.60000E+00 4.55000E-01 2.93250E-01
 -1      1820 1.60000E+00 4.55000E-01 3.06750E-01
 -1      1821 1.70000E+00 4.55000E-01 2.93250E-01
 -1      1823 1.70000E+00 4.55000E-01 3.06750E-01
 -1      1824 1.80000E+00 4.55000E-01 2.93250E-01
 -1      1826 1.80000E+00 4.55000E-01 3.06750E-01
 -1      1827 1.90000E+00 4.55000E-01 2.93250E-01
 -1      1829 1.90000E+00 4.55000E-01 3.06750E-01
 -1      1830 2.00000E+00 4.55000E-01 2.93250E-01
 -1      1832 2.00000E+00 4.55000E-01 3.06750E-01
 -1      1833 2.10000E+00 4.55000E-01 2.93250E-01
 -1      1835 2.10000E+00 4.55000E-01 3.06750E-01
 -1      1836 2.20000E+00 4.55000E-01 2.93250E-01
 -1      1838 2.20000E+00 4.55000E-01 3.06750E-01
 -1      1839 2.30000E+00 4.55000E-01 2.93250E-01
 -1      1841 2.30000E+00 4.55000E-01 3.06750E-01
 -1      1842 2.40000E+00 4.55000E-01 2.93250E-01
 -1      1844 2.40000E+00 4.55000E-01 3.06750E-01
 -1      1845 2.50000E+00 4.55000E-01 2.93250E-01
 -1      1847 2.50000E+00 4.55000E-01 3.06750E-01
 -1      1848 2.60000E+00 4.55000E-01 2.93250E-01
 -1      1850 2.60000E+00 4.55000E-01 3.06750E-01
 -1      1851 2.70000E+00 4.55000E-01 2.93250E-01
 -1      1853 2.70000E+00 4.55000E-01 3.06750E-01
 -1      1854 2.80000E+00 4.55000E-01 2.93250E-01
 -1      1856 2.80000E+00 4.55000E-01 3.06750E-01
 -1      1857 2.90000E+00 4.55000E-01 2.93250E-01
 -1      1859 2.90000E+00 4.55000E-01 3.06750E-01
 -1      1860 1.00000E-01 4.95700E-01 4.00000E-01
 -1      1862 1.00000E-01 5.04300E-01 4.00000E-01
 -1      1863 2.00000E-01 4.95700E-01 4.00000E-01
 -1      1865 2.00000E-01 5.04300E-01 4.00000E-01
 -1      1866 3.00000E-01 4.95700E-01 4.00000E-01
 -1      1868 3.00000E-01 5.04300E-01 4.00000E-01
 -1      1869 4.00000E-01 4.95700E-01 4.00000E-01
 -1      1871 4.00000E-01 5.04300E-01 4.00000E-01
 -1      1872 5.00000E-01 4.95700E-01 4.00000E-01
 -1      1874 5.00000E-01 5.04300E-01 4.00000E-01
 -1      1875 6.00000E-01 4.95700E-01 4.00000E-01
 -1      1877 6.00000E-01 5.04300E-01 4.00000E-01
 -1      1878 7.00000E-01 4.95700E-01 4.00000E-01
 -1      1880 7.00000E-01 5.04300E-01 4.00000E-01
 -1      1881 8.00000E-01 4.95700E-01 4.00000E-01
 -1      1883 8.00000E-01 5.04300E-01 4.00000E-01
 -1      1884 9.00000E-01 4.95700E-01 4.00000E-01
 -1      1886 9.00000E-01 5.04300E-01 4.00000E-01
 -1      1887 1.00000E+00 4.95700E-01 4.00000E-01
 -1      1889 1.00000E+00 5.04300E-01 4.00000E-01
 -1      1890 1.10000E+00 4.95700E-01 4.00000E-01
 -1      1892 1.10000E+00 5.04300E-01 4.00000E-01
 -1      1893 1.20000E+00 4.95700E-01 4.00000E-01
 -1      1895 1.20000E+00 5.04300E-01 4.00000E-01
 -1      1896 1.30000E+00 4.95700E-01 4.00000E-01
 -1      1898 1.30000E+00 5.04300E-01 4.00000E-01
 -1      1899 1.40000E+00 4.95700E-01 4.00000E-01
 -1      1901 1.40000E+00 5.04300E-01 4.00000E-01
 -1      1902 1.50000E+00 4.95700E-01 4.00000E-01
 -1      1904 1.50000E+00 5.04300E-01 4.00000E-01
 -1      1905 1.60000E+00 4.95700E-01 4.00000E-01
 -1      1907 1.60000E+00 5.04300E-01 4.00000E-01
 -1      1908 1.70000E+00 4.95700E-01 4.00000E-01
 -1      1910 1.70000E+00 5.04300E-01 4.00000E-01
 -1      1911 1.80000E+00 4.95700E-01 4.00000E-01
 -1      1913 1.80000E+00 5.04300E-01 4.00000E-01
 -1      1914 1.90000E+00 4.95700E-01 4.00000E-01
 -1      1916 1.90000E+00 5.04300E-01 4.00000E-01
 -1      1917 2.00000E+00 4.95700E-01 4.00000E-01
 -1      1919 2.00000E+00 5.04300E-01 4.00000E-01
 -1      1920 2.10000E+00 4.95700E-01 4.00000E-01
 -1      1922 2.10000E+00 5.04300E-01 4.00000E-01
 -1      1923 2.20000E+00 4.95700E-01 4.00000E-01
 -1      1925 2.20000E+00 5.04300E-01 4.00000E-01
 -1      1926 2.30000E+00 4.95700E-01 4.00000E-01
 -1      1928 2.30000E+00 5.04300E-01 4.00000E-01
 -1      1929 2.40000E+00 4.95700E-01 4.00000E-01
 -1      1931 2.40000E+00 5.04300E-01 4.00000E-01
 -1      1932 2.50000E+00 4.95700E-01 4.00000E-01
 -1      1934 2.50000E+00 5.04300E-01 4.00000E-01
 -1      1935 2.60000E+00 4.95700E-01 4.00000E-01
 -1      1937 2.60000E+00 5.04300E-01 4.00000E-01
 -1      1938 2.70000E+00 4.95700E-01 4.00000E-01
 -1      1940 2.70000E+00 5.04300E-01 4.00000E-01
 -1      1941 2.80000E+00 4.95700E-01 4.00000E-01
 -1      1943 2.80000E+00 5.04300E-01 4.00000E-01
 -1      1944 2.90000E+00 4.95700E-01 4.00000E-01
 -1      1946 2.90000E+00 5.04300E-01 4.00000E-01
 -1      1947 1.00000E-01 4.95700E-01 5.00000E-01
 -1      1949 1.00000E-01 5.04300E-01 5.00000E-01
 -1      1950 2.00000E-01 4.95700E-01 5.00000E-01
 -1      1952 2.00000E-01 5.04300E-01 5.00000E-01
 -1      1953 3.00000E-01 4.95700E-01 5.00000E-01
 -1      1955 3.00000E-01 5.04300E-01 5.00000E-01
 -1      1956 4.00000E-01 4.95700E-01 5.00000E-01
 -1      1958 4.00000E-01 5.04300E-01 5.00000E-01
 -1      1959 5.00000E-01 4.95700E-01 5.00000E-01
 -1      1961 5.00000E-01 5.04300E-01 5.00000E-01
 -1      1962 6.00000E-01 4.95700E-01 5.00000E-01
 -1      1964 6.00000E-01 5.04300E-01 5.00000E-01
 -1      1965 7.00000E-01 4.95700E-01 5.00000E-01
 -1      1967 7.00000E-01 5.04300E-01 5.00000E-01
 -1      1968 8.00000E-01 4.95700E-01 5.00000E-01
 -1      1970 8.00000E-01 5.04300E-01 5.00000E-01
 -1      1971 9.00000E-01 4.95700E-01 5.00000E-01
 -1      1973 9.00000E-01 5.04300E-01 5.00000E-01
 -1      1974 1.00000E+00 4.95700E-01 5.00000E-01
 -1      1976 1.00000E+00 5.04300E-01 5.00000E-01
 -1      1977 1.10000E+00 4.95700E-01 5.00000E-01
 -1      1979 1.10000E+00 5.04300E-01 5.00000E-01
 -1      1980 1.20000E+00 4.95700E-01 5.00000E-01
 -1      1982 1.20000E+00 5.04300E-01 5.00000E-01
 -1      1983 1.30000E+00 4.95700E-01 5.00000E-01
 -1      1985 1.30000E+00 5.04300E-01 5.00000E-01
 -1      1986 1.40000E+00 4.95700E-01 5.00000E-01
 -1      1988 1.40000E+00 5.04300E-01 5.00000E-01
 -1      1989 1.50000E+00 4.95700E-01 5.00000E-01
 -1      1991 1.50000E+00 5.04300E-01 5.00000E-01
 -1      1992 1.60000E+00 4.95700E-01 5.00000E-01
 -1      1994 1.60000E+00 5.04300E-01 5.00000E-01
 -1      1995 1.70000E+00 4.95700E-01 5.00000E-01
 -1      1997 1.70000E+00 5.04300E-01 5.00000E-01
 -1      1998 1.80000E+00 4.95700E-01 5.00000E-01
 -1      2000 1.80000E+00 5.04300E-01 5.00000E-01
 -1      2001 1.90000E+00 4.95700E-01 5.00000E-01
 -1      2003 1.90000E+00 5.04300E-01 5.00000E-01
 -1      2004 2.00000E+00 4.95700E-01 5.00000E-01
 -1      2006 2.00000E+00 5.04300E-01 5.00000E-01
 -1      2007 2.10000E+00 4.95700E-01 5.00000E-01
 -1      2009 2.10000E+00 5.04300E-01 5.00000E-01
 -1      2010 2.20000E+00 4.95700E-01 5.00000E-01
 -1      2012 2.20000E+00 5.04300E-01 5.00000E-01
 -1      2013 2.30000E+00 4.95700E-01 5.00000E-01
 -1      2015 2.30000E+00 5.04300E-01 5.00000E-01
 -1      2016 2.40000E+00 4.95700E-01 5.00000E-01
 -1      2018 2.40000E+00 5.04300E-01 5.00000E-01
 -1      2019 2.50000E+00 4.95700E-01 5.00000E-01
 -1      2021 2.50000E+00 5.04300E-01 5.00000E-01
 -1      2022 2.60000E+00 4.95700E-01 5.00000E-01
 -1      2024 2.60000E+00 5.04300E-01 5.00000E-01
 -1      2025 2.70000E+00 4.95700E-01 5.00000E-01
 -1      2027 2.70000E+00 5.04300E-01 5.00000E-01
 -1      2028 2.80000E+00 4.95700E-01 5.00000E-01
 -1      2030 2.80000E+00 5.04300E-01 5.00000E-01
 -1      2031 2.90000E+00 4.95700E-01 5.00000E-01
 -1      2033 2.90000E+00 5.04300E-01 5.00000E-01
 -1      2034 1.00000E-01 4.95700E-01 6.00000E-01
 -1      2036 1.00000E-01 5.04300E-01 6.00000E-01
 -1      2037 2.00000E-01 4.95700E-01 6.00000E-01
 -1      2039 2.00000E-01 5.04300E-01 6.00000E-01
 -1      2040 3.00000E-01 4.95700E-01 6.00000E-01
 -1      2042 3.00000E-01 5.04300E-01 6.00000E-01
 -1      2043 4.00000E-01 4.95700E-01 6.00000E-01
 -1      2045 4.00000E-01 5.04300E-01 6.00000E-01
 -1      2046 5.00000E-01 4.95700E-01 6.00000E-01
 -1      2048 5.00000E-01 5.04300E-01 6.00000E-01
 -1      2049 6.00000E-01 4.95700E-01 6.00000E-01
 -1      2051 6.00000E-01 5.04300E-01 6.00000E-01
 -1      2052 7.00000E-01 4.95700E-01 6.00000E-01
 -1      2054 7.00000E-01 5.04300E-01 6.00000E-01
 -1      2055 8.00000E-01 4.95700E-01 6.00000E-01
 -1      2057 8.00000E-01 5.04300E-01 6.00000E-01
 -1      2058 9.00000E-01 4.95700E-01 6.00000E-01
 -1      2060 9.00000E-01 5.04300E-01 6.00000E-01
 -1      2061 1.00000E+00 4.95700E-01 6.00000E-01
 -1      2063 1.00000E+00 5.04300E-01 6.00000E-01
 -1      2064 1.10000E+00 4.95700E-01 6.00000E-01
 -1      2066 1.10000E+00 5.04300E-01 6.00000E-01
 -1      2067 1.20000E+00 4.95700E-01 6.00000E-01
 -1      2069 1.20000E+00 5.04300E-01 6.00000E-01
 -1      2070 1.30000E+00 4.95700E-01 6.00000E-01
 -1      2072 1.30000E+00 5.04300E-01 6.00000E-01
 -1      2073 1.40000E+00 4.95700E-01 6.00000E-01
 -1      2075 1.40000E+00 5.04300E-01 6.00000E-01
 -1      2076 1.50000E+00 4.95700E-01 6.00000E-01
 -1      2078 1.50000E+00 5.04300E-01 6.00000E-01
 -1      2079 1.60000E+00 4.95700E-01 6.00000E-01
 -1      2081 1.60000E+00 5.04300E-01 6.00000E-01
 -1      2082 1.70000E+00 4.95700E-01 6.00000E-01
 -1      2084 1.70000E+00 5.04300E-01 6.00000E-01
 -1      2085 1.80000E+00 4.95700E-01 6.00000E-01
 -1      2087 1.80000E+00 5.04300E-01 6.00000E-01
 -1      2088 1.90000E+00 4.95700E-01 6.00000E-01
 -1      2090 1.90000E+00 5.04300E-01 6.00000E-01
 -1      2091 2.00000E+00 4.95700E-01 6.00000E-01
 -1      2093 2.00000E+00 5.04300E-01 6.00000E-01
 -1      2094 2.10000E+00 4.95700E-01 6.00000E-01
 -1      2096 2.10000E+00 5.04300E-01 6.00000E-01
 -1      2097 2.20000E+00 4.95700E-01 6.00000E-01
 -1      2099 2.20000E+00 5.04300E-01 6.00000E-01
 -1      2100 2.30000E+00 4.95700E-01 6.00000E-01
 -1      2102 2.30000E+00 5.04300E-01 6.00000E-01
 -1      2103 2.40000E+00 4.95700E-01 6.00000E-01
 -1      2105 2.40000E+00 5.04300E-01 6.00000E-01
 -1      2106 2.50000E+00 4.95700E-01 6.00000E-01
 -1      2108 2.50000E+00 5.04300E-01 6.00000E-01
 -1      2109 2.60000E+00 4.95700E-01 6.00000E-01
 -1      2111 2.60000E+00 5.04300E-01 6.00000E-01
 -1      2112 2.70000E+00 4.95700E-01 6.00000E-01
 -1      2114 2.70000E+00 5.04300E-01 6.00000E-01
 -1      2115 2.80000E+00 4.95700E-01 6.00000E-01
 -1      2117 2.80000E+00 5.04300E-01 6.00000E-01
 -1      2118 2.90000E+00 4.95700E-01 6.00000E-01
 -1      2120 2.90000E+00 5.04300E-01 6.00000E-01
 -1      2121 1.00000E-01 4.55000E-01 7.06750E-01
 -1      2123 1.00000E-01 4.55000E-01 6.93250E-01
 -1      2124 2.00000E-01 4.55000E-01 7.06750E-01
 -1      2126 2.00000E-01 4.55000E-01 6.93250E-01
 -1      2127 3.00000E-01 4.55000E-01 7.06750E-01
 -1      2129 3.00000E-01 4.55000E-01 6.93250E-01
 -1      2130 4.00000E-01 4.55000E-01 7.06750E-01
 -1      2132 4.00000E-01 4.55000E-01 6.93250E-01
 -1      2133 5.00000E-01 4.55000E-01 7.06750E-01
 -1      2135 5.00000E-01 4.55000E-01 6.93250E-01
 -1      2136 6.00000E-01 4.55000E-01 7.06750E-01
 -1      2138 6.00000E-01 4.55000E-01 6.93250E-01
 -1      2139 7.00000E-01 4.55000E-01 7.06750E-01
 -1      2141 7.00000E-01 4.55000E-01 6.93250E-01
 -1      2142 8.00000E-01 4.55000E-01 7.06750E-01
 -1      2144 8.00000E-01 4.55000E-01 6.93250E-01
 -1      2145 9.00000E-01 4.55000E-01 7.06750E-01
 -1      2147 9.00000E-01 4.55000E-01 6.93250E-01
 -1      2148 1.00000E+00 4.55000E-01 7.06750E-01
 -1      2150 1.00000E+00 4.55000E-01 6.93250E-01
 -1      2151 1.10000E+00 4.55000E-01 7.06750E-01
 -1      2153 1.10000E+00 4.55000E-01 6.93250E-01
 -1      2154 1.20000E+00 4.55000E-01 7.06750E-01
 -1      2156 1.20000E+00 4.55000E-01 6.93250E-01
 -1      2157 1.30000E+00 4.55000E-01 7.06750E-01
 -1      2159 1.30000E+00 4.55000E-01 6.93250E-01
 -1      2160 1.40000E+00 4.55000E-01 7.06750E-01
 -1      2162 1.40000E+00 4.55000E-01 6.93250E-01
 -1      2163 1.50000E+00 4.55000E-01 7.06750E-01
 -1      2165 1.50000E+00 4.55000E-01 6.93250E-01
 -1      2166 1.60000E+00 4.55000E-01 7.06750E-01
 -1      2168 1.60000E+00 4.55000E-01 6.93250E-01
 -1      2169 1.70000E+00 4.55000E-01 7.06750E-01
 -1      2171 1.70000E+00 4.55000E-01 6.93250E-01
 -1      2172 1.80000E+00 4.55000E-01 7.06750E-01
 -1      2174 1.80000E+00 4.55000E-01 6.93250E-01
 -1      2175 1.90000E+00 4.55000E-01 7.06750E-01
 -1      2177 1.90000E+00 4.55000E-01 6.93250E-01
 -1      2178 2.00000E+00 4.55000E-01 7.06750E-01
 -1      2180 2.00000E+00 4.55000E-01 6.93250E-01
 -1      2181 2.10000E+00 4.55000E-01 7.06750E-01
 -1      2183 2.10000E+00 4.55000E-01 6.93250E-01
 -1      2184 2.20000E+00 4.55000E-01 7.06750E-01
 -1      2186 2.20000E+00 4.55000E-01 6.93250E-01
 -1      2187 2.30000E+00 4.55000E-01 7.06750E-01
 -1      2189 2.30000E+00 4.55000E-01 6.93250E-01
 -1      2190 2.40000E+00 4.55000E-01 7.06750E-01
 -1      2192 2.40000E+00 4.55000E-01 6.93250E-01
 -1      2193 2.50000E+00 4.55000E-01 7.06750E-01
 -1      2195 2.50000E+00 4.55000E-01 6.93250E-01
 -1      2196 2.60000E+00 4.55000E-01 7.06750E-01
 -1      2198 2.60000E+00 4.55000E-01 6.93250E-01
 -1      2199 2.70000E+00 4.55000E-01 7.06750E-01
 -1      2201 2.70000E+00 4.55000E-01 6.93250E-01
 -1      2202 2.80000E+00 4.55000E-01 7.06750E-01
 -1      2204 2.80000E+00 4.55000E-01 6.93250E-01
 -1      2205 2.90000E+00 4.55000E-01 7.06750E-01
 -1      2207 2.90000E+00 4.55000E-01 6.93250E-01
 -1      2208 1.00000E-01 5.45000E-01 7.06750E-01
 -1      2210 1.00000E-01 5.45000E-01 6.93250E-01
 -1      2211 2.00000E-01 5.45000E-01 7.06750E-01
 -1      2213 2.00000E-01 5.45000E-01 6.93250E-01
 -1      2214 3.00000E-01 5.45000E-01 7.06750E-01
 -1      2216 3.00000E-01 5.45000E-01 6.93250E-01
 -1      2217 4.00000E-01 5.45000E-01 7.06750E-01
 -1      2219 4.00000E-01 5.45000E-01 6.93250E-01
 -1      2220 5.00000E-01 5.45000E-01 7.06750E-01
 -1      2222 5.00000E-01 5.45000E-01 6.93250E-01
 -1      2223 6.00000E-01 5.45000E-01 7.06750E-01
 -1      2225 6.00000E-01 5.45000E-01 6.93250E-01
 -1      2226 7.00000E-01 5.45000E-01 7.06750E-01
 -1      2228 7.00000E-01 5.45000E-01 6.93250E-01
 -1      2229 8.00000E-01 5.45000E-01 7.06750E-01
 -1      2231 8.00000E-01 5.45000E-01 6.93250E-01
 -1      2232 9.00000E-01 5.45000E-01 7.06750E-01
 -1      2234 9.00000E-01 5.45000E-01 6.93250E-01
 -1      2235 1.00000E+00 5.45000E-01 7.06750E-01
 -1      2237 1.00000E+00 5.45000E-01 6.93250E-01
 -1      2238 1.10000E+00 5.45000E-01 7.06750E-01
 -1      2240 1.10000E+00 5.45000E-01 6.93250E-01
 -1      2241 1.20000E+00 5.45000E-01 7.06750E-01
 -1      2243 1.20000E+00 5.45000E-01 6.93250E-01
 -1      2244 1.30000E+00 5.45000E-01 7.06750E-01
 -1      2246 1.30000E+00 5.45000E-01 6.93250E-01
 -1      2247 1.40000E+00 5.45000E-01 7.06750E-01
 -1      2249 1.40000E+00 5.45000E-01 6.93250E-01
 -1      2250 1.50000E+00 5.45000E-01 7.06750E-01
 -1      2252 1.50000E+00 5.45000E-01 6.93250E-01
 -1      2253 1.60000E+00 5.45000E-01 7.06750E-01
 -1      2255 1.60000E+00 5.45000E-01 6.93250E-01
 -1      2256 1.70000E+00 5.45000E-01 7.06750E-01
 -1      2258 1.70000E+00 5.45000E-01 6.93250E-01
 -1      2259 1.80000E+00 5.45000E-01 7.06750E-01
 -1      2261 1.80000E+00 5.45000E-01 6.93250E-01
 -1      2262 1.90000E+00 5.45000E-01 7.06750E-01
 -1      2264 1.90000E+00 5.45000E-01 6.93250E-01
 -1      2265 2.00000E+00 5.45000E-01 7.06750E-01
 -1      2267 2.00000E+00 5.45000E-01 6.93250E-01
 -1      2268 2.10000E+00 5.45000E-01 7.06750E-01
 -1      2270 2.10000E+00 5.45000E-01 6.93250E-01
 -1      2271 2.20000E+00 5.45000E-01 7.06750E-01
 -1      2273 2.20000E+00 5.45000E-01 6.93250E-01
 -1      2274 2.30000E+00 5.45000E-01 7.06750E-01
 -1      2276 2.30000E+00 5.45000E-01 6.93250E-01
 -1      2277 2.40000E+00 5.45000E-01 7.06750E-01
 -1      2279 2.40000E+00 5.45000E-01 6.93250E-01
 -1      2280 2.50000E+00 5.45000E-01 7.06750E-01
 -1      2282 2.50000E+00 5.45000E-01 6.93250E-01
 -1      2283 2.60000E+00 5.45000E-01 7.06750E-01
 -1      2285 2.60000E+00 5.45000E-01 6.93250E-01
 -1      2286 2.70000E+00 5.45000E-01 7.06750E-01
 -1      2288 2.70000E+00 5.45000E-01 6.93250E-01
 -1      2289 2.80000E+00 5.45000E-01 7.06750E-01
 -1      2291 2.80000E+00 5.45000E-01 6.93250E-01
 -1      2292 2.90000E+00 5.45000E-01 7.06750E-01
 -1      2294 2.90000E+00 5.45000E-01 6.93250E-01
 -3
    3C                           360                                     1
 -1         1    1    0    1
 -2       404       980      1686       484       406       982      1688       486
 -1         2    1    0    1
 -2       980       424       574      1686       982       426       576      1688
 -1         3    1    0    1
 -2       484      1686      1689       487       486      1688      1691       489
 -1         4    1    0    1
 -2      1686       574       588      1689      1688       576       590      1691
 -1         5    1    0    1
 -2       487      1689      1692       490       489      1691      1694       492
 -1         6    1    0    1
 -2      1689       588       602      1692      1691       590       604      1694
 -1         7    1    0    1
 -2       490      1692      1695       493       492      1694      1697       495
 -1         8    1    0    1
 -2      1692       602       616      1695      1694       604       618      1697
 -1         9    1    0    1
 -2       493      1695      1698       496       495      1697      1700       498
 -1        10    1    0    1
 -2      1695       616       630      1698      1697       618       632      1700
 -1        11    1    0    1
 -2       496      1698      1701       499       498      1700      1703       501
 -1        12    1    0    1
 -2      1698       630       644      1701      1700       632       646      1703
 -1        13    1    0    1
 -2       499      1701      1704       502       501      1703      1706       504
 -1        14    1    0    1
 -2      1701       644       658      1704      1703       646       660      1706
 -1        15    1    0    1
 -2       502      1704      1707       505       504      1706      1709       507
 -1        16    1    0    1
 -2      1704       658       672      1707      1706       660       674      1709
 -1        17    1    0    1
 -2       505      1707      1710       508       507      1709      1712       510
 -1        18    1    0    1
 -2      1707       672       686      1710      1709       674       688      1712
 -1        19    1    0    1
 -2       508      1710      1713       511       510      1712      1715       513
 -1        20    1    0    1
 -2      1710       686       700      1713      1712       688       702      1715
 -1        21    1    0    1
 -2       511      1713      1716       514       513      1715      1718       516
 -1        22    1    0    1
 -2      1713       700       714      1716      1715       702       716      1718
 -1        23    1    0    1
 -2       514      1716      1719       517       516      1718      1721       519
 -1        24    1    0    1
 -2      1716       714       728      1719      1718       716       730      1721
 -1        25    1    0    1
 -2       517      1719      1722       520       519      1721      1724       522
 -1        26    1    0    1
 -2      1719       728       742      1722      1721       730       744      1724
 -1        27    1    0    1
 -2       520      1722      1725       523       522      1724      1727       525
 -1        28    1    0    1
 -2      1722       742       756      1725      1724       744       758      1727
 -1        29    1    0    1
 -2       523      1725      1728       526       525      1727      1730       528
 -1        30    1    0    1
 -2      1725       756       770      1728      1727       758       772      1730
 -1        31    1    0    1
 -2       526      1728      1731       529       528      1730      1733       531
 -1        32    1    0    1
 -2      1728       770       784      1731      1730       772       786      1733
 -1        33    1    0    1
 -2       529      1731      1734       532       531      1733      1736       534
 -1        34    1    0    1
 -2      1731       784       798      1734      1733       786       800      1736
 -1        35    1    0    1
 -2       532      1734      1737       535       534      1736      1739       537
 -1        36    1    0    1
 -2      1734       798       812      1737      1736       800       814      1739
 -1        37    1    0    1
 -2       535      1737      1740       538       537      1739      1742       540
 -1        38    1    0    1
 -2      1737       812       826      1740      1739       814       828      1742
 -1        39    1    0    1
 -2       538      1740      1743       541       540      1742      1745       543
 -1        40    1    0    1
 -2      1740       826       840      1743      1742       828       842      1745
 -1        41    1    0    1
 -2       541      1743      1746       544       543      1745      1748       546
 -1        42    1    0    1
 -2      1743       840       854      1746      1745       842       856      1748
 -1        43    1    0    1
 -2       544      1746      1749       547       546      1748      1751       549
 -1        44    1    0    1
 -2      1746       854       868      1749      1748       856       870      1751
 -1        45    1    0    1
 -2       547      1749      1752       550       549      1751      1754       552
 -1        46    1    0    1
 -2      1749       868       882      1752      1751       870       884      1754
 -1        47    1    0    1
 -2       550      1752      1755       553       552      1754      1757       555
 -1        48    1    0    1
 -2      1752       882       896      1755      1754       884       898      1757
 -1        49    1    0    1
 -2       553      1755      1758       556       555      1757      1760       558
 -1        50    1    0    1
 -2      1755       896       910      1758      1757       898       912      1760
 -1        51    1    0    1
 -2       556      1758      1761       559       558      1760      1763       561
 -1        52    1    0    1
 -2      1758       910       924      1761      1760       912       926      1763
 -1        53    1    0    1
 -2       559      1761      1764       562       561      1763      1766       564
 -1        54    1    0    1
 -2      1761       924       938      1764      1763       926       940      1766
 -1        55    1    0    1
 -2       562      1764      1767       565       564      1766      1769       567
 -1        56    1    0    1
 -2      1764       938       952      1767      1766       940       954      1769
 -1        57    1    0    1
 -2       565      1767      1770       568       567      1769      1772       570
 -1        58    1    0    1
 -2      1767       952       966      1770      1769       954       968      1772
 -1        59    1    0    1
 -2       568      1770       571       407       570      1772       573       409
 -1        60    1    0    1
 -2      1770       966       410       571      1772       968       412       573
 -1        61    1    0    1
 -2       424      1073      1773       574       426      1075      1775       576
 -1        62    1    0    1
 -2      1073       441       986      1773      1075       443       988      1775
 -1        63    1    0    1
 -2       574      1773      1776       588       576      1775      1778       590
 -1        64    1    0    1
 -2      1773       986       989      1776      1775       988       991      1778
 -1        65    1    0    1
 -2       588      1776      1779       602       590      1778      1781       604
 -1        66    1    0    1
 -2      1776       989       992      1779      1778       991       994      1781
 -1        67    1    0    1
 -2       602      1779      1782       616       604      1781      1784       618
 -1        68    1    0    1
 -2      1779       992       995      1782      1781       994       997      1784
 -1        69    1    0    1
 -2       616      1782      1785       630       618      1784      1787       632
 -1        70    1    0    1
 -2      1782       995       998      1785      1784       997      1000      1787
 -1        71    1    0    1
 -2       630      1785      1788       644       632      1787      1790       646
 -1        72    1    0    1
 -2      1785       998      1001      1788      1787      1000      1003      1790
 -1        73    1    0    1
 -2       644      1788      1791       658       646      1790      1793       660
 -1        74    1    0    1
 -2      1788      1001      1004      1791      1790      1003      1006      1793
 -1        75    1    0    1
 -2       658      1791      1794       672       660      1793      1796       674
 -1        76    1    0    1
 -2      1791      1004      1007      1794      1793      1006      1009      1796
 -1        77    1    0    1
 -2       672      1794      1797       686       674      1796      1799       688
 -1        78    1    0    1
 -2      1794      1007      1010      1797      1796      1009      1012      1799
 -1        79    1    0    1
 -2       686      1797      1800       700       688      1799      1802       702
 -1        80    1    0    1
 -2      1797      1010      1013      1800      1799      1012      1015      1802
 -1        81    1    0    1
 -2       700      1800      1803       714       702      1802      1805       716
 -1        82    1    0    1
 -2      1800      1013      1016      1803      1802      1015      1018      1805
 -1        83    1    0    1
 -2       714      1803      1806       728       716      1805      1808       730
 -1        84    1    0    1
 -2      1803      1016      1019      1806      1805      1018      1021      1808
 -1        85    1    0    1
 -2       728      1806      1809       742       730      1808      1811       744
 -1        86    1    0    1
 -2      1806      1019      1022      1809      1808      1021      1024      1811
 -1        87    1    0    1
 -2       742      1809      1812       756       744      1811      1814       758
 -1        88    1    0    1
 -2      1809      1022      1025      1812      1811      1024      1027      1814
 -1        89    1    0    1
 -2       756      1812      1815       770       758      1814      1817       772
 -1        90    1    0    1
 -2      1812      1025      1028      1815      1814      1027      1030      1817
 -1        91    1    0    1
 -2       770      1815      1818       784       772      1817      1820       786
 -1        92    1    0    1
 -2      1815      1028      1031      1818      1817      1030      1033      1820
 -1        93    1    0    1
 -2       784      1818      1821       798       786      1820      1823       800
 -1        94    1    0    1
 -2      1818      1031      1034      1821      1820      1033      1036      1823
 -1        95    1    0    1
 -2       798      1821      1824       812       800      1823      1826       814
 -1        96    1    0    1
 -2      1821      1034      1037      1824      1823      1036      1039      1826
 -1        97    1    0    1
 -2       812      1824      1827       826       814      1826      1829       828
 -1        98    1    0    1
 -2      1824      1037      1040      1827      1826      1039      1042      1829
 -1        99    1    0    1
 -2       826      1827      1830       840       828      1829      1832       842
 -1       100    1    0    1
 -2      1827      1040      1043      1830      1829      1042      1045      1832
 -1       101    1    0    1
 -2       840      1830      1833       854       842      1832      1835       856
 -1       102    1    0    1
 -2      1830      1043      1046      1833      1832      1045      1048      1835
 -1       103    1    0    1
 -2       854      1833      1836       868       856      1835      1838       870
 -1       104    1    0    1
 -2      1833      1046      1049      1836      1835      1048      1051      1838
 -1       105    1    0    1
 -2       868      1836      1839       882       870      1838      1841       884
 -1       106    1    0    1
 -2      1836      1049      1052      1839      1838      1051      1054      1841
 -1       107    1    0    1
 -2       882      1839      1842       896       884      1841      1844       898
 -1       108    1    0    1
 -2      1839      1052      1055      1842      1841      1054      1057      1844
 -1       109    1    0    1
 -2       896      1842      1845       910       898      1844      1847       912
 -1       110    1    0    1
 -2      1842      1055      1058      1845      1844      1057      1060      1847
 -1       111    1    0    1
 -2       910      1845      1848       924       912      1847      1850       926
 -1       112    1    0    1
 -2      1845      1058      1061      1848      1847      1060      1063      1850
 -1       113    1    0    1
 -2       924      1848      1851       938       926      1850      1853       940
 -1       114    1    0    1
 -2      1848      1061      1064      1851      1850      1063      1066      1853
 -1       115    1    0    1
 -2       938      1851      1854       952       940      1853      1856       954
 -1       116    1    0    1
 -2      1851      1064      1067      1854      1853      1066      1069      1856
 -1       117    1    0    1
 -2       952      1854      1857       966       954      1856      1859       968
 -1       118    1    0    1
 -2      1854      1067      1070      1857      1856      1069      1072      1859
 -1       119    1    0    1
 -2       966      1857       983       410       968      1859       985       412
 -1       120    1    0    1
 -2      1857      1070       438       983      1859      1072       440       985
 -1       121    1    0    1
 -2       427      1076      1860       577       429      1078      1862       579
 -1       122    1    0    1
 -2       577      1860      1863       591       579      1862      1865       593
 -1       123    1    0    1
 -2       591      1863      1866       605       593      1865      1868       607
 -1       124    1    0    1
 -2       605      1866      1869       619       607      1868      1871       621
 -1       125    1    0    1
 -2       619      1869      1872       633       621      1871      1874       635
 -1       126    1    0    1
 -2       633      1872      1875       647       635      1874      1877       649
 -1       127    1    0    1
 -2       647      1875      1878       661       649      1877      1880       663
 -1       128    1    0    1
 -2       661      1878      1881       675       663      1880      1883       677
 -1       129    1    0    1
 -2       675      1881      1884       689       677      1883      1886       691
 -1       130    1    0    1
 -2       689      1884      1887       703       691      1886      1889       705
 -1       131    1    0    1
 -2       703      1887      1890       717       705      1889      1892       719
 -1       132    1    0    1
 -2       717      1890      1893       731       719      1892      1895       733
 -1       133    1    0    1
 -2       731      1893      1896       745       733      1895      1898       747
 -1       134    1    0    1
 -2       745      1896      1899       759       747      1898      1901       761
 -1       135    1    0    1
 -2       759      1899      1902       773       761      1901      1904       775
 -1       136    1    0    1
 -2       773      1902      1905       787       775      1904      1907       789
 -1       137    1    0    1
 -2       787      1905      1908       801       789      1907      1910       803
 -1       138    1    0    1
 -2       801      1908      1911       815       803      1910      1913       817
 -1       139    1    0    1
 -2       815      1911      1914       829       817      1913      1916       831
 -1       140    1    0    1
 -2       829      1914      1917       843       831      1916      1919       845
 -1       141    1    0    1
 -2       843      1917      1920       857       845      1919      1922       859
 -1       142    1    0    1
 -2       857      1920      1923       871       859      1922      1925       873
 -1       143    1    0    1
 -2       871      1923      1926       885       873      1925      1928       887
 -1       144    1    0    1
 -2       885      1926      1929       899       887      1928      1931       901
 -1       145    1    0    1
 -2       899      1929      1932       913       901      1931      1934       915
 -1       146    1    0    1
 -2       913      1932      1935       927       915      1934      1937       929
 -1       147    1    0    1
 -2       927      1935      1938       941       929      1937      1940       943
 -1       148    1    0    1
 -2       941      1938      1941       955       943      1940      1943       957
 -1       149    1    0    1
 -2       955      1941      1944       969       957      1943      1946       971
 -1       150    1    0    1
 -2       969      1944      1491       413       971      1946      1493       415
 -1       151    1    0    1
 -2      1076      1079      1947      1860      1078      1081      1949      1862
 -1       152    1    0    1
 -2      1860      1947      1950      1863      1862      1949      1952      1865
 -1       153    1    0    1
 -2      1863      1950      1953      1866      1865      1952      1955      1868
 -1       154    1    0    1
 -2      1866      1953      1956      1869      1868      1955      1958      1871
 -1       155    1    0    1
 -2      1869      1956      1959      1872      1871      1958      1961      1874
 -1       156    1    0    1
 -2      1872      1959      1962      1875      1874      1961      1964      1877
 -1       157    1    0    1
 -2      1875      1962      1965      1878      1877      1964      1967      1880
 -1       158    1    0    1
 -2      1878      1965      1968      1881      1880      1967      1970      1883
 -1       159    1    0    1
 -2      1881      1968      1971      1884      1883      1970      1973      1886
 -1       160    1    0    1
 -2      1884      1971      1974      1887      1886      1973      1976      1889
 -1       161    1    0    1
 -2      1887      1974      1977      1890      1889      1976      1979      1892
 -1       162    1    0    1
 -2      1890      1977      1980      1893      1892      1979      1982      1895
 -1       163    1    0    1
 -2      1893      1980      1983      1896      1895      1982      1985      1898
 -1       164    1    0    1
 -2      1896      1983      1986      1899      1898      1985      1988      1901
 -1       165    1    0    1
 -2      1899      1986      1989      1902      1901      1988      1991      1904
 -1       166    1    0    1
 -2      1902      1989      1992      1905      1904      1991      1994      1907
 -1       167    1    0    1
 -2      1905      1992      1995      1908      1907      1994      1997      1910
 -1       168    1    0    1
 -2      1908      1995      1998      1911      1910      1997      2000      1913
 -1       169    1    0    1
 -2      1911      1998      2001      1914      1913      2000      2003      1916
 -1       170    1    0    1
 -2      1914      2001      2004      1917      1916      2003      2006      1919
 -1       171    1    0    1
 -2      1917      2004      2007      1920      1919      2006      2009      1922
 -1       172    1    0    1
 -2      1920      2007      2010      1923      1922      2009      2012      1925
 -1       173    1    0    1
 -2      1923      2010      2013      1926      1925      2012      2015      1928
 -1       174    1    0    1
 -2      1926      2013      2016      1929      1928      2015      2018      1931
 -1       175    1    0    1
 -2      1929      2016      2019      1932      1931      2018      2021      1934
 -1       176    1    0    1
 -2      1932      2019      2022      1935      1934      2021      2024      1937
 -1       177    1    0    1
 -2      1935      2022      2025      1938      1937      2024      2027      1940
 -1       178    1    0    1
 -2      1938      2025      2028      1941      1940      2027      2030      1943
 -1       179    1    0    1
 -2      1941      2028      2031      1944      1943      2030      2033      1946
 -1       180    1    0    1
 -2      1944      2031      1494      1491      1946      2033      1496      1493
 -1       181    1    0    1
 -2      1079      1082      2034      1947      1081      1084      2036      1949
 -1       182    1    0    1
 -2      1947      2034      2037      1950      1949      2036      2039      1952
 -1       183    1    0    1
 -2      1950      2037      2040      1953      1952      2039      2042      1955
 -1       184    1    0    1
 -2      1953      2040      2043      1956      1955      2042      2045      1958
 -1       185    1    0    1
 -2      1956      2043      2046      1959      1958      2045      2048      1961
 -1       186    1    0    1
 -2      1959      2046      2049      1962      1961      2048      2051      1964
 -1       187    1    0    1
 -2      1962      2049      2052      1965      1964      2051      2054      1967
 -1       188    1    0    1
 -2      1965      2052      2055      1968      1967      2054      2057      1970
 -1       189    1    0    1
 -2      1968      2055      2058      1971      1970      2057      2060      1973
 -1       190    1    0    1
 -2      1971      2058      2061      1974      1973      2060      2063      1976
 -1       191    1    0    1
 -2      1974      2061      2064      1977      1976      2063      2066      1979
 -1       192    1    0    1
 -2      1977      2064      2067      1980      1979      2066      2069      1982
 -1       193    1    0    1
 -2      1980      2067      2070      1983      1982      2069      2072      1985
 -1       194    1    0    1
 -2      1983      2070      2073      1986      1985      2072      2075      1988
 -1       195    1    0    1
 -2      1986      2073      2076      1989      1988      2075      2078      1991
 -1       196    1    0    1
 -2      1989      2076      2079      1992      1991      2078      2081      1994
 -1       197    1    0    1
 -2      1992      2079      2082      1995      1994      2081      2084      1997
 -1       198    1    0    1
 -2      1995      2082      2085      1998      1997      2084      2087      2000
 -1       199    1    0    1
 -2      1998      2085      2088      2001      2000      2087      2090      2003
 -1       200    1    0    1
 -2      2001      2088      2091      2004      2003      2090      2093      2006
 -1       201    1    0    1
 -2      2004      2091      2094      2007      2006      2093      2096      2009
 -1       202    1    0    1
 -2      2007      2094      2097      2010      2009      2096      2099      2012
 -1       203    1    0    1
 -2      2010      2097      2100      2013      2012      2099      2102      2015
 -1       204    1    0    1
 -2      2013      2100      2103      2016      2015      2102      2105      2018
 -1       205    1    0    1
 -2      2016      2103      2106      2019      2018      2105      2108      2021
 -1       206    1    0    1
 -2      2019      2106      2109      2022      2021      2108      2111      2024
 -1       207    1    0    1
 -2      2022      2109      2112      2025      2024      2111      2114      2027
 -1       208    1    0    1
 -2      2025      2112      2115      2028      2027      2114      2117      2030
 -1       209    1    0    1
 -2      2028      2115      2118      2031      2030      2117      2120      2033
 -1       210    1    0    1
 -2      2031      2118      1497      1494      2033      2120      1499      1496
 -1       211    1    0    1
 -2      1082       444      1085      2034      1084       446      1087      2036
 -1       212    1    0    1
 -2      2034      1085      1099      2037      2036      1087      1101      2039
 -1       213    1    0    1
 -2      2037      1099      1113      2040      2039      1101      1115      2042
 -1       214    1    0    1
 -2      2040      1113      1127      2043      2042      1115      1129      2045
 -1       215    1    0    1
 -2      2043      1127      1141      2046      2045      1129      1143      2048
 -1       216    1    0    1
 -2      2046      1141      1155      2049      2048      1143      1157      2051
 -1       217    1    0    1
 -2      2049      1155      1169      2052      2051      1157      1171      2054
 -1       218    1    0    1
 -2      2052      1169      1183      2055      2054      1171      1185      2057
 -1       219    1    0    1
 -2      2055      1183      1197      2058      2057      1185      1199      2060
 -1       220    1    0    1
 -2      2058      1197      1211      2061      2060      1199      1213      2063
 -1       221    1    0    1
 -2      2061      1211      1225      2064      2063      1213      1227      2066
 -1       222    1    0    1
 -2      2064      1225      1239      2067      2066      1227      1241      2069
 -1       223    1    0    1
 -2      2067      1239      1253      2070      2069      1241      1255      2072
 -1       224    1    0    1
 -2      2070      1253      1267      2073      2072      1255      1269      2075
 -1       225    1    0    1
 -2      2073      1267      1281      2076      2075      1269      1283      2078
 -1       226    1    0    1
 -2      2076      1281      1295      2079      2078      1283      1297      2081
 -1       227    1    0    1
 -2      2079      1295      1309      2082      2081      1297      1311      2084
 -1       228    1    0    1
 -2      2082      1309      1323      2085      2084      1311      1325      2087
 -1       229    1    0    1
 -2      2085      1323      1337      2088      2087      1325      1339      2090
 -1       230    1    0    1
 -2      2088      1337      1351      2091      2090      1339      1353      2093
 -1       231    1    0    1
 -2      2091      1351      1365      2094      2093      1353      1367      2096
 -1       232    1    0    1
 -2      2094      1365      1379      2097      2096      1367      1381      2099
 -1       233    1    0    1
 -2      2097      1379      1393      2100      2099      1381      1395      2102
 -1       234    1    0    1
 -2      2100      1393      1407      2103      2102      1395      1409      2105
 -1       235    1    0    1
 -2      2103      1407      1421      2106      2105      1409      1423      2108
 -1       236    1    0    1
 -2      2106      1421      1435      2109      2108      1423      1437      2111
 -1       237    1    0    1
 -2      2109      1435      1449      2112      2111      1437      1451      2114
 -1       238    1    0    1
 -2      2112      1449      1463      2115      2114      1451      1465      2117
 -1       239    1    0    1
 -2      2115      1463      1477      2118      2117      1465      1479      2120
 -1       240    1    0    1
 -2      2118      1477       458      1497      2120      1479       460      1499
 -1       241    1    0    1
 -2       472      1590      2121      1500       474      1592      2123      1502
 -1       242    1    0    1
 -2      1590       447      1088      2121      1592       449      1090      2123
 -1       243    1    0    1
 -2      1500      2121      2124      1503      1502      2123      2126      1505
 -1       244    1    0    1
 -2      2121      1088      1102      2124      2123      1090      1104      2126
 -1       245    1    0    1
 -2      1503      2124      2127      1506      1505      2126      2129      1508
 -1       246    1    0    1
 -2      2124      1102      1116      2127      2126      1104      1118      2129
 -1       247    1    0    1
 -2      1506      2127      2130      1509      1508      2129      2132      1511
 -1       248    1    0    1
 -2      2127      1116      1130      2130      2129      1118      1132      2132
 -1       249    1    0    1
 -2      1509      2130      2133      1512      1511      2132      2135      1514
 -1       250    1    0    1
 -2      2130      1130      1144      2133      2132      1132      1146      2135
 -1       251    1    0    1
 -2      1512      2133      2136      1515      1514      2135      2138      1517
 -1       252    1    0    1
 -2      2133      1144      1158      2136      2135      1146      1160      2138
 -1       253    1    0    1
 -2      1515      2136      2139      1518      1517      2138      2141      1520
 -1       254    1    0    1
 -2      2136      1158      1172      2139      2138      1160      1174      2141
 -1       255    1    0    1
 -2      1518      2139      2142      1521      1520      2141      2144      1523
 -1       256    1    0    1
 -2      2139      1172      1186      2142      2141      1174      1188      2144
 -1       257    1    0    1
 -2      1521      2142      2145      1524      1523      2144      2147      1526
 -1       258    1    0    1
 -2      2142      1186      1200      2145      2144      1188      1202      2147
 -1       259    1    0    1
 -2      1524      2145      2148      1527      1526      2147      2150      1529
 -1       260    1    0    1
 -2      2145      1200      1214      2148      2147      1202      1216      2150
 -1       261    1    0    1
 -2      1527      2148      2151      1530      1529      2150      2153      1532
 -1       262    1    0    1
 -2      2148      1214      1228      2151      2150      1216      1230      2153
 -1       263    1    0    1
 -2      1530      2151      2154      1533      1532      2153      2156      1535
 -1       264    1    0    1
 -2      2151      1228      1242      2154      2153      1230      1244      2156
 -1       265    1    0    1
 -2      1533      2154      2157      1536      1535      2156      2159      1538
 -1       266    1    0    1
 -2      2154      1242      1256      2157      2156      1244      1258      2159
 -1       267    1    0    1
 -2      1536      2157      2160      1539      1538      2159      2162      1541
 -1       268    1    0    1
 -2      2157      1256      1270      2160      2159      1258      1272      2162
 -1       269    1    0    1
 -2      1539      2160      2163      1542      1541      2162      2165      1544
 -1       270    1    0    1
 -2      2160      1270      1284      2163      2162      1272      1286      2165
 -1       271    1    0    1
 -2      1542      2163      2166      1545      1544      2165      2168      1547
 -1       272    1    0    1
 -2      2163      1284      1298      2166      2165      1286      1300      2168
 -1       273    1    0    1
 -2      1545      2166      2169      1548      1547      2168      2171      1550
 -1       274    1    0    1
 -2      2166      1298      1312      2169      2168      1300      1314      2171
 -1       275    1    0    1
 -2      1548      2169      2172      1551      1550      2171      2174      1553
 -1       276    1    0    1
 -2      2169      1312      1326      2172      2171      1314      1328      2174
 -1       277    1    0    1
 -2      1551      2172      2175      1554      1553      2174      2177      1556
 -1       278    1    0    1
 -2      2172      1326      1340      2175      2174      1328      1342      2177
 -1       279    1    0    1
 -2      1554      2175      2178      1557      1556      2177      2180      1559
 -1       280    1    0    1
 -2      2175      1340      1354      2178      2177      1342      1356      2180
 -1       281    1    0    1
 -2      1557      2178      2181      1560      1559      2180      2183      1562
 -1       282    1    0    1
 -2      2178      1354      1368      2181      2180      1356      1370      2183
 -1       283    1    0    1
 -2      1560      2181      2184      1563      1562      2183      2186      1565
 -1       284    1    0    1
 -2      2181      1368      1382      2184      2183      1370      1384      2186
 -1       285    1    0    1
 -2      1563      2184      2187      1566      1565      2186      2189      1568
 -1       286    1    0    1
 -2      2184      1382      1396      2187      2186      1384      1398      2189
 -1       287    1    0    1
 -2      1566      2187      2190      1569      1568      2189      2192      1571
 -1       288    1    0    1
 -2      2187      1396      1410      2190      2189      1398      1412      2192
 -1       289    1    0    1
 -2      1569      2190      2193      1572      1571      2192      2195      1574
 -1       290    1    0    1
 -2      2190      1410      1424      2193      2192      1412      1426      2195
 -1       291    1    0    1
 -2      1572      2193      2196      1575      1574      2195      2198      1577
 -1       292    1    0    1
 -2      2193      1424      1438      2196      2195      1426      1440      2198
 -1       293    1    0    1
 -2      1575      2196      2199      1578      1577      2198      2201      1580
 -1       294    1    0    1
 -2      2196      1438      1452      2199      2198      1440      1454      2201
 -1       295    1    0    1
 -2      1578      2199      2202      1581      1580      2201      2204      1583
 -1       296    1    0    1
 -2      2199      1452      1466      2202      2201      1454      1468      2204
 -1       297    1    0    1
 -2      1581      2202      2205      1584      1583      2204      2207      1586
 -1       298    1    0    1
 -2      2202      1466      1480      2205      2204      1468      1482      2207
 -1       299    1    0    1
 -2      1584      2205      1587       475      1586      2207      1589       477
 -1       300    1    0    1
 -2      2205      1480       461      1587      2207      1482       463      1589
 -1       301    1    0    1
 -2       447      1683      2208      1088       449      1685      2210      1090
 -1       302    1    0    1
 -2      1683       481      1596      2208      1685       483      1598      2210
 -1       303    1    0    1
 -2      1088      2208      2211      1102      1090      2210      2213      1104
 -1       304    1    0    1
 -2      2208      1596      1599      2211      2210      1598      1601      2213
 -1       305    1    0    1
 -2      1102      2211      2214      1116      1104      2213      2216      1118
 -1       306    1    0    1
 -2      2211      1599      1602      2214      2213      1601      1604      2216
 -1       307    1    0    1
 -2      1116      2214      2217      1130      1118      2216      2219      1132
 -1       308    1    0    1
 -2      2214      1602      1605      2217      2216      1604      1607      2219
 -1       309    1    0    1
 -2      1130      2217      2220      1144      1132      2219      2222      1146
 -1       310    1    0    1
 -2      2217      1605      1608      2220      2219      1607      1610      2222
 -1       311    1    0    1
 -2      1144      2220      2223      1158      1146      2222      2225      1160
 -1       312    1    0    1
 -2      2220      1608      1611      2223      2222      1610      1613      2225
 -1       313    1    0    1
 -2      1158      2223      2226      1172      1160      2225      2228      1174
 -1       314    1    0    1
 -2      2223      1611      1614      2226      2225      1613      1616      2228
 -1       315    1    0    1
 -2      1172      2226      2229      1186      1174      2228      2231      1188
 -1       316    1    0    1
 -2      2226      1614      1617      2229      2228      1616      1619      2231
 -1       317    1    0    1
 -2      1186      2229      2232      1200      1188      2231      2234      1202
 -1       318    1    0    1
 -2      2229      1617      1620      2232      2231      1619      1622      2234
 -1       319    1    0    1
 -2      1200      2232      2235      1214      1202      2234      2237      1216
 -1       320    1    0    1
 -2      2232      1620      1623      2235      2234      1622      1625      2237
 -1       321    1    0    1
 -2      1214      2235      2238      1228      1216      2237      2240      1230
 -1       322    1    0    1
 -2      2235      1623      1626      2238      2237      1625      1628      2240
 -1       323    1    0    1
 -2      1228      2238      2241      1242      1230      2240      2243      1244
 -1       324    1    0    1
 -2      2238      1626      1629      2241      2240      1628      1631      2243
 -1       325    1    0    1
 -2      1242      2241      2244      1256      1244      2243      2246      1258
 -1       326    1    0    1
 -2      2241      1629      1632      2244      2243      1631      1634      2246
 -1       327    1    0    1
 -2      1256      2244      2247      1270      1258      2246      2249      1272
 -1       328    1    0    1
 -2      2244      1632      1635      2247      2246      1634      1637      2249
 -1       329    1    0    1
 -2      1270      2247      2250      1284      1272      2249      2252      1286
 -1       330    1    0    1
 -2      2247      1635      1638      2250      2249      1637      1640      2252
 -1       331    1    0    1
 -2      1284      2250      2253      1298      1286      2252      2255      1300
 -1       332    1    0    1
 -2      2250      1638      1641      2253      2252      1640      1643      2255
 -1       333    1    0    1
 -2      1298      2253      2256      1312      1300      2255      2258      1314
 -1       334    1    0    1
 -2      2253      1641      1644      2256      2255      1643      1646      2258
 -1       335    1    0    1
 -2      1312      2256      2259      1326      1314      2258      2261      1328
 -1       336    1    0    1
 -2      2256      1644      1647      2259      2258      1646      1649      2261
 -1       337    1    0    1
 -2      1326      2259      2262      1340      1328      2261      2264      1342
 -1       338    1    0    1
 -2      2259      1647      1650      2262      2261      1649      1652      2264
 -1       339    1    0    1
 -2      1340      2262      2265      1354      1342      2264      2267      1356
 -1       340    1    0    1
 -2      2262      1650      1653      2265      2264      1652      1655      2267
 -1       341    1    0    1
 -2      1354      2265      2268      1368      1356      2267      2270      1370
 -1       342    1    0    1
 -2      2265      1653      1656      2268      2267      1655      1658      2270
 -1       343    1    0    1
 -2      1368      2268      2271      1382      1370      2270      2273      1384
 -1       344    1    0    1
 -2      2268      1656      1659      2271      2270      1658      1661      2273
 -1       345    1    0    1
 -2      1382      2271      2274      1396      1384      2273      2276      1398
 -1       346    1    0    1
 -2      2271      1659      1662      2274      2273      1661      1664      2276
 -1       347    1    0    1
 -2      1396      2274      2277      1410      1398      2276      2279      1412
 -1       348    1    0    1
 -2      2274      1662      1665      2277      2276      1664      1667      2279
 -1       349    1    0    1
 -2      1410      2277      2280      1424      1412      2279      2282      1426
 -1       350    1    0    1
 -2      2277      1665      1668      2280      2279      1667      1670      2282
 -1       351    1    0    1
 -2      1424      2280      2283      1438      1426      2282      2285      1440
 -1       352    1    0    1
 -2      2280      1668      1671      2283      2282      1670      1673      2285
 -1       353    1    0    1
 -2      1438      2283      2286      1452      1440      2285      2288      1454
 -1       354    1    0    1
 -2      2283      1671      1674      2286      2285      1673      1676      2288
 -1       355    1    0    1
 -2      1452      2286      2289      1466      1454      2288      2291      1468
 -1       356    1    0    1
 -2      2286      1674      1677      2289      2288      1676      1679      2291
 -1       357    1    0    1
 -2      1466      2289      2292      1480      1468      2291      2294      1482
 -1       358    1    0    1
 -2      2289      1677      1680      2292      2291      1679      1682      2294
 -1       359    1    0    1
 -2      1480      2292      1593       461      1482      2294      1595       463
 -1       360    1    0    1
 -2      2292      1680       478      1593      2294      1682       480      1595
 -3
    1PSTEP                         1           1           1          
  100CL  101 50.00000000         930                     0    1           1
 -4  DISP        4    1
 -5  D1          1    2    1    0
 -5  D2          1    2    2    0
 -5  D3          1    2    3    0
 -5  ALL         1    2    0    0    1ALL
 -1       404 0.00000E+00 0.00000E+00-1.31671E-06
 -1       406 0.00000E+00 0.00000E+00 1.31671E-06
 -1       407-4.72852E-04-6.07301E-06-5.55531E-03
 -1       409-4.42313E-04 5.95303E-06-5.55538E-03
 -1       410-4.72842E-04-1.98881E-13-5.50167E-03
 -1       412-4.42317E-04-1.99124E-13-5.50173E-03
 -1       413-4.57579E-04 5.71804E-09-5.50170E-03
 -1       415-4.57579E-04-5.71843E-09-5.50170E-03
 -1       424 0.00000E+00 1.65877E-21-1.21729E-06
 -1       426 0.00000E+00 1.65877E-21 1.21729E-06
 -1       427 0.00000E+00-7.75457E-07 0.00000E+00
 -1       429 0.00000E+00 7.75457E-07 0.00000E+00
 -1       438-4.72852E-04 6.07301E-06-5.55531E-03
 -1       440-4.42313E-04-5.95303E-06-5.55538E-03
 -1       441 0.00000E+00 0.00000E+00-1.31671E-06
 -1       443 0.00000E+00 0.00000E+00 1.31671E-06
 -1       444 0.00000E+00 7.74949E-07 0.00000E+00
 -1       446 0.00000E+00-7.74949E-07 0.00000E+00
 -1       447 0.00000E+00-1.65877E-21-1.21649E-06
 -1       449 0.00000E+00-1.65877E-21 1.21649E-06
 -1       458 4.46517E-04-6.01156E-09-5.50272E-03
 -1       460 4.46517E-04 6.01116E-09-5.50272E-03
 -1       461 4.61780E-04-1.98549E-13-5.50273E-03
 -1       463 4.31254E-04-1.98828E-13-5.50271E-03
 -1       472 0.00000E+00 0.00000E+00-1.31475E-06
 -1       474 0.00000E+00 0.00000E+00 1.31475E-06
 -1       475 4.61547E-04-6.04233E-06-5.55642E-03
 -1       477 4.31007E-04 5.99461E-06-5.55640E-03
 -1       478 4.61547E-04 6.04233E-06-5.55642E-03
 -1       480 4.31007E-04-5.99461E-06-5.55640E-03
 -1       481 0.00000E+00 0.00000E+00-1.31475E-06
 -1       483 0.00000E+00 0.00000E+00 1.31475E-06
 -1       484-4.93210E-05 1.34533E-05-4.59942E-05
 -1       486-3.75011E-05 1.58731E-05-4.47155E-05
 -1       487-8.53872E-05 8.69605E-06-1.22943E-04
 -1       489-7.65045E-05 1.16544E-05-1.21282E-04
 -1       490-1.26745E-04 7.49830E-06-2.03533E-04
 -1       492-1.14048E-04 1.23864E-05-2.02012E-04
 -1       493-1.62791E-04 5.94532E-06-3.05075E-04
 -1       495-1.48223E-04 1.22250E-05-3.03845E-04
 -1       496-1.96516E-04 4.86605E-06-4.19709E-04
 -1       498-1.80234E-04 1.22468E-05-4.18359E-04
 -1       499-2.27965E-04 3.55067E-06-5.48596E-04
 -1       501-2.09540E-04 1.19293E-05-5.47559E-04
 -1       502-2.56582E-04 2.67325E-06-6.90370E-04
 -1       504-2.36786E-04 1.17387E-05-6.89250E-04
 -1       505-2.83141E-04 1.67307E-06-8.43691E-04
 -1       507-2.61585E-04 1.13775E-05-8.42819E-04
 -1       508-3.07199E-04 9.10411E-07-1.00803E-03
 -1       510-2.84420E-04 1.10574E-05-1.00711E-03
 -1       511-3.29270E-04 1.22980E-07-1.18194E-03
 -1       513-3.05111E-04 1.06737E-05-1.18122E-03
 -1       514-3.49155E-04-5.31996E-07-1.36486E-03
 -1       516-3.23945E-04 1.03051E-05-1.36413E-03
 -1       517-3.67173E-04-1.17537E-06-1.55556E-03
 -1       519-3.40895E-04 9.91793E-06-1.55499E-03
 -1       520-3.83270E-04-1.73485E-06-1.75342E-03
 -1       522-3.56137E-04 9.54322E-06-1.75285E-03
 -1       523-3.97661E-04-2.27100E-06-1.95738E-03
 -1       525-3.69719E-04 9.17056E-06-1.95695E-03
 -1       526-4.10368E-04-2.74714E-06-2.16682E-03
 -1       528-3.81765E-04 8.81331E-06-2.16640E-03
 -1       529-4.21551E-04-3.19662E-06-2.38085E-03
 -1       531-3.92358E-04 8.46837E-06-2.38053E-03
 -1       532-4.31270E-04-3.59885E-06-2.59886E-03
 -1       534-4.01599E-04 8.14236E-06-2.59856E-03
 -1       535-4.39659E-04-3.97370E-06-2.82011E-03
 -1       537-4.09583E-04 7.83426E-06-2.81989E-03
 -1       538-4.46797E-04-4.30870E-06-3.04406E-03
 -1       540-4.16406E-04 7.54787E-06-3.04386E-03
 -1       541-4.52804E-04-4.61624E-06-3.27006E-03
 -1       543-4.22166E-04 7.28271E-06-3.26993E-03
 -1       544-4.57771E-04-4.88855E-06-3.49767E-03
 -1       546-4.26955E-04 7.04108E-06-3.49755E-03
 -1       547-4.61809E-04-5.13327E-06-3.72635E-03
 -1       549-4.30874E-04 6.82297E-06-3.72629E-03
 -1       550-4.65015E-04-5.34599E-06-3.95573E-03
 -1       552-4.34015E-04 6.62917E-06-3.95569E-03
 -1       553-4.67496E-04-5.53049E-06-4.18541E-03
 -1       555-4.36479E-04 6.46114E-06-4.18540E-03
 -1       556-4.69352E-04-5.68624E-06-4.41507E-03
 -1       558-4.38358E-04 6.31636E-06-4.41508E-03
 -1       559-4.70691E-04-5.81071E-06-4.64444E-03
 -1       561-4.39753E-04 6.20195E-06-4.64447E-03
 -1       562-4.71606E-04-5.91346E-06-4.87330E-03
 -1       564-4.40753E-04 6.10448E-06-4.87333E-03
 -1       565-4.72226E-04-5.97947E-06-5.10147E-03
 -1       567-4.41470E-04 6.04418E-06-5.10153E-03
 -1       568-4.72596E-04-6.00860E-06-5.32880E-03
 -1       570-4.41975E-04 6.01754E-06-5.32885E-03
 -1       571-4.72811E-04-5.05675E-06-5.51854E-03
 -1       573-4.42278E-04 4.97506E-06-5.51855E-03
 -1       574-4.90142E-05-3.14964E-16-4.38388E-05
 -1       576-3.83889E-05-3.22083E-16-4.19870E-05
 -1       577-4.37015E-05-5.91184E-07-4.29129E-05
 -1       579-4.37015E-05 5.91184E-07-4.29129E-05
 -1       588-8.84390E-05-1.36789E-15-1.05002E-04
 -1       590-8.19280E-05-1.38227E-15-1.03557E-04
 -1       591-8.51835E-05-4.60681E-07-1.04279E-04
 -1       593-8.51835E-05 4.60681E-07-1.04279E-04
 -1       602-1.29997E-04-3.06698E-15-1.79909E-04
 -1       604-1.16928E-04-3.08922E-15-1.78396E-04
 -1       605-1.23463E-04-4.83896E-07-1.79152E-04
 -1       607-1.23463E-04 4.83896E-07-1.79152E-04
 -1       616-1.64844E-04-5.40093E-15-2.75002E-04
 -1       618-1.52039E-04-5.43101E-15-2.73688E-04
 -1       619-1.58441E-04-4.20267E-07-2.74345E-04
 -1       621-1.58441E-04 4.20267E-07-2.74345E-04
 -1       630-1.99611E-04-8.35081E-15-3.84740E-04
 -1       632-1.83096E-04-8.38888E-15-3.83490E-04
 -1       633-1.91354E-04-4.01340E-07-3.84115E-04
 -1       635-1.91354E-04 4.01340E-07-3.84115E-04
 -1       644-2.30200E-04-1.18768E-14-5.10105E-04
 -1       646-2.12800E-04-1.19226E-14-5.08970E-04
 -1       647-2.21500E-04-3.64933E-07-5.09538E-04
 -1       649-2.21500E-04 3.64933E-07-5.09538E-04
 -1       658-2.59283E-04-1.59621E-14-6.48571E-04
 -1       660-2.39442E-04-1.60159E-14-6.47538E-04
 -1       661-2.49363E-04-3.33649E-07-6.48055E-04
 -1       663-2.49363E-04 3.33649E-07-6.48055E-04
 -1       672-2.85372E-04-2.05712E-14-7.99712E-04
 -1       674-2.64383E-04-2.06335E-14-7.98760E-04
 -1       675-2.74877E-04-3.08308E-07-7.99236E-04
 -1       677-2.74877E-04 3.08308E-07-7.99236E-04
 -1       686-3.09596E-04-2.56823E-14-9.61923E-04
 -1       688-2.86854E-04-2.57519E-14-9.61076E-04
 -1       689-2.98225E-04-2.75705E-07-9.61500E-04
 -1       691-2.98225E-04 2.75705E-07-9.61500E-04
 -1       700-3.31382E-04-3.12616E-14-1.13444E-03
 -1       702-3.07537E-04-3.13400E-14-1.13366E-03
 -1       703-3.19460E-04-2.54055E-07-1.13405E-03
 -1       705-3.19460E-04 2.54055E-07-1.13405E-03
 -1       714-3.51287E-04-3.72833E-14-1.31601E-03
 -1       716-3.26134E-04-3.73701E-14-1.31533E-03
 -1       717-3.38711E-04-2.24440E-07-1.31567E-03
 -1       719-3.38711E-04 2.24440E-07-1.31567E-03
 -1       728-3.69108E-04-4.37182E-14-1.50581E-03
 -1       730-3.43008E-04-4.38135E-14-1.50519E-03
 -1       731-3.56058E-04-2.04285E-07-1.50550E-03
 -1       733-3.56058E-04 2.04285E-07-1.50550E-03
 -1       742-3.85155E-04-5.05392E-14-1.70280E-03
 -1       744-3.58075E-04-5.06414E-14-1.70227E-03
 -1       745-3.71615E-04-1.78585E-07-1.70254E-03
 -1       747-3.71615E-04 1.78585E-07-1.70254E-03
 -1       756-3.99390E-04-5.77148E-14-1.90619E-03
 -1       758-3.71551E-04-5.78252E-14-1.90571E-03
 -1       759-3.85471E-04-1.59690E-07-1.90595E-03
 -1       761-3.85471E-04 1.59690E-07-1.90595E-03
 -1       770-4.12012E-04-6.52162E-14-2.11507E-03
 -1       772-3.83451E-04-6.53373E-14-2.11467E-03
 -1       773-3.97732E-04-1.37792E-07-2.11487E-03
 -1       775-3.97732E-04 1.37792E-07-2.11487E-03
 -1       784-4.23059E-04-7.30201E-14-2.32873E-03
 -1       786-3.93927E-04-7.31508E-14-2.32838E-03
 -1       787-4.08493E-04-1.20425E-07-2.32855E-03
 -1       789-4.08493E-04 1.20425E-07-2.32855E-03
 -1       798-4.32677E-04-8.10982E-14-2.54639E-03
 -1       800-4.03036E-04-8.12371E-14-2.54610E-03
 -1       801-4.17856E-04-1.02008E-07-2.54624E-03
 -1       803-4.17856E-04 1.02008E-07-2.54624E-03
 -1       812-4.40939E-04-8.94218E-14-2.76740E-03
 -1       814-4.10900E-04-8.95700E-14-2.76716E-03
 -1       815-4.25919E-04-8.64883E-08-2.76728E-03
 -1       817-4.25919E-04 8.64881E-08-2.76728E-03
 -1       826-4.47968E-04-9.79604E-14-2.99112E-03
 -1       828-4.17598E-04-9.81196E-14-2.99093E-03
 -1       829-4.32783E-04-7.12598E-08-2.99102E-03
 -1       831-4.32783E-04 7.12596E-08-2.99102E-03
 -1       840-4.53853E-04-1.06688E-13-3.21697E-03
 -1       842-4.23236E-04-1.06860E-13-3.21683E-03
 -1       843-4.38544E-04-5.78409E-08-3.21690E-03
 -1       845-4.38544E-04 5.78407E-08-3.21690E-03
 -1       854-4.58706E-04-1.15572E-13-3.44443E-03
 -1       856-4.27904E-04-1.15754E-13-3.44433E-03
 -1       857-4.43305E-04-4.55863E-08-3.44438E-03
 -1       859-4.43305E-04 4.55861E-08-3.44438E-03
 -1       868-4.62625E-04-1.24585E-13-3.67302E-03
 -1       870-4.31702E-04-1.24778E-13-3.67295E-03
 -1       871-4.47163E-04-3.44462E-08-3.67299E-03
 -1       873-4.47163E-04 3.44460E-08-3.67299E-03
 -1       882-4.65715E-04-1.33707E-13-3.90232E-03
 -1       884-4.34725E-04-1.33911E-13-3.90227E-03
 -1       885-4.50220E-04-2.50183E-08-3.90230E-03
 -1       887-4.50220E-04 2.50180E-08-3.90230E-03
 -1       896-4.68078E-04-1.42912E-13-4.13193E-03
 -1       898-4.37068E-04-1.43124E-13-4.13192E-03
 -1       899-4.52573E-04-1.62785E-08-4.13193E-03
 -1       901-4.52573E-04 1.62783E-08-4.13193E-03
 -1       910-4.69817E-04-1.52183E-13-4.36155E-03
 -1       912-4.38829E-04-1.52401E-13-4.36155E-03
 -1       913-4.54323E-04-9.56960E-09-4.36155E-03
 -1       915-4.54323E-04 9.56929E-09-4.36155E-03
 -1       924-4.71039E-04-1.61497E-13-4.59088E-03
 -1       926-4.40103E-04-1.61728E-13-4.59091E-03
 -1       927-4.55571E-04-3.33926E-09-4.59090E-03
 -1       929-4.55571E-04 3.33894E-09-4.59090E-03
 -1       938-4.71839E-04-1.70840E-13-4.81971E-03
 -1       940-4.40990E-04-1.71078E-13-4.81975E-03
 -1       941-4.56415E-04 7.67053E-10-4.81973E-03
 -1       943-4.56415E-04-7.67395E-10-4.81973E-03
 -1       952-4.72332E-04-1.80189E-13-5.04786E-03
 -1       954-4.41577E-04-1.80427E-13-5.04791E-03
 -1       955-4.56955E-04 4.42270E-09-5.04789E-03
 -1       957-4.56955E-04-4.42306E-09-5.04789E-03
 -1       966-4.72610E-04-1.89534E-13-5.27520E-03
 -1       968-4.41985E-04-1.89778E-13-5.27525E-03
 -1       969-4.57297E-04 5.92411E-09-5.27523E-03
 -1       971-4.57297E-04-5.92449E-09-5.27523E-03
 -1       980 0.00000E+00 0.00000E+00-1.06173E-06
 -1       982 0.00000E+00 0.00000E+00 1.06173E-06
 -1       983-4.72811E-04 5.05675E-06-5.51854E-03
 -1       985-4.42278E-04-4.97506E-06-5.51855E-03
 -1       986-4.93210E-05-1.34533E-05-4.59942E-05
 -1       988-3.75011E-05-1.58731E-05-4.47155E-05
 -1       989-8.53872E-05-8.69605E-06-1.22943E-04
 -1       991-7.65045E-05-1.16544E-05-1.21282E-04
 -1       992-1.26745E-04-7.49830E-06-2.03533E-04
 -1       994-1.14048E-04-1.23864E-05-2.02012E-04
 -1       995-1.62791E-04-5.94532E-06-3.05075E-04
 -1       997-1.48223E-04-1.22250E-05-3.03845E-04
 -1       998-1.96516E-04-4.86605E-06-4.19709E-04
 -1      1000-1.80234E-04-1.22468E-05-4.18359E-04
 -1      1001-2.27965E-04-3.55067E-06-5.48596E-04
 -1      1003-2.09540E-04-1.19293E-05-5.47559E-04
 -1      1004-2.56582E-04-2.67325E-06-6.90370E-04
 -1      1006-2.36786E-04-1.17387E-05-6.89250E-04
 -1      1007-2.83141E-04-1.67307E-06-8.43691E-04
 -1      1009-2.61585E-04-1.13775E-05-8.42819E-04
 -1      1010-3.07199E-04-9.10412E-07-1.00803E-03
 -1      1012-2.84420E-04-1.10574E-05-1.00711E-03
 -1      1013-3.29270E-04-1.22981E-07-1.18194E-03
 -1      1015-3.05111E-04-1.06737E-05-1.18122E-03
 -1      1016-3.49155E-04 5.31995E-07-1.36486E-03
 -1      1018-3.23945E-04-1.03051E-05-1.36413E-03
 -1      1019-3.67173E-04 1.17537E-06-1.55556E-03
 -1      1021-3.40895E-04-9.91793E-06-1.55499E-03
 -1      1022-3.83270E-04 1.73485E-06-1.75342E-03
 -1      1024-3.56137E-04-9.54322E-06-1.75285E-03
 -1      1025-3.97661E-04 2.27100E-06-1.95738E-03
 -1      1027-3.69719E-04-9.17056E-06-1.95695E-03
 -1      1028-4.10368E-04 2.74714E-06-2.16682E-03
 -1      1030-3.81765E-04-8.81331E-06-2.16640E-03
 -1      1031-4.21551E-04 3.19662E-06-2.38085E-03
 -1      1033-3.92358E-04-8.46837E-06-2.38053E-03
 -1      1034-4.31270E-04 3.59885E-06-2.59886E-03
 -1      1036-4.01599E-04-8.14236E-06-2.59856E-03
 -1      1037-4.39659E-04 3.97370E-06-2.82011E-03
 -1      1039-4.09583E-04-7.83427E-06-2.81989E-03
 -1      1040-4.46797E-04 4.30870E-06-3.04406E-03
 -1      1042-4.16406E-04-7.54787E-06-3.04386E-03
 -1      1043-4.52804E-04 4.61624E-06-3.27006E-03
 -1      1045-4.22166E-04-7.28271E-06-3.26993E-03
 -1      1046-4.57771E-04 4.88855E-06-3.49767E-03
 -1      1048-4.26955E-04-7.04108E-06-3.49755E-03
 -1      1049-4.61809E-04 5.13327E-06-3.72635E-03
 -1      1051-4.30874E-04-6.82297E-06-3.72629E-03
 -1      1052-4.65015E-04 5.34599E-06-3.95573E-03
 -1      1054-4.34015E-04-6.62917E-06-3.95569E-03
 -1      1055-4.67496E-04 5.53049E-06-4.18541E-03
 -1      1057-4.36479E-04-6.46114E-06-4.18540E-03
 -1      1058-4.69352E-04 5.68624E-06-4.41507E-03
 -1      1060-4.38358E-04-6.31636E-06-4.41508E-03
 -1      1061-4.70691E-04 5.81071E-06-4.64444E-03
 -1      1063-4.39753E-04-6.20195E-06-4.64447E-03
 -1      1064-4.71606E-04 5.91346E-06-4.87330E-03
 -1      1066-4.40753E-04-6.10448E-06-4.87333E-03
 -1      1067-4.72226E-04 5.97947E-06-5.10147E-03
 -1      1069-4.41470E-04-6.04418E-06-5.10153E-03
 -1      1070-4.72596E-04 6.00860E-06-5.32880E-03
 -1      1072-4.41975E-04-6.01754E-06-5.32885E-03
 -1      1073 0.00000E+00 0.00000E+00-1.06173E-06
 -1      1075 0.00000E+00 0.00000E+00 1.06173E-06
 -1      1076 0.00000E+00-3.44954E-07 0.00000E+00
 -1      1078 0.00000E+00 3.44954E-07 0.00000E+00
 -1      1079 0.00000E+00-8.07771E-10 0.00000E+00
 -1      1081 0.00000E+00 8.07771E-10 0.00000E+00
 -1      1082 0.00000E+00 3.44590E-07 0.00000E+00
 -1      1084 0.00000E+00-3.44590E-07 0.00000E+00
 -1      1085 4.36518E-05 5.90493E-07-4.29665E-05
 -1      1087 4.36518E-05-5.90493E-07-4.29665E-05
 -1      1088 4.89623E-05-3.32160E-16-4.38955E-05
 -1      1090 3.83414E-05-3.39976E-16-4.20374E-05
 -1      1099 8.50626E-05 4.60441E-07-1.04383E-04
 -1      1101 8.50626E-05-4.60441E-07-1.04383E-04
 -1      1102 8.83115E-05-1.41659E-15-1.05107E-04
 -1      1104 8.18137E-05-1.43226E-15-1.03660E-04
 -1      1113 1.23264E-04 4.83259E-07-1.79296E-04
 -1      1115 1.23264E-04-4.83259E-07-1.79296E-04
 -1      1116 1.29797E-04-3.15092E-15-1.80057E-04
 -1      1118 1.16731E-04-3.17360E-15-1.78534E-04
 -1      1127 1.58136E-04 4.20248E-07-2.74539E-04
 -1      1129 1.58136E-04-4.20248E-07-2.74539E-04
 -1      1130 1.64532E-04-5.51887E-15-2.75202E-04
 -1      1132 1.51739E-04-5.54932E-15-2.73876E-04
 -1      1141 1.90917E-04 4.00785E-07-3.84352E-04
 -1      1143 1.90917E-04-4.00785E-07-3.84352E-04
 -1      1144 1.99172E-04-8.49880E-15-3.84987E-04
 -1      1146 1.82661E-04-8.53645E-15-3.83718E-04
 -1      1155 2.20898E-04 3.64967E-07-5.09833E-04
 -1      1157 2.20898E-04-3.64967E-07-5.09833E-04
 -1      1158 2.29595E-04-1.20475E-14-5.10411E-04
 -1      1160 2.12202E-04-1.20939E-14-5.09254E-04
 -1      1169 2.48566E-04 3.33160E-07-6.48407E-04
 -1      1171 2.48566E-04-3.33160E-07-6.48407E-04
 -1      1172 2.58485E-04-1.61504E-14-6.48937E-04
 -1      1174 2.38647E-04-1.62033E-14-6.47877E-04
 -1      1183 2.73851E-04 3.08326E-07-7.99650E-04
 -1      1185 2.73851E-04-3.08326E-07-7.99650E-04
 -1      1186 2.84344E-04-2.07685E-14-8.00142E-04
 -1      1188 2.63359E-04-2.08302E-14-7.99157E-04
 -1      1197 2.96937E-04 2.75283E-07-9.61974E-04
 -1      1199 2.96937E-04-2.75283E-07-9.61974E-04
 -1      1200 3.08307E-04-2.58798E-14-9.62416E-04
 -1      1202 2.85568E-04-2.59509E-14-9.61532E-04
 -1      1211 3.17878E-04 2.54037E-07-1.13458E-03
 -1      1213 3.17878E-04-2.54037E-07-1.13458E-03
 -1      1214 3.29799E-04-3.14547E-14-1.13499E-03
 -1      1216 3.05957E-04-3.15341E-14-1.13417E-03
 -1      1225 3.36803E-04 2.24073E-07-1.31626E-03
 -1      1227 3.36803E-04-2.24074E-07-1.31626E-03
 -1      1228 3.49379E-04-3.74643E-14-1.31663E-03
 -1      1230 3.24228E-04-3.75528E-14-1.31590E-03
 -1      1239 3.53796E-04 2.04231E-07-1.50615E-03
 -1      1241 3.53796E-04-2.04231E-07-1.50615E-03
 -1      1242 3.66845E-04-4.38805E-14-1.50648E-03
 -1      1244 3.40747E-04-4.39793E-14-1.50582E-03
 -1      1253 3.68971E-04 1.78259E-07-1.70324E-03
 -1      1255 3.68971E-04-1.78259E-07-1.70324E-03
 -1      1256 3.82510E-04-5.06777E-14-1.70353E-03
 -1      1258 3.55432E-04-5.07847E-14-1.70295E-03
 -1      1267 3.82420E-04 1.59602E-07-1.90670E-03
 -1      1269 3.82420E-04-1.59602E-07-1.90670E-03
 -1      1270 3.96339E-04-5.78259E-14-1.90697E-03
 -1      1272 3.68501E-04-5.79444E-14-1.90644E-03
 -1      1281 3.94253E-04 1.37491E-07-2.11567E-03
 -1      1283 3.94253E-04-1.37492E-07-2.11567E-03
 -1      1284 4.08532E-04-6.52961E-14-2.11590E-03
 -1      1286 3.79973E-04-6.54267E-14-2.11544E-03
 -1      1295 4.04564E-04 1.20304E-07-2.32939E-03
 -1      1297 4.04564E-04-1.20304E-07-2.32939E-03
 -1      1298 4.19130E-04-7.30613E-14-2.32959E-03
 -1      1300 3.89999E-04-7.32039E-14-2.32918E-03
 -1      1309 4.13462E-04 1.01720E-07-2.54712E-03
 -1      1311 4.13462E-04-1.01720E-07-2.54712E-03
 -1      1312 4.28282E-04-8.10978E-14-2.54729E-03
 -1      1314 3.98642E-04-8.12514E-14-2.54694E-03
 -1      1323 4.21043E-04 8.63362E-08-2.76818E-03
 -1      1325 4.21043E-04-8.63363E-08-2.76818E-03
 -1      1326 4.36062E-04-8.93776E-14-2.76834E-03
 -1      1328 4.06024E-04-8.95428E-14-2.76803E-03
 -1      1337 4.27413E-04 7.09753E-08-2.99195E-03
 -1      1339 4.27413E-04-7.09755E-08-2.99195E-03
 -1      1340 4.42598E-04-9.78732E-14-2.99208E-03
 -1      1342 4.12228E-04-9.80525E-14-2.99182E-03
 -1      1351 4.32671E-04 5.76589E-08-3.21785E-03
 -1      1353 4.32671E-04-5.76592E-08-3.21785E-03
 -1      1354 4.47979E-04-1.06560E-13-3.21796E-03
 -1      1356 4.17363E-04-1.06751E-13-3.21775E-03
 -1      1365 4.36920E-04 4.52972E-08-3.44535E-03
 -1      1367 4.36920E-04-4.52974E-08-3.44535E-03
 -1      1368 4.52321E-04-1.15408E-13-3.44544E-03
 -1      1370 4.21520E-04-1.15613E-13-3.44526E-03
 -1      1379 4.40261E-04 3.42357E-08-3.67398E-03
 -1      1381 4.40261E-04-3.42359E-08-3.67398E-03
 -1      1382 4.55723E-04-1.24391E-13-3.67405E-03
 -1      1384 4.24800E-04-1.24607E-13-3.67391E-03
 -1      1393 4.42797E-04 2.47193E-08-3.90330E-03
 -1      1395 4.42797E-04-2.47196E-08-3.90330E-03
 -1      1396 4.58292E-04-1.33487E-13-3.90335E-03
 -1      1398 4.27302E-04-1.33714E-13-3.90324E-03
 -1      1407 4.44627E-04 1.60413E-08-4.13293E-03
 -1      1409 4.44627E-04-1.60416E-08-4.13293E-03
 -1      1410 4.60132E-04-1.42672E-13-4.13298E-03
 -1      1412 4.29122E-04-1.42913E-13-4.13289E-03
 -1      1421 4.45853E-04 9.25736E-09-4.36257E-03
 -1      1423 4.45853E-04-9.25766E-09-4.36257E-03
 -1      1424 4.61347E-04-1.51929E-13-4.36260E-03
 -1      1426 4.30360E-04-1.52177E-13-4.36253E-03
 -1      1435 4.46578E-04 3.07747E-09-4.59191E-03
 -1      1437 4.46578E-04-3.07779E-09-4.59191E-03
 -1      1438 4.62046E-04-1.61229E-13-4.59194E-03
 -1      1440 4.31110E-04-1.61490E-13-4.59189E-03
 -1      1449 4.46900E-04-1.09465E-09-4.82075E-03
 -1      1451 4.46900E-04 1.09431E-09-4.82075E-03
 -1      1452 4.62325E-04-1.70554E-13-4.82077E-03
 -1      1454 4.31476E-04-1.70827E-13-4.82074E-03
 -1      1463 4.46921E-04-4.70661E-09-5.04891E-03
 -1      1465 4.46921E-04 4.70625E-09-5.04891E-03
 -1      1466 4.62299E-04-1.79888E-13-5.04892E-03
 -1      1468 4.31544E-04-1.80161E-13-5.04890E-03
 -1      1477 4.46748E-04-6.26996E-09-5.27625E-03
 -1      1479 4.46748E-04 6.26958E-09-5.27625E-03
 -1      1480 4.62060E-04-1.89218E-13-5.27626E-03
 -1      1482 4.31436E-04-1.89495E-13-5.27624E-03
 -1      1491-2.31592E-04 3.18456E-09-5.50165E-03
 -1      1493-2.31592E-04-3.18496E-09-5.50165E-03
 -1      1494-5.52976E-06-1.53519E-10-5.50180E-03
 -1      1496-5.52976E-06 1.53116E-10-5.50180E-03
 -1      1497 2.20532E-04-2.86835E-09-5.50216E-03
 -1      1499 2.20532E-04 2.86795E-09-5.50216E-03
 -1      1500 4.93412E-05 1.33959E-05-4.66981E-05
 -1      1502 3.73715E-05 1.59145E-05-4.54105E-05
 -1      1503 8.52440E-05 8.59678E-06-1.24268E-04
 -1      1505 7.63675E-05 1.17611E-05-1.22600E-04
 -1      1506 1.26539E-04 7.36131E-06-2.05195E-04
 -1      1508 1.13782E-04 1.25338E-05-2.03662E-04
 -1      1509 1.62418E-04 5.78845E-06-3.07003E-04
 -1      1511 1.47865E-04 1.24052E-05-3.05753E-04
 -1      1512 1.96001E-04 4.70029E-06-4.21715E-04
 -1      1514 1.79713E-04 1.24434E-05-4.20341E-04
 -1      1515 2.27252E-04 3.38688E-06-5.50654E-04
 -1      1517 2.08847E-04 1.21336E-05-5.49585E-04
 -1      1518 2.55656E-04 2.51757E-06-6.92399E-04
 -1      1520 2.35876E-04 1.19411E-05-6.91243E-04
 -1      1521 2.81965E-04 1.53019E-06-8.45674E-04
 -1      1523 2.60432E-04 1.15734E-05-8.44758E-04
 -1      1524 3.05746E-04 7.82847E-07-1.00993E-03
 -1      1526 2.82988E-04 1.12426E-05-1.00897E-03
 -1      1527 3.27508E-04 1.20820E-08-1.18376E-03
 -1      1529 3.03371E-04 1.08464E-05-1.18299E-03
 -1      1530 3.47055E-04-6.26036E-07-1.36660E-03
 -1      1532 3.21866E-04 1.04640E-05-1.36581E-03
 -1      1533 3.64707E-04-1.25283E-06-1.55722E-03
 -1      1535 3.38450E-04 1.00629E-05-1.55658E-03
 -1      1536 3.80414E-04-1.79675E-06-1.75499E-03
 -1      1538 3.53299E-04 9.67460E-06-1.75436E-03
 -1      1539 3.94391E-04-2.31837E-06-1.95888E-03
 -1      1541 3.66465E-04 9.28901E-06-1.95837E-03
 -1      1542 4.06661E-04-2.78147E-06-2.16825E-03
 -1      1544 3.78074E-04 8.91990E-06-2.16776E-03
 -1      1545 4.17390E-04-3.21924E-06-2.38222E-03
 -1      1547 3.88211E-04 8.56418E-06-2.38183E-03
 -1      1548 4.26638E-04-3.61130E-06-2.60019E-03
 -1      1550 3.96979E-04 8.22863E-06-2.59981E-03
 -1      1551 4.34543E-04-3.97729E-06-2.82140E-03
 -1      1553 4.04477E-04 7.91215E-06-2.82110E-03
 -1      1554 4.41184E-04-4.30483E-06-3.04530E-03
 -1      1556 4.10802E-04 7.61855E-06-3.04502E-03
 -1      1557 4.46687E-04-4.60605E-06-3.27128E-03
 -1      1559 4.16055E-04 7.34726E-06-3.27106E-03
 -1      1560 4.51140E-04-4.87320E-06-3.49886E-03
 -1      1562 4.20330E-04 7.10049E-06-3.49866E-03
 -1      1563 4.54661E-04-5.11369E-06-3.72752E-03
 -1      1565 4.23730E-04 6.87813E-06-3.72738E-03
 -1      1566 4.57344E-04-5.32307E-06-3.95689E-03
 -1      1568 4.26349E-04 6.68087E-06-3.95676E-03
 -1      1569 4.59303E-04-5.50493E-06-4.18655E-03
 -1      1571 4.28289E-04 6.51005E-06-4.18646E-03
 -1      1572 4.60635E-04-5.65870E-06-4.41620E-03
 -1      1574 4.29643E-04 6.36305E-06-4.41612E-03
 -1      1575 4.61452E-04-5.78168E-06-4.64556E-03
 -1      1577 4.30515E-04 6.24694E-06-4.64551E-03
 -1      1578 4.61846E-04-5.88345E-06-4.87441E-03
 -1      1580 4.30994E-04 6.14815E-06-4.87437E-03
 -1      1581 4.61948E-04-5.94883E-06-5.10258E-03
 -1      1583 4.31193E-04 6.08693E-06-5.10255E-03
 -1      1584 4.61803E-04-5.97758E-06-5.32991E-03
 -1      1586 4.31182E-04 6.05977E-06-5.32988E-03
 -1      1587 4.61672E-04-5.05462E-06-5.51961E-03
 -1      1589 4.31140E-04 4.98505E-06-5.51955E-03
 -1      1590 0.00000E+00 0.00000E+00-1.05964E-06
 -1      1592 0.00000E+00 0.00000E+00 1.05964E-06
 -1      1593 4.61672E-04 5.05462E-06-5.51961E-03
 -1      1595 4.31140E-04-4.98505E-06-5.51955E-03
 -1      1596 4.93412E-05-1.33959E-05-4.66981E-05
 -1      1598 3.73715E-05-1.59145E-05-4.54105E-05
 -1      1599 8.52440E-05-8.59678E-06-1.24268E-04
 -1      1601 7.63675E-05-1.17611E-05-1.22600E-04
 -1      1602 1.26539E-04-7.36131E-06-2.05195E-04
 -1      1604 1.13782E-04-1.25338E-05-2.03662E-04
 -1      1605 1.62418E-04-5.78845E-06-3.07003E-04
 -1      1607 1.47865E-04-1.24052E-05-3.05753E-04
 -1      1608 1.96001E-04-4.70029E-06-4.21715E-04
 -1      1610 1.79713E-04-1.24434E-05-4.20341E-04
 -1      1611 2.27252E-04-3.38688E-06-5.50654E-04
 -1      1613 2.08847E-04-1.21336E-05-5.49585E-04
 -1      1614 2.55656E-04-2.51757E-06-6.92399E-04
 -1      1616 2.35876E-04-1.19411E-05-6.91243E-04
 -1      1617 2.81965E-04-1.53019E-06-8.45674E-04
 -1      1619 2.60432E-04-1.15734E-05-8.44758E-04
 -1      1620 3.05746E-04-7.82847E-07-1.00993E-03
 -1      1622 2.82988E-04-1.12426E-05-1.00897E-03
 -1      1623 3.27508E-04-1.20821E-08-1.18376E-03
 -1      1625 3.03371E-04-1.08464E-05-1.18299E-03
 -1      1626 3.47055E-04 6.26036E-07-1.36660E-03
 -1      1628 3.21866E-04-1.04640E-05-1.36581E-03
 -1      1629 3.64707E-04 1.25283E-06-1.55722E-03
 -1      1631 3.38450E-04-1.00629E-05-1.55658E-03
 -1      1632 3.80414E-04 1.79675E-06-1.75499E-03
 -1      1634 3.53299E-04-9.67460E-06-1.75436E-03
 -1      1635 3.94391E-04 2.31837E-06-1.95888E-03
 -1      1637 3.66465E-04-9.28901E-06-1.95837E-03
 -1      1638 4.06661E-04 2.78147E-06-2.16825E-03
 -1      1640 3.78074E-04-8.91990E-06-2.16776E-03
 -1      1641 4.17390E-04 3.21924E-06-2.38222E-03
 -1      1643 3.88211E-04-8.56418E-06-2.38183E-03
 -1      1644 4.26638E-04 3.61130E-06-2.60019E-03
 -1      1646 3.96979E-04-8.22863E-06-2.59981E-03
 -1      1647 4.34543E-04 3.97729E-06-2.82140E-03
 -1      1649 4.04477E-04-7.91215E-06-2.82110E-03
 -1      1650 4.41184E-04 4.30483E-06-3.04530E-03
 -1      1652 4.10802E-04-7.61855E-06-3.04502E-03
 -1      1653 4.46687E-04 4.60605E-06-3.27128E-03
 -1      1655 4.16055E-04-7.34726E-06-3.27106E-03
 -1      1656 4.51140E-04 4.87320E-06-3.49886E-03
 -1      1658 4.20330E-04-7.10049E-06-3.49866E-03
 -1      1659 4.54661E-04 5.11369E-06-3.72752E-03
 -1      1661 4.23730E-04-6.87813E-06-3.72738E-03
 -1      1662 4.57344E-04 5.32306E-06-3.95689E-03
 -1      1664 4.26349E-04-6.68087E-06-3.95676E-03
 -1      1665 4.59303E-04 5.50493E-06-4.18655E-03
 -1      1667 4.28289E-04-6.51005E-06-4.18646E-03
 -1      1668 4.60635E-04 5.65870E-06-4.41620E-03
 -1      1670 4.29643E-04-6.36305E-06-4.41612E-03
 -1      1671 4.61452E-04 5.78168E-06-4.64556E-03
 -1      1673 4.30515E-04-6.24694E-06-4.64551E-03
 -1      1674 4.61846E-04 5.88345E-06-4.87441E-03
 -1      1676 4.30994E-04-6.14815E-06-4.87437E-03
 -1      1677 4.61948E-04 5.94883E-06-5.10258E-03
 -1      1679 4.31193E-04-6.08693E-06-5.10255E-03
 -1      1680 4.61803E-04 5.97758E-06-5.32991E-03
 -1      1682 4.31182E-04-6.05977E-06-5.32988E-03
 -1      1683 0.00000E+00 0.00000E+00-1.05964E-06
 -1      1685 0.00000E+00 0.00000E+00 1.05964E-06
 -1      1686-4.64808E-05 6.86268E-06-4.25264E-05
 -1      1688-3.52581E-05 6.53532E-06-4.08769E-05
 -1      1689-8.76065E-05 4.02231E-06-1.11996E-04
 -1      1691-7.99097E-05 7.70210E-06-1.10439E-04
 -1      1692-1.27172E-04 2.07891E-06-1.87336E-04
 -1      1694-1.14288E-04 6.82281E-06-1.85805E-04
 -1      1695-1.63408E-04 1.93874E-06-2.85181E-04
 -1      1697-1.49722E-04 7.70766E-06-2.83783E-04
 -1      1698-1.97401E-04 7.12680E-07-3.95923E-04
 -1      1700-1.81003E-04 7.52128E-06-3.94638E-04
 -1      1701-2.28537E-04 3.05228E-07-5.22589E-04
 -1      1703-2.10625E-04 7.60224E-06-5.21405E-04
 -1      1704-2.57371E-04-4.41817E-07-6.61881E-04
 -1      1706-2.37553E-04 7.53274E-06-6.60785E-04
 -1      1707-2.83734E-04-8.59123E-07-8.13751E-04
 -1      1709-2.62462E-04 7.44116E-06-8.12769E-04
 -1      1710-3.07889E-04-1.38679E-06-9.76538E-04
 -1      1712-2.85128E-04 7.32258E-06-9.75622E-04
 -1      1713-3.29844E-04-1.76049E-06-1.14949E-03
 -1      1715-3.05841E-04 7.17790E-06-1.14869E-03
 -1      1716-3.49759E-04-2.16064E-06-1.33145E-03
 -1      1718-3.24577E-04 7.02407E-06-1.33070E-03
 -1      1719-3.67701E-04-2.48313E-06-1.52152E-03
 -1      1721-3.41512E-04 6.85977E-06-1.52088E-03
 -1      1722-3.83795E-04-2.80110E-06-1.71877E-03
 -1      1724-3.56688E-04 6.69218E-06-1.71817E-03
 -1      1725-3.98132E-04-3.07504E-06-1.92232E-03
 -1      1727-3.70240E-04 6.52504E-06-1.92182E-03
 -1      1728-4.10818E-04-3.33444E-06-2.13137E-03
 -1      1730-3.82237E-04 6.35874E-06-2.13091E-03
 -1      1731-4.21956E-04-3.56494E-06-2.34513E-03
 -1      1733-3.92793E-04 6.19900E-06-2.34475E-03
 -1      1734-4.31647E-04-3.77853E-06-2.56290E-03
 -1      1736-4.01992E-04 6.04357E-06-2.56256E-03
 -1      1737-4.39996E-04-3.97032E-06-2.78398E-03
 -1      1739-4.09939E-04 5.89789E-06-2.78371E-03
 -1      1740-4.47103E-04-4.14534E-06-3.00777E-03
 -1      1742-4.16722E-04 5.75936E-06-3.00753E-03
 -1      1743-4.53072E-04-4.30208E-06-3.23367E-03
 -1      1745-4.22444E-04 5.63210E-06-3.23348E-03
 -1      1746-4.58005E-04-4.44281E-06-3.46117E-03
 -1      1748-4.27196E-04 5.51430E-06-3.46101E-03
 -1      1749-4.62007E-04-4.56711E-06-3.68979E-03
 -1      1751-4.31078E-04 5.40827E-06-3.68968E-03
 -1      1752-4.65178E-04-4.67611E-06-3.91911E-03
 -1      1754-4.34183E-04 5.31376E-06-3.91902E-03
 -1      1755-4.67624E-04-4.76979E-06-4.14874E-03
 -1      1757-4.36610E-04 5.23060E-06-4.14868E-03
 -1      1758-4.69445E-04-4.84872E-06-4.37837E-03
 -1      1760-4.38454E-04 5.16113E-06-4.37833E-03
 -1      1761-4.70747E-04-4.91261E-06-4.60771E-03
 -1      1763-4.39810E-04 5.10219E-06-4.60770E-03
 -1      1764-4.71632E-04-4.96274E-06-4.83655E-03
 -1      1766-4.40781E-04 5.05828E-06-4.83654E-03
 -1      1767-4.72203E-04-5.00144E-06-5.06471E-03
 -1      1769-4.41447E-04 5.02148E-06-5.06472E-03
 -1      1770-4.72564E-04-4.99967E-06-5.29204E-03
 -1      1772-4.41941E-04 5.02305E-06-5.29205E-03
 -1      1773-4.64808E-05-6.86268E-06-4.25264E-05
 -1      1775-3.52581E-05-6.53532E-06-4.08769E-05
 -1      1776-8.76065E-05-4.02231E-06-1.11996E-04
 -1      1778-7.99097E-05-7.70210E-06-1.10439E-04
 -1      1779-1.27172E-04-2.07891E-06-1.87336E-04
 -1      1781-1.14288E-04-6.82281E-06-1.85805E-04
 -1      1782-1.63408E-04-1.93874E-06-2.85181E-04
 -1      1784-1.49722E-04-7.70766E-06-2.83783E-04
 -1      1785-1.97401E-04-7.12680E-07-3.95923E-04
 -1      1787-1.81003E-04-7.52128E-06-3.94638E-04
 -1      1788-2.28537E-04-3.05228E-07-5.22589E-04
 -1      1790-2.10625E-04-7.60224E-06-5.21405E-04
 -1      1791-2.57371E-04 4.41817E-07-6.61881E-04
 -1      1793-2.37553E-04-7.53274E-06-6.60785E-04
 -1      1794-2.83734E-04 8.59123E-07-8.13751E-04
 -1      1796-2.62462E-04-7.44116E-06-8.12769E-04
 -1      1797-3.07889E-04 1.38679E-06-9.76538E-04
 -1      1799-2.85128E-04-7.32258E-06-9.75622E-04
 -1      1800-3.29844E-04 1.76049E-06-1.14949E-03
 -1      1802-3.05841E-04-7.17790E-06-1.14869E-03
 -1      1803-3.49759E-04 2.16064E-06-1.33145E-03
 -1      1805-3.24577E-04-7.02407E-06-1.33070E-03
 -1      1806-3.67701E-04 2.48313E-06-1.52152E-03
 -1      1808-3.41512E-04-6.85977E-06-1.52088E-03
 -1      1809-3.83795E-04 2.80110E-06-1.71877E-03
 -1      1811-3.56688E-04-6.69218E-06-1.71817E-03
 -1      1812-3.98132E-04 3.07504E-06-1.92232E-03
 -1      1814-3.70240E-04-6.52504E-06-1.92182E-03
 -1      1815-4.10818E-04 3.33444E-06-2.13137E-03
 -1      1817-3.82237E-04-6.35874E-06-2.13091E-03
 -1      1818-4.21956E-04 3.56494E-06-2.34513E-03
 -1      1820-3.92793E-04-6.19900E-06-2.34475E-03
 -1      1821-4.31647E-04 3.77853E-06-2.56290E-03
 -1      1823-4.01992E-04-6.04357E-06-2.56256E-03
 -1      1824-4.39996E-04 3.97032E-06-2.78398E-03
 -1      1826-4.09939E-04-5.89789E-06-2.78371E-03
 -1      1827-4.47103E-04 4.14534E-06-3.00777E-03
 -1      1829-4.16722E-04-5.75936E-06-3.00753E-03
 -1      1830-4.53072E-04 4.30208E-06-3.23367E-03
 -1      1832-4.22444E-04-5.63211E-06-3.23348E-03
 -1      1833-4.58005E-04 4.44281E-06-3.46117E-03
 -1      1835-4.27196E-04-5.51430E-06-3.46101E-03
 -1      1836-4.62007E-04 4.56711E-06-3.68979E-03
 -1      1838-4.31078E-04-5.40827E-06-3.68968E-03
 -1      1839-4.65178E-04 4.67611E-06-3.91911E-03
 -1      1841-4.34183E-04-5.31376E-06-3.91902E-03
 -1      1842-4.67624E-04 4.76979E-06-4.14874E-03
 -1      1844-4.36610E-04-5.23060E-06-4.14868E-03
 -1      1845-4.69445E-04 4.84872E-06-4.37837E-03
 -1      1847-4.38454E-04-5.16113E-06-4.37833E-03
 -1      1848-4.70747E-04 4.91261E-06-4.60771E-03
 -1      1850-4.39810E-04-5.10219E-06-4.60770E-03
 -1      1851-4.71632E-04 4.96274E-06-4.83655E-03
 -1      1853-4.40781E-04-5.05828E-06-4.83654E-03
 -1      1854-4.72203E-04 5.00144E-06-5.06471E-03
 -1      1856-4.41447E-04-5.02148E-06-5.06472E-03
 -1      1857-4.72564E-04 4.99967E-06-5.29204E-03
 -1      1859-4.41941E-04-5.02305E-06-5.29205E-03
 -1      1860-1.93439E-05-2.94565E-07-3.45496E-05
 -1      1862-1.93439E-05 2.94565E-07-3.45496E-05
 -1      1863-4.03831E-05-2.67878E-07-9.37965E-05
 -1      1865-4.03831E-05 2.67878E-07-9.37965E-05
 -1      1866-5.99873E-05-2.28401E-07-1.71178E-04
 -1      1868-5.99873E-05 2.28401E-07-1.71178E-04
 -1      1869-7.78260E-05-2.16820E-07-2.66110E-04
 -1      1871-7.78260E-05 2.16820E-07-2.66110E-04
 -1      1872-9.42967E-05-2.02306E-07-3.76976E-04
 -1      1874-9.42967E-05 2.02306E-07-3.76976E-04
 -1      1875-1.09513E-04-1.80369E-07-5.02701E-04
 -1      1877-1.09513E-04 1.80369E-07-5.02701E-04
 -1      1878-1.23536E-04-1.72249E-07-6.41922E-04
 -1      1880-1.23536E-04 1.72249E-07-6.41922E-04
 -1      1881-1.36417E-04-1.50198E-07-7.93532E-04
 -1      1883-1.36417E-04 1.50198E-07-7.93532E-04
 -1      1884-1.48209E-04-1.42912E-07-9.56359E-04
 -1      1886-1.48209E-04 1.42912E-07-9.56359E-04
 -1      1887-1.58962E-04-1.23615E-07-1.12935E-03
 -1      1889-1.58962E-04 1.23615E-07-1.12935E-03
 -1      1890-1.68724E-04-1.15866E-07-1.31145E-03
 -1      1892-1.68724E-04 1.15866E-07-1.31145E-03
 -1      1893-1.77547E-04-9.96841E-08-1.50170E-03
 -1      1895-1.77547E-04 9.96840E-08-1.50170E-03
 -1      1896-1.85477E-04-9.16011E-08-1.69915E-03
 -1      1898-1.85477E-04 9.16010E-08-1.69915E-03
 -1      1899-1.92567E-04-7.81692E-08-1.90294E-03
 -1      1901-1.92567E-04 7.81691E-08-1.90294E-03
 -1      1902-1.98862E-04-7.01886E-08-2.11223E-03
 -1      1904-1.98862E-04 7.01884E-08-2.11223E-03
 -1      1905-2.04414E-04-5.90646E-08-2.32625E-03
 -1      1907-2.04414E-04 5.90645E-08-2.32625E-03
 -1      1908-2.09270E-04-5.15845E-08-2.54426E-03
 -1      1910-2.09270E-04 5.15843E-08-2.54426E-03
 -1      1911-2.13481E-04-4.24182E-08-2.76558E-03
 -1      1913-2.13481E-04 4.24180E-08-2.76558E-03
 -1      1914-2.17094E-04-3.57288E-08-2.98959E-03
 -1      1916-2.17094E-04 3.57286E-08-2.98959E-03
 -1      1917-2.20159E-04-2.82769E-08-3.21571E-03
 -1      1919-2.20159E-04 2.82767E-08-3.21571E-03
 -1      1920-2.22726E-04-2.25726E-08-3.44341E-03
 -1      1922-2.22726E-04 2.25724E-08-3.44341E-03
 -1      1923-2.24843E-04-1.66751E-08-3.67222E-03
 -1      1925-2.24843E-04 1.66748E-08-3.67222E-03
 -1      1926-2.26559E-04-1.20821E-08-3.90170E-03
 -1      1928-2.26559E-04 1.20818E-08-3.90170E-03
 -1      1929-2.27924E-04-7.63326E-09-4.13148E-03
 -1      1931-2.27924E-04 7.63297E-09-4.13148E-03
 -1      1932-2.28989E-04-4.23834E-09-4.36123E-03
 -1      1934-2.28989E-04 4.23803E-09-4.36123E-03
 -1      1935-2.29802E-04-1.16067E-09-4.59067E-03
 -1      1937-2.29802E-04 1.16034E-09-4.59067E-03
 -1      1938-2.30413E-04 9.69151E-10-4.81959E-03
 -1      1940-2.30413E-04-9.69496E-10-4.81959E-03
 -1      1941-2.30879E-04 2.72543E-09-5.04780E-03
 -1      1943-2.30879E-04-2.72579E-09-5.04780E-03
 -1      1944-2.31254E-04 3.20467E-09-5.27517E-03
 -1      1946-2.31254E-04-3.20505E-09-5.27517E-03
 -1      1947-2.70253E-08-3.99251E-10-3.23637E-05
 -1      1949-2.70253E-08 3.99250E-10-3.23637E-05
 -1      1950-5.72005E-08-3.66695E-10-9.04054E-05
 -1      1952-5.72005E-08 3.66692E-10-9.04054E-05
 -1      1953-9.43148E-08-3.95452E-10-1.68298E-04
 -1      1955-9.43148E-08 3.95445E-10-1.68298E-04
 -1      1956-1.43533E-07-2.34506E-10-2.63453E-04
 -1      1958-1.43533E-07 2.34494E-10-2.63453E-04
 -1      1959-2.07666E-07-3.27678E-10-3.74585E-04
 -1      1961-2.07666E-07 3.27660E-10-3.74585E-04
 -1      1962-2.88274E-07-2.11811E-10-5.00479E-04
 -1      1964-2.88274E-07 2.11786E-10-5.00479E-04
 -1      1965-3.85808E-07-2.39512E-10-6.39910E-04
 -1      1967-3.85808E-07 2.39478E-10-6.39910E-04
 -1      1968-5.00320E-07-1.86741E-10-7.91695E-04
 -1      1970-5.00320E-07 1.86698E-10-7.91695E-04
 -1      1971-6.31653E-07-1.81029E-10-9.54704E-04
 -1      1973-6.31653E-07 1.80977E-10-9.54704E-04
 -1      1974-7.79286E-07-1.61593E-10-1.12786E-03
 -1      1976-7.79286E-07 1.61529E-10-1.12786E-03
 -1      1977-9.42545E-07-1.44256E-10-1.31012E-03
 -1      1979-9.42545E-07 1.44179E-10-1.31012E-03
 -1      1980-1.12050E-06-1.40960E-10-1.50052E-03
 -1      1982-1.12050E-06 1.40870E-10-1.50052E-03
 -1      1983-1.31212E-06-1.22457E-10-1.69813E-03
 -1      1985-1.31212E-06 1.22354E-10-1.69813E-03
 -1      1986-1.51623E-06-1.26649E-10-1.90205E-03
 -1      1988-1.51623E-06 1.26531E-10-1.90205E-03
 -1      1989-1.73160E-06-1.11422E-10-2.11147E-03
 -1      1991-1.73160E-06 1.11289E-10-2.11147E-03
 -1      1992-1.95693E-06-1.18812E-10-2.32561E-03
 -1      1994-1.95693E-06 1.18664E-10-2.32561E-03
 -1      1995-2.19094E-06-1.08244E-10-2.54372E-03
 -1      1997-2.19094E-06 1.08079E-10-2.54372E-03
 -1      1998-2.43234E-06-1.16707E-10-2.76515E-03
 -1      2000-2.43234E-06 1.16525E-10-2.76515E-03
 -1      2001-2.67990E-06-1.10671E-10-2.98926E-03
 -1      2003-2.67990E-06 1.10472E-10-2.98926E-03
 -1      2004-2.93240E-06-1.19173E-10-3.21546E-03
 -1      2006-2.93240E-06 1.18956E-10-3.21546E-03
 -1      2007-3.18875E-06-1.16861E-10-3.44324E-03
 -1      2009-3.18875E-06 1.16626E-10-3.44324E-03
 -1      2010-3.44787E-06-1.24931E-10-3.67211E-03
 -1      2012-3.44787E-06 1.24678E-10-3.67211E-03
 -1      2013-3.70885E-06-1.25303E-10-3.90165E-03
 -1      2015-3.70885E-06 1.25032E-10-3.90165E-03
 -1      2016-3.97081E-06-1.32773E-10-4.13148E-03
 -1      2018-3.97081E-06 1.32483E-10-4.13148E-03
 -1      2019-4.23303E-06-1.34742E-10-4.36127E-03
 -1      2021-4.23303E-06 1.34433E-10-4.36127E-03
 -1      2022-4.49487E-06-1.41740E-10-4.59075E-03
 -1      2024-4.49487E-06 1.41412E-10-4.59075E-03
 -1      2025-4.75580E-06-1.43860E-10-4.81970E-03
 -1      2027-4.75580E-06 1.43513E-10-4.81970E-03
 -1      2028-5.01541E-06-1.50612E-10-5.04792E-03
 -1      2030-5.01541E-06 1.50247E-10-5.04792E-03
 -1      2031-5.27343E-06-1.53609E-10-5.27530E-03
 -1      2033-5.27343E-06 1.53225E-10-5.27530E-03
 -1      2034 1.92882E-05 2.93369E-07-3.45747E-05
 -1      2036 1.92882E-05-2.93369E-07-3.45747E-05
 -1      2037 4.02678E-05 2.66694E-07-9.38467E-05
 -1      2039 4.02678E-05-2.66694E-07-9.38467E-05
 -1      2040 5.97959E-05 2.27441E-07-1.71250E-04
 -1      2042 5.97959E-05-2.27441E-07-1.71250E-04
 -1      2043 7.75348E-05 2.15753E-07-2.66205E-04
 -1      2045 7.75348E-05-2.15753E-07-2.66205E-04
 -1      2046 9.38761E-05 2.01696E-07-3.77095E-04
 -1      2048 9.38761E-05-2.01696E-07-3.77095E-04
 -1      2049 1.08930E-04 1.79743E-07-5.02846E-04
 -1      2051 1.08930E-04-1.79743E-07-5.02846E-04
 -1      2052 1.22758E-04 1.71924E-07-6.42096E-04
 -1      2054 1.22758E-04-1.71924E-07-6.42096E-04
 -1      2055 1.35410E-04 1.49925E-07-7.93736E-04
 -1      2057 1.35410E-04-1.49925E-07-7.93736E-04
 -1      2058 1.46939E-04 1.42818E-07-9.56593E-04
 -1      2060 1.46939E-04-1.42819E-07-9.56593E-04
 -1      2061 1.57398E-04 1.23596E-07-1.12961E-03
 -1      2063 1.57398E-04-1.23596E-07-1.12961E-03
 -1      2064 1.66833E-04 1.15946E-07-1.31174E-03
 -1      2066 1.66833E-04-1.15946E-07-1.31174E-03
 -1      2067 1.75301E-04 9.98390E-08-1.50202E-03
 -1      2069 1.75301E-04-9.98391E-08-1.50202E-03
 -1      2070 1.82848E-04 9.18037E-08-1.69950E-03
 -1      2072 1.82848E-04-9.18038E-08-1.69950E-03
 -1      2073 1.89530E-04 7.84373E-08-1.90332E-03
 -1      2075 1.89530E-04-7.84374E-08-1.90332E-03
 -1      2076 1.95395E-04 7.04723E-08-2.11263E-03
 -1      2078 1.95395E-04-7.04725E-08-2.11263E-03
 -1      2079 2.00497E-04 5.94010E-08-2.32666E-03
 -1      2081 2.00497E-04-5.94011E-08-2.32666E-03
 -1      2082 2.04885E-04 5.19166E-08-2.54469E-03
 -1      2084 2.04885E-04-5.19167E-08-2.54469E-03
 -1      2085 2.08613E-04 4.27901E-08-2.76603E-03
 -1      2087 2.08613E-04-4.27903E-08-2.76603E-03
 -1      2088 2.11732E-04 3.60845E-08-2.99006E-03
 -1      2090 2.11732E-04-3.60847E-08-2.99006E-03
 -1      2091 2.14292E-04 2.86616E-08-3.21619E-03
 -1      2093 2.14292E-04-2.86618E-08-3.21619E-03
 -1      2094 2.16346E-04 2.29341E-08-3.44390E-03
 -1      2096 2.16346E-04-2.29344E-08-3.44390E-03
 -1      2097 2.17945E-04 1.70573E-08-3.67271E-03
 -1      2099 2.17945E-04-1.70575E-08-3.67271E-03
 -1      2100 2.19140E-04 1.24377E-08-3.90220E-03
 -1      2102 2.19140E-04-1.24380E-08-3.90220E-03
 -1      2103 2.19982E-04 8.00396E-09-4.13198E-03
 -1      2105 2.19982E-04-8.00425E-09-4.13198E-03
 -1      2106 2.20522E-04 4.58102E-09-4.36173E-03
 -1      2108 2.20522E-04-4.58132E-09-4.36173E-03
 -1      2109 2.20811E-04 1.51553E-09-4.59118E-03
 -1      2111 2.20811E-04-1.51585E-09-4.59118E-03
 -1      2112 2.20901E-04-6.43293E-10-4.82010E-03
 -1      2114 2.20901E-04 6.42948E-10-4.82010E-03
 -1      2115 2.20847E-04-2.38704E-09-5.04831E-03
 -1      2117 2.20847E-04 2.38668E-09-5.04831E-03
 -1      2118 2.20706E-04-2.89141E-09-5.27568E-03
 -1      2120 2.20706E-04 2.89103E-09-5.27568E-03
 -1      2121 4.64693E-05 6.78570E-06-4.28245E-05
 -1      2123 3.51741E-05 6.60237E-06-4.11665E-05
 -1      2124 8.74733E-05 3.89304E-06-1.12546E-04
 -1      2126 7.97862E-05 7.83324E-06-1.10984E-04
 -1      2127 1.26977E-04 1.92349E-06-1.88005E-04
 -1      2129 1.14066E-04 6.98030E-06-1.86462E-04
 -1      2130 1.63077E-04 1.76782E-06-2.85969E-04
 -1      2132 1.49405E-04 7.88325E-06-2.84553E-04
 -1      2133 1.96940E-04 5.42171E-07-3.96747E-04
 -1      2135 1.80541E-04 7.69837E-06-3.95441E-04
 -1      2136 2.27898E-04 1.40025E-07-5.23467E-04
 -1      2138 2.09999E-04 7.77598E-06-5.22255E-04
 -1      2139 2.56532E-04-5.97184E-07-6.62780E-04
 -1      2141 2.36724E-04 7.69778E-06-6.61652E-04
 -1      2142 2.82658E-04-1.00110E-06-8.14675E-04
 -1      2144 2.61399E-04 7.59405E-06-8.13655E-04
 -1      2145 3.06547E-04-1.51490E-06-9.77476E-04
 -1      2147 2.83798E-04 7.46246E-06-9.76518E-04
 -1      2148 3.28202E-04-1.87332E-06-1.15045E-03
 -1      2150 3.04213E-04 7.30323E-06-1.14959E-03
 -1      2151 3.47788E-04-2.25910E-06-1.33241E-03
 -1      2153 3.22619E-04 7.13558E-06-1.33161E-03
 -1      2154 3.65373E-04-2.56729E-06-1.52250E-03
 -1      2156 3.39196E-04 6.95740E-06-1.52180E-03
 -1      2157 3.81083E-04-2.87235E-06-1.71975E-03
 -1      2159 3.53987E-04 6.77719E-06-1.71910E-03
 -1      2160 3.95010E-04-3.13420E-06-1.92332E-03
 -1      2162 3.67129E-04 6.59819E-06-1.92275E-03
 -1      2163 4.07266E-04-3.38300E-06-2.13238E-03
 -1      2165 3.78693E-04 6.42141E-06-2.13186E-03
 -1      2166 4.17953E-04-3.60400E-06-2.34616E-03
 -1      2168 3.88798E-04 6.25225E-06-2.34570E-03
 -1      2169 4.27177E-04-3.80947E-06-2.56393E-03
 -1      2171 3.97528E-04 6.08872E-06-2.56352E-03
 -1      2172 4.35044E-04-3.99425E-06-2.78502E-03
 -1      2174 4.04992E-04 5.93600E-06-2.78467E-03
 -1      2175 4.41656E-04-4.16343E-06-3.00881E-03
 -1      2177 4.11280E-04 5.79155E-06-3.00850E-03
 -1      2178 4.47121E-04-4.31527E-06-3.23472E-03
 -1      2180 4.16497E-04 5.65932E-06-3.23446E-03
 -1      2181 4.51543E-04-4.45205E-06-3.46223E-03
 -1      2183 4.20737E-04 5.53745E-06-3.46200E-03
 -1      2184 4.55027E-04-4.57315E-06-3.69085E-03
 -1      2186 4.24101E-04 5.42809E-06-3.69067E-03
 -1      2187 4.57677E-04-4.67966E-06-3.92018E-03
 -1      2189 4.26684E-04 5.33094E-06-3.92001E-03
 -1      2190 4.59600E-04-4.77141E-06-4.14981E-03
 -1      2192 4.28588E-04 5.24568E-06-4.14968E-03
 -1      2193 4.60897E-04-4.84889E-06-4.37944E-03
 -1      2195 4.29907E-04 5.17460E-06-4.37933E-03
 -1      2196 4.61677E-04-4.91171E-06-4.60879E-03
 -1      2198 4.30741E-04 5.11444E-06-4.60870E-03
 -1      2199 4.62041E-04-4.96113E-06-4.83762E-03
 -1      2201 4.31190E-04 5.06962E-06-4.83754E-03
 -1      2202 4.62092E-04-4.99939E-06-5.06578E-03
 -1      2204 4.31337E-04 5.03217E-06-5.06572E-03
 -1      2205 4.61938E-04-4.99730E-06-5.29311E-03
 -1      2207 4.31315E-04 5.03347E-06-5.29304E-03
 -1      2208 4.64693E-05-6.78570E-06-4.28245E-05
 -1      2210 3.51741E-05-6.60237E-06-4.11665E-05
 -1      2211 8.74733E-05-3.89304E-06-1.12546E-04
 -1      2213 7.97862E-05-7.83324E-06-1.10984E-04
 -1      2214 1.26977E-04-1.92349E-06-1.88005E-04
 -1      2216 1.14066E-04-6.98030E-06-1.86462E-04
 -1      2217 1.63077E-04-1.76782E-06-2.85969E-04
 -1      2219 1.49405E-04-7.88325E-06-2.84553E-04
 -1      2220 1.96940E-04-5.42171E-07-3.96747E-04
 -1      2222 1.80541E-04-7.69837E-06-3.95441E-04
 -1      2223 2.27898E-04-1.40025E-07-5.23467E-04
 -1      2225 2.09999E-04-7.77598E-06-5.22255E-04
 -1      2226 2.56532E-04 5.97184E-07-6.62780E-04
 -1      2228 2.36724E-04-7.69778E-06-6.61652E-04
 -1      2229 2.82658E-04 1.00110E-06-8.14675E-04
 -1      2231 2.61399E-04-7.59405E-06-8.13655E-04
 -1      2232 3.06547E-04 1.51490E-06-9.77476E-04
 -1      2234 2.83798E-04-7.46246E-06-9.76518E-04
 -1      2235 3.28202E-04 1.87332E-06-1.15045E-03
 -1      2237 3.04213E-04-7.30323E-06-1.14959E-03
 -1      2238 3.47788E-04 2.25910E-06-1.33241E-03
 -1      2240 3.22619E-04-7.13558E-06-1.33161E-03
 -1      2241 3.65373E-04 2.56729E-06-1.52250E-03
 -1      2243 3.39196E-04-6.95740E-06-1.52180E-03
 -1      2244 3.81083E-04 2.87235E-06-1.71975E-03
 -1      2246 3.53987E-04-6.77719E-06-1.71910E-03
 -1      2247 3.95010E-04 3.13420E-06-1.92332E-03
 -1      2249 3.67129E-04-6.59819E-06-1.92275E-03
 -1      2250 4.07266E-04 3.38300E-06-2.13238E-03
 -1      2252 3.78693E-04-6.42141E-06-2.13186E-03
 -1      2253 4.17953E-04 3.60400E-06-2.34616E-03
 -1      2255 3.88798E-04-6.25225E-06-2.34570E-03
 -1      2256 4.27177E-04 3.80947E-06-2.56393E-03
 -1      2258 3.97528E-04-6.08872E-06-2.56352E-03
 -1      2259 4.35044E-04 3.99425E-06-2.78502E-03
 -1      2261 4.04992E-04-5.93600E-06-2.78467E-03
 -1      2262 4.41656E-04 4.16343E-06-3.00881E-03
 -1      2264 4.11280E-04-5.79155E-06-3.00850E-03
 -1      2265 4.47121E-04 4.31527E-06-3.23472E-03
 -1      2267 4.16497E-04-5.65932E-06-3.23446E-03
 -1      2268 4.51543E-04 4.45205E-06-3.46223E-03
 -1      2270 4.20737E-04-5.53745E-06-3.46200E-03
 -1      2271 4.55027E-04 4.57315E-06-3.69085E-03
 -1      2273 4.24101E-04-5.42809E-06-3.69067E-03
 -1      2274 4.57677E-04 4.67966E-06-3.92018E-03
 -1      2276 4.26684E-04-5.33094E-06-3.92001E-03
 -1      2277 4.59600E-04 4.77141E-06-4.14981E-03
 -1      2279 4.28588E-04-5.24568E-06-4.14968E-03
 -1      2280 4.60897E-04 4.84889E-06-4.37944E-03
 -1      2282 4.29907E-04-5.17460E-06-4.37933E-03
 -1      2283 4.61677E-04 4.91171E-06-4.60879E-03
 -1      2285 4.30741E-04-5.11444E-06-4.60870E-03
 -1      2286 4.62041E-04 4.96113E-06-4.83762E-03
 -1      2288 4.31190E-04-5.06962E-06-4.83754E-03
 -1      2289 4.62092E-04 4.99939E-06-5.06578E-03
 -1      2291 4.31337E-04-5.03217E-06-5.06572E-03
 -1      2292 4.61938E-04 4.99730E-06-5.29311E-03
 -1      2294 4.31315E-04-5.03347E-06-5.29304E-03
 -3
    1PSTEP                         2           1           1          
  100CL  101 50.00000000         930                     0    1           1
 -4  STRESS      6    1
 -5  SXX         1    4    1    1
 -5  SYY         1    4    2    2
 -5  SZZ         1    4    3    3
 -5  SXY         1    4    1    2
 -5  SYZ         1    4    2    3
 -5  SZX         1    4    3    1
 -1       404-9.10391E+07-8.76177E+06-4.88234E+04 6.33875E+06-1.52567E+05-6.71728E+05
 -1       406-9.10391E+07-8.76177E+06-4.88234E+04 6.33875E+06-1.52567E+05-6.71728E+05
 -1       407-8.45627E+04-1.61263E+04 2.37147E+03 3.86058E+04-6.89860E+04 2.90470E+03
 -1       409-8.45627E+04-1.61263E+04 2.37147E+03 3.86058E+04-6.89860E+04 2.90470E+03
 -1       410-9.08471E+04-8.23293E+04-5.08975E+03 3.39787E-07 1.42900E-08 3.63946E+03
 -1       412-9.08471E+04-8.23293E+04-5.08975E+03 3.39787E-07 1.42900E-08 3.63946E+03
 -1       413 9.08285E+04 9.47187E+03 6.74617E+05-5.26122E-08 1.01424E-05-3.72154E+05
 -1       415 9.08285E+04 9.47187E+03 6.74617E+05-5.26122E-08 1.01424E-05-3.72154E+05
 -1       424-9.23167E+07-1.20767E+07 2.83163E+04 6.94301E-07-4.85161E-07-1.47228E+06
 -1       426-9.23167E+07-1.20767E+07 2.83163E+04 6.94301E-07-4.85161E-07-1.47228E+06
 -1       427-6.98501E+07-1.34327E+05-1.22068E+07 4.36977E-06-6.21342E-07-2.14225E+07
 -1       429-6.98501E+07-1.34327E+05-1.22068E+07 4.36977E-06-6.21342E-07-2.14225E+07
 -1       438-8.45627E+04-1.61263E+04 2.37147E+03-3.86058E+04 6.89860E+04 2.90470E+03
 -1       440-8.45627E+04-1.61263E+04 2.37147E+03-3.86058E+04 6.89860E+04 2.90470E+03
 -1       441-9.10391E+07-8.76177E+06-4.88234E+04-6.33875E+06 1.52567E+05-6.71728E+05
 -1       443-9.10391E+07-8.76177E+06-4.88234E+04-6.33875E+06 1.52567E+05-6.71728E+05
 -1       444 6.98331E+07 1.34566E+05 1.21861E+07 3.30122E-06 8.10285E-07-2.14992E+07
 -1       446 6.98331E+07 1.34566E+05 1.21861E+07 3.30122E-06 8.10285E-07-2.14992E+07
 -1       447 9.24084E+07 1.20737E+07-2.74585E+04-7.53719E-06 3.38827E-07-1.55144E+06
 -1       449 9.24084E+07 1.20737E+07-2.74585E+04-7.53719E-06 3.38827E-07-1.55144E+06
 -1       458-9.36272E+04-9.28360E+03-6.71518E+05-3.59082E-07 5.30560E-06-3.74967E+05
 -1       460-9.36272E+04-9.28360E+03-6.71518E+05-3.59082E-07 5.30560E-06-3.74967E+05
 -1       461 9.14240E+04 8.23502E+04 4.84907E+03-1.65819E-08 9.30711E-07 3.33647E+03
 -1       463 9.14240E+04 8.23502E+04 4.84907E+03-1.65819E-08 9.30711E-07 3.33647E+03
 -1       472 9.11281E+07 8.75860E+06 4.90124E+04 6.35431E+06 1.45918E+05-7.81098E+05
 -1       474 9.11281E+07 8.75860E+06 4.90124E+04 6.35431E+06 1.45918E+05-7.81098E+05
 -1       475 8.55793E+04 1.60630E+04-1.97904E+03 3.90601E+04 6.89334E+04 2.56967E+03
 -1       477 8.55793E+04 1.60630E+04-1.97904E+03 3.90601E+04 6.89334E+04 2.56967E+03
 -1       478 8.55793E+04 1.60630E+04-1.97904E+03-3.90601E+04-6.89334E+04 2.56967E+03
 -1       480 8.55793E+04 1.60630E+04-1.97904E+03-3.90601E+04-6.89334E+04 2.56967E+03
 -1       481 9.11281E+07 8.75860E+06 4.90124E+04-6.35431E+06-1.45918E+05-7.81098E+05
 -1       483 9.11281E+07 8.75860E+06 4.90124E+04-6.35431E+06-1.45918E+05-7.81098E+05
 -1       484-8.71036E+07-2.52097E+06 3.11248E+04 2.22143E+06-7.44018E+04-2.24743E+05
 -1       486-8.71036E+07-2.52097E+06 3.11248E+04 2.22143E+06-7.44018E+04-2.24743E+05
 -1       487-8.18601E+07 1.19455E+06-7.66832E+03 1.40581E+05 1.12442E+04 1.54122E+05
 -1       489-8.18601E+07 1.19455E+06-7.66832E+03 1.40581E+05 1.12442E+04 1.54122E+05
 -1       490-7.73401E+07-3.84303E+05-1.82990E+03 1.63087E+06-1.12484E+04 1.97393E+04
 -1       492-7.73401E+07-3.84303E+05-1.82990E+03 1.63087E+06-1.12484E+04 1.97393E+04
 -1       493-7.14289E+07 1.15153E+05 9.46997E+03 1.16082E+06-2.12618E+04 5.99301E+04
 -1       495-7.14289E+07 1.15153E+05 9.46997E+03 1.16082E+06-2.12618E+04 5.99301E+04
 -1       496-6.61128E+07-6.79398E+04-5.92355E+03 1.19203E+06-2.67727E+04 7.60893E+04
 -1       498-6.61128E+07-6.79398E+04-5.92355E+03 1.19203E+06-2.67727E+04 7.60893E+04
 -1       499-6.09609E+07 2.64967E+04 8.57122E+03 1.13864E+06-3.98873E+04 6.00760E+04
 -1       501-6.09609E+07 2.64967E+04 8.57122E+03 1.13864E+06-3.98873E+04 6.00760E+04
 -1       502-5.59953E+07-3.30768E+04-3.94142E+03 1.09504E+06-4.26447E+04 8.15275E+04
 -1       504-5.59953E+07-3.30768E+04-3.94142E+03 1.09504E+06-4.26447E+04 8.15275E+04
 -1       505-5.12478E+07 4.63449E+03 6.61545E+03 1.04368E+06-5.10394E+04 6.61302E+04
 -1       507-5.12478E+07 4.63449E+03 6.61545E+03 1.04368E+06-5.10394E+04 6.61302E+04
 -1       508-4.67110E+07-1.90376E+04-2.32649E+03 9.98991E+05-5.31258E+04 7.65161E+04
 -1       510-4.67110E+07-1.90376E+04-2.32649E+03 9.98991E+05-5.31258E+04 7.65161E+04
 -1       511-4.23834E+07-4.14359E+03 5.21500E+03 9.49702E+05-5.81421E+04 6.58661E+04
 -1       513-4.23834E+07-4.14359E+03 5.21500E+03 9.49702E+05-5.81421E+04 6.58661E+04
 -1       514-3.82683E+07-1.37128E+04-1.19990E+03 9.03196E+05-5.96636E+04 6.82885E+04
 -1       516-3.82683E+07-1.37128E+04-1.19990E+03 9.03196E+05-5.96636E+04 6.82885E+04
 -1       517-3.43630E+07-7.43087E+03 4.23261E+03 8.55028E+05-6.26880E+04 6.02952E+04
 -1       519-3.43630E+07-7.43087E+03 4.23261E+03 8.55028E+05-6.26880E+04 6.02952E+04
 -1       520-3.06696E+07-1.16872E+04-4.04564E+02 8.07876E+05-6.37088E+04 5.84052E+04
 -1       522-3.06696E+07-1.16872E+04-4.04564E+02 8.07876E+05-6.37088E+04 5.84052E+04
 -1       523-2.71865E+07-8.72909E+03 3.54007E+03 7.60092E+05-6.55572E+04 5.16578E+04
 -1       525-2.71865E+07-8.72909E+03 3.54007E+03 7.60092E+05-6.55572E+04 5.16578E+04
 -1       526-2.39149E+07-1.08600E+04 1.63842E+02 7.12717E+05-6.61966E+04 4.77394E+04
 -1       528-2.39149E+07-1.08600E+04 1.63842E+02 7.12717E+05-6.61966E+04 4.77394E+04
 -1       529-2.08541E+07-9.28609E+03 3.05017E+03 6.65077E+05-6.73270E+04 4.17049E+04
 -1       531-2.08541E+07-9.28609E+03 3.05017E+03 6.65077E+05-6.73270E+04 4.17049E+04
 -1       532-1.80046E+07-1.04862E+04 5.73413E+02 6.17621E+05-6.77015E+04 3.70700E+04
 -1       534-1.80046E+07-1.04862E+04 5.73413E+02 6.17621E+05-6.77015E+04 3.70700E+04
 -1       535-1.53659E+07-9.55579E+03 2.70285E+03 5.70038E+05-6.83802E+04 3.16640E+04
 -1       537-1.53659E+07-9.55579E+03 2.70285E+03 5.70038E+05-6.83802E+04 3.16640E+04
 -1       538-1.29385E+07-1.02880E+04 8.69476E+02 5.22555E+05-6.85787E+04 2.70681E+04
 -1       540-1.29385E+07-1.02880E+04 8.69476E+02 5.22555E+05-6.85787E+04 2.70681E+04
 -1       541-1.07221E+07-9.71614E+03 2.45649E+03 4.74994E+05-6.89688E+04 2.23751E+04
 -1       543-1.07221E+07-9.71614E+03 2.45649E+03 4.74994E+05-6.89688E+04 2.23751E+04
 -1       544-8.71694E+06-1.01472E+04 1.08260E+03 4.27507E+05-6.90514E+04 1.82574E+04
 -1       546-8.71694E+06-1.01472E+04 1.08260E+03 4.27507E+05-6.90514E+04 1.82574E+04
 -1       547-6.92280E+06-9.85913E+03 2.28284E+03 3.79946E+05-6.92579E+04 1.43962E+04
 -1       549-6.92280E+06-9.85913E+03 2.28284E+03 3.79946E+05-6.92579E+04 1.43962E+04
 -1       550-5.33984E+06-9.97496E+03 1.23258E+03 3.32488E+05-6.92599E+04 1.10087E+04
 -1       552-5.33984E+06-9.97496E+03 1.23258E+03 3.32488E+05-6.92599E+04 1.10087E+04
 -1       553-3.96805E+06-1.00976E+04 2.16466E+03 2.84878E+05-6.93571E+04 8.07134E+03
 -1       555-3.96805E+06-1.00976E+04 2.16466E+03 2.84878E+05-6.93571E+04 8.07134E+03
 -1       556-2.80726E+06-9.63690E+03 1.33106E+03 2.37460E+05-6.92905E+04 5.56955E+03
 -1       558-2.80726E+06-9.63690E+03 1.33106E+03 2.37460E+05-6.92905E+04 5.56955E+03
 -1       559-1.85690E+06-1.02748E+04 2.08600E+03 1.90521E+05-6.93409E+04 3.54530E+03
 -1       561-1.85690E+06-1.02748E+04 2.08600E+03 1.90521E+05-6.93409E+04 3.54530E+03
 -1       562-1.12005E+06-1.05571E+04 1.40810E+03 1.40306E+05-6.91956E+04 2.17755E+03
 -1       564-1.12005E+06-1.05571E+04 1.40810E+03 1.40306E+05-6.91956E+04 2.17755E+03
 -1       565-5.86046E+05-5.82348E+03 2.00133E+03 1.01143E+05-6.92527E+04 6.03802E+02
 -1       567-5.86046E+05-5.82348E+03 2.00133E+03 1.01143E+05-6.92527E+04 6.03802E+02
 -1       568-2.25525E+05-1.03479E+04 1.33431E+03 6.37295E+04-6.91527E+04 1.31248E+03
 -1       570-2.25525E+05-1.03479E+04 1.33431E+03 6.37295E+04-6.91527E+04 1.31248E+03
 -1       571-8.77049E+04-4.92278E+04-1.35914E+03 7.84049E+04-1.38872E+05 3.27208E+03
 -1       573-8.77049E+04-4.92278E+04-1.35914E+03 7.84049E+04-1.38872E+05 3.27208E+03
 -1       574-8.99481E+07-4.53596E+06-1.38329E+04-1.44974E-05-2.48710E-07-1.85573E+05
 -1       576-8.99481E+07-4.53596E+06-1.38329E+04-1.44974E-05-2.48710E-07-1.85573E+05
 -1       577-6.76710E+07-1.10833E+04-5.99957E+06 8.90055E-07-2.86473E-07-2.10872E+07
 -1       579-6.76710E+07-1.10833E+04-5.99957E+06 8.90055E-07-2.86473E-07-2.10872E+07
 -1       588-8.31569E+07 1.72989E+06 7.94732E+03-2.08126E-05 2.08820E-08 2.65929E+05
 -1       590-8.31569E+07 1.72989E+06 7.94732E+03-2.08126E-05 2.08820E-08 2.65929E+05
 -1       591-6.29281E+07-1.49630E+04 7.46297E+05 5.34591E-07 1.25427E-07-1.92412E+07
 -1       593-6.29281E+07-1.49630E+04 7.46297E+05 5.34591E-07 1.25427E-07-1.92412E+07
 -1       602-7.65882E+07-1.35000E+05-4.53353E+03-1.66278E-05-6.63686E-08-3.81786E+04
 -1       604-7.65882E+07-1.35000E+05-4.53353E+03-1.66278E-05-6.63686E-08-3.81786E+04
 -1       605-5.77645E+07-2.40762E+04 9.37964E+05 1.72702E-06-2.95669E-07-1.81443E+07
 -1       607-5.77645E+07-2.40762E+04 9.37964E+05 1.72702E-06-2.95669E-07-1.81443E+07
 -1       616-7.14924E+07-2.07466E+05-1.32420E+04-1.95877E-05-5.49480E-08 1.54078E+05
 -1       618-7.14924E+07-2.07466E+05-1.32420E+04-1.95877E-05-5.49480E-08 1.54078E+05
 -1       619-5.33473E+07 5.45688E+03 6.87653E+05 1.38934E-06-4.83435E-07-1.79374E+07
 -1       621-5.33473E+07 5.45688E+03 6.87653E+05 1.38934E-06-4.83435E-07-1.79374E+07
 -1       630-6.59818E+07 4.99203E+04 2.97533E+03-1.83993E-05 2.70447E-08 3.82270E+04
 -1       632-6.59818E+07 4.99203E+04 2.97533E+03-1.83993E-05 2.70447E-08 3.82270E+04
 -1       633-4.94049E+07-2.33390E+04 7.24491E+05 2.16701E-06 1.89023E-08-1.71426E+07
 -1       635-4.94049E+07-2.33390E+04 7.24491E+05 2.16701E-06 1.89023E-08-1.71426E+07
 -1       644-6.08502E+07-9.35158E+04-1.17419E+04-1.89615E-05 1.02496E-07 1.14003E+05
 -1       646-6.08502E+07-9.35158E+04-1.17419E+04-1.89615E-05 1.02496E-07 1.14003E+05
 -1       647-4.54409E+07 1.38991E+03 6.96470E+05 2.00806E-06-3.24516E-07-1.65284E+07
 -1       649-4.54409E+07 1.38991E+03 6.96470E+05 2.00806E-06-3.24516E-07-1.65284E+07
 -1       658-5.58769E+07-3.57391E+04-6.29606E+02-1.90686E-05 1.28930E-08 6.42373E+04
 -1       660-5.58769E+07-3.57391E+04-6.29606E+02-1.90686E-05 1.28930E-08 6.42373E+04
 -1       661-4.17518E+07-1.23400E+04 7.14060E+05 2.00782E-06 1.99043E-07-1.58019E+07
 -1       663-4.17518E+07-1.23400E+04 7.14060E+05 2.00782E-06 1.99043E-07-1.58019E+07
 -1       672-5.11370E+07-6.10548E+04-8.46004E+03-1.92393E-05 3.87008E-08 9.45094E+04
 -1       674-5.11370E+07-6.10548E+04-8.46004E+03-1.92393E-05 3.87008E-08 9.45094E+04
 -1       675-3.81754E+07-1.86795E+03 7.12244E+05 1.65924E-06 2.09653E-06-1.51342E+07
 -1       677-3.81754E+07-1.86795E+03 7.12244E+05 1.65924E-06 2.09653E-06-1.51342E+07
 -1       686-4.65943E+07-4.80054E+04-2.86592E+03-1.94458E-05 5.57266E-08 6.99530E+04
 -1       688-4.65943E+07-4.80054E+04-2.86592E+03-1.94458E-05 5.57266E-08 6.99530E+04
 -1       689-3.47778E+07-5.94233E+03 7.19835E+05 1.68913E-06 1.93926E-06-1.44324E+07
 -1       691-3.47778E+07-5.94233E+03 7.19835E+05 1.68913E-06 1.93926E-06-1.44324E+07
 -1       700-4.22713E+07-5.56819E+04-6.76745E+03-1.94923E-05 1.18671E-08 8.05544E+04
 -1       702-4.22713E+07-5.56819E+04-6.76745E+03-1.94923E-05 1.18671E-08 8.05544E+04
 -1       703-3.15281E+07-1.66644E+03 7.20893E+05 1.51351E-06 5.57922E-07-1.37524E+07
 -1       705-3.15281E+07-1.66644E+03 7.20893E+05 1.51351E-06 5.57922E-07-1.37524E+07
 -1       714-3.81537E+07-5.09616E+04-3.89975E+03-1.95475E-05 7.31161E-08 6.63389E+04
 -1       716-3.81537E+07-5.09616E+04-3.89975E+03-1.95475E-05 7.31161E-08 6.63389E+04
 -1       717-2.84420E+07-2.23544E+03 7.24390E+05 1.41054E-06 2.38671E-07-1.30599E+07
 -1       719-2.84420E+07-2.23544E+03 7.24390E+05 1.41054E-06 2.38671E-07-1.30599E+07
 -1       728-3.42507E+07-5.39190E+04-5.88139E+03-1.98168E-05-1.30232E-07 6.79187E+04
 -1       730-3.42507E+07-5.39190E+04-5.88139E+03-1.98168E-05-1.30232E-07 6.79187E+04
 -1       731-2.55107E+07-2.12221E+02 7.24900E+05 2.05412E-06 6.73335E-07-1.23763E+07
 -1       733-2.55107E+07-2.12221E+02 7.24900E+05 2.05412E-06 6.73335E-07-1.23763E+07
 -1       742-3.05564E+07-5.20390E+04-4.37932E+03-1.98113E-05-2.25918E-08 5.81632E+04
 -1       744-3.05564E+07-5.20390E+04-4.37932E+03-1.98113E-05-2.25918E-08 5.81632E+04
 -1       745-2.27394E+07 3.40514E+02 7.26168E+05 2.26345E-06 4.89882E-07-1.16875E+07
 -1       747-2.27394E+07 3.40514E+02 7.26168E+05 2.26345E-06 4.89882E-07-1.16875E+07
 -1       756-2.70746E+07-5.32477E+04-5.36977E+03-1.91842E-05 1.97891E-07 5.56236E+04
 -1       758-2.70746E+07-5.32477E+04-5.36977E+03-1.91842E-05 1.97891E-07 5.56236E+04
 -1       759-2.01251E+07 1.53064E+03 7.25697E+05 1.51576E-06 4.92255E-07-1.10027E+07
 -1       761-2.01251E+07 1.53064E+03 7.25697E+05 1.51576E-06 4.92255E-07-1.10027E+07
 -1       770-2.38028E+07-5.24577E+04-4.59498E+03-1.91571E-05 9.32632E-08 4.79798E+04
 -1       772-2.38028E+07-5.24577E+04-4.59498E+03-1.91571E-05 9.32632E-08 4.79798E+04
 -1       773-1.76695E+07 2.36590E+03 7.25440E+05 1.35298E-06 2.35835E-06-1.03154E+07
 -1       775-1.76695E+07 2.36590E+03 7.25440E+05 1.35298E-06 2.35835E-06-1.03154E+07
 -1       784-2.07428E+07-5.29718E+04-5.04736E+03-1.97942E-05 6.16856E-08 4.37408E+04
 -1       786-2.07428E+07-5.29718E+04-5.04736E+03-1.97942E-05 6.16856E-08 4.37408E+04
 -1       787-1.53717E+07 3.21808E+03 7.24083E+05 1.18588E-06 2.35704E-06-9.62995E+06
 -1       789-1.53717E+07 3.21808E+03 7.24083E+05 1.18588E-06 2.35704E-06-9.62995E+06
 -1       798-1.78933E+07-5.26331E+04-4.67925E+03-2.03152E-05-6.23259E-08 3.73342E+04
 -1       800-1.78933E+07-5.26331E+04-4.67925E+03-2.03152E-05-6.23259E-08 3.73342E+04
 -1       801-1.32323E+07 4.04781E+03 7.22727E+05 1.07371E-06 6.24339E-07-8.94325E+06
 -1       803-1.32323E+07 4.04781E+03 7.22727E+05 1.07371E-06 6.24339E-07-8.94325E+06
 -1       812-1.52552E+07-5.28451E+04-4.82981E+03-2.08677E-05-3.87910E-07 3.26555E+04
 -1       814-1.52552E+07-5.28451E+04-4.82981E+03-2.08677E-05-3.87910E-07 3.26555E+04
 -1       815-1.12509E+07 4.72839E+03 7.20664E+05 9.85411E-07-2.47039E-06-8.25724E+06
 -1       817-1.12509E+07 4.72839E+03 7.20664E+05 9.85411E-07-2.47039E-06-8.25724E+06
 -1       826-1.28280E+07-5.27157E+04-4.69830E+03-2.15332E-05-2.57583E-07 2.72216E+04
 -1       828-1.28280E+07-5.27157E+04-4.69830E+03-2.15332E-05-2.57583E-07 2.72216E+04
 -1       829-9.42788E+06 5.46049E+03 7.18535E+05 5.81209E-07-3.35435E-06-7.57051E+06
 -1       831-9.42788E+06 5.46049E+03 7.18535E+05 5.81209E-07-3.35435E-06-7.57051E+06
 -1       840-1.06120E+07-5.27744E+04-4.67558E+03-2.07269E-05 3.73111E-08 2.27842E+04
 -1       842-1.06120E+07-5.27744E+04-4.67558E+03-2.07269E-05 3.73111E-08 2.27842E+04
 -1       843-7.76305E+06 6.01873E+03 7.15950E+05 7.36545E-07-1.70707E-06-6.88393E+06
 -1       845-7.76305E+06 6.01873E+03 7.15950E+05 7.36545E-07-1.70707E-06-6.88393E+06
 -1       854-8.60697E+06-5.27673E+04-4.68802E+03-1.84252E-05 6.84231E-08 1.82936E+04
 -1       856-8.60697E+06-5.27673E+04-4.68802E+03-1.84252E-05 6.84231E-08 1.82936E+04
 -1       857-6.25648E+06 6.63086E+03 7.13311E+05 1.03778E-06-6.52977E-08-6.19685E+06
 -1       859-6.25648E+06 6.63086E+03 7.13311E+05 1.03778E-06-6.52977E-08-6.19685E+06
 -1       868-6.81315E+06-5.27210E+04-4.56302E+03-1.73043E-05 5.44678E-08 1.44659E+04
 -1       870-6.81315E+06-5.27210E+04-4.56302E+03-1.73043E-05 5.44678E-08 1.44659E+04
 -1       871-4.90822E+06 7.07451E+03 7.10368E+05 8.65977E-07 2.37916E-06-5.50961E+06
 -1       873-4.90822E+06 7.07451E+03 7.10368E+05 8.65977E-07 2.37916E-06-5.50961E+06
 -1       882-5.23038E+06-5.27889E+04-4.66810E+03-1.60038E-05-6.32383E-07 1.09677E+04
 -1       884-5.23038E+06-5.27889E+04-4.66810E+03-1.60038E-05-6.32383E-07 1.09677E+04
 -1       885-3.71822E+06 7.56802E+03 7.07444E+05 1.06028E-06-3.25046E-06-4.82200E+06
 -1       887-3.71822E+06 7.56802E+03 7.07444E+05 1.06028E-06-3.25046E-06-4.82200E+06
 -1       896-3.85872E+06-5.27732E+04-4.48073E+03-1.45716E-05-1.02447E-06 7.92488E+03
 -1       898-3.85872E+06-5.27732E+04-4.48073E+03-1.45716E-05-1.02447E-06 7.92488E+03
 -1       899-2.68654E+06 7.89074E+03 7.04292E+05 9.56877E-07-6.67344E-06-4.13406E+06
 -1       901-2.68654E+06 7.89074E+03 7.04292E+05 9.56877E-07-6.67344E-06-4.13406E+06
 -1       910-2.69807E+06-5.25302E+04-4.65467E+03-1.45691E-05-6.86989E-07 5.50175E+03
 -1       912-2.69807E+06-5.25302E+04-4.65467E+03-1.45691E-05-6.86989E-07 5.50175E+03
 -1       913-1.81351E+06 8.28500E+03 7.01390E+05 9.51065E-07-4.00721E-07-3.44600E+06
 -1       915-1.81351E+06 8.28500E+03 7.01390E+05 9.51065E-07-4.00721E-07-3.44600E+06
 -1       924-1.74928E+06-5.25082E+04-4.39680E+03-1.37838E-05-6.88226E-07 3.25692E+03
 -1       926-1.74928E+06-5.25082E+04-4.39680E+03-1.37838E-05-6.88226E-07 3.25692E+03
 -1       927-1.09890E+06 8.42129E+03 6.98431E+05 1.37890E-07 2.17619E-07-2.75760E+06
 -1       929-1.09890E+06 8.42129E+03 6.98431E+05 1.37890E-07 2.17619E-07-2.75760E+06
 -1       938-1.00820E+06-5.56703E+04-4.70928E+03-9.17896E-06-4.87555E-07 2.07261E+03
 -1       940-1.00820E+06-5.56703E+04-4.70928E+03-9.17896E-06-4.87555E-07 2.07261E+03
 -1       941-5.43806E+05 8.87278E+03 6.98076E+05-7.21460E-07-4.05848E-06-2.07202E+06
 -1       943-5.43806E+05 8.87278E+03 6.98076E+05-7.21460E-07-4.05848E-06-2.07202E+06
 -1       952-4.80477E+05-3.82255E+04-4.30858E+03-3.75613E-06-3.60880E-07 3.56512E+02
 -1       954-4.80477E+05-3.82255E+04-4.30858E+03-3.75613E-06-3.60880E-07 3.56512E+02
 -1       955-1.56436E+05 8.66281E+03 6.97399E+05-2.63010E-07-1.29140E-06-1.38858E+06
 -1       957-1.56436E+05 8.66281E+03 6.97399E+05-2.63010E-07-1.29140E-06-1.38858E+06
 -1       966-1.81560E+05-4.99880E+04-4.34563E+03-8.01308E-07-2.22804E-07 9.39027E+02
 -1       968-1.81560E+05-4.99880E+04-4.34563E+03-8.01308E-07-2.22804E-07 9.39027E+02
 -1       969 4.21898E+04 8.69952E+03 6.84991E+05-5.18318E-08 6.55260E-06-7.09156E+05
 -1       971 4.21898E+04 8.69952E+03 6.84991E+05-5.18318E-08 6.55260E-06-7.09156E+05
 -1       980-9.16779E+07-1.04192E+07-1.02536E+04 5.79022E+06 2.21902E+05-1.07201E+06
 -1       982-9.16779E+07-1.04192E+07-1.02536E+04 5.79022E+06 2.21902E+05-1.07201E+06
 -1       983-8.77049E+04-4.92278E+04-1.35914E+03-7.84049E+04 1.38872E+05 3.27208E+03
 -1       985-8.77049E+04-4.92278E+04-1.35914E+03-7.84049E+04 1.38872E+05 3.27208E+03
 -1       986-8.71036E+07-2.52097E+06 3.11248E+04-2.22143E+06 7.44018E+04-2.24743E+05
 -1       988-8.71036E+07-2.52097E+06 3.11248E+04-2.22143E+06 7.44018E+04-2.24743E+05
 -1       989-8.18601E+07 1.19455E+06-7.66832E+03-1.40581E+05-1.12442E+04 1.54122E+05
 -1       991-8.18601E+07 1.19455E+06-7.66832E+03-1.40581E+05-1.12442E+04 1.54122E+05
 -1       992-7.73401E+07-3.84303E+05-1.82990E+03-1.63087E+06 1.12484E+04 1.97393E+04
 -1       994-7.73401E+07-3.84303E+05-1.82990E+03-1.63087E+06 1.12484E+04 1.97393E+04
 -1       995-7.14289E+07 1.15153E+05 9.46997E+03-1.16082E+06 2.12618E+04 5.99301E+04
 -1       997-7.14289E+07 1.15153E+05 9.46997E+03-1.16082E+06 2.12618E+04 5.99301E+04
 -1       998-6.61128E+07-6.79398E+04-5.92355E+03-1.19203E+06 2.67727E+04 7.60893E+04
 -1      1000-6.61128E+07-6.79398E+04-5.92355E+03-1.19203E+06 2.67727E+04 7.60893E+04
 -1      1001-6.09609E+07 2.64967E+04 8.57122E+03-1.13864E+06 3.98873E+04 6.00760E+04
 -1      1003-6.09609E+07 2.64967E+04 8.57122E+03-1.13864E+06 3.98873E+04 6.00760E+04
 -1      1004-5.59953E+07-3.30768E+04-3.94142E+03-1.09504E+06 4.26447E+04 8.15275E+04
 -1      1006-5.59953E+07-3.30768E+04-3.94142E+03-1.09504E+06 4.26447E+04 8.15275E+04
 -1      1007-5.12478E+07 4.63449E+03 6.61545E+03-1.04368E+06 5.10394E+04 6.61302E+04
 -1      1009-5.12478E+07 4.63449E+03 6.61545E+03-1.04368E+06 5.10394E+04 6.61302E+04
 -1      1010-4.67110E+07-1.90376E+04-2.32649E+03-9.98991E+05 5.31258E+04 7.65161E+04
 -1      1012-4.67110E+07-1.90376E+04-2.32649E+03-9.98991E+05 5.31258E+04 7.65161E+04
 -1      1013-4.23834E+07-4.14359E+03 5.21500E+03-9.49702E+05 5.81421E+04 6.58661E+04
 -1      1015-4.23834E+07-4.14359E+03 5.21500E+03-9.49702E+05 5.81421E+04 6.58661E+04
 -1      1016-3.82683E+07-1.37128E+04-1.19990E+03-9.03196E+05 5.96636E+04 6.82885E+04
 -1      1018-3.82683E+07-1.37128E+04-1.19990E+03-9.03196E+05 5.96636E+04 6.82885E+04
 -1      1019-3.43630E+07-7.43087E+03 4.23261E+03-8.55028E+05 6.26880E+04 6.02952E+04
 -1      1021-3.43630E+07-7.43087E+03 4.23261E+03-8.55028E+05 6.26880E+04 6.02952E+04
 -1      1022-3.06696E+07-1.16872E+04-4.04564E+02-8.07876E+05 6.37088E+04 5.84052E+04
 -1      1024-3.06696E+07-1.16872E+04-4.04564E+02-8.07876E+05 6.37088E+04 5.84052E+04
 -1      1025-2.71865E+07-8.72909E+03 3.54007E+03-7.60092E+05 6.55572E+04 5.16578E+04
 -1      1027-2.71865E+07-8.72909E+03 3.54007E+03-7.60092E+05 6.55572E+04 5.16578E+04
 -1      1028-2.39149E+07-1.08600E+04 1.63842E+02-7.12717E+05 6.61966E+04 4.77394E+04
 -1      1030-2.39149E+07-1.08600E+04 1.63842E+02-7.12717E+05 6.61966E+04 4.77394E+04
 -1      1031-2.08541E+07-9.28609E+03 3.05017E+03-6.65077E+05 6.73270E+04 4.17049E+04
 -1      1033-2.08541E+07-9.28609E+03 3.05017E+03-6.65077E+05 6.73270E+04 4.17049E+04
 -1      1034-1.80046E+07-1.04862E+04 5.73413E+02-6.17621E+05 6.77015E+04 3.70700E+04
 -1      1036-1.80046E+07-1.04862E+04 5.73413E+02-6.17621E+05 6.77015E+04 3.70700E+04
 -1      1037-1.53659E+07-9.55579E+03 2.70285E+03-5.70038E+05 6.83802E+04 3.16640E+04
 -1      1039-1.53659E+07-9.55579E+03 2.70285E+03-5.70038E+05 6.83802E+04 3.16640E+04
 -1      1040-1.29385E+07-1.02880E+04 8.69476E+02-5.22555E+05 6.85787E+04 2.70681E+04
 -1      1042-1.29385E+07-1.02880E+04 8.69476E+02-5.22555E+05 6.85787E+04 2.70681E+04
 -1      1043-1.07221E+07-9.71614E+03 2.45649E+03-4.74994E+05 6.89688E+04 2.23751E+04
 -1      1045-1.07221E+07-9.71614E+03 2.45649E+03-4.74994E+05 6.89688E+04 2.23751E+04
 -1      1046-8.71694E+06-1.01472E+04 1.08260E+03-4.27507E+05 6.90514E+04 1.82574E+04
 -1      1048-8.71694E+06-1.01472E+04 1.08260E+03-4.27507E+05 6.90514E+04 1.82574E+04
 -1      1049-6.92280E+06-9.85913E+03 2.28284E+03-3.79946E+05 6.92579E+04 1.43962E+04
 -1      1051-6.92280E+06-9.85913E+03 2.28284E+03-3.79946E+05 6.92579E+04 1.43962E+04
 -1      1052-5.33984E+06-9.97496E+03 1.23258E+03-3.32488E+05 6.92599E+04 1.10087E+04
 -1      1054-5.33984E+06-9.97496E+03 1.23258E+03-3.32488E+05 6.92599E+04 1.10087E+04
 -1      1055-3.96805E+06-1.00976E+04 2.16466E+03-2.84878E+05 6.93571E+04 8.07134E+03
 -1      1057-3.96805E+06-1.00976E+04 2.16466E+03-2.84878E+05 6.93571E+04 8.07134E+03
 -1      1058-2.80726E+06-9.63690E+03 1.33106E+03-2.37460E+05 6.92905E+04 5.56955E+03
 -1      1060-2.80726E+06-9.63690E+03 1.33106E+03-2.37460E+05 6.92905E+04 5.56955E+03
 -1      1061-1.85690E+06-1.02748E+04 2.08600E+03-1.90521E+05 6.93409E+04 3.54530E+03
 -1      1063-1.85690E+06-1.02748E+04 2.08600E+03-1.90521E+05 6.93409E+04 3.54530E+03
 -1      1064-1.12005E+06-1.05571E+04 1.40810E+03-1.40306E+05 6.91956E+04 2.17755E+03
 -1      1066-1.12005E+06-1.05571E+04 1.40810E+03-1.40306E+05 6.91956E+04 2.17755E+03
 -1      1067-5.86046E+05-5.82348E+03 2.00133E+03-1.01143E+05 6.92527E+04 6.03802E+02
 -1      1069-5.86046E+05-5.82348E+03 2.00133E+03-1.01143E+05 6.92527E+04 6.03802E+02
 -1      1070-2.25525E+05-1.03479E+04 1.33431E+03-6.37295E+04 6.91527E+04 1.31248E+03
 -1      1072-2.25525E+05-1.03479E+04 1.33431E+03-6.37295E+04 6.91527E+04 1.31248E+03
 -1      1073-9.16779E+07-1.04192E+07-1.02536E+04-5.79022E+06-2.21902E+05-1.07201E+06
 -1      1075-9.16779E+07-1.04192E+07-1.02536E+04-5.79022E+06-2.21902E+05-1.07201E+06
 -1      1076-4.56878E+07-2.80671E+03-8.15844E+06 2.00917E-06-5.27478E-08-2.03189E+07
 -1      1078-4.56878E+07-2.80671E+03-8.15844E+06 2.00917E-06-5.27478E-08-2.03189E+07
 -1      1079-5.39768E+04-5.06097E+01-1.56373E+04-6.39195E-07-6.95423E-08-1.92270E+07
 -1      1081-5.39768E+04-5.06097E+01-1.56373E+04-6.39195E-07-6.95423E-08-1.92270E+07
 -1      1082 4.56254E+07 2.87563E+03 8.13247E+06 1.18713E-06 7.76771E-08-2.03690E+07
 -1      1084 4.56254E+07 2.87563E+03 8.13247E+06 1.18713E-06 7.76771E-08-2.03690E+07
 -1      1085 6.76488E+07 1.09055E+04 5.97504E+06-1.97430E-07 6.94587E-07-2.11689E+07
 -1      1087 6.76488E+07 1.09055E+04 5.97504E+06-1.97430E-07 6.94587E-07-2.11689E+07
 -1      1088 9.00407E+07 4.53914E+06 1.40828E+04-2.32123E-05 2.64103E-07-2.80437E+05
 -1      1090 9.00407E+07 4.53914E+06 1.40828E+04-2.32123E-05 2.64103E-07-2.80437E+05
 -1      1099 6.29001E+07 1.47924E+04-7.73466E+05-1.25556E-06 5.24330E-07-1.93294E+07
 -1      1101 6.29001E+07 1.47924E+04-7.73466E+05-1.25556E-06 5.24330E-07-1.93294E+07
 -1      1102 8.32414E+07-1.72609E+06-8.19546E+03-2.87245E-05-7.99628E-08 1.51263E+05
 -1      1104 8.32414E+07-1.72609E+06-8.19546E+03-2.87245E-05-7.99628E-08 1.51263E+05
 -1      1113 5.77285E+07 2.39830E+04-9.54561E+05-8.50891E-07 6.08625E-07-1.82410E+07
 -1      1115 5.77285E+07 2.39830E+04-9.54561E+05-8.50891E-07 6.08625E-07-1.82410E+07
 -1      1116 7.66634E+07 1.34201E+05 4.74880E+03-2.32067E-05-4.04361E-08-1.67642E+05
 -1      1118 7.66634E+07 1.34201E+05 4.74880E+03-2.32067E-05-4.04361E-08-1.67642E+05
 -1      1127 5.33018E+07-5.66157E+03-6.87182E+05-1.74440E-06 7.79109E-07-1.80432E+07
 -1      1129 5.33018E+07-5.66157E+03-6.87182E+05-1.74440E-06 7.79109E-07-1.80432E+07
 -1      1130 7.15631E+07 2.07330E+05 1.32273E+04-2.56746E-05-4.82542E-08 8.72036E+03
 -1      1132 7.15631E+07 2.07330E+05 1.32273E+04-2.56746E-05-4.82542E-08 8.72036E+03
 -1      1141 4.93540E+07 2.33181E+04-7.05974E+05-1.30330E-06 9.44572E-07-1.72557E+07
 -1      1143 4.93540E+07 2.33181E+04-7.05974E+05-1.30330E-06 9.44572E-07-1.72557E+07
 -1      1144 6.60470E+07-5.00032E+04-2.89573E+03-2.39961E-05-8.91487E-08-1.15805E+05
 -1      1146 6.60470E+07-5.00032E+04-2.89573E+03-2.39961E-05-8.91487E-08-1.15805E+05
 -1      1155 4.53845E+07-1.47486E+03-6.61868E+05-1.85920E-06 1.45474E-06-1.66473E+07
 -1      1157 4.53845E+07-1.47486E+03-6.61868E+05-1.85920E-06 1.45474E-06-1.66473E+07
 -1      1158 6.09106E+07 9.32498E+04 1.17343E+04-2.43039E-05-4.86762E-09-4.50928E+04
 -1      1160 6.09106E+07 9.32498E+04 1.17343E+04-2.43039E-05-4.86762E-09-4.50928E+04
 -1      1169 4.16916E+07 1.23642E+04-6.66927E+05-1.85914E-06 1.72233E-06-1.59221E+07
 -1      1171 4.16916E+07 1.23642E+04-6.66927E+05-1.85914E-06 1.72233E-06-1.59221E+07
 -1      1172 5.59319E+07 3.54643E+04 5.94766E+02-2.41383E-05-1.64124E-07-9.62031E+04
 -1      1174 5.59319E+07 3.54643E+04 5.94766E+02-2.41383E-05-1.64124E-07-9.62031E+04
 -1      1183 3.81120E+07 1.87943E+03-6.54191E+05-1.96818E-06 1.68291E-06-1.52539E+07
 -1      1185 3.81120E+07 1.87943E+03-6.54191E+05-1.96818E-06 1.68291E-06-1.52539E+07
 -1      1186 5.11874E+07 6.08789E+04 8.42087E+03-2.41948E-05-2.76341E-08-6.42096E+04
 -1      1188 5.11874E+07 6.08789E+04 8.42087E+03-2.41948E-05-2.76341E-08-6.42096E+04
 -1      1197 3.47125E+07 6.00870E+03-6.53657E+05-1.80415E-06 9.59282E-07-1.45492E+07
 -1      1199 3.47125E+07 6.00870E+03-6.53657E+05-1.80415E-06 9.59282E-07-1.45492E+07
 -1      1200 4.66401E+07 4.77487E+04 2.75663E+03-2.42840E-05 8.19855E-08-8.45337E+04
 -1      1202 4.66401E+07 4.77487E+04 2.75663E+03-2.42840E-05 8.19855E-08-8.45337E+04
 -1      1211 3.14616E+07 1.74489E+03-6.48315E+05-1.44798E-06 2.05012E-06-1.38648E+07
 -1      1213 3.14616E+07 1.74489E+03-6.48315E+05-1.44798E-06 2.05012E-06-1.38648E+07
 -1      1214 4.23130E+07 5.54898E+04 6.68968E+03-2.40417E-05 2.91693E-08-6.76113E+04
 -1      1216 4.23130E+07 5.54898E+04 6.68968E+03-2.40417E-05 2.91693E-08-6.76113E+04
 -1      1225 2.83752E+07 2.33705E+03-6.47437E+05-1.31058E-06 1.12975E-06-1.31664E+07
 -1      1227 2.83752E+07 2.33705E+03-6.47437E+05-1.31058E-06 1.12975E-06-1.31664E+07
 -1      1228 3.81916E+07 5.07218E+04 3.74493E+03-2.37934E-05-8.35280E-08-7.38907E+04
 -1      1230 3.81916E+07 5.07218E+04 3.74493E+03-2.37934E-05-8.35280E-08-7.38907E+04
 -1      1239 2.54442E+07 3.35390E+02-6.45129E+05-1.46384E-06 3.39335E-07-1.24761E+07
 -1      1241 2.54442E+07 3.35390E+02-6.45129E+05-1.46384E-06 3.39335E-07-1.24761E+07
 -1      1242 3.42852E+07 5.37183E+04 5.76895E+03-2.37544E-05-1.07953E-07-6.31107E+04
 -1      1244 3.42852E+07 5.37183E+04 5.76895E+03-2.37544E-05-1.07953E-07-6.31107E+04
 -1      1253 2.26738E+07-2.11572E+02-6.45128E+05-1.37845E-06 2.21272E-06-1.17799E+07
 -1      1255 2.26738E+07-2.11572E+02-6.45128E+05-1.37845E-06 2.21272E-06-1.17799E+07
 -1      1256 3.05876E+07 5.18092E+04 4.19729E+03-2.38803E-05-1.37203E-07-6.27832E+04
 -1      1258 3.05876E+07 5.18092E+04 4.19729E+03-2.38803E-05-1.37203E-07-6.27832E+04
 -1      1267 2.00610E+07-1.37839E+03-6.44670E+05-1.25621E-06 2.36723E-06-1.10872E+07
 -1      1269 2.00610E+07-1.37839E+03-6.44670E+05-1.25621E-06 2.36723E-06-1.10872E+07
 -1      1270 2.71029E+07 5.30468E+04 5.22948E+03-2.34811E-05 2.90893E-08-5.46422E+04
 -1      1272 2.71029E+07 5.30468E+04 5.22948E+03-2.34811E-05 2.90893E-08-5.46422E+04
 -1      1281 1.76074E+07-2.21684E+03-6.45621E+05-1.26812E-06 1.48346E-06-1.03918E+07
 -1      1283 1.76074E+07-2.21684E+03-6.45621E+05-1.26812E-06 1.48346E-06-1.03918E+07
 -1      1284 2.38284E+07 5.22386E+04 4.39686E+03-2.23361E-05-8.97126E-08-5.13064E+04
 -1      1286 2.38284E+07 5.22386E+04 4.39686E+03-2.23361E-05-8.97126E-08-5.13064E+04
 -1      1295 1.53121E+07-3.04749E+03-6.46471E+05-1.58454E-06-1.34570E-06-9.69810E+06
 -1      1297 1.53121E+07-3.04749E+03-6.46471E+05-1.58454E-06-1.34570E-06-9.69810E+06
 -1      1298 2.07660E+07 5.27752E+04 4.88588E+03-2.20078E-05-2.07299E-07-4.44920E+04
 -1      1300 2.07660E+07 5.27752E+04 4.88588E+03-2.20078E-05-2.07299E-07-4.44920E+04
 -1      1309 1.31756E+07-3.88462E+03-6.48222E+05-1.08401E-06-6.97778E-07-9.00330E+06
 -1      1311 1.31756E+07-3.88462E+03-6.48222E+05-1.08401E-06-6.97778E-07-9.00330E+06
 -1      1312 1.79142E+07 5.24253E+04 4.47158E+03-2.20523E-05 1.65455E-08-3.99962E+04
 -1      1314 1.79142E+07 5.24253E+04 4.47158E+03-2.20523E-05 1.65455E-08-3.99962E+04
 -1      1323 1.11975E+07-4.54674E+03-6.50005E+05-7.73182E-07 1.79586E-06-8.30940E+06
 -1      1325 1.11975E+07-4.54674E+03-6.50005E+05-7.73182E-07 1.79586E-06-8.30940E+06
 -1      1326 1.52740E+07 5.26551E+04 4.65266E+03-2.20288E-05 8.54125E-08-3.40953E+04
 -1      1328 1.52740E+07 5.26551E+04 4.65266E+03-2.20288E-05 8.54125E-08-3.40953E+04
 -1      1337 9.37805E+06-5.28785E+03-6.52369E+05-1.35413E-06 6.90225E-09-7.61515E+06
 -1      1339 9.37805E+06-5.28785E+03-6.52369E+05-1.35413E-06 6.90225E-09-7.61515E+06
 -1      1340 1.28448E+07 5.25186E+04 4.48483E+03-2.23317E-05 2.19457E-07-2.94337E+04
 -1      1342 1.28448E+07 5.25186E+04 4.48483E+03-2.23317E-05 2.19457E-07-2.94337E+04
 -1      1351 7.71705E+06-5.83082E+03-6.54790E+05-9.06524E-07-1.18262E-06-6.92149E+06
 -1      1353 7.71705E+06-5.83082E+03-6.54790E+05-9.06524E-07-1.18262E-06-6.92149E+06
 -1      1354 1.06269E+07 5.25915E+04 4.48699E+03-2.13099E-05-1.69690E-07-2.43838E+04
 -1      1356 1.06269E+07 5.25915E+04 4.48699E+03-2.13099E-05-1.69690E-07-2.43838E+04
 -1      1365 6.21451E+06-6.45227E+03-6.57590E+05-6.88566E-07 8.16533E-07-6.22785E+06
 -1      1367 6.21451E+06-6.45227E+03-6.57590E+05-6.88566E-07 8.16533E-07-6.22785E+06
 -1      1368 8.62015E+06 5.25798E+04 4.47082E+03-1.95110E-05-3.29361E-07-2.01038E+04
 -1      1370 8.62015E+06 5.25798E+04 4.47082E+03-1.95110E-05-3.29361E-07-2.01038E+04
 -1      1379 4.87049E+06-6.88339E+03-6.60408E+05-8.83567E-07 2.62861E-06-5.53466E+06
 -1      1381 4.87049E+06-6.88339E+03-6.60408E+05-8.83567E-07 2.62861E-06-5.53466E+06
 -1      1382 6.82466E+06 5.25447E+04 4.36611E+03-1.85216E-05 6.57943E-07-1.59607E+04
 -1      1384 6.82466E+06 5.25447E+04 4.36611E+03-1.85216E-05 6.57943E-07-1.59607E+04
 -1      1393 3.68487E+06-7.38595E+03-6.63504E+05-3.01903E-07 9.84486E-07-4.84172E+06
 -1      1395 3.68487E+06-7.38595E+03-6.63504E+05-3.01903E-07 9.84486E-07-4.84172E+06
 -1      1396 5.24028E+06 5.26087E+04 4.44822E+03-1.76749E-05 5.19962E-07-1.23531E+04
 -1      1398 5.24028E+06 5.26087E+04 4.44822E+03-1.76749E-05 5.19962E-07-1.23531E+04
 -1      1407 2.65769E+06-7.69818E+03-6.66543E+05 3.89023E-07 3.30326E-06-4.14914E+06
 -1      1409 2.65769E+06-7.69818E+03-6.66543E+05 3.89023E-07 3.30326E-06-4.14914E+06
 -1      1410 3.86708E+06 5.26025E+04 4.27783E+03-1.71696E-05 5.17306E-07-9.20451E+03
 -1      1412 3.86708E+06 5.26025E+04 4.27783E+03-1.71696E-05 5.17306E-07-9.20451E+03
 -1      1421 1.78926E+06-8.10116E+03-6.69951E+05 5.21806E-07 7.09565E-06-3.45716E+06
 -1      1423 1.78926E+06-8.10116E+03-6.69951E+05 5.21806E-07 7.09565E-06-3.45716E+06
 -1      1424 2.70492E+06 5.23529E+04 4.43239E+03-1.63933E-05 3.83239E-07-6.38107E+03
 -1      1426 2.70492E+06 5.23529E+04 4.43239E+03-1.63933E-05 3.83239E-07-6.38107E+03
 -1      1435 1.07933E+06-8.22808E+03-6.73364E+05 2.69033E-07 8.71638E-06-2.76556E+06
 -1      1437 1.07933E+06-8.22808E+03-6.73364E+05 2.69033E-07 8.71638E-06-2.76556E+06
 -1      1438 1.75465E+06 5.23385E+04 4.18981E+03-1.43985E-05 2.57358E-07-4.35293E+03
 -1      1440 1.75465E+06 5.23385E+04 4.18981E+03-1.43985E-05 2.57358E-07-4.35293E+03
 -1      1449 5.28934E+05-8.68851E+03-6.79364E+05 1.07259E-07 2.05529E-06-2.07754E+06
 -1      1451 5.28934E+05-8.68851E+03-6.79364E+05 1.07259E-07 2.05529E-06-2.07754E+06
 -1      1452 1.01210E+06 5.55196E+04 4.48406E+03-9.79583E-06 1.56854E-06-2.22334E+03
 -1      1454 1.01210E+06 5.55196E+04 4.48406E+03-9.79583E-06 1.56854E-06-2.22334E+03
 -1      1463 1.46341E+05-8.46921E+03-6.84970E+05 2.65296E-07 6.04877E-07-1.39247E+06
 -1      1465 1.46341E+05-8.46921E+03-6.84970E+05 2.65296E-07 6.04877E-07-1.39247E+06
 -1      1466 4.82906E+05 3.79698E+04 4.10047E+03-3.82655E-06 4.86885E-07-1.61334E+03
 -1      1468 4.82906E+05 3.79698E+04 4.10047E+03-3.82655E-06 4.86885E-07-1.61334E+03
 -1      1477-4.74213E+04-8.51316E+03-6.78796E+05 2.28324E-08 6.75998E-06-7.12201E+05
 -1      1479-4.74213E+04-8.51316E+03-6.78796E+05 2.28324E-08 6.75998E-06-7.12201E+05
 -1      1480 1.82695E+05 4.98029E+04 4.11183E+03-6.08939E-07-6.80520E-08 2.54210E+02
 -1      1482 1.82695E+05 4.98029E+04 4.11183E+03-6.08939E-07-6.80520E-08 2.54210E+02
 -1      1491 3.56766E+04 3.45613E+01 4.55156E+05 3.72721E-08 6.11551E-06-3.75007E+05
 -1      1493 3.56766E+04 3.45613E+01 4.55156E+05 3.72721E-08 6.11551E-06-3.75007E+05
 -1      1494-1.38620E+03-3.00085E+01 1.63159E+03 3.43845E-08 3.36311E-06-3.78450E+05
 -1      1496-1.38620E+03-3.00085E+01 1.63159E+03 3.43845E-08 3.36311E-06-3.78450E+05
 -1      1497-3.84621E+04 2.95644E+01-4.51976E+05-2.08735E-07 4.97162E-06-3.77004E+05
 -1      1499-3.84621E+04 2.95644E+01-4.51976E+05-2.08735E-07 4.97162E-06-3.77004E+05
 -1      1500 8.71896E+07 2.52256E+06-3.06176E+04 2.22914E+06 7.13238E+04-3.32136E+05
 -1      1502 8.71896E+07 2.52256E+06-3.06176E+04 2.22914E+06 7.13238E+04-3.32136E+05
 -1      1503 8.19371E+07-1.19276E+06 7.40484E+03 1.39763E+05-1.28371E+04 3.32495E+04
 -1      1505 8.19371E+07-1.19276E+06 7.40484E+03 1.39763E+05-1.28371E+04 3.32495E+04
 -1      1506 7.74070E+07 3.83594E+05 2.02062E+03 1.62979E+06 8.05178E+03-1.19119E+05
 -1      1508 7.74070E+07 3.83594E+05 2.02062E+03 1.62979E+06 8.05178E+03-1.19119E+05
 -1      1509 7.14888E+07-1.14898E+05-9.27130E+03 1.16008E+06 1.89009E+04-8.91967E+04
 -1      1511 7.14888E+07-1.14898E+05-9.27130E+03 1.16008E+06 1.89009E+04-8.91967E+04
 -1      1512 6.61665E+07 6.78905E+04 6.07523E+03 1.19121E+06 2.47283E+04-8.21955E+04
 -1      1514 6.61665E+07 6.78905E+04 6.07523E+03 1.19121E+06 2.47283E+04-8.21955E+04
 -1      1515 6.10094E+07-2.64210E+04-8.21292E+03 1.13783E+06 3.80289E+04-1.01355E+05
 -1      1517 6.10094E+07-2.64210E+04-8.21292E+03 1.13783E+06 3.80289E+04-1.01355E+05
 -1      1518 5.60390E+07 3.30036E+04 4.16396E+03 1.09438E+06 4.09089E+04-8.09608E+04
 -1      1520 5.60390E+07 3.30036E+04 4.16396E+03 1.09438E+06 4.09089E+04-8.09608E+04
 -1      1521 5.12872E+07-4.60225E+03-6.20850E+03 1.04311E+06 4.93160E+04-9.39172E+04
 -1      1523 5.12872E+07-4.60225E+03-6.20850E+03 1.04311E+06 4.93160E+04-9.39172E+04
 -1      1524 4.67467E+07 1.89596E+04 2.61517E+03 9.98483E+05 5.13818E+04-7.90321E+04
 -1      1526 4.67467E+07 1.89596E+04 2.61517E+03 9.98483E+05 5.13818E+04-7.90321E+04
 -1      1527 4.24157E+07 4.11467E+03-4.79348E+03 9.49286E+05 5.63296E+04-8.31055E+04
 -1      1529 4.24157E+07 4.11467E+03-4.79348E+03 9.49286E+05 5.63296E+04-8.31055E+04
 -1      1530 3.82976E+07 1.36230E+04 1.53319E+03 9.02837E+05 5.77978E+04-7.25929E+04
 -1      1532 3.82976E+07 1.36230E+04 1.53319E+03 9.02837E+05 5.77978E+04-7.25929E+04
 -1      1533 3.43897E+07 7.36220E+03-3.80619E+03 8.54748E+05 6.07469E+04-7.13167E+04
 -1      1535 3.43897E+07 7.36220E+03-3.80619E+03 8.54748E+05 6.07469E+04-7.13167E+04
 -1      1536 3.06939E+07 1.15840E+04 7.66612E+02 8.07653E+05 6.17313E+04-6.30584E+04
 -1      1538 3.06939E+07 1.15840E+04 7.66612E+02 8.07653E+05 6.17313E+04-6.30584E+04
 -1      1539 2.72087E+07 8.63775E+03-3.11133E+03 7.59935E+05 6.35388E+04-5.91295E+04
 -1      1541 2.72087E+07 8.63775E+03-3.11133E+03 7.59935E+05 6.35388E+04-5.91295E+04
 -1      1542 2.39354E+07 1.07478E+04 2.17145E+02 7.12612E+05 6.41813E+04-5.20522E+04
 -1      1544 2.39354E+07 1.07478E+04 2.17145E+02 7.12612E+05 6.41813E+04-5.20522E+04
 -1      1545 2.08728E+07 9.18285E+03-2.62004E+03 6.65026E+05 6.53213E+04-4.70623E+04
 -1      1547 2.08728E+07 9.18285E+03-2.62004E+03 6.65026E+05 6.53213E+04-4.70623E+04
 -1      1548 1.80218E+07 1.03695E+04-1.79733E+02 6.17615E+05 6.57451E+04-4.07995E+04
 -1      1550 1.80218E+07 1.03695E+04-1.79733E+02 6.17615E+05 6.57451E+04-4.07995E+04
 -1      1551 1.53817E+07 9.44701E+03-2.27214E+03 5.70076E+05 6.64854E+04-3.56570E+04
 -1      1553 1.53817E+07 9.44701E+03-2.27214E+03 5.70076E+05 6.64854E+04-3.56570E+04
 -1      1554 1.29530E+07 1.01700E+04-4.67446E+02 5.22630E+05 6.67780E+04-3.01662E+04
 -1      1556 1.29530E+07 1.01700E+04-4.67446E+02 5.22630E+05 6.67780E+04-3.01662E+04
 -1      1557 1.07353E+07 9.60531E+03-2.02609E+03 4.75105E+05 6.72755E+04-2.53953E+04
 -1      1559 1.07353E+07 9.60531E+03-2.02609E+03 4.75105E+05 6.72755E+04-2.53953E+04
 -1      1560 8.72897E+06 1.00294E+04-6.75441E+02 4.27648E+05 6.74902E+04-2.07466E+04
 -1      1562 8.72897E+06 1.00294E+04-6.75441E+02 4.27648E+05 6.74902E+04-2.07466E+04
 -1      1563 6.93365E+06 9.74803E+03-1.85363E+03 3.80115E+05 6.78412E+04-1.66490E+04
 -1      1565 6.93365E+06 9.74803E+03-1.85363E+03 3.80115E+05 6.78412E+04-1.66490E+04
 -1      1566 5.34952E+06 9.85786E+03-8.22755E+02 3.32681E+05 6.80046E+04-1.29271E+04
 -1      1568 5.34952E+06 9.85786E+03-8.22755E+02 3.32681E+05 6.80046E+04-1.29271E+04
 -1      1569 3.97656E+06 9.98713E+03-1.73731E+03 2.85093E+05 6.82745E+04-9.67382E+03
 -1      1571 3.97656E+06 9.98713E+03-1.73731E+03 2.85093E+05 6.82745E+04-9.67382E+03
 -1      1572 2.81459E+06 9.51993E+03-9.20587E+02 2.37696E+05 6.83901E+04-6.91781E+03
 -1      1574 2.81459E+06 9.51993E+03-9.20587E+02 2.37696E+05 6.83901E+04-6.91781E+03
 -1      1575 1.86300E+06 1.01638E+04-1.66049E+03 1.90781E+05 6.86296E+04-4.65227E+03
 -1      1577 1.86300E+06 1.01638E+04-1.66049E+03 1.90781E+05 6.86296E+04-4.65227E+03
 -1      1578 1.12490E+06 1.04492E+04-9.99753E+02 1.40565E+05 6.86957E+04-2.71303E+03
 -1      1580 1.12490E+06 1.04492E+04-9.99753E+02 1.40565E+05 6.86957E+04-2.71303E+03
 -1      1581 5.89558E+05 5.68607E+03-1.57456E+03 1.01462E+05 6.89114E+04-1.90649E+03
 -1      1583 5.89558E+05 5.68607E+03-1.57456E+03 1.01462E+05 6.89114E+04-1.90649E+03
 -1      1584 2.27429E+05 1.02266E+04-9.35086E+02 6.41505E+04 6.89800E+04 3.85424E+02
 -1      1586 2.27429E+05 1.02266E+04-9.35086E+02 6.41505E+04 6.89800E+04 3.85424E+02
 -1      1587 8.85016E+04 4.92066E+04 1.43501E+03 7.91984E+04 1.38637E+05 2.95307E+03
 -1      1589 8.85016E+04 4.92066E+04 1.43501E+03 7.91984E+04 1.38637E+05 2.95307E+03
 -1      1590 9.17683E+07 1.04161E+07 1.07770E+04 5.80140E+06-2.26122E+05-1.16627E+06
 -1      1592 9.17683E+07 1.04161E+07 1.07770E+04 5.80140E+06-2.26122E+05-1.16627E+06
 -1      1593 8.85016E+04 4.92066E+04 1.43501E+03-7.91984E+04-1.38637E+05 2.95307E+03
 -1      1595 8.85016E+04 4.92066E+04 1.43501E+03-7.91984E+04-1.38637E+05 2.95307E+03
 -1      1596 8.71896E+07 2.52256E+06-3.06176E+04-2.22914E+06-7.13238E+04-3.32136E+05
 -1      1598 8.71896E+07 2.52256E+06-3.06176E+04-2.22914E+06-7.13238E+04-3.32136E+05
 -1      1599 8.19371E+07-1.19276E+06 7.40484E+03-1.39763E+05 1.28371E+04 3.32495E+04
 -1      1601 8.19371E+07-1.19276E+06 7.40484E+03-1.39763E+05 1.28371E+04 3.32495E+04
 -1      1602 7.74070E+07 3.83594E+05 2.02062E+03-1.62979E+06-8.05178E+03-1.19119E+05
 -1      1604 7.74070E+07 3.83594E+05 2.02062E+03-1.62979E+06-8.05178E+03-1.19119E+05
 -1      1605 7.14888E+07-1.14898E+05-9.27130E+03-1.16008E+06-1.89009E+04-8.91967E+04
 -1      1607 7.14888E+07-1.14898E+05-9.27130E+03-1.16008E+06-1.89009E+04-8.91967E+04
 -1      1608 6.61665E+07 6.78905E+04 6.07523E+03-1.19121E+06-2.47283E+04-8.21955E+04
 -1      1610 6.61665E+07 6.78905E+04 6.07523E+03-1.19121E+06-2.47283E+04-8.21955E+04
 -1      1611 6.10094E+07-2.64210E+04-8.21292E+03-1.13783E+06-3.80289E+04-1.01355E+05
 -1      1613 6.10094E+07-2.64210E+04-8.21292E+03-1.13783E+06-3.80289E+04-1.01355E+05
 -1      1614 5.60390E+07 3.30036E+04 4.16396E+03-1.09438E+06-4.09089E+04-8.09608E+04
 -1      1616 5.60390E+07 3.30036E+04 4.16396E+03-1.09438E+06-4.09089E+04-8.09608E+04
 -1      1617 5.12872E+07-4.60225E+03-6.20850E+03-1.04311E+06-4.93160E+04-9.39172E+04
 -1      1619 5.12872E+07-4.60225E+03-6.20850E+03-1.04311E+06-4.93160E+04-9.39172E+04
 -1      1620 4.67467E+07 1.89596E+04 2.61517E+03-9.98483E+05-5.13818E+04-7.90321E+04
 -1      1622 4.67467E+07 1.89596E+04 2.61517E+03-9.98483E+05-5.13818E+04-7.90321E+04
 -1      1623 4.24157E+07 4.11467E+03-4.79348E+03-9.49286E+05-5.63296E+04-8.31055E+04
 -1      1625 4.24157E+07 4.11467E+03-4.79348E+03-9.49286E+05-5.63296E+04-8.31055E+04
 -1      1626 3.82976E+07 1.36230E+04 1.53319E+03-9.02837E+05-5.77978E+04-7.25929E+04
 -1      1628 3.82976E+07 1.36230E+04 1.53319E+03-9.02837E+05-5.77978E+04-7.25929E+04
 -1      1629 3.43897E+07 7.36220E+03-3.80619E+03-8.54748E+05-6.07469E+04-7.13167E+04
 -1      1631 3.43897E+07 7.36220E+03-3.80619E+03-8.54748E+05-6.07469E+04-7.13167E+04
 -1      1632 3.06939E+07 1.15840E+04 7.66612E+02-8.07653E+05-6.17313E+04-6.30584E+04
 -1      1634 3.06939E+07 1.15840E+04 7.66612E+02-8.07653E+05-6.17313E+04-6.30584E+04
 -1      1635 2.72087E+07 8.63775E+03-3.11133E+03-7.59935E+05-6.35388E+04-5.91295E+04
 -1      1637 2.72087E+07 8.63775E+03-3.11133E+03-7.59935E+05-6.35388E+04-5.91295E+04
 -1      1638 2.39354E+07 1.07478E+04 2.17145E+02-7.12612E+05-6.41813E+04-5.20522E+04
 -1      1640 2.39354E+07 1.07478E+04 2.17145E+02-7.12612E+05-6.41813E+04-5.20522E+04
 -1      1641 2.08728E+07 9.18285E+03-2.62004E+03-6.65026E+05-6.53213E+04-4.70623E+04
 -1      1643 2.08728E+07 9.18285E+03-2.62004E+03-6.65026E+05-6.53213E+04-4.70623E+04
 -1      1644 1.80218E+07 1.03695E+04-1.79733E+02-6.17615E+05-6.57451E+04-4.07995E+04
 -1      1646 1.80218E+07 1.03695E+04-1.79733E+02-6.17615E+05-6.57451E+04-4.07995E+04
 -1      1647 1.53817E+07 9.44701E+03-2.27214E+03-5.70076E+05-6.64854E+04-3.56570E+04
 -1      1649 1.53817E+07 9.44701E+03-2.27214E+03-5.70076E+05-6.64854E+04-3.56570E+04
 -1      1650 1.29530E+07 1.01700E+04-4.67446E+02-5.22630E+05-6.67780E+04-3.01662E+04
 -1      1652 1.29530E+07 1.01700E+04-4.67446E+02-5.22630E+05-6.67780E+04-3.01662E+04
 -1      1653 1.07353E+07 9.60531E+03-2.02609E+03-4.75105E+05-6.72755E+04-2.53953E+04
 -1      1655 1.07353E+07 9.60531E+03-2.02609E+03-4.75105E+05-6.72755E+04-2.53953E+04
 -1      1656 8.72897E+06 1.00294E+04-6.75441E+02-4.27648E+05-6.74902E+04-2.07466E+04
 -1      1658 8.72897E+06 1.00294E+04-6.75441E+02-4.27648E+05-6.74902E+04-2.07466E+04
 -1      1659 6.93365E+06 9.74803E+03-1.85363E+03-3.80115E+05-6.78412E+04-1.66490E+04
 -1      1661 6.93365E+06 9.74803E+03-1.85363E+03-3.80115E+05-6.78412E+04-1.66490E+04
 -1      1662 5.34952E+06 9.85786E+03-8.22755E+02-3.32681E+05-6.80046E+04-1.29271E+04
 -1      1664 5.34952E+06 9.85786E+03-8.22755E+02-3.32681E+05-6.80046E+04-1.29271E+04
 -1      1665 3.97656E+06 9.98713E+03-1.73731E+03-2.85093E+05-6.82745E+04-9.67382E+03
 -1      1667 3.97656E+06 9.98713E+03-1.73731E+03-2.85093E+05-6.82745E+04-9.67382E+03
 -1      1668 2.81459E+06 9.51993E+03-9.20587E+02-2.37696E+05-6.83901E+04-6.91781E+03
 -1      1670 2.81459E+06 9.51993E+03-9.20587E+02-2.37696E+05-6.83901E+04-6.91781E+03
 -1      1671 1.86300E+06 1.01638E+04-1.66049E+03-1.90781E+05-6.86296E+04-4.65227E+03
 -1      1673 1.86300E+06 1.01638E+04-1.66049E+03-1.90781E+05-6.86296E+04-4.65227E+03
 -1      1674 1.12490E+06 1.04492E+04-9.99753E+02-1.40565E+05-6.86957E+04-2.71303E+03
 -1      1676 1.12490E+06 1.04492E+04-9.99753E+02-1.40565E+05-6.86957E+04-2.71303E+03
 -1      1677 5.89558E+05 5.68607E+03-1.57456E+03-1.01462E+05-6.89114E+04-1.90649E+03
 -1      1679 5.89558E+05 5.68607E+03-1.57456E+03-1.01462E+05-6.89114E+04-1.90649E+03
 -1      1680 2.27429E+05 1.02266E+04-9.35086E+02-6.41505E+04-6.89800E+04 3.85424E+02
 -1      1682 2.27429E+05 1.02266E+04-9.35086E+02-6.41505E+04-6.89800E+04 3.85424E+02
 -1      1683 9.17683E+07 1.04161E+07 1.07770E+04-5.80140E+06 2.26122E+05-1.16627E+06
 -1      1685 9.17683E+07 1.04161E+07 1.07770E+04-5.80140E+06 2.26122E+05-1.16627E+06
 -1      1686-8.85258E+07-3.52846E+06 8.64597E+03 3.29232E+06 8.06684E+04-2.05158E+05
 -1      1688-8.85258E+07-3.52846E+06 8.64597E+03 3.29232E+06 8.06684E+04-2.05158E+05
 -1      1689-8.25085E+07 1.46222E+06 1.39501E+02 1.73393E+06-9.66299E+04 2.10025E+05
 -1      1691-8.25085E+07 1.46222E+06 1.39501E+02 1.73393E+06-9.66299E+04 2.10025E+05
 -1      1692-7.69641E+07-2.59652E+05-3.18172E+03 2.68282E+06-8.42396E+04-9.21964E+03
 -1      1694-7.69641E+07-2.59652E+05-3.18172E+03 2.68282E+06-8.42396E+04-9.21964E+03
 -1      1695-7.14606E+07-4.61569E+04-1.88604E+03 2.49257E+06-9.43710E+04 1.07004E+05
 -1      1697-7.14606E+07-4.61569E+04-1.88604E+03 2.49257E+06-9.43710E+04 1.07004E+05
 -1      1698-6.60473E+07-9.00975E+03-1.47411E+03 2.33628E+06-1.15499E+05 5.71582E+04
 -1      1700-6.60473E+07-9.00975E+03-1.47411E+03 2.33628E+06-1.15499E+05 5.71582E+04
 -1      1701-6.09056E+07-3.35095E+04-1.58536E+03 2.29566E+06-1.09916E+05 8.70396E+04
 -1      1703-6.09056E+07-3.35095E+04-1.58536E+03 2.29566E+06-1.09916E+05 8.70396E+04
 -1      1704-5.59361E+07-3.44079E+04-2.28551E+03 2.17983E+06-1.25084E+05 7.28824E+04
 -1      1706-5.59361E+07-3.44079E+04-2.28551E+03 2.17983E+06-1.25084E+05 7.28824E+04
 -1      1707-5.11924E+07-2.82102E+04-9.22298E+02 2.09270E+06-1.22309E+05 8.03198E+04
 -1      1709-5.11924E+07-2.82102E+04-9.22298E+02 2.09270E+06-1.22309E+05 8.03198E+04
 -1      1710-4.66527E+07-3.35215E+04-2.59621E+03 1.99435E+06-1.30427E+05 7.32346E+04
 -1      1712-4.66527E+07-3.35215E+04-2.59621E+03 1.99435E+06-1.30427E+05 7.32346E+04
 -1      1713-4.23273E+07-2.99128E+04-7.76229E+02 1.90103E+06-1.30026E+05 7.32103E+04
 -1      1715-4.23273E+07-2.99128E+04-7.76229E+02 1.90103E+06-1.30026E+05 7.32103E+04
 -1      1716-3.82110E+07-3.23372E+04-2.54982E+03 1.80496E+06-1.34096E+05 6.73137E+04
 -1      1718-3.82110E+07-3.23372E+04-2.54982E+03 1.80496E+06-1.34096E+05 6.73137E+04
 -1      1719-3.43069E+07-3.06749E+04-8.24389E+02 1.71052E+06-1.34574E+05 6.41069E+04
 -1      1721-3.43069E+07-3.06749E+04-8.24389E+02 1.71052E+06-1.34574E+05 6.41069E+04
 -1      1722-3.06130E+07-3.18631E+04-2.39194E+03 1.61509E+06-1.36588E+05 5.82842E+04
 -1      1724-3.06130E+07-3.18631E+04-2.39194E+03 1.61509E+06-1.36588E+05 5.82842E+04
 -1      1725-2.71305E+07-3.09884E+04-9.14848E+02 1.52028E+06-1.37194E+05 5.36407E+04
 -1      1727-2.71305E+07-3.09884E+04-9.14848E+02 1.52028E+06-1.37194E+05 5.36407E+04
 -1      1728-2.38589E+07-3.16589E+04-2.21557E+03 1.42508E+06-1.38173E+05 4.78596E+04
 -1      1730-2.38589E+07-3.16589E+04-2.21557E+03 1.42508E+06-1.38173E+05 4.78596E+04
 -1      1731-2.07984E+07-3.11289E+04-9.98597E+02 1.33013E+06-1.38643E+05 4.27228E+04
 -1      1733-2.07984E+07-3.11289E+04-9.98597E+02 1.33013E+06-1.38643E+05 4.27228E+04
 -1      1734-1.79489E+07-3.15597E+04-2.05292E+03 1.23503E+06-1.39087E+05 3.72021E+04
 -1      1736-1.79489E+07-3.15597E+04-2.05292E+03 1.23503E+06-1.39087E+05 3.72021E+04
 -1      1737-1.53106E+07-3.12004E+04-1.06348E+03 1.14003E+06-1.39368E+05 3.21597E+04
 -1      1739-1.53106E+07-3.12004E+04-1.06348E+03 1.14003E+06-1.39368E+05 3.21597E+04
 -1      1740-1.28832E+07-3.15019E+04-1.91441E+03 1.04496E+06-1.39527E+05 2.71448E+04
 -1      1742-1.28832E+07-3.15019E+04-1.91441E+03 1.04496E+06-1.39527E+05 2.71448E+04
 -1      1743-1.06671E+07-3.12453E+04-1.10954E+03 9.49957E+05-1.39636E+05 2.25797E+04
 -1      1745-1.06671E+07-3.12453E+04-1.10954E+03 9.49957E+05-1.39636E+05 2.25797E+04
 -1      1746-8.66196E+06-3.14573E+04-1.80271E+03 8.54900E+05-1.39644E+05 1.82755E+04
 -1      1748-8.66196E+06-3.14573E+04-1.80271E+03 8.54900E+05-1.39644E+05 1.82755E+04
 -1      1749-6.86798E+06-3.12901E+04-1.14009E+03 7.59893E+05-1.39612E+05 1.44311E+04
 -1      1751-6.86798E+06-3.12901E+04-1.14009E+03 7.59893E+05-1.39612E+05 1.44311E+04
 -1      1752-5.28511E+06-3.13819E+04-1.71776E+03 6.64859E+05-1.39551E+05 1.09882E+04
 -1      1754-5.28511E+06-3.13819E+04-1.71776E+03 6.64859E+05-1.39551E+05 1.09882E+04
 -1      1755-3.91338E+06-3.14354E+04-1.15803E+03 5.69790E+05-1.39399E+05 7.99811E+03
 -1      1757-3.91338E+06-3.14354E+04-1.15803E+03 5.69790E+05-1.39399E+05 7.99811E+03
 -1      1758-2.75267E+06-3.10835E+04-1.66181E+03 4.74945E+05-1.39328E+05 5.53565E+03
 -1      1760-2.75267E+06-3.10835E+04-1.66181E+03 4.74945E+05-1.39328E+05 5.53565E+03
 -1      1761-1.80309E+06-3.13915E+04-1.15540E+03 3.80144E+05-1.39072E+05 3.40111E+03
 -1      1763-1.80309E+06-3.13915E+04-1.15540E+03 3.80144E+05-1.39072E+05 3.40111E+03
 -1      1764-1.06412E+06-3.31137E+04-1.65059E+03 2.83716E+05-1.38998E+05 2.12508E+03
 -1      1766-1.06412E+06-3.31137E+04-1.65059E+03 2.83716E+05-1.38998E+05 2.12508E+03
 -1      1767-5.33262E+05-2.20245E+04-1.15363E+03 1.96032E+05-1.38764E+05 4.80157E+02
 -1      1769-5.33262E+05-2.20245E+04-1.15363E+03 1.96032E+05-1.38764E+05 4.80157E+02
 -1      1770-2.03542E+05-3.01680E+04-1.50566E+03 1.17840E+05-1.38431E+05 1.12575E+03
 -1      1772-2.03542E+05-3.01680E+04-1.50566E+03 1.17840E+05-1.38431E+05 1.12575E+03
 -1      1773-8.85258E+07-3.52846E+06 8.64597E+03-3.29232E+06-8.06684E+04-2.05158E+05
 -1      1775-8.85258E+07-3.52846E+06 8.64597E+03-3.29232E+06-8.06684E+04-2.05158E+05
 -1      1776-8.25085E+07 1.46222E+06 1.39501E+02-1.73393E+06 9.66299E+04 2.10025E+05
 -1      1778-8.25085E+07 1.46222E+06 1.39501E+02-1.73393E+06 9.66299E+04 2.10025E+05
 -1      1779-7.69641E+07-2.59652E+05-3.18172E+03-2.68282E+06 8.42396E+04-9.21964E+03
 -1      1781-7.69641E+07-2.59652E+05-3.18172E+03-2.68282E+06 8.42396E+04-9.21964E+03
 -1      1782-7.14606E+07-4.61569E+04-1.88604E+03-2.49257E+06 9.43710E+04 1.07004E+05
 -1      1784-7.14606E+07-4.61569E+04-1.88604E+03-2.49257E+06 9.43710E+04 1.07004E+05
 -1      1785-6.60473E+07-9.00975E+03-1.47411E+03-2.33628E+06 1.15499E+05 5.71582E+04
 -1      1787-6.60473E+07-9.00975E+03-1.47411E+03-2.33628E+06 1.15499E+05 5.71582E+04
 -1      1788-6.09056E+07-3.35095E+04-1.58536E+03-2.29566E+06 1.09916E+05 8.70396E+04
 -1      1790-6.09056E+07-3.35095E+04-1.58536E+03-2.29566E+06 1.09916E+05 8.70396E+04
 -1      1791-5.59361E+07-3.44079E+04-2.28551E+03-2.17983E+06 1.25084E+05 7.28824E+04
 -1      1793-5.59361E+07-3.44079E+04-2.28551E+03-2.17983E+06 1.25084E+05 7.28824E+04
 -1      1794-5.11924E+07-2.82102E+04-9.22298E+02-2.09270E+06 1.22309E+05 8.03198E+04
 -1      1796-5.11924E+07-2.82102E+04-9.22298E+02-2.09270E+06 1.22309E+05 8.03198E+04
 -1      1797-4.66527E+07-3.35215E+04-2.59621E+03-1.99435E+06 1.30427E+05 7.32346E+04
 -1      1799-4.66527E+07-3.35215E+04-2.59621E+03-1.99435E+06 1.30427E+05 7.32346E+04
 -1      1800-4.23273E+07-2.99128E+04-7.76229E+02-1.90103E+06 1.30026E+05 7.32103E+04
 -1      1802-4.23273E+07-2.99128E+04-7.76229E+02-1.90103E+06 1.30026E+05 7.32103E+04
 -1      1803-3.82110E+07-3.23372E+04-2.54982E+03-1.80496E+06 1.34096E+05 6.73137E+04
 -1      1805-3.82110E+07-3.23372E+04-2.54982E+03-1.80496E+06 1.34096E+05 6.73137E+04
 -1      1806-3.43069E+07-3.06749E+04-8.24389E+02-1.71052E+06 1.34574E+05 6.41069E+04
 -1      1808-3.43069E+07-3.06749E+04-8.24389E+02-1.71052E+06 1.34574E+05 6.41069E+04
 -1      1809-3.06130E+07-3.18631E+04-2.39194E+03-1.61509E+06 1.36588E+05 5.82842E+04
 -1      1811-3.06130E+07-3.18631E+04-2.39194E+03-1.61509E+06 1.36588E+05 5.82842E+04
 -1      1812-2.71305E+07-3.09884E+04-9.14848E+02-1.52028E+06 1.37194E+05 5.36407E+04
 -1      1814-2.71305E+07-3.09884E+04-9.14848E+02-1.52028E+06 1.37194E+05 5.36407E+04
 -1      1815-2.38589E+07-3.16589E+04-2.21557E+03-1.42508E+06 1.38173E+05 4.78596E+04
 -1      1817-2.38589E+07-3.16589E+04-2.21557E+03-1.42508E+06 1.38173E+05 4.78596E+04
 -1      1818-2.07984E+07-3.11289E+04-9.98597E+02-1.33013E+06 1.38643E+05 4.27228E+04
 -1      1820-2.07984E+07-3.11289E+04-9.98597E+02-1.33013E+06 1.38643E+05 4.27228E+04
 -1      1821-1.79489E+07-3.15597E+04-2.05292E+03-1.23503E+06 1.39087E+05 3.72021E+04
 -1      1823-1.79489E+07-3.15597E+04-2.05292E+03-1.23503E+06 1.39087E+05 3.72021E+04
 -1      1824-1.53106E+07-3.12004E+04-1.06348E+03-1.14003E+06 1.39368E+05 3.21597E+04
 -1      1826-1.53106E+07-3.12004E+04-1.06348E+03-1.14003E+06 1.39368E+05 3.21597E+04
 -1      1827-1.28832E+07-3.15019E+04-1.91441E+03-1.04496E+06 1.39527E+05 2.71448E+04
 -1      1829-1.28832E+07-3.15019E+04-1.91441E+03-1.04496E+06 1.39527E+05 2.71448E+04
 -1      1830-1.06671E+07-3.12453E+04-1.10954E+03-9.49957E+05 1.39636E+05 2.25797E+04
 -1      1832-1.06671E+07-3.12453E+04-1.10954E+03-9.49957E+05 1.39636E+05 2.25797E+04
 -1      1833-8.66196E+06-3.14573E+04-1.80271E+03-8.54900E+05 1.39644E+05 1.82755E+04
 -1      1835-8.66196E+06-3.14573E+04-1.80271E+03-8.54900E+05 1.39644E+05 1.82755E+04
 -1      1836-6.86798E+06-3.12901E+04-1.14009E+03-7.59893E+05 1.39612E+05 1.44311E+04
 -1      1838-6.86798E+06-3.12901E+04-1.14009E+03-7.59893E+05 1.39612E+05 1.44311E+04
 -1      1839-5.28511E+06-3.13819E+04-1.71776E+03-6.64859E+05 1.39551E+05 1.09882E+04
 -1      1841-5.28511E+06-3.13819E+04-1.71776E+03-6.64859E+05 1.39551E+05 1.09882E+04
 -1      1842-3.91338E+06-3.14354E+04-1.15803E+03-5.69790E+05 1.39399E+05 7.99811E+03
 -1      1844-3.91338E+06-3.14354E+04-1.15803E+03-5.69790E+05 1.39399E+05 7.99811E+03
 -1      1845-2.75267E+06-3.10835E+04-1.66181E+03-4.74945E+05 1.39328E+05 5.53565E+03
 -1      1847-2.75267E+06-3.10835E+04-1.66181E+03-4.74945E+05 1.39328E+05 5.53565E+03
 -1      1848-1.80309E+06-3.13915E+04-1.15540E+03-3.80144E+05 1.39072E+05 3.40111E+03
 -1      1850-1.80309E+06-3.13915E+04-1.15540E+03-3.80144E+05 1.39072E+05 3.40111E+03
 -1      1851-1.06412E+06-3.31137E+04-1.65059E+03-2.83716E+05 1.38998E+05 2.12508E+03
 -1      1853-1.06412E+06-3.31137E+04-1.65059E+03-2.83716E+05 1.38998E+05 2.12508E+03
 -1      1854-5.33262E+05-2.20245E+04-1.15363E+03-1.96032E+05 1.38764E+05 4.80157E+02
 -1      1856-5.33262E+05-2.20245E+04-1.15363E+03-1.96032E+05 1.38764E+05 4.80157E+02
 -1      1857-2.03542E+05-3.01680E+04-1.50566E+03-1.17840E+05 1.38431E+05 1.12575E+03
 -1      1859-2.03542E+05-3.01680E+04-1.50566E+03-1.17840E+05 1.38431E+05 1.12575E+03
 -1      1860-4.48143E+07 1.37752E+03-4.24022E+06 3.60420E-07 8.86101E-08-2.11650E+07
 -1      1862-4.48143E+07 1.37752E+03-4.24022E+06 3.60420E-07 8.86101E-08-2.11650E+07
 -1      1863-4.21563E+07-2.11496E+03 3.03845E+05 2.90608E-07 1.70837E-07-2.09939E+07
 -1      1865-4.21563E+07-2.11496E+03 3.03845E+05 2.90608E-07 1.70837E-07-2.09939E+07
 -1      1866-3.86418E+07 9.73568E+02 6.85696E+05 1.01918E-06 6.72173E-08-1.99267E+07
 -1      1868-3.86418E+07 9.73568E+02 6.85696E+05 1.01918E-06 6.72173E-08-1.99267E+07
 -1      1869-3.56309E+07-1.66239E+02 4.91560E+05 8.61264E-07 8.87730E-08-1.93356E+07
 -1      1871-3.56309E+07-1.66239E+02 4.91560E+05 8.61264E-07 8.87730E-08-1.93356E+07
 -1      1872-3.29645E+07-5.50371E+02 4.98207E+05 1.25355E-06 2.40941E-07-1.85132E+07
 -1      1874-3.29645E+07-5.50371E+02 4.98207E+05 1.25355E-06 2.40941E-07-1.85132E+07
 -1      1875-3.03378E+07 6.26269E+02 4.79412E+05 1.24220E-06 5.54228E-07-1.78074E+07
 -1      1877-3.03378E+07 6.26269E+02 4.79412E+05 1.24220E-06 5.54228E-07-1.78074E+07
 -1      1878-2.78689E+07-7.98873E+02 4.95412E+05 1.22935E-06 6.61606E-07-1.70428E+07
 -1      1880-2.78689E+07-7.98873E+02 4.95412E+05 1.22935E-06 6.61606E-07-1.70428E+07
 -1      1881-2.54878E+07 6.78034E+02 4.95017E+05 1.06034E-06 6.11862E-07-1.63117E+07
 -1      1883-2.54878E+07 6.78034E+02 4.95017E+05 1.06034E-06 6.11862E-07-1.63117E+07
 -1      1884-2.32208E+07-6.54739E+02 5.02254E+05 9.66623E-07 1.16568E-06-1.55626E+07
 -1      1886-2.32208E+07-6.54739E+02 5.02254E+05 9.66623E-07 1.16568E-06-1.55626E+07
 -1      1887-2.10546E+07 5.34053E+02 5.04197E+05 9.39194E-07 6.59992E-07-1.48253E+07
 -1      1889-2.10546E+07 5.34053E+02 5.04197E+05 9.39194E-07 6.59992E-07-1.48253E+07
 -1      1890-1.89964E+07-4.45661E+02 5.07333E+05 8.98368E-07-1.52112E-07-1.40814E+07
 -1      1892-1.89964E+07-4.45661E+02 5.07333E+05 8.98368E-07-1.52112E-07-1.40814E+07
 -1      1893-1.70418E+07 3.82846E+02 5.08448E+05 1.28748E-06-1.91137E-07-1.33424E+07
 -1      1895-1.70418E+07 3.82846E+02 5.08448E+05 1.28748E-06-1.91137E-07-1.33424E+07
 -1      1896-1.51937E+07-2.70281E+02 5.09351E+05 1.35725E-06 3.11944E-07-1.26006E+07
 -1      1898-1.51937E+07-2.70281E+02 5.09351E+05 1.35725E-06 3.11944E-07-1.26006E+07
 -1      1899-1.34501E+07 2.70544E+02 5.09247E+05 9.61828E-07 2.82911E-07-1.18610E+07
 -1      1901-1.34501E+07 2.70544E+02 5.09247E+05 9.61828E-07 2.82911E-07-1.18610E+07
 -1      1902-1.18125E+07-1.43494E+02 5.08650E+05 7.91156E-07-7.24836E-07-1.11200E+07
 -1      1904-1.18125E+07-1.43494E+02 5.08650E+05 7.91156E-07-7.24836E-07-1.11200E+07
 -1      1905-1.02798E+07 1.97370E+02 5.07458E+05 7.65938E-07-5.18554E-07-1.03801E+07
 -1      1907-1.02798E+07 1.97370E+02 5.07458E+05 7.65938E-07-5.18554E-07-1.03801E+07
 -1      1908-8.85290E+06-5.71358E+01 5.05790E+05 5.99953E-07-2.38282E-07-9.63948E+06
 -1      1910-8.85290E+06-5.71358E+01 5.05790E+05 5.99953E-07-2.38282E-07-9.63948E+06
 -1      1911-7.53118E+06 1.53185E+02 5.03740E+05 5.42987E-07-2.00396E-06-8.89922E+06
 -1      1913-7.53118E+06 1.53185E+02 5.03740E+05 5.42987E-07-2.00396E-06-8.89922E+06
 -1      1914-6.31506E+06 1.49268E-01 5.01316E+05 2.78177E-07-1.76745E-06-8.15856E+06
 -1      1916-6.31506E+06 1.49268E-01 5.01316E+05 2.78177E-07-1.76745E-06-8.15856E+06
 -1      1917-5.20430E+06 1.28075E+02 4.98643E+05 2.44614E-07 7.85822E-07-7.41794E+06
 -1      1919-5.20430E+06 1.28075E+02 4.98643E+05 2.44614E-07 7.85822E-07-7.41794E+06
 -1      1920-4.19910E+06 3.76100E+01 4.95713E+05 5.61186E-07 1.39839E-06-6.67702E+06
 -1      1922-4.19910E+06 3.76100E+01 4.95713E+05 5.61186E-07 1.39839E-06-6.67702E+06
 -1      1923-3.29935E+06 1.14770E+02 4.92624E+05 3.85000E-07 1.70048E-06-5.93599E+06
 -1      1925-3.29935E+06 1.14770E+02 4.92624E+05 3.85000E-07 1.70048E-06-5.93599E+06
 -1      1926-2.50514E+06 6.15495E+01 4.89403E+05 5.57878E-07-3.25900E-06-5.19471E+06
 -1      1928-2.50514E+06 6.15495E+01 4.89403E+05 5.57878E-07-3.25900E-06-5.19471E+06
 -1      1929-1.81643E+06 1.08766E+02 4.86085E+05 3.98200E-07-3.99648E-06-4.45319E+06
 -1      1931-1.81643E+06 1.08766E+02 4.86085E+05 3.98200E-07-3.99648E-06-4.45319E+06
 -1      1932-1.23349E+06 7.55143E+01 4.82830E+05 4.30743E-07 1.21068E-06-3.71151E+06
 -1      1934-1.23349E+06 7.55143E+01 4.82830E+05 4.30743E-07 1.21068E-06-3.71151E+06
 -1      1935-7.56242E+05 1.08029E+02 4.79873E+05-1.76798E-07-1.02908E-06-2.96936E+06
 -1      1937-7.56242E+05 1.08029E+02 4.79873E+05-1.76798E-07-1.02908E-06-2.96936E+06
 -1      1938-3.86369E+05 8.08785E+01 4.78812E+05-5.18301E-07-1.43568E-07-2.22749E+06
 -1      1940-3.86369E+05 8.08785E+01 4.78812E+05-5.18301E-07-1.43568E-07-2.22749E+06
 -1      1941-1.29521E+05 1.17505E+02 4.77838E+05-2.11383E-08 4.84026E-07-1.48415E+06
 -1      1943-1.29521E+05 1.17505E+02 4.77838E+05-2.11383E-08 4.84026E-07-1.48415E+06
 -1      1944 2.65688E+03 6.59404E+01 4.65801E+05 1.94129E-08 1.77128E-06-7.43152E+05
 -1      1946 2.65688E+03 6.59404E+01 4.65801E+05 1.94129E-08 1.77128E-06-7.43152E+05
 -1      1947-5.11538E+04 2.01960E+01-1.49503E+04-3.75639E-07 1.05390E-07-2.12563E+07
 -1      1949-5.11538E+04 2.01960E+01-1.49503E+04-3.75639E-07 1.05390E-07-2.12563E+07
 -1      1950-4.79791E+04 2.14002E+01-1.31249E+04-2.21805E-07 1.98559E-07-2.27622E+07
 -1      1952-4.79791E+04 2.14002E+01-1.31249E+04-2.21805E-07 1.98559E-07-2.27622E+07
 -1      1953-4.80180E+04 9.71026E+00-8.31412E+03-1.33128E-07 4.18020E-07-2.17258E+07
 -1      1955-4.80180E+04 9.71026E+00-8.31412E+03-1.33128E-07 4.18020E-07-2.17258E+07
 -1      1956-4.91099E+04 2.84881E+01 1.93485E+02-1.87750E-07 6.69250E-07-2.07517E+07
 -1      1958-4.91099E+04 2.84881E+01 1.93485E+02-1.87750E-07 6.69250E-07-2.07517E+07
 -1      1959-5.03666E+04-2.35679E-01 1.00389E+04-2.06958E-07 6.86390E-07-1.99029E+07
 -1      1961-5.03666E+04-2.35679E-01 1.00389E+04-2.06958E-07 6.86390E-07-1.99029E+07
 -1      1962-5.09241E+04 9.69533E+00 1.92225E+04-1.17882E-07 1.61836E-06-1.91064E+07
 -1      1964-5.09241E+04 9.69533E+00 1.92225E+04-1.17882E-07 1.61836E-06-1.91064E+07
 -1      1965-5.08141E+04-5.94953E+00 2.68668E+04-2.23611E-07 1.35339E-06-1.83040E+07
 -1      1967-5.08141E+04-5.94953E+00 2.68668E+04-2.23611E-07 1.35339E-06-1.83040E+07
 -1      1968-5.03154E+04-5.11181E+00 3.30915E+04-2.09277E-07-6.97355E-07-1.75095E+07
 -1      1970-5.03154E+04-5.11181E+00 3.30915E+04-2.09277E-07-6.97355E-07-1.75095E+07
 -1      1971-4.94478E+04-1.19836E+01 3.79630E+04-4.00599E-07 2.76799E-07-1.67124E+07
 -1      1973-4.94478E+04-1.19836E+01 3.79630E+04-4.00599E-07 2.76799E-07-1.67124E+07
 -1      1974-4.83320E+04-1.49648E+01 4.16347E+04-2.67603E-07 4.95362E-07-1.59172E+07
 -1      1976-4.83320E+04-1.49648E+01 4.16347E+04-2.67603E-07 4.95362E-07-1.59172E+07
 -1      1977-4.69824E+04-1.72740E+01 4.42242E+04-2.23520E-07 4.00641E-09-1.51208E+07
 -1      1979-4.69824E+04-1.72740E+01 4.42242E+04-2.23520E-07 4.00641E-09-1.51208E+07
 -1      1980-4.54408E+04-2.12854E+01 4.58490E+04-1.16283E-07 3.60984E-07-1.43253E+07
 -1      1982-4.54408E+04-2.12854E+01 4.58490E+04-1.16283E-07 3.60984E-07-1.43253E+07
 -1      1983-4.37198E+04-2.14455E+01 4.66120E+04-2.22199E-07 1.26417E-06-1.35292E+07
 -1      1985-4.37198E+04-2.14455E+01 4.66120E+04-2.22199E-07 1.26417E-06-1.35292E+07
 -1      1986-4.18413E+04-2.52425E+01 4.66098E+04-2.48485E-07 1.26556E-06-1.27335E+07
 -1      1988-4.18413E+04-2.52425E+01 4.66098E+04-2.48485E-07 1.26556E-06-1.27335E+07
 -1      1989-3.98175E+04-2.45270E+01 4.59338E+04-2.49256E-07-1.54391E-06-1.19375E+07
 -1      1991-3.98175E+04-2.45270E+01 4.59338E+04-2.49256E-07-1.54391E-06-1.19375E+07
 -1      1992-3.76658E+04-2.76458E+01 4.46674E+04-1.25349E-07-2.64555E-06-1.11417E+07
 -1      1994-3.76658E+04-2.76458E+01 4.46674E+04-1.25349E-07-2.64555E-06-1.11417E+07
 -1      1995-3.53976E+04-2.66924E+01 4.28921E+04-3.28608E-07-1.86052E-06-1.03459E+07
 -1      1997-3.53976E+04-2.66924E+01 4.28921E+04-3.28608E-07-1.86052E-06-1.03459E+07
 -1      1998-3.30285E+04-2.90429E+01 4.06803E+04-3.09354E-07-5.45548E-07-9.55004E+06
 -1      2000-3.30285E+04-2.90429E+01 4.06803E+04-3.09354E-07-5.45548E-07-9.55004E+06
 -1      2001-3.05686E+04-2.81431E+01 3.81028E+04-3.63050E-07-3.32821E-07-8.75418E+06
 -1      2003-3.05686E+04-2.81431E+01 3.81028E+04-3.63050E-07-3.32821E-07-8.75418E+06
 -1      2004-2.80314E+04-2.98045E+01 3.52214E+04-3.89974E-07 1.40994E-06-7.95836E+06
 -1      2006-2.80314E+04-2.98045E+01 3.52214E+04-3.89974E-07 1.40994E-06-7.95836E+06
 -1      2007-2.54258E+04-2.90659E+01 3.20961E+04-1.46865E-07 8.91604E-07-7.16250E+06
 -1      2009-2.54258E+04-2.90659E+01 3.20961E+04-1.46865E-07 8.91604E-07-7.16250E+06
 -1      2010-2.27628E+04-3.01827E+01 2.87777E+04-3.10932E-07-1.15874E-06-6.36667E+06
 -1      2012-2.27628E+04-3.01827E+01 2.87777E+04-3.10932E-07-1.15874E-06-6.36667E+06
 -1      2013-2.00492E+04-2.96177E+01 2.53146E+04-2.53297E-07 2.81881E-07-5.57083E+06
 -1      2015-2.00492E+04-2.96177E+01 2.53146E+04-2.53297E-07 2.81881E-07-5.57083E+06
 -1      2016-1.72929E+04-3.03499E+01 2.17463E+04-3.48919E-07 1.57447E-06-4.77495E+06
 -1      2018-1.72929E+04-3.03499E+01 2.17463E+04-3.48919E-07 1.57447E-06-4.77495E+06
 -1      2019-1.44970E+04-2.99159E+01 1.81090E+04-2.04747E-07 2.36873E-06-3.97901E+06
 -1      2021-1.44970E+04-2.99159E+01 1.81090E+04-2.04747E-07 2.36873E-06-3.97901E+06
 -1      2022-1.16624E+04-3.04429E+01 1.44302E+04-5.96381E-07 2.60496E-06-3.18259E+06
 -1      2024-1.16624E+04-3.04429E+01 1.44302E+04-5.96381E-07 2.60496E-06-3.18259E+06
 -1      2025-8.78053E+03-3.00016E+01 1.07351E+04-3.69455E-07 7.80359E-06-2.38403E+06
 -1      2027-8.78053E+03-3.00016E+01 1.07351E+04-3.69455E-07 7.80359E-06-2.38403E+06
 -1      2028-5.84031E+03-3.05192E+01 7.04055E+03 1.61818E-07 4.08544E-06-1.58053E+06
 -1      2030-5.84031E+03-3.05192E+01 7.04055E+03 1.61818E-07 4.08544E-06-1.58053E+06
 -1      2031-2.86971E+03-3.03721E+01 3.41336E+03 1.10351E-07-8.34261E-07-7.77796E+05
 -1      2033-2.86971E+03-3.03721E+01 3.41336E+03 1.10351E-07-8.34261E-07-7.77796E+05
 -1      2034 4.47521E+07-1.44619E+03 4.21300E+06-3.89747E-07 2.20836E-07-2.12194E+07
 -1      2036 4.47521E+07-1.44619E+03 4.21300E+06-3.89747E-07 2.20836E-07-2.12194E+07
 -1      2037 4.20944E+07 2.05106E+03-3.30555E+05-8.72898E-07 3.52601E-07-2.10537E+07
 -1      2039 4.20944E+07 2.05106E+03-3.30555E+05-8.72898E-07 3.52601E-07-2.10537E+07
 -1      2040 3.85757E+07-1.01048E+03-7.02309E+05-7.14244E-07 5.07281E-07-1.99917E+07
 -1      2042 3.85757E+07-1.01048E+03-7.02309E+05-7.14244E-07 5.07281E-07-1.99917E+07
 -1      2043 3.55591E+07 9.23845E+01-4.91131E+05-1.22654E-06 7.28314E-07-1.94063E+07
 -1      2045 3.55591E+07 9.23845E+01-4.91131E+05-1.22654E-06 7.28314E-07-1.94063E+07
 -1      2046 3.28887E+07 5.39734E+02-4.78910E+05-1.02865E-06 9.27186E-07-1.85888E+07
 -1      2048 3.28887E+07 5.39734E+02-4.78910E+05-1.02865E-06 9.27186E-07-1.85888E+07
 -1      2049 3.02586E+07-6.59048E+02-4.42888E+05-1.28565E-06 1.62925E-06-1.78868E+07
 -1      2051 3.02586E+07-6.59048E+02-4.42888E+05-1.28565E-06 1.62925E-06-1.78868E+07
 -1      2052 2.77879E+07 8.05052E+02-4.44979E+05-1.37861E-06 1.65247E-06-1.71232E+07
 -1      2054 2.77879E+07 8.05052E+02-4.44979E+05-1.37861E-06 1.65247E-06-1.71232E+07
 -1      2055 2.54059E+07-6.77408E+02-4.32900E+05-1.42409E-06 5.80506E-07-1.63918E+07
 -1      2057 2.54059E+07-6.77408E+02-4.32900E+05-1.42409E-06 5.80506E-07-1.63918E+07
 -1      2058 2.31387E+07 6.75945E+02-4.31202E+05-1.42473E-06 5.60390E-07-1.56406E+07
 -1      2060 2.31387E+07 6.75945E+02-4.31202E+05-1.42473E-06 5.60390E-07-1.56406E+07
 -1      2061 2.09731E+07-5.09794E+02-4.26273E+05-1.17403E-06 1.13939E-06-1.49004E+07
 -1      2063 2.09731E+07-5.09794E+02-4.26273E+05-1.17403E-06 1.13939E-06-1.49004E+07
 -1      2064 1.89160E+07 4.79188E+02-4.24632E+05-1.07191E-06 8.40329E-07-1.41526E+07
 -1      2066 1.89160E+07 4.79188E+02-4.24632E+05-1.07191E-06 8.40329E-07-1.41526E+07
 -1      2067 1.69631E+07-3.42547E+02-4.22714E+05-1.10863E-06 1.05846E-06-1.34091E+07
 -1      2069 1.69631E+07-3.42547E+02-4.22714E+05-1.10863E-06 1.05846E-06-1.34091E+07
 -1      2070 1.51172E+07 3.13307E+02-4.22219E+05-1.13695E-06 2.30353E-06-1.26623E+07
 -1      2072 1.51172E+07 3.13307E+02-4.22219E+05-1.13695E-06 2.30353E-06-1.26623E+07
 -1      2073 1.33762E+07-2.19661E+02-4.22124E+05-1.08054E-06 2.41240E-06-1.19174E+07
 -1      2075 1.33762E+07-2.19661E+02-4.22124E+05-1.08054E-06 2.41240E-06-1.19174E+07
 -1      2076 1.17416E+07 1.93497E+02-4.22807E+05-9.97984E-07 1.10184E-06-1.11711E+07
 -1      2078 1.17416E+07 1.93497E+02-4.22807E+05-9.97984E-07 1.10184E-06-1.11711E+07
 -1      2079 1.02124E+07-1.39724E+02-4.23984E+05-1.09062E-06-1.62133E-06-1.04257E+07
 -1      2081 1.02124E+07-1.39724E+02-4.23984E+05-1.09062E-06-1.62133E-06-1.04257E+07
 -1      2082 8.78918E+06 1.12040E+02-4.25645E+05-9.33710E-07-1.65896E-06-9.67965E+06
 -1      2084 8.78918E+06 1.12040E+02-4.25645E+05-9.33710E-07-1.65896E-06-9.67965E+06
 -1      2085 7.47145E+06-9.14049E+01-4.27730E+05-7.46227E-07 1.12114E-06-8.93414E+06
 -1      2087 7.47145E+06-9.14049E+01-4.27730E+05-7.46227E-07 1.12114E-06-8.93414E+06
 -1      2088 6.25958E+06 5.80278E+01-4.30130E+05-1.02768E-06-2.39097E-07-8.18846E+06
 -1      2090 6.25958E+06 5.80278E+01-4.30130E+05-1.02768E-06-2.39097E-07-8.18846E+06
 -1      2091 5.15327E+06-6.39260E+01-4.32841E+05-7.19577E-07-8.20726E-07-7.44312E+06
 -1      2093 5.15327E+06-6.39260E+01-4.32841E+05-7.19577E-07-8.20726E-07-7.44312E+06
 -1      2094 4.15270E+06 2.26206E+01-4.35756E+05-5.33443E-07-1.31167E-07-6.69783E+06
 -1      2096 4.15270E+06 2.26206E+01-4.35756E+05-5.33443E-07-1.31167E-07-6.69783E+06
 -1      2097 3.25772E+06-4.93911E+01-4.38866E+05-7.04727E-07-3.55336E-07-5.95282E+06
 -1      2099 3.25772E+06-4.93911E+01-4.38866E+05-7.04727E-07-3.55336E-07-5.95282E+06
 -1      2100 2.46842E+06-1.34633E-01-4.42118E+05-4.31987E-07 2.40790E-06-5.20798E+06
 -1      2102 2.46842E+06-1.34633E-01-4.42118E+05-4.31987E-07 2.40790E-06-5.20798E+06
 -1      2103 1.78471E+06-4.28370E+01-4.45464E+05-7.41692E-08 3.88586E-06-4.46337E+06
 -1      2105 1.78471E+06-4.28370E+01-4.45464E+05-7.41692E-08 3.88586E-06-4.46337E+06
 -1      2106 1.20686E+06-1.35083E+01-4.49001E+05 1.00945E-07 4.50552E-06-3.71908E+06
 -1      2108 1.20686E+06-1.35083E+01-4.49001E+05 1.00945E-07 4.50552E-06-3.71908E+06
 -1      2109 7.34792E+05-4.18670E+01-4.52909E+05-2.16121E-07 8.10104E-06-2.97481E+06
 -1      2111 7.34792E+05-4.18670E+01-4.52909E+05-2.16121E-07 8.10104E-06-2.97481E+06
 -1      2112 3.70152E+05-1.87462E+01-4.58721E+05-1.58254E-07 6.94556E-06-2.23132E+06
 -1      2114 3.70152E+05-1.87462E+01-4.58721E+05-1.58254E-07 6.94556E-06-2.23132E+06
 -1      2115 1.18633E+05-5.12231E+01-4.64583E+05 1.84099E-07 3.25815E-06-1.48690E+06
 -1      2117 1.18633E+05-5.12231E+01-4.64583E+05 1.84099E-07 3.25815E-06-1.48690E+06
 -1      2118-8.14232E+03-3.13421E+00-4.59290E+05 7.64387E-08 4.05075E-06-7.45323E+05
 -1      2120-8.14232E+03-3.13421E+00-4.59290E+05 7.64387E-08 4.05075E-06-7.45323E+05
 -1      2121 8.86152E+07 3.53085E+06-8.26737E+03 3.29870E+06-8.03886E+04-3.06287E+05
 -1      2123 8.86152E+07 3.53085E+06-8.26737E+03 3.29870E+06-8.03886E+04-3.06287E+05
 -1      2124 8.25893E+07-1.45942E+06-3.95310E+02 1.73408E+06 9.99484E+04 9.22561E+04
 -1      2126 8.25893E+07-1.45942E+06-3.95310E+02 1.73408E+06 9.99484E+04 9.22561E+04
 -1      2127 7.70352E+07 2.58898E+05 3.38471E+03 2.68178E+06 8.58244E+04-1.43380E+05
 -1      2129 7.70352E+07 2.58898E+05 3.38471E+03 2.68178E+06 8.58244E+04-1.43380E+05
 -1      2130 7.15260E+07 4.62160E+04 1.97798E+03 2.49180E+06 9.57054E+04-4.02382E+04
 -1      2132 7.15260E+07 4.62160E+04 1.97798E+03 2.49180E+06 9.57054E+04-4.02382E+04
 -1      2133 6.61068E+07 8.94365E+03 1.58975E+03 2.33546E+06 1.15822E+05-9.90000E+04
 -1      2135 6.61068E+07 8.94365E+03 1.58975E+03 2.33546E+06 1.15822E+05-9.90000E+04
 -1      2136 6.09600E+07 3.34144E+04 1.76070E+03 2.29494E+06 1.09294E+05-7.32241E+04
 -1      2138 6.09600E+07 3.34144E+04 1.76070E+03 2.29494E+06 1.09294E+05-7.32241E+04
 -1      2139 5.59855E+07 3.42339E+04 2.37936E+03 2.17932E+06 1.23706E+05-8.85819E+04
 -1      2141 5.59855E+07 3.42339E+04 2.37936E+03 2.17932E+06 1.23706E+05-8.85819E+04
 -1      2142 5.12373E+07 2.81383E+04 1.10618E+03 2.09229E+06 1.20081E+05-7.90634E+04
 -1      2144 5.12373E+07 2.81383E+04 1.10618E+03 2.09229E+06 1.20081E+05-7.90634E+04
 -1      2145 4.66934E+07 3.33541E+04 2.68590E+03 1.99404E+06 1.27618E+05-8.17829E+04
 -1      2147 4.66934E+07 3.33541E+04 2.68590E+03 1.99404E+06 1.27618E+05-8.17829E+04
 -1      2148 4.23643E+07 2.98022E+04 9.48102E+02 1.90080E+06 1.26592E+05-7.53584E+04
 -1      2150 4.23643E+07 2.98022E+04 9.48102E+02 1.90080E+06 1.26592E+05-7.53584E+04
 -1      2151 3.82446E+07 3.21724E+04 2.63906E+03 1.80482E+06 1.30264E+05-7.32418E+04
 -1      2153 3.82446E+07 3.21724E+04 2.63906E+03 1.80482E+06 1.30264E+05-7.32418E+04
 -1      2154 3.43374E+07 3.05403E+04 9.81383E+02 1.71045E+06 1.30358E+05-6.72137E+04
 -1      2156 3.43374E+07 3.05403E+04 9.81383E+02 1.71045E+06 1.30358E+05-6.72137E+04
 -1      2157 3.06407E+07 3.16966E+04 2.48195E+03 1.61510E+06 1.32157E+05-6.29208E+04
 -1      2159 3.06407E+07 3.16966E+04 2.48195E+03 1.61510E+06 1.32157E+05-6.29208E+04
 -1      2160 2.71558E+07 3.08423E+04 1.05907E+03 1.52035E+06 1.32597E+05-5.68859E+04
 -1      2162 2.71558E+07 3.08423E+04 1.05907E+03 1.52035E+06 1.32597E+05-5.68859E+04
 -1      2163 2.38819E+07 3.14932E+04 2.30700E+03 1.42521E+06 1.33536E+05-5.16793E+04
 -1      2165 2.38819E+07 3.14932E+04 2.30700E+03 1.42521E+06 1.33536E+05-5.16793E+04
 -1      2166 2.08194E+07 3.09790E+04 1.13292E+03 1.33033E+06 1.34022E+05-4.57771E+04
 -1      2168 2.08194E+07 3.09790E+04 1.13292E+03 1.33033E+06 1.34022E+05-4.57771E+04
 -1      2169 1.79680E+07 3.13974E+04 2.14592E+03 1.23527E+06 1.34575E+05-4.03979E+04
 -1      2171 1.79680E+07 3.13974E+04 2.14592E+03 1.23527E+06 1.34575E+05-4.03979E+04
 -1      2172 1.53279E+07 3.10511E+04 1.19026E+03 1.14033E+06 1.35016E+05-3.48761E+04
 -1      2174 1.53279E+07 3.10511E+04 1.19026E+03 1.14033E+06 1.35016E+05-3.48761E+04
 -1      2175 1.28989E+07 3.13443E+04 2.00869E+03 1.04530E+06 1.35402E+05-2.98000E+04
 -1      2177 1.28989E+07 3.13443E+04 2.00869E+03 1.04530E+06 1.35402E+05-2.98000E+04
 -1      2178 1.06811E+07 3.10984E+04 1.23045E+03 9.50338E+05 1.35779E+05-2.48896E+04
 -1      2180 1.06811E+07 3.10984E+04 1.23045E+03 9.50338E+05 1.35779E+05-2.48896E+04
 -1      2181 8.67456E+06 3.13046E+04 1.89769E+03 8.55316E+05 1.36101E+05-2.04252E+04
 -1      2183 8.67456E+06 3.13046E+04 1.89769E+03 8.55316E+05 1.36101E+05-2.04252E+04
 -1      2184 6.87915E+06 3.11464E+04 1.25624E+03 7.60343E+05 1.36414E+05-1.63048E+04
 -1      2186 6.87915E+06 3.11464E+04 1.25624E+03 7.60343E+05 1.36414E+05-1.63048E+04
 -1      2187 5.29490E+06 3.12333E+04 1.81273E+03 6.65339E+05 1.36725E+05-1.26401E+04
 -1      2189 5.29490E+06 3.12333E+04 1.81273E+03 6.65339E+05 1.36725E+05-1.26401E+04
 -1      2190 3.92182E+06 3.12948E+04 1.27026E+03 5.70296E+05 1.36966E+05-9.43917E+03
 -1      2192 3.92182E+06 3.12948E+04 1.27026E+03 5.70296E+05 1.36966E+05-9.43917E+03
 -1      2193 2.75976E+06 3.09364E+04 1.75590E+03 4.75479E+05 1.37301E+05-6.64944E+03
 -1      2195 2.75976E+06 3.09364E+04 1.75590E+03 4.75479E+05 1.37301E+05-6.64944E+03
 -1      2196 1.80883E+06 3.12512E+04 1.26466E+03 3.80705E+05 1.37462E+05-4.50260E+03
 -1      2198 1.80883E+06 3.12512E+04 1.26466E+03 3.80705E+05 1.37462E+05-4.50260E+03
 -1      2199 1.06850E+06 3.29844E+04 1.74216E+03 2.84288E+05 1.37820E+05-2.46819E+03
 -1      2201 1.06850E+06 3.29844E+04 1.74216E+03 2.84288E+05 1.37820E+05-2.46819E+03
 -1      2202 5.36232E+05 2.18280E+04 1.26296E+03 1.96673E+05 1.37970E+05-1.75991E+03
 -1      2204 5.36232E+05 2.18280E+04 1.26296E+03 1.96673E+05 1.37970E+05-1.75991E+03
 -1      2205 2.05062E+05 3.00147E+04 1.58837E+03 1.18591E+05 1.37999E+05 3.19817E+02
 -1      2207 2.05062E+05 3.00147E+04 1.58837E+03 1.18591E+05 1.37999E+05 3.19817E+02
 -1      2208 8.86152E+07 3.53085E+06-8.26737E+03-3.29870E+06 8.03886E+04-3.06287E+05
 -1      2210 8.86152E+07 3.53085E+06-8.26737E+03-3.29870E+06 8.03886E+04-3.06287E+05
 -1      2211 8.25893E+07-1.45942E+06-3.95310E+02-1.73408E+06-9.99484E+04 9.22561E+04
 -1      2213 8.25893E+07-1.45942E+06-3.95310E+02-1.73408E+06-9.99484E+04 9.22561E+04
 -1      2214 7.70352E+07 2.58898E+05 3.38471E+03-2.68178E+06-8.58244E+04-1.43380E+05
 -1      2216 7.70352E+07 2.58898E+05 3.38471E+03-2.68178E+06-8.58244E+04-1.43380E+05
 -1      2217 7.15260E+07 4.62160E+04 1.97798E+03-2.49180E+06-9.57054E+04-4.02382E+04
 -1      2219 7.15260E+07 4.62160E+04 1.97798E+03-2.49180E+06-9.57054E+04-4.02382E+04
 -1      2220 6.61068E+07 8.94365E+03 1.58975E+03-2.33546E+06-1.15822E+05-9.90000E+04
 -1      2222 6.61068E+07 8.94365E+03 1.58975E+03-2.33546E+06-1.15822E+05-9.90000E+04
 -1      2223 6.09600E+07 3.34144E+04 1.76070E+03-2.29494E+06-1.09294E+05-7.32241E+04
 -1      2225 6.09600E+07 3.34144E+04 1.76070E+03-2.29494E+06-1.09294E+05-7.32241E+04
 -1      2226 5.59855E+07 3.42339E+04 2.37936E+03-2.17932E+06-1.23706E+05-8.85819E+04
 -1      2228 5.59855E+07 3.42339E+04 2.37936E+03-2.17932E+06-1.23706E+05-8.85819E+04
 -1      2229 5.12373E+07 2.81383E+04 1.10618E+03-2.09229E+06-1.20081E+05-7.90634E+04
 -1      2231 5.12373E+07 2.81383E+04 1.10618E+03-2.09229E+06-1.20081E+05-7.90634E+04
 -1      2232 4.66934E+07 3.33541E+04 2.68590E+03-1.99404E+06-1.27618E+05-8.17829E+04
 -1      2234 4.66934E+07 3.33541E+04 2.68590E+03-1.99404E+06-1.27618E+05-8.17829E+04
 -1      2235 4.23643E+07 2.98022E+04 9.48102E+02-1.90080E+06-1.26592E+05-7.53584E+04
 -1      2237 4.23643E+07 2.98022E+04 9.48102E+02-1.90080E+06-1.26592E+05-7.53584E+04
 -1      2238 3.82446E+07 3.21724E+04 2.63906E+03-1.80482E+06-1.30264E+05-7.32418E+04
 -1      2240 3.82446E+07 3.21724E+04 2.63906E+03-1.80482E+06-1.30264E+05-7.32418E+04
 -1      2241 3.43374E+07 3.05403E+04 9.81383E+02-1.71045E+06-1.30358E+05-6.72137E+04
 -1      2243 3.43374E+07 3.05403E+04 9.81383E+02-1.71045E+06-1.30358E+05-6.72137E+04
 -1      2244 3.06407E+07 3.16966E+04 2.48195E+03-1.61510E+06-1.32157E+05-6.29208E+04
 -1      2246 3.06407E+07 3.16966E+04 2.48195E+03-1.61510E+06-1.32157E+05-6.29208E+04
 -1      2247 2.71558E+07 3.08423E+04 1.05907E+03-1.52035E+06-1.32597E+05-5.68859E+04
 -1      2249 2.71558E+07 3.08423E+04 1.05907E+03-1.52035E+06-1.32597E+05-5.68859E+04
 -1      2250 2.38819E+07 3.14932E+04 2.30700E+03-1.42521E+06-1.33536E+05-5.16793E+04
 -1      2252 2.38819E+07 3.14932E+04 2.30700E+03-1.42521E+06-1.33536E+05-5.16793E+04
 -1      2253 2.08194E+07 3.09790E+04 1.13292E+03-1.33033E+06-1.34022E+05-4.57771E+04
 -1      2255 2.08194E+07 3.09790E+04 1.13292E+03-1.33033E+06-1.34022E+05-4.57771E+04
 -1      2256 1.79680E+07 3.13974E+04 2.14592E+03-1.23527E+06-1.34575E+05-4.03979E+04
 -1      2258 1.79680E+07 3.13974E+04 2.14592E+03-1.23527E+06-1.34575E+05-4.03979E+04
 -1      2259 1.53279E+07 3.10511E+04 1.19026E+03-1.14033E+06-1.35016E+05-3.48761E+04
 -1      2261 1.53279E+07 3.10511E+04 1.19026E+03-1.14033E+06-1.35016E+05-3.48761E+04
 -1      2262 1.28989E+07 3.13443E+04 2.00869E+03-1.04530E+06-1.35402E+05-2.98000E+04
 -1      2264 1.28989E+07 3.13443E+04 2.00869E+03-1.04530E+06-1.35402E+05-2.98000E+04
 -1      2265 1.06811E+07 3.10984E+04 1.23045E+03-9.50338E+05-1.35779E+05-2.48896E+04
 -1      2267 1.06811E+07 3.10984E+04 1.23045E+03-9.50338E+05-1.35779E+05-2.48896E+04
 -1      2268 8.67456E+06 3.13046E+04 1.89769E+03-8.55316E+05-1.36101E+05-2.04252E+04
 -1      2270 8.67456E+06 3.13046E+04 1.89769E+03-8.55316E+05-1.36101E+05-2.04252E+04
 -1      2271 6.87915E+06 3.11464E+04 1.25624E+03-7.60343E+05-1.36414E+05-1.63048E+04
 -1      2273 6.87915E+06 3.11464E+04 1.25624E+03-7.60343E+05-1.36414E+05-1.63048E+04
 -1      2274 5.29490E+06 3.12333E+04 1.81273E+03-6.65339E+05-1.36725E+05-1.26401E+04
 -1      2276 5.29490E+06 3.12333E+04 1.81273E+03-6.65339E+05-1.36725E+05-1.26401E+04
 -1      2277 3.92182E+06 3.12948E+04 1.27026E+03-5.70296E+05-1.36966E+05-9.43917E+03
 -1      2279 3.92182E+06 3.12948E+04 1.27026E+03-5.70296E+05-1.36966E+05-9.43917E+03
 -1      2280 2.75976E+06 3.09364E+04 1.75590E+03-4.75479E+05-1.37301E+05-6.64944E+03
 -1      2282 2.75976E+06 3.09364E+04 1.75590E+03-4.75479E+05-1.37301E+05-6.64944E+03
 -1      2283 1.80883E+06 3.12512E+04 1.26466E+03-3.80705E+05-1.37462E+05-4.50260E+03
 -1      2285 1.80883E+06 3.12512E+04 1.26466E+03-3.80705E+05-1.37462E+05-4.50260E+03
 -1      2286 1.06850E+06 3.29844E+04 1.74216E+03-2.84288E+05-1.37820E+05-2.46819E+03
 -1      2288 1.06850E+06 3.29844E+04 1.74216E+03-2.84288E+05-1.37820E+05-2.46819E+03
 -1      2289 5.36232E+05 2.18280E+04 1.26296E+03-1.96673E+05-1.37970E+05-1.75991E+03
 -1      2291 5.36232E+05 2.18280E+04 1.26296E+03-1.96673E+05-1.37970E+05-1.75991E+03
 -1      2292 2.05062E+05 3.00147E+04 1.58837E+03-1.18591E+05-1.37999E+05 3.19817E+02
 -1      2294 2.05062E+05 3.00147E+04 1.58837E+03-1.18591E+05-1.37999E+05 3.19817E+02
 -3
    1PSTEP                         3           1           1          
  100CL  101 50.00000000         930                     0    1           1
 -4  FORC        4    1
 -5  F1          1    2    1    0
 -5  F2          1    2    2    0
 -5  F3          1    2    3    0
 -5  ALL         1    2    0    0    1ALL
 -1       404 1.73169E+04-4.01885E+03 1.92285E+02
 -1       406 1.48237E+04-4.43776E+03 1.92290E+02
 -1       407 1.46382E-03 2.50151E-04-2.33973E+01
 -1       409 1.46198E-03 1.02020E-03-2.33856E+01
 -1       410-1.06542E+02 5.27491E-09 1.59025E+02
 -1       412-1.06608E+02 2.92652E-09 1.29630E+02
 -1       413 1.06576E+02-2.30800E+01-2.24225E+02
 -1       415 1.06576E+02 2.30800E+01-2.24225E+02
 -1       424 2.89748E+04-2.54352E-08 1.14145E+01
 -1       426 2.04808E+04-2.66769E-08 2.66198E+02
 -1       427 2.26482E+04 1.99974E+02 8.26819E+03
 -1       429 2.26482E+04-1.99974E+02 8.26819E+03
 -1       438 1.46382E-03-2.50146E-04-2.33973E+01
 -1       440 1.46198E-03-1.02020E-03-2.33856E+01
 -1       441 1.73169E+04 4.01885E+03 1.92285E+02
 -1       443 1.48237E+04 4.43776E+03 1.92290E+02
 -1       444-2.26484E+04-2.00665E+02 8.28039E+03
 -1       446-2.26484E+04 2.00665E+02 8.28039E+03
 -1       447-2.89945E+04-2.44569E-08 1.47923E+01
 -1       449-2.04873E+04-2.48467E-08 2.70452E+02
 -1       458-1.07515E+02 2.24649E+01-2.23827E+02
 -1       460-1.07515E+02-2.24649E+01-2.23827E+02
 -1       461 1.07549E+02 1.68404E-09 1.58248E+02
 -1       463 1.07484E+02-3.07405E-09 1.29616E+02
 -1       472-1.73626E+04-4.01808E+03 2.26749E+02
 -1       474-1.47917E+04-4.44249E+03 2.26744E+02
 -1       475 1.48022E-03-2.58061E-04-2.33853E+01
 -1       477 1.44685E-03-1.01280E-03-2.33971E+01
 -1       478 1.48022E-03 2.58063E-04-2.33853E+01
 -1       480 1.44685E-03 1.01280E-03-2.33971E+01
 -1       481-1.73626E+04 4.01808E+03 2.26749E+02
 -1       483-1.47917E+04 4.44249E+03 2.26744E+02
 -1       484-5.80803E-04 2.67221E-03-4.67961E+01
 -1       486 3.26132E-04 4.51024E-03-4.67697E+01
 -1       487-6.02432E-04 7.60519E-03-4.68166E+01
 -1       489 2.49411E-04 1.21366E-02-4.67501E+01
 -1       490-4.27094E-04 1.20902E-02-4.68387E+01
 -1       492 9.96108E-05 2.05711E-02-4.67291E+01
 -1       493-4.62636E-05 1.45635E-02-4.68554E+01
 -1       495 7.99844E-05 2.78161E-02-4.67139E+01
 -1       496 4.21764E-04 1.44201E-02-4.68635E+01
 -1       498-1.48027E-05 3.20679E-02-4.67071E+01
 -1       499 8.68575E-04 1.24347E-02-4.68642E+01
 -1       501-4.38823E-05 3.39809E-02-4.67076E+01
 -1       502 1.30182E-03 9.34928E-03-4.68597E+01
 -1       504-1.79897E-04 3.37501E-02-4.67130E+01
 -1       505 1.64784E-03 5.91529E-03-4.68521E+01
 -1       507-2.58164E-04 3.21374E-02-4.67212E+01
 -1       508 1.94468E-03 2.64158E-03-4.68432E+01
 -1       510-3.56520E-04 2.96216E-02-4.67303E+01
 -1       511 2.16257E-03-1.41306E-04-4.68342E+01
 -1       513-3.97783E-04 2.66564E-02-4.67393E+01
 -1       514 2.32266E-03-2.28995E-03-4.68259E+01
 -1       516-4.09716E-04 2.35448E-02-4.67473E+01
 -1       517 2.42299E-03-3.77116E-03-4.68188E+01
 -1       519-3.69826E-04 2.04961E-02-4.67540E+01
 -1       520 2.47495E-03-4.64226E-03-4.68128E+01
 -1       522-2.92395E-04 1.76397E-02-4.67593E+01
 -1       523 2.48569E-03-4.99714E-03-4.68082E+01
 -1       525-1.77101E-04 1.50445E-02-4.67633E+01
 -1       526 2.46312E-03-4.95315E-03-4.68046E+01
 -1       528-3.57488E-05 1.27422E-02-4.67662E+01
 -1       529 2.41557E-03-4.62314E-03-4.68019E+01
 -1       531 1.25161E-04 1.07362E-02-4.67682E+01
 -1       532 2.34910E-03-4.11139E-03-4.68000E+01
 -1       534 2.95491E-04 9.01511E-03-4.67694E+01
 -1       535 2.27063E-03-3.50296E-03-4.67986E+01
 -1       537 4.68333E-04 7.55782E-03-4.67701E+01
 -1       538 2.18455E-03-2.86520E-03-4.67976E+01
 -1       540 6.36168E-04 6.33892E-03-4.67705E+01
 -1       541 2.09584E-03-2.24601E-03-4.67970E+01
 -1       543 7.94066E-04 5.33117E-03-4.67707E+01
 -1       544 2.00726E-03-1.67761E-03-4.67965E+01
 -1       546 9.37543E-04 4.50754E-03-4.67707E+01
 -1       547 1.92194E-03-1.17825E-03-4.67962E+01
 -1       549 1.06418E-03 3.84229E-03-4.67707E+01
 -1       550 1.84122E-03-7.56097E-04-4.67959E+01
 -1       552 1.17229E-03 3.31152E-03-4.67707E+01
 -1       553 1.76680E-03-4.11591E-04-4.67957E+01
 -1       555 1.26158E-03 2.89375E-03-4.67706E+01
 -1       556 1.69875E-03-1.40552E-04-4.67955E+01
 -1       558 1.33255E-03 2.57000E-03-4.67707E+01
 -1       559 1.63799E-03 6.41024E-05-4.67953E+01
 -1       561 1.38648E-03 2.32415E-03-4.67707E+01
 -1       562 1.58421E-03 2.10277E-04-4.67951E+01
 -1       564 1.42420E-03 2.14276E-03-4.67708E+01
 -1       565 1.53615E-03 3.04963E-04-4.67949E+01
 -1       567 1.45060E-03 2.01581E-03-4.67709E+01
 -1       568 1.49310E-03 3.55233E-04-4.67947E+01
 -1       570 1.46572E-03 1.93762E-03-4.67711E+01
 -1       571 7.84047E-04-7.42418E-04-4.67903E+01
 -1       573 7.77441E-04 2.27697E-04-4.67749E+01
 -1       574-7.65713E+03-9.14838E-10-1.77399E+03
 -1       576-7.65721E+03-3.60345E-09-1.87847E+03
 -1       577 7.65717E+03-8.20184E+01 1.66644E+03
 -1       579 7.65717E+03 8.20184E+01 1.66644E+03
 -1       588-6.96792E+03 2.93106E-09 1.38053E+03
 -1       590-6.96792E+03 2.75967E-09 1.37639E+03
 -1       591 6.96792E+03-3.28505E+00-1.53825E+03
 -1       593 6.96792E+03 3.28505E+00-1.53825E+03
 -1       602-6.51246E+03-9.66441E-10-2.75532E+02
 -1       604-6.51248E+03-1.94284E-09-2.92763E+02
 -1       605 6.51247E+03-1.35722E+01 1.24355E+02
 -1       607 6.51247E+03 1.35722E+01 1.24355E+02
 -1       616-6.86636E+03 1.39448E-09 6.41319E+02
 -1       618-6.86651E+03 4.56883E-10 4.84771E+02
 -1       619 6.86643E+03-1.22929E+02-7.22837E+02
 -1       621 6.86643E+03 1.22929E+02-7.22837E+02
 -1       630-6.29330E+03-4.03199E-10 1.09950E+02
 -1       632-6.29327E+03-5.69235E-10 1.29071E+02
 -1       633 6.29329E+03 1.49480E+01-2.79301E+02
 -1       635 6.29329E+03-1.49480E+01-2.79301E+02
 -1       644-6.20547E+03 1.55993E-10 4.30417E+02
 -1       646-6.20563E+03 9.17169E-10 3.08090E+02
 -1       647 6.20555E+03-9.60703E+01-5.29045E+02
 -1       649 6.20555E+03 9.60703E+01-5.29045E+02
 -1       658-5.87438E+03 4.28013E-11 2.38810E+02
 -1       660-5.87442E+03 7.02496E-11 2.14302E+02
 -1       661 5.87440E+03-1.92884E+01-3.86347E+02
 -1       663 5.87440E+03 1.92884E+01-3.86347E+02
 -1       672-5.65621E+03 8.88648E-10 3.60113E+02
 -1       674-5.65635E+03 1.03723E-09 2.73420E+02
 -1       675 5.65628E+03-6.80905E+01-4.76557E+02
 -1       677 5.65628E+03 6.80905E+01-4.76557E+02
 -1       686-5.37833E+03 9.25287E-10 2.84908E+02
 -1       688-5.37840E+03 1.85637E-09 2.38792E+02
 -1       689 5.37836E+03-3.62350E+01-4.21641E+02
 -1       691 5.37836E+03 3.62350E+01-4.21641E+02
 -1       700-5.13479E+03-1.42490E-10 3.35181E+02
 -1       702-5.13492E+03 1.54277E-10 2.64042E+02
 -1       703 5.13486E+03-5.58701E+01-4.59402E+02
 -1       705 5.13486E+03 5.58701E+01-4.59402E+02
 -1       714-4.87011E+03-6.64593E-11 3.03172E+02
 -1       716-4.87021E+03 1.01559E-09 2.49054E+02
 -1       717 4.87016E+03-4.25053E+01-4.35904E+02
 -1       719 4.87016E+03 4.25053E+01-4.35904E+02
 -1       728-4.61888E+03 1.21158E-10 3.25215E+02
 -1       730-4.61901E+03-6.32379E-10 2.60953E+02
 -1       731 4.61894E+03-5.04626E+01-4.52875E+02
 -1       733 4.61894E+03 5.04626E+01-4.52875E+02
 -1       742-4.35886E+03-1.57301E-09 3.10877E+02
 -1       744-4.35898E+03-3.34504E-10 2.54041E+02
 -1       745 4.35892E+03-4.46308E+01-4.42251E+02
 -1       747 4.35892E+03 4.46308E+01-4.42251E+02
 -1       756-4.10470E+03-1.56845E-10 3.20635E+02
 -1       758-4.10483E+03 3.42823E-09 2.59821E+02
 -1       759 4.10476E+03-4.77510E+01-4.50020E+02
 -1       761 4.10476E+03 4.77510E+01-4.50020E+02
 -1       770-3.84655E+03 4.41198E-10 3.13970E+02
 -1       772-3.84667E+03 2.30357E-09 2.56454E+02
 -1       773 3.84661E+03-4.51606E+01-4.45004E+02
 -1       775 3.84661E+03 4.51606E+01-4.45004E+02
 -1       784-3.59115E+03-2.97654E-09 3.18079E+02
 -1       786-3.59128E+03-1.54745E-09 2.59266E+02
 -1       787 3.59122E+03-4.61785E+01-4.48465E+02
 -1       789 3.59122E+03 4.61785E+01-4.48465E+02
 -1       798-3.33382E+03-1.49177E-09 3.14840E+02
 -1       800-3.33394E+03-6.68568E-10 2.57429E+02
 -1       801 3.33388E+03-4.50776E+01-4.45927E+02
 -1       803 3.33388E+03 4.50776E+01-4.45927E+02
 -1       812-3.07787E+03 2.11097E-09 3.16264E+02
 -1       814-3.07799E+03 2.47963E-11 2.58774E+02
 -1       815 3.07793E+03-4.51391E+01-4.47312E+02
 -1       817 3.07793E+03 4.51391E+01-4.47312E+02
 -1       826-2.82089E+03 5.66372E-09 3.14575E+02
 -1       828-2.82102E+03 4.04075E-09 2.57541E+02
 -1       829 2.82096E+03-4.47809E+01-4.45851E+02
 -1       831 2.82096E+03 4.47809E+01-4.45851E+02
 -1       840-2.56470E+03 2.05983E-09 3.14698E+02
 -1       842-2.56482E+03 1.24124E-09 2.58170E+02
 -1       843 2.56476E+03-4.43840E+01-4.46228E+02
 -1       845 2.56476E+03 4.43840E+01-4.46228E+02
 -1       854-2.30787E+03-9.17269E-10 3.13718E+02
 -1       856-2.30800E+03-1.45881E-09 2.57113E+02
 -1       857 2.30793E+03-4.44450E+01-4.45209E+02
 -1       859 2.30793E+03 4.44450E+01-4.45209E+02
 -1       868-2.05159E+03 9.44494E-12 3.13219E+02
 -1       870-2.05172E+03-1.11623E-09 2.57429E+02
 -1       871 2.05165E+03-4.38056E+01-4.45118E+02
 -1       873 2.05165E+03 4.38056E+01-4.45118E+02
 -1       882-1.79480E+03-1.18120E-09 3.12546E+02
 -1       884-1.79493E+03-9.57743E-09 2.56319E+02
 -1       885 1.79486E+03-4.41477E+01-4.44227E+02
 -1       887 1.79486E+03 4.41477E+01-4.44227E+02
 -1       896-1.53847E+03 1.93234E-09 3.11839E+02
 -1       898-1.53859E+03-9.57383E-09 2.56621E+02
 -1       899 1.53853E+03-4.33558E+01-4.44024E+02
 -1       901 1.53853E+03 4.33558E+01-4.44024E+02
 -1       910-1.28201E+03 1.34900E-09 3.11143E+02
 -1       912-1.28214E+03-5.92852E-09 2.55145E+02
 -1       913 1.28208E+03-4.39684E+01-4.42938E+02
 -1       915 1.28208E+03 4.39684E+01-4.42938E+02
 -1       924-1.02538E+03 1.28759E-09 3.10697E+02
 -1       926-1.02551E+03-9.41273E-09 2.56180E+02
 -1       927 1.02544E+03-4.28055E+01-4.43233E+02
 -1       929 1.02544E+03 4.28055E+01-4.43233E+02
 -1       938-7.70199E+02 3.62517E-10 3.09302E+02
 -1       940-7.70328E+02-9.28985E-09 2.52802E+02
 -1       941 7.70263E+02-4.43620E+01-4.40847E+02
 -1       943 7.70263E+02 4.43620E+01-4.40847E+02
 -1       952-5.19682E+02 1.73180E-09 3.11116E+02
 -1       954-5.19804E+02-5.17496E-09 2.57565E+02
 -1       955 5.19742E+02-4.20478E+01-4.44135E+02
 -1       957 5.19742E+02 4.20478E+01-4.44135E+02
 -1       966-2.81414E+02 7.52492E-09 3.02148E+02
 -1       968-2.81535E+02-3.44964E-11 2.48815E+02
 -1       969 2.81473E+02-4.18765E+01-4.35276E+02
 -1       971 2.81473E+02 4.18765E+01-4.35276E+02
 -1       980 3.06426E+04-3.29869E+03 3.89702E+02
 -1       982 2.39024E+04-2.35818E+03 3.89707E+02
 -1       983 7.84046E-04 7.42409E-04-4.67903E+01
 -1       985 7.77442E-04-2.27705E-04-4.67749E+01
 -1       986-5.80803E-04-2.67221E-03-4.67961E+01
 -1       988 3.26132E-04-4.51024E-03-4.67697E+01
 -1       989-6.02432E-04-7.60519E-03-4.68166E+01
 -1       991 2.49411E-04-1.21366E-02-4.67501E+01
 -1       992-4.27094E-04-1.20902E-02-4.68387E+01
 -1       994 9.96107E-05-2.05711E-02-4.67291E+01
 -1       995-4.62630E-05-1.45635E-02-4.68554E+01
 -1       997 7.99839E-05-2.78161E-02-4.67139E+01
 -1       998 4.21764E-04-1.44201E-02-4.68635E+01
 -1      1000-1.48034E-05-3.20679E-02-4.67071E+01
 -1      1001 8.68575E-04-1.24347E-02-4.68642E+01
 -1      1003-4.38829E-05-3.39809E-02-4.67076E+01
 -1      1004 1.30182E-03-9.34928E-03-4.68597E+01
 -1      1006-1.79897E-04-3.37501E-02-4.67130E+01
 -1      1007 1.64784E-03-5.91529E-03-4.68521E+01
 -1      1009-2.58163E-04-3.21374E-02-4.67212E+01
 -1      1010 1.94468E-03-2.64158E-03-4.68432E+01
 -1      1012-3.56520E-04-2.96216E-02-4.67303E+01
 -1      1013 2.16257E-03 1.41304E-04-4.68342E+01
 -1      1015-3.97783E-04-2.66564E-02-4.67393E+01
 -1      1016 2.32266E-03 2.28995E-03-4.68259E+01
 -1      1018-4.09716E-04-2.35448E-02-4.67473E+01
 -1      1019 2.42299E-03 3.77116E-03-4.68188E+01
 -1      1021-3.69825E-04-2.04961E-02-4.67540E+01
 -1      1022 2.47495E-03 4.64226E-03-4.68128E+01
 -1      1024-2.92395E-04-1.76397E-02-4.67593E+01
 -1      1025 2.48569E-03 4.99714E-03-4.68082E+01
 -1      1027-1.77100E-04-1.50445E-02-4.67633E+01
 -1      1028 2.46312E-03 4.95315E-03-4.68046E+01
 -1      1030-3.57481E-05-1.27422E-02-4.67662E+01
 -1      1031 2.41557E-03 4.62313E-03-4.68019E+01
 -1      1033 1.25161E-04-1.07362E-02-4.67682E+01
 -1      1034 2.34910E-03 4.11139E-03-4.68000E+01
 -1      1036 2.95493E-04-9.01511E-03-4.67694E+01
 -1      1037 2.27063E-03 3.50296E-03-4.67986E+01
 -1      1039 4.68335E-04-7.55782E-03-4.67701E+01
 -1      1040 2.18455E-03 2.86520E-03-4.67976E+01
 -1      1042 6.36168E-04-6.33892E-03-4.67705E+01
 -1      1043 2.09584E-03 2.24601E-03-4.67970E+01
 -1      1045 7.94066E-04-5.33117E-03-4.67707E+01
 -1      1046 2.00727E-03 1.67762E-03-4.67965E+01
 -1      1048 9.37545E-04-4.50753E-03-4.67707E+01
 -1      1049 1.92194E-03 1.17826E-03-4.67962E+01
 -1      1051 1.06418E-03-3.84229E-03-4.67707E+01
 -1      1052 1.84122E-03 7.56096E-04-4.67959E+01
 -1      1054 1.17229E-03-3.31152E-03-4.67707E+01
 -1      1055 1.76680E-03 4.11582E-04-4.67957E+01
 -1      1057 1.26158E-03-2.89375E-03-4.67706E+01
 -1      1058 1.69875E-03 1.40541E-04-4.67955E+01
 -1      1060 1.33255E-03-2.57000E-03-4.67707E+01
 -1      1061 1.63799E-03-6.41091E-05-4.67953E+01
 -1      1063 1.38649E-03-2.32416E-03-4.67707E+01
 -1      1064 1.58421E-03-2.10278E-04-4.67951E+01
 -1      1066 1.42420E-03-2.14275E-03-4.67708E+01
 -1      1067 1.53615E-03-3.04960E-04-4.67949E+01
 -1      1069 1.45061E-03-2.01581E-03-4.67709E+01
 -1      1070 1.49310E-03-3.55226E-04-4.67947E+01
 -1      1072 1.46572E-03-1.93761E-03-4.67711E+01
 -1      1073 3.06426E+04 3.29869E+03 3.89702E+02
 -1      1075 2.39024E+04 2.35818E+03 3.89707E+02
 -1      1076 1.85447E+04-3.09801E-05 6.23153E+03
 -1      1078 1.85447E+04 3.09839E-05 6.23153E+03
 -1      1079 2.51507E+01-2.98998E-05 5.96223E+03
 -1      1081 2.51507E+01 2.99100E-05 5.96223E+03
 -1      1082-1.85094E+04-3.06413E-05 6.24924E+03
 -1      1084-1.85094E+04 3.06489E-05 6.24924E+03
 -1      1085-7.66440E+03 8.29137E+01 1.64879E+03
 -1      1087-7.66440E+03-8.29137E+01 1.64879E+03
 -1      1088 7.66444E+03-2.23545E-09-1.75575E+03
 -1      1090 7.66436E+03-4.50709E-09-1.86141E+03
 -1      1099-6.97551E+03 4.66773E+00-1.56157E+03
 -1      1101-6.97551E+03-4.66773E+00-1.56157E+03
 -1      1102 6.97551E+03 1.24384E-09 1.40477E+03
 -1      1104 6.97551E+03 2.48065E-09 1.39878E+03
 -1      1113-6.51311E+03 1.40597E+01 1.08148E+02
 -1      1115-6.51311E+03-1.40597E+01 1.08148E+02
 -1      1116 6.51312E+03-2.61018E-09-2.58955E+02
 -1      1118 6.51310E+03-9.72278E-10-2.76929E+02
 -1      1127-6.86903E+03 1.24560E+02-7.38560E+02
 -1      1129-6.86903E+03-1.24560E+02-7.38560E+02
 -1      1130 6.86911E+03-5.18884E-10 6.58152E+02
 -1      1132 6.86896E+03 1.43605E-09 4.99380E+02
 -1      1141-6.29431E+03-1.49391E+01-2.85175E+02
 -1      1143-6.29431E+03 1.49391E+01-2.85175E+02
 -1      1144 6.29430E+03-2.18383E-09 1.15902E+02
 -1      1146 6.29432E+03 7.89592E-10 1.34860E+02
 -1      1155-6.20787E+03 9.69249E+01-5.33190E+02
 -1      1157-6.20787E+03-9.69249E+01-5.33190E+02
 -1      1158 6.20795E+03-1.07300E-09 4.35176E+02
 -1      1160 6.20779E+03 9.17362E-10 3.11614E+02
 -1      1169-5.87606E+03 1.89703E+01-3.85100E+02
 -1      1171-5.87606E+03-1.89703E+01-3.85100E+02
 -1      1172 5.87608E+03-2.32339E-09 2.37424E+02
 -1      1174 5.87604E+03 2.27289E-09 2.13187E+02
 -1      1183-5.65843E+03 6.82768E+01-4.72754E+02
 -1      1185-5.65843E+03-6.82768E+01-4.72754E+02
 -1      1186 5.65850E+03-1.41609E-09 3.56484E+02
 -1      1188 5.65837E+03 1.85647E-09 2.69435E+02
 -1      1197-5.38012E+03 3.56413E+01-4.14834E+02
 -1      1199-5.38012E+03-3.56413E+01-4.14834E+02
 -1      1200 5.38016E+03-3.70347E-10 2.77770E+02
 -1      1202 5.38008E+03 1.74570E-09 2.32310E+02
 -1      1211-5.13678E+03 5.55672E+01-4.50532E+02
 -1      1213-5.13678E+03-5.55672E+01-4.50532E+02
 -1      1214 5.13684E+03 8.42441E-10 3.26157E+02
 -1      1216 5.13672E+03 4.02893E-09 2.55317E+02
 -1      1225-4.87184E+03 4.16951E+01-4.25308E+02
 -1      1227-4.87184E+03-4.16951E+01-4.25308E+02
 -1      1228 4.87189E+03 7.38022E-10 2.92093E+02
 -1      1230 4.87179E+03 5.12401E-09 2.38934E+02
 -1      1239-4.62069E+03 4.98185E+01-4.41018E+02
 -1      1241-4.62069E+03-4.98185E+01-4.41018E+02
 -1      1242 4.62075E+03-4.00303E-09 3.12976E+02
 -1      1244 4.62063E+03 2.65326E-10 2.49472E+02
 -1      1253-4.36052E+03 4.36591E+01-4.29533E+02
 -1      1255-4.36052E+03-4.36591E+01-4.29533E+02
 -1      1256 4.36058E+03-5.10784E-09 2.97566E+02
 -1      1258 4.36047E+03 7.38808E-10 2.41914E+02
 -1      1267-4.10639E+03 4.68756E+01-4.36774E+02
 -1      1269-4.10639E+03-4.68756E+01-4.36774E+02
 -1      1270 4.10645E+03-3.12052E-09 3.06854E+02
 -1      1272 4.10633E+03 7.92847E-10 2.47107E+02
 -1      1281-3.84816E+03 4.40741E+01-4.31556E+02
 -1      1283-3.84816E+03-4.40741E+01-4.31556E+02
 -1      1284 3.84822E+03-1.81806E-09 2.99851E+02
 -1      1286 3.84810E+03 2.65182E-09 2.43675E+02
 -1      1295-3.59278E+03 4.51503E+01-4.35073E+02
 -1      1297-3.59278E+03-4.51503E+01-4.35073E+02
 -1      1298 3.59284E+03-1.99791E-09 3.04053E+02
 -1      1300 3.59272E+03 3.25948E-09 2.46507E+02
 -1      1309-3.33540E+03 4.39134E+01-4.32836E+02
 -1      1311-3.33540E+03-4.39134E+01-4.32836E+02
 -1      1312 3.33546E+03-3.99873E-09 3.01028E+02
 -1      1314 3.33533E+03-2.59934E-10 2.45059E+02
 -1      1323-3.07946E+03 4.40129E+01-4.34717E+02
 -1      1325-3.07946E+03-4.40129E+01-4.34717E+02
 -1      1326 3.07952E+03-3.38314E-09 3.02973E+02
 -1      1328 3.07940E+03 2.18501E-10 2.46877E+02
 -1      1337-2.82247E+03 4.35673E+01-4.33927E+02
 -1      1339-2.82247E+03-4.35673E+01-4.33927E+02
 -1      1340 2.82253E+03-5.09969E-10 3.01899E+02
 -1      1342 2.82240E+03 7.32337E-10 2.46371E+02
 -1      1351-2.56628E+03 4.31974E+01-4.35111E+02
 -1      1353-2.56628E+03-4.31974E+01-4.35111E+02
 -1      1354 2.56635E+03-6.41338E-09 3.02848E+02
 -1      1356 2.56622E+03-1.24237E-09 2.47791E+02
 -1      1365-2.30945E+03 4.32024E+01-4.35018E+02
 -1      1367-2.30945E+03-4.32024E+01-4.35018E+02
 -1      1368 2.30951E+03-4.86592E-09 3.02758E+02
 -1      1370 2.30939E+03 5.03551E-10 2.47695E+02
 -1      1379-2.05319E+03 4.25837E+01-4.35940E+02
 -1      1381-2.05319E+03-4.25837E+01-4.35940E+02
 -1      1382 2.05325E+03 7.34723E-09 3.03286E+02
 -1      1384 2.05313E+03 4.43585E-09 2.49011E+02
 -1      1393-1.79641E+03 4.28899E+01-4.36132E+02
 -1      1395-1.79641E+03-4.28899E+01-4.36132E+02
 -1      1396 1.79647E+03 6.63447E-09 3.03673E+02
 -1      1398 1.79634E+03 4.65167E-09 2.49008E+02
 -1      1407-1.54010E+03 4.21145E+01-4.37060E+02
 -1      1409-1.54010E+03-4.21145E+01-4.37060E+02
 -1      1410 1.54016E+03 7.70126E-10 3.04108E+02
 -1      1412 1.54004E+03-2.09627E-09 2.50430E+02
 -1      1421-1.28367E+03 4.27044E+01-4.37137E+02
 -1      1423-1.28367E+03-4.27044E+01-4.37137E+02
 -1      1424 1.28373E+03-3.65525E-09 3.04560E+02
 -1      1426 1.28360E+03-3.86549E-09 2.50131E+02
 -1      1435-1.02707E+03 4.15535E+01-4.38617E+02
 -1      1437-1.02707E+03-4.15535E+01-4.38617E+02
 -1      1438 1.02713E+03 2.98240E-09 3.05307E+02
 -1      1440 1.02701E+03 1.43298E-09 2.52345E+02
 -1      1449-7.71911E+02 4.30980E+01-4.37415E+02
 -1      1451-7.71911E+02-4.30980E+01-4.37415E+02
 -1      1452 7.71973E+02 6.82054E-09 3.05089E+02
 -1      1454 7.71847E+02-9.49131E-09 2.50159E+02
 -1      1463-5.21494E+02 4.07890E+01-4.41834E+02
 -1      1465-5.21494E+02-4.07890E+01-4.41834E+02
 -1      1466 5.21552E+02 8.46665E-10 3.08038E+02
 -1      1468 5.21434E+02-2.87356E-09 2.56049E+02
 -1      1477-2.83255E+02 4.06002E+01-4.34087E+02
 -1      1479-2.83255E+02-4.06002E+01-4.34087E+02
 -1      1480 2.83313E+02 2.09946E-09 3.00170E+02
 -1      1482 2.83195E+02 2.72798E-09 2.48422E+02
 -1      1491 1.70732E-03-3.96789E-03-6.62273E+01
 -1      1493 1.70732E-03 3.96789E-03-6.62273E+01
 -1      1494 1.70694E-03-3.96881E-03-6.62273E+01
 -1      1496 1.70694E-03 3.96881E-03-6.62273E+01
 -1      1497 1.70732E-03-3.96789E-03-6.62273E+01
 -1      1499 1.70732E-03 3.96789E-03-6.62273E+01
 -1      1500-5.58800E-04-2.64280E-03-4.67693E+01
 -1      1502 3.05502E-04-4.46348E-03-4.67955E+01
 -1      1503-5.48129E-04-7.53426E-03-4.67491E+01
 -1      1505 1.97368E-04-1.20081E-02-4.68149E+01
 -1      1506-3.25425E-04-1.20025E-02-4.67271E+01
 -1      1508 5.48407E-06-2.03653E-02-4.68358E+01
 -1      1509 1.05564E-04-1.44902E-02-4.67105E+01
 -1      1511-6.15813E-05-2.75641E-02-4.68509E+01
 -1      1512 6.10092E-04-1.43815E-02-4.67024E+01
 -1      1514-1.89268E-04-3.18094E-02-4.68578E+01
 -1      1515 1.07895E-03-1.24347E-02-4.67015E+01
 -1      1517-2.35612E-04-3.37433E-02-4.68574E+01
 -1      1518 1.51785E-03-9.38009E-03-4.67059E+01
 -1      1520-3.72261E-04-3.35477E-02-4.68521E+01
 -1      1521 1.85643E-03-5.96674E-03-4.67134E+01
 -1      1523-4.38539E-04-3.19757E-02-4.68440E+01
 -1      1524 2.13711E-03-2.70279E-03-4.67223E+01
 -1      1526-5.17383E-04-2.94990E-02-4.68349E+01
 -1      1527 2.33368E-03 7.85254E-05-4.67312E+01
 -1      1529-5.35284E-04-2.65678E-02-4.68260E+01
 -1      1530 2.47106E-03 2.23133E-03-4.67394E+01
 -1      1532-5.23856E-04-2.34837E-02-4.68180E+01
 -1      1533 2.54934E-03 3.71968E-03-4.67466E+01
 -1      1535-4.62516E-04-2.04559E-02-4.68113E+01
 -1      1536 2.58162E-03 4.59903E-03-4.67525E+01
 -1      1538-3.67011E-04-1.76143E-02-4.68060E+01
 -1      1539 2.57564E-03 4.96181E-03-4.67572E+01
 -1      1541-2.37358E-04-1.50291E-02-4.68020E+01
 -1      1542 2.53955E-03 4.92467E-03-4.67607E+01
 -1      1544-8.53324E-05-1.27328E-02-4.67992E+01
 -1      1545 2.48143E-03 4.60005E-03-4.67634E+01
 -1      1547 8.30474E-05-1.07299E-02-4.67972E+01
 -1      1548 2.40696E-03 4.09226E-03-4.67654E+01
 -1      1550 2.58214E-04-9.01005E-03-4.67959E+01
 -1      1551 2.32259E-03 3.48643E-03-4.67667E+01
 -1      1553 4.33917E-04-7.55260E-03-4.67952E+01
 -1      1554 2.23222E-03 2.85022E-03-4.67677E+01
 -1      1556 6.03212E-04-6.33276E-03-4.67948E+01
 -1      1557 2.14040E-03 2.23177E-03-4.67683E+01
 -1      1559 7.61687E-04-5.32365E-03-4.67947E+01
 -1      1560 2.04953E-03 1.66355E-03-4.67688E+01
 -1      1562 9.05238E-04-4.49854E-03-4.67946E+01
 -1      1563 1.96247E-03 1.16403E-03-4.67691E+01
 -1      1565 1.03174E-03-3.83186E-03-4.67947E+01
 -1      1566 1.88035E-03 7.41538E-04-4.67694E+01
 -1      1568 1.13969E-03-3.29981E-03-4.67947E+01
 -1      1569 1.80474E-03 3.96642E-04-4.67696E+01
 -1      1571 1.22892E-03-2.88096E-03-4.67947E+01
 -1      1572 1.73562E-03 1.25254E-04-4.67698E+01
 -1      1574 1.29999E-03-2.55636E-03-4.67947E+01
 -1      1575 1.67385E-03-7.96714E-05-4.67700E+01
 -1      1577 1.35420E-03-2.30989E-03-4.67946E+01
 -1      1578 1.61911E-03-2.26015E-04-4.67702E+01
 -1      1580 1.39233E-03-2.12809E-03-4.67945E+01
 -1      1581 1.57012E-03-3.20756E-04-4.67704E+01
 -1      1583 1.41931E-03-2.00094E-03-4.67944E+01
 -1      1584 1.52619E-03-3.70985E-04-4.67706E+01
 -1      1586 1.43506E-03-1.92270E-03-4.67943E+01
 -1      1587 8.05193E-04 7.33145E-04-4.67750E+01
 -1      1589 7.55516E-04-2.18167E-04-4.67905E+01
 -1      1590-3.07015E+04-3.29380E+03 4.10289E+02
 -1      1592-2.38770E+04-2.37007E+03 4.10283E+02
 -1      1593 8.05193E-04-7.33144E-04-4.67750E+01
 -1      1595 7.55518E-04 2.18165E-04-4.67905E+01
 -1      1596-5.58800E-04 2.64280E-03-4.67693E+01
 -1      1598 3.05502E-04 4.46348E-03-4.67955E+01
 -1      1599-5.48128E-04 7.53426E-03-4.67491E+01
 -1      1601 1.97368E-04 1.20081E-02-4.68149E+01
 -1      1602-3.25425E-04 1.20025E-02-4.67271E+01
 -1      1604 5.48381E-06 2.03653E-02-4.68358E+01
 -1      1605 1.05564E-04 1.44902E-02-4.67105E+01
 -1      1607-6.15811E-05 2.75641E-02-4.68509E+01
 -1      1608 6.10092E-04 1.43815E-02-4.67024E+01
 -1      1610-1.89268E-04 3.18094E-02-4.68578E+01
 -1      1611 1.07895E-03 1.24347E-02-4.67015E+01
 -1      1613-2.35612E-04 3.37433E-02-4.68574E+01
 -1      1614 1.51785E-03 9.38009E-03-4.67059E+01
 -1      1616-3.72262E-04 3.35477E-02-4.68521E+01
 -1      1617 1.85643E-03 5.96674E-03-4.67134E+01
 -1      1619-4.38539E-04 3.19757E-02-4.68440E+01
 -1      1620 2.13711E-03 2.70278E-03-4.67223E+01
 -1      1622-5.17382E-04 2.94990E-02-4.68349E+01
 -1      1623 2.33368E-03-7.85281E-05-4.67312E+01
 -1      1625-5.35283E-04 2.65678E-02-4.68260E+01
 -1      1626 2.47105E-03-2.23133E-03-4.67394E+01
 -1      1628-5.23855E-04 2.34837E-02-4.68180E+01
 -1      1629 2.54934E-03-3.71968E-03-4.67466E+01
 -1      1631-4.62516E-04 2.04559E-02-4.68113E+01
 -1      1632 2.58162E-03-4.59903E-03-4.67525E+01
 -1      1634-3.67010E-04 1.76143E-02-4.68060E+01
 -1      1635 2.57564E-03-4.96181E-03-4.67572E+01
 -1      1637-2.37359E-04 1.50291E-02-4.68020E+01
 -1      1638 2.53955E-03-4.92467E-03-4.67607E+01
 -1      1640-8.53319E-05 1.27328E-02-4.67992E+01
 -1      1641 2.48143E-03-4.60005E-03-4.67634E+01
 -1      1643 8.30471E-05 1.07299E-02-4.67972E+01
 -1      1644 2.40696E-03-4.09225E-03-4.67654E+01
 -1      1646 2.58214E-04 9.01005E-03-4.67959E+01
 -1      1647 2.32259E-03-3.48644E-03-4.67667E+01
 -1      1649 4.33917E-04 7.55260E-03-4.67952E+01
 -1      1650 2.23222E-03-2.85023E-03-4.67677E+01
 -1      1652 6.03213E-04 6.33275E-03-4.67948E+01
 -1      1653 2.14040E-03-2.23177E-03-4.67683E+01
 -1      1655 7.61686E-04 5.32365E-03-4.67947E+01
 -1      1656 2.04953E-03-1.66355E-03-4.67688E+01
 -1      1658 9.05238E-04 4.49854E-03-4.67946E+01
 -1      1659 1.96247E-03-1.16403E-03-4.67691E+01
 -1      1661 1.03175E-03 3.83186E-03-4.67947E+01
 -1      1662 1.88035E-03-7.41543E-04-4.67694E+01
 -1      1664 1.13969E-03 3.29980E-03-4.67947E+01
 -1      1665 1.80474E-03-3.96642E-04-4.67696E+01
 -1      1667 1.22892E-03 2.88095E-03-4.67947E+01
 -1      1668 1.73562E-03-1.25251E-04-4.67698E+01
 -1      1670 1.29998E-03 2.55636E-03-4.67947E+01
 -1      1671 1.67385E-03 7.96718E-05-4.67700E+01
 -1      1673 1.35419E-03 2.30989E-03-4.67946E+01
 -1      1674 1.61911E-03 2.26015E-04-4.67702E+01
 -1      1676 1.39233E-03 2.12809E-03-4.67945E+01
 -1      1677 1.57012E-03 3.20759E-04-4.67704E+01
 -1      1679 1.41931E-03 2.00093E-03-4.67944E+01
 -1      1680 1.52619E-03 3.70990E-04-4.67706E+01
 -1      1682 1.43507E-03 1.92270E-03-4.67943E+01
 -1      1683-3.07015E+04 3.29380E+03 4.10289E+02
 -1      1685-2.38770E+04 2.37007E+03 4.10283E+02
 -1      1686-1.87939E-03-3.88044E-03-9.35823E+01
 -1      1688-8.27880E-04-1.43811E-03-9.35480E+01
 -1      1689-2.18435E-03-9.75417E-03-9.36080E+01
 -1      1691-1.25505E-03-3.75279E-03-9.35217E+01
 -1      1692-1.75847E-03-1.73530E-02-9.36344E+01
 -1      1694-1.26713E-03-6.23762E-03-9.34944E+01
 -1      1695-8.92613E-04-2.41181E-02-9.36529E+01
 -1      1697-9.54023E-04-6.91333E-03-9.34749E+01
 -1      1698 4.47219E-05-2.89797E-02-9.36606E+01
 -1      1700-7.29059E-04-6.22747E-03-9.34662E+01
 -1      1701 6.69918E-04-3.15761E-02-9.36595E+01
 -1      1703-7.02966E-04-3.91159E-03-9.34664E+01
 -1      1704 1.25470E-03-3.23435E-02-9.36526E+01
 -1      1706-8.30008E-04-1.09199E-03-9.34727E+01
 -1      1707 1.55846E-03-3.16219E-02-9.36424E+01
 -1      1709-1.05042E-03 1.91422E-03-9.34825E+01
 -1      1710 1.76226E-03-2.99175E-02-9.36311E+01
 -1      1712-1.33633E-03 4.55675E-03-9.34936E+01
 -1      1713 1.80628E-03-2.75687E-02-9.36202E+01
 -1      1715-1.60831E-03 6.65421E-03-9.35046E+01
 -1      1716 1.76402E-03-2.48906E-02-9.36104E+01
 -1      1718-1.85822E-03 8.08804E-03-9.35145E+01
 -1      1719 1.64085E-03-2.20908E-02-9.36022E+01
 -1      1721-2.04705E-03 8.87597E-03-9.35231E+01
 -1      1722 1.46681E-03-1.93290E-02-9.35958E+01
 -1      1724-2.17868E-03 9.09304E-03-9.35300E+01
 -1      1725 1.25795E-03-1.67042E-02-9.35909E+01
 -1      1727-2.24419E-03 8.84907E-03-9.35354E+01
 -1      1728 1.02872E-03-1.42828E-02-9.35873E+01
 -1      1730-2.25489E-03 8.26699E-03-9.35394E+01
 -1      1731 7.92335E-04-1.20986E-02-9.35849E+01
 -1      1733-2.21554E-03 7.46209E-03-9.35423E+01
 -1      1734 5.56565E-04-1.01679E-02-9.35833E+01
 -1      1736-2.13951E-03 6.53723E-03-9.35444E+01
 -1      1737 3.30224E-04-8.49014E-03-9.35824E+01
 -1      1739-2.03523E-03 5.57458E-03-9.35458E+01
 -1      1740 1.17336E-04-7.05631E-03-9.35819E+01
 -1      1742-1.91433E-03 4.63692E-03-9.35467E+01
 -1      1743-7.69465E-05-5.84966E-03-9.35816E+01
 -1      1745-1.78419E-03 3.76729E-03-9.35473E+01
 -1      1746-2.51206E-04-4.85002E-03-9.35815E+01
 -1      1748-1.65310E-03 2.99225E-03-9.35478E+01
 -1      1749-4.03074E-04-4.03448E-03-9.35815E+01
 -1      1751-1.52585E-03 2.32474E-03-9.35480E+01
 -1      1752-5.33084E-04-3.37993E-03-9.35815E+01
 -1      1754-1.40723E-03 1.76737E-03-9.35483E+01
 -1      1755-6.40808E-04-2.86338E-03-9.35814E+01
 -1      1757-1.29949E-03 1.31568E-03-9.35485E+01
 -1      1758-7.28429E-04-2.46382E-03-9.35814E+01
 -1      1760-1.20450E-03 9.60720E-04-9.35487E+01
 -1      1761-7.96467E-04-2.16192E-03-9.35813E+01
 -1      1763-1.12258E-03 6.91624E-04-9.35489E+01
 -1      1764-8.47543E-04-1.94163E-03-9.35811E+01
 -1      1766-1.05530E-03 4.96639E-04-9.35491E+01
 -1      1767-8.84152E-04-1.79038E-03-9.35809E+01
 -1      1769-9.97086E-04 3.66718E-04-9.35493E+01
 -1      1770-9.13180E-04-1.69982E-03-9.35807E+01
 -1      1772-9.54546E-04 2.94174E-04-9.35496E+01
 -1      1773-1.87939E-03 3.88044E-03-9.35823E+01
 -1      1775-8.27880E-04 1.43811E-03-9.35480E+01
 -1      1776-2.18435E-03 9.75417E-03-9.36080E+01
 -1      1778-1.25505E-03 3.75279E-03-9.35217E+01
 -1      1779-1.75847E-03 1.73530E-02-9.36344E+01
 -1      1781-1.26713E-03 6.23762E-03-9.34944E+01
 -1      1782-8.92613E-04 2.41181E-02-9.36529E+01
 -1      1784-9.54023E-04 6.91333E-03-9.34749E+01
 -1      1785 4.47221E-05 2.89797E-02-9.36606E+01
 -1      1787-7.29060E-04 6.22747E-03-9.34662E+01
 -1      1788 6.69917E-04 3.15761E-02-9.36595E+01
 -1      1790-7.02966E-04 3.91159E-03-9.34664E+01
 -1      1791 1.25470E-03 3.23435E-02-9.36526E+01
 -1      1793-8.30007E-04 1.09199E-03-9.34727E+01
 -1      1794 1.55845E-03 3.16219E-02-9.36424E+01
 -1      1796-1.05042E-03-1.91422E-03-9.34825E+01
 -1      1797 1.76226E-03 2.99175E-02-9.36311E+01
 -1      1799-1.33633E-03-4.55675E-03-9.34936E+01
 -1      1800 1.80628E-03 2.75687E-02-9.36202E+01
 -1      1802-1.60832E-03-6.65420E-03-9.35046E+01
 -1      1803 1.76402E-03 2.48906E-02-9.36104E+01
 -1      1805-1.85822E-03-8.08803E-03-9.35145E+01
 -1      1806 1.64085E-03 2.20908E-02-9.36022E+01
 -1      1808-2.04705E-03-8.87597E-03-9.35231E+01
 -1      1809 1.46681E-03 1.93290E-02-9.35958E+01
 -1      1811-2.17867E-03-9.09304E-03-9.35300E+01
 -1      1812 1.25795E-03 1.67042E-02-9.35909E+01
 -1      1814-2.24419E-03-8.84907E-03-9.35354E+01
 -1      1815 1.02872E-03 1.42828E-02-9.35873E+01
 -1      1817-2.25488E-03-8.26699E-03-9.35394E+01
 -1      1818 7.92335E-04 1.20987E-02-9.35849E+01
 -1      1820-2.21554E-03-7.46208E-03-9.35423E+01
 -1      1821 5.56564E-04 1.01679E-02-9.35833E+01
 -1      1823-2.13951E-03-6.53723E-03-9.35444E+01
 -1      1824 3.30223E-04 8.49014E-03-9.35824E+01
 -1      1826-2.03523E-03-5.57458E-03-9.35458E+01
 -1      1827 1.17334E-04 7.05630E-03-9.35819E+01
 -1      1829-1.91433E-03-4.63693E-03-9.35467E+01
 -1      1830-7.69464E-05 5.84965E-03-9.35816E+01
 -1      1832-1.78419E-03-3.76729E-03-9.35473E+01
 -1      1833-2.51204E-04 4.85001E-03-9.35815E+01
 -1      1835-1.65310E-03-2.99225E-03-9.35478E+01
 -1      1836-4.03074E-04 4.03448E-03-9.35815E+01
 -1      1838-1.52586E-03-2.32475E-03-9.35480E+01
 -1      1839-5.33082E-04 3.37993E-03-9.35815E+01
 -1      1841-1.40723E-03-1.76736E-03-9.35483E+01
 -1      1842-6.40809E-04 2.86339E-03-9.35814E+01
 -1      1844-1.29949E-03-1.31568E-03-9.35485E+01
 -1      1845-7.28426E-04 2.46383E-03-9.35814E+01
 -1      1847-1.20450E-03-9.60711E-04-9.35487E+01
 -1      1848-7.96465E-04 2.16193E-03-9.35813E+01
 -1      1850-1.12258E-03-6.91617E-04-9.35489E+01
 -1      1851-8.47542E-04 1.94163E-03-9.35811E+01
 -1      1853-1.05530E-03-4.96641E-04-9.35491E+01
 -1      1854-8.84153E-04 1.79038E-03-9.35809E+01
 -1      1856-9.97084E-04-3.66724E-04-9.35493E+01
 -1      1857-9.13183E-04 1.69981E-03-9.35807E+01
 -1      1859-9.54545E-04-2.94187E-04-9.35496E+01
 -1      1860-9.02065E-06-6.99108E-05-1.32455E+02
 -1      1862-9.02056E-06 6.99109E-05-1.32455E+02
 -1      1863-1.52222E-05-9.55283E-05-1.32455E+02
 -1      1865-1.52225E-05 9.55284E-05-1.32455E+02
 -1      1866-3.40254E-05-1.61723E-04-1.32455E+02
 -1      1868-3.40251E-05 1.61723E-04-1.32455E+02
 -1      1869-4.97722E-05-2.84942E-04-1.32455E+02
 -1      1871-4.97703E-05 2.84942E-04-1.32455E+02
 -1      1872-7.34704E-05-4.77357E-04-1.32455E+02
 -1      1874-7.34683E-05 4.77357E-04-1.32455E+02
 -1      1875-9.21251E-05-7.46983E-04-1.32455E+02
 -1      1877-9.21225E-05 7.46982E-04-1.32455E+02
 -1      1878-1.14015E-04-1.09109E-03-1.32455E+02
 -1      1880-1.14015E-04 1.09109E-03-1.32455E+02
 -1      1881-1.30680E-04-1.50763E-03-1.32455E+02
 -1      1883-1.30683E-04 1.50764E-03-1.32455E+02
 -1      1884-1.46573E-04-1.98539E-03-1.32455E+02
 -1      1886-1.46578E-04 1.98540E-03-1.32455E+02
 -1      1887-1.56759E-04-2.51331E-03-1.32455E+02
 -1      1889-1.56766E-04 2.51331E-03-1.32455E+02
 -1      1890-1.64186E-04-3.07562E-03-1.32455E+02
 -1      1892-1.64192E-04 3.07562E-03-1.32455E+02
 -1      1893-1.65981E-04-3.65721E-03-1.32455E+02
 -1      1895-1.65978E-04 3.65721E-03-1.32455E+02
 -1      1896-1.64587E-04-4.24177E-03-1.32455E+02
 -1      1898-1.64581E-04 4.24177E-03-1.32455E+02
 -1      1899-1.58392E-04-4.81465E-03-1.32455E+02
 -1      1901-1.58394E-04 4.81465E-03-1.32455E+02
 -1      1902-1.49583E-04-5.36219E-03-1.32455E+02
 -1      1904-1.49586E-04 5.36220E-03-1.32455E+02
 -1      1905-1.37337E-04-5.87309E-03-1.32455E+02
 -1      1907-1.37338E-04 5.87309E-03-1.32455E+02
 -1      1908-1.23548E-04-6.33820E-03-1.32455E+02
 -1      1910-1.23550E-04 6.33820E-03-1.32455E+02
 -1      1911-1.07841E-04-6.75083E-03-1.32455E+02
 -1      1913-1.07843E-04 6.75082E-03-1.32455E+02
 -1      1914-9.17872E-05-7.10685E-03-1.32455E+02
 -1      1916-9.17925E-05 7.10685E-03-1.32455E+02
 -1      1917-7.52178E-05-7.40430E-03-1.32455E+02
 -1      1919-7.52196E-05 7.40429E-03-1.32455E+02
 -1      1920-5.93531E-05-7.64352E-03-1.32455E+02
 -1      1922-5.93517E-05 7.64352E-03-1.32455E+02
 -1      1923-4.40783E-05-7.82648E-03-1.32455E+02
 -1      1925-4.40748E-05 7.82648E-03-1.32455E+02
 -1      1926-3.02783E-05-7.95699E-03-1.32455E+02
 -1      1928-3.02731E-05 7.95698E-03-1.32455E+02
 -1      1929-1.78209E-05-8.03980E-03-1.32455E+02
 -1      1931-1.78164E-05 8.03980E-03-1.32455E+02
 -1      1932-7.30357E-06-8.08099E-03-1.32455E+02
 -1      1934-7.29821E-06 8.08099E-03-1.32455E+02
 -1      1935 1.46880E-06-8.08691E-03-1.32455E+02
 -1      1937 1.46666E-06 8.08691E-03-1.32455E+02
 -1      1938 8.01656E-06-8.06477E-03-1.32455E+02
 -1      1940 8.00632E-06 8.06476E-03-1.32455E+02
 -1      1941 1.27862E-05-8.02149E-03-1.32455E+02
 -1      1943 1.27831E-05 8.02148E-03-1.32455E+02
 -1      1944 1.46675E-05-7.96564E-03-1.32455E+02
 -1      1946 1.46688E-05 7.96564E-03-1.32455E+02
 -1      1947-7.70667E-06-6.28800E-05-1.32455E+02
 -1      1949-7.70655E-06 6.28800E-05-1.32455E+02
 -1      1950-1.69769E-05-8.52428E-05-1.32455E+02
 -1      1952-1.69766E-05 8.52430E-05-1.32455E+02
 -1      1953-3.13526E-05-1.47560E-04-1.32455E+02
 -1      1955-3.13527E-05 1.47560E-04-1.32455E+02
 -1      1956-4.98795E-05-2.64837E-04-1.32455E+02
 -1      1958-4.98791E-05 2.64837E-04-1.32455E+02
 -1      1959-7.13303E-05-4.50919E-04-1.32455E+02
 -1      1961-7.13301E-05 4.50919E-04-1.32455E+02
 -1      1962-9.20688E-05-7.13016E-04-1.32455E+02
 -1      1964-9.20686E-05 7.13015E-04-1.32455E+02
 -1      1965-1.12938E-04-1.05211E-03-1.32455E+02
 -1      1967-1.12937E-04 1.05211E-03-1.32455E+02
 -1      1968-1.30794E-04-1.46368E-03-1.32455E+02
 -1      1970-1.30795E-04 1.46368E-03-1.32455E+02
 -1      1971-1.46051E-04-1.93862E-03-1.32455E+02
 -1      1973-1.46054E-04 1.93863E-03-1.32455E+02
 -1      1974-1.57076E-04-2.46424E-03-1.32455E+02
 -1      1976-1.57078E-04 2.46424E-03-1.32455E+02
 -1      1977-1.64051E-04-3.02571E-03-1.32455E+02
 -1      1979-1.64051E-04 3.02571E-03-1.32455E+02
 -1      1980-1.66481E-04-3.60708E-03-1.32455E+02
 -1      1982-1.66479E-04 3.60708E-03-1.32455E+02
 -1      1983-1.64762E-04-4.19234E-03-1.32455E+02
 -1      1985-1.64761E-04 4.19234E-03-1.32455E+02
 -1      1986-1.59054E-04-4.76646E-03-1.32455E+02
 -1      1988-1.59055E-04 4.76645E-03-1.32455E+02
 -1      1989-1.50021E-04-5.31577E-03-1.32455E+02
 -1      1991-1.50022E-04 5.31576E-03-1.32455E+02
 -1      1992-1.38134E-04-5.82886E-03-1.32455E+02
 -1      1994-1.38132E-04 5.82886E-03-1.32455E+02
 -1      1995-1.24190E-04-6.29644E-03-1.32455E+02
 -1      1997-1.24190E-04 6.29644E-03-1.32455E+02
 -1      1998-1.08743E-04-6.71188E-03-1.32455E+02
 -1      2000-1.08744E-04 6.71188E-03-1.32455E+02
 -1      2001-9.25824E-05-7.07080E-03-1.32455E+02
 -1      2003-9.25822E-05 7.07080E-03-1.32455E+02
 -1      2004-7.61975E-05-7.37141E-03-1.32455E+02
 -1      2006-7.61971E-05 7.37141E-03-1.32455E+02
 -1      2007-6.02532E-05-7.61379E-03-1.32455E+02
 -1      2009-6.02529E-05 7.61379E-03-1.32455E+02
 -1      2010-4.51075E-05-7.80010E-03-1.32455E+02
 -1      2012-4.51082E-05 7.80010E-03-1.32455E+02
 -1      2013-3.12492E-05-7.93391E-03-1.32455E+02
 -1      2015-3.12494E-05 7.93392E-03-1.32455E+02
 -1      2016-1.88858E-05-8.02022E-03-1.32455E+02
 -1      2018-1.88858E-05 8.02021E-03-1.32455E+02
 -1      2019-8.32518E-06-8.06478E-03-1.32455E+02
 -1      2021-8.32597E-06 8.06479E-03-1.32455E+02
 -1      2022 3.51893E-07-8.07425E-03-1.32455E+02
 -1      2024 3.48733E-07 8.07424E-03-1.32455E+02
 -1      2025 6.94471E-06-8.05563E-03-1.32455E+02
 -1      2027 6.94275E-06 8.05561E-03-1.32455E+02
 -1      2028 1.13800E-05-8.01646E-03-1.32455E+02
 -1      2030 1.13812E-05 8.01645E-03-1.32455E+02
 -1      2031 1.33207E-05-7.96516E-03-1.32455E+02
 -1      2033 1.33221E-05 7.96515E-03-1.32455E+02
 -1      2034-9.03317E-06-6.92121E-05-1.32455E+02
 -1      2036-9.03257E-06 6.92119E-05-1.32455E+02
 -1      2037-1.52724E-05-9.50145E-05-1.32455E+02
 -1      2039-1.52719E-05 9.50143E-05-1.32455E+02
 -1      2040-3.40121E-05-1.61497E-04-1.32455E+02
 -1      2042-3.40129E-05 1.61497E-04-1.32455E+02
 -1      2043-4.97428E-05-2.84840E-04-1.32455E+02
 -1      2045-4.97434E-05 2.84840E-04-1.32455E+02
 -1      2046-7.34594E-05-4.77384E-04-1.32455E+02
 -1      2048-7.34582E-05 4.77384E-04-1.32455E+02
 -1      2049-9.21054E-05-7.47106E-04-1.32455E+02
 -1      2051-9.21055E-05 7.47107E-04-1.32455E+02
 -1      2052-1.14025E-04-1.09127E-03-1.32455E+02
 -1      2054-1.14027E-04 1.09127E-03-1.32455E+02
 -1      2055-1.30695E-04-1.50787E-03-1.32455E+02
 -1      2057-1.30697E-04 1.50786E-03-1.32455E+02
 -1      2058-1.46611E-04-1.98564E-03-1.32455E+02
 -1      2060-1.46612E-04 1.98564E-03-1.32455E+02
 -1      2061-1.56809E-04-2.51354E-03-1.32455E+02
 -1      2063-1.56806E-04 2.51354E-03-1.32455E+02
 -1      2064-1.64250E-04-3.07583E-03-1.32455E+02
 -1      2066-1.64245E-04 3.07583E-03-1.32455E+02
 -1      2067-1.66048E-04-3.65740E-03-1.32455E+02
 -1      2069-1.66046E-04 3.65741E-03-1.32455E+02
 -1      2070-1.64659E-04-4.24194E-03-1.32455E+02
 -1      2072-1.64658E-04 4.24194E-03-1.32455E+02
 -1      2073-1.58473E-04-4.81479E-03-1.32455E+02
 -1      2075-1.58472E-04 4.81479E-03-1.32455E+02
 -1      2076-1.49666E-04-5.36230E-03-1.32455E+02
 -1      2078-1.49667E-04 5.36230E-03-1.32455E+02
 -1      2079-1.37418E-04-5.87317E-03-1.32455E+02
 -1      2081-1.37422E-04 5.87317E-03-1.32455E+02
 -1      2082-1.23630E-04-6.33825E-03-1.32455E+02
 -1      2084-1.23631E-04 6.33825E-03-1.32455E+02
 -1      2085-1.07920E-04-6.75087E-03-1.32455E+02
 -1      2087-1.07921E-04 6.75087E-03-1.32455E+02
 -1      2088-9.18608E-05-7.10688E-03-1.32455E+02
 -1      2090-9.18678E-05 7.10689E-03-1.32455E+02
 -1      2091-7.52870E-05-7.40432E-03-1.32455E+02
 -1      2093-7.52890E-05 7.40431E-03-1.32455E+02
 -1      2094-5.94145E-05-7.64353E-03-1.32455E+02
 -1      2096-5.94172E-05 7.64353E-03-1.32455E+02
 -1      2097-4.41309E-05-7.82647E-03-1.32455E+02
 -1      2099-4.41371E-05 7.82647E-03-1.32455E+02
 -1      2100-3.03261E-05-7.95698E-03-1.32455E+02
 -1      2102-3.03285E-05 7.95698E-03-1.32455E+02
 -1      2103-1.78652E-05-8.03980E-03-1.32455E+02
 -1      2105-1.78601E-05 8.03981E-03-1.32455E+02
 -1      2106-7.34132E-06-8.08100E-03-1.32455E+02
 -1      2108-7.33504E-06 8.08099E-03-1.32455E+02
 -1      2109 1.43889E-06-8.08692E-03-1.32455E+02
 -1      2111 1.43799E-06 8.08692E-03-1.32455E+02
 -1      2112 7.99091E-06-8.06477E-03-1.32455E+02
 -1      2114 7.99029E-06 8.06477E-03-1.32455E+02
 -1      2115 1.27709E-05-8.02144E-03-1.32455E+02
 -1      2117 1.27737E-05 8.02144E-03-1.32455E+02
 -1      2118 1.46635E-05-7.96562E-03-1.32455E+02
 -1      2120 1.46639E-05 7.96561E-03-1.32455E+02
 -1      2121-1.83900E-03 3.84182E-03-9.35486E+01
 -1      2123-8.42249E-04 1.42092E-03-9.35825E+01
 -1      2124-2.10349E-03 9.65534E-03-9.35231E+01
 -1      2126-1.31040E-03 3.72422E-03-9.36085E+01
 -1      2127-1.63058E-03 1.71800E-02-9.34969E+01
 -1      2129-1.38700E-03 6.20599E-03-9.36356E+01
 -1      2130-7.14169E-04 2.38955E-02-9.34784E+01
 -1      2132-1.14206E-03 6.90019E-03-9.36550E+01
 -1      2133 2.56752E-04 2.87402E-02-9.34706E+01
 -1      2135-9.65196E-04 6.24216E-03-9.36638E+01
 -1      2136 9.01405E-04 3.13476E-02-9.34716E+01
 -1      2138-9.64219E-04 3.95496E-03-9.36637E+01
 -1      2139 1.48698E-03 3.21434E-02-9.34784E+01
 -1      2141-1.09504E-03 1.15652E-03-9.36576E+01
 -1      2142 1.77763E-03 3.14572E-02-9.34884E+01
 -1      2144-1.30265E-03-1.83878E-03-9.36479E+01
 -1      2145 1.95971E-03 2.97894E-02-9.34996E+01
 -1      2147-1.56555E-03-4.47914E-03-9.36369E+01
 -1      2148 1.97721E-03 2.74735E-02-9.35105E+01
 -1      2150-1.80927E-03-6.58127E-03-9.36260E+01
 -1      2151 1.90823E-03 2.48232E-02-9.35202E+01
 -1      2153-2.03020E-03-8.02368E-03-9.36161E+01
 -1      2154 1.76023E-03 2.20450E-02-9.35284E+01
 -1      2156-2.19189E-03-8.82183E-03-9.36076E+01
 -1      2157 1.56510E-03 1.92991E-02-9.35349E+01
 -1      2159-2.30003E-03-9.04905E-03-9.36007E+01
 -1      2160 1.33932E-03 1.66851E-02-9.35398E+01
 -1      2162-2.34624E-03-8.81404E-03-9.35953E+01
 -1      2163 1.09737E-03 1.42705E-02-9.35433E+01
 -1      2165-2.34187E-03-8.23920E-03-9.35913E+01
 -1      2166 8.51979E-04 1.20901E-02-9.35457E+01
 -1      2168-2.29122E-03-7.43966E-03-9.35883E+01
 -1      2169 6.10242E-04 1.01608E-02-9.35473E+01
 -1      2171-2.20706E-03-6.51844E-03-9.35863E+01
 -1      2172 3.80268E-04 8.48295E-03-9.35483E+01
 -1      2174-2.09710E-03-5.55793E-03-9.35849E+01
 -1      2175 1.65377E-04 7.04811E-03-9.35488E+01
 -1      2177-1.97234E-03-4.62129E-03-9.35839E+01
 -1      2178-2.98576E-05 5.83992E-03-9.35490E+01
 -1      2180-1.83958E-03-3.75185E-03-9.35833E+01
 -1      2181-2.04481E-04 4.83857E-03-9.35491E+01
 -1      2183-1.70669E-03-2.97648E-03-9.35829E+01
 -1      2184-3.56450E-04 4.02134E-03-9.35492E+01
 -1      2186-1.57809E-03-2.30835E-03-9.35826E+01
 -1      2187-4.86550E-04 3.36527E-03-9.35492E+01
 -1      2189-1.45834E-03-1.75025E-03-9.35824E+01
 -1      2190-5.94471E-04 2.84745E-03-9.35492E+01
 -1      2192-1.34955E-03-1.29786E-03-9.35822E+01
 -1      2193-6.82478E-04 2.44688E-03-9.35493E+01
 -1      2195-1.25352E-03-9.42307E-04-9.35820E+01
 -1      2196-7.51095E-04 2.14423E-03-9.35494E+01
 -1      2198-1.17050E-03-6.72773E-04-9.35818E+01
 -1      2199-8.02926E-04 1.92346E-03-9.35495E+01
 -1      2201-1.10210E-03-4.77509E-04-9.35815E+01
 -1      2202-8.40467E-04 1.77197E-03-9.35497E+01
 -1      2204-1.04270E-03-3.47471E-04-9.35813E+01
 -1      2205-8.70494E-04 1.68137E-03-9.35499E+01
 -1      2207-9.99018E-04-2.74956E-04-9.35811E+01
 -1      2208-1.83900E-03-3.84182E-03-9.35486E+01
 -1      2210-8.42249E-04-1.42092E-03-9.35825E+01
 -1      2211-2.10349E-03-9.65534E-03-9.35231E+01
 -1      2213-1.31040E-03-3.72422E-03-9.36085E+01
 -1      2214-1.63058E-03-1.71800E-02-9.34969E+01
 -1      2216-1.38700E-03-6.20599E-03-9.36356E+01
 -1      2217-7.14168E-04-2.38955E-02-9.34784E+01
 -1      2219-1.14206E-03-6.90019E-03-9.36550E+01
 -1      2220 2.56752E-04-2.87402E-02-9.34706E+01
 -1      2222-9.65197E-04-6.24216E-03-9.36638E+01
 -1      2223 9.01407E-04-3.13476E-02-9.34716E+01
 -1      2225-9.64220E-04-3.95496E-03-9.36637E+01
 -1      2226 1.48698E-03-3.21434E-02-9.34784E+01
 -1      2228-1.09504E-03-1.15652E-03-9.36576E+01
 -1      2229 1.77762E-03-3.14572E-02-9.34884E+01
 -1      2231-1.30265E-03 1.83878E-03-9.36479E+01
 -1      2232 1.95971E-03-2.97894E-02-9.34996E+01
 -1      2234-1.56554E-03 4.47914E-03-9.36369E+01
 -1      2235 1.97721E-03-2.74735E-02-9.35105E+01
 -1      2237-1.80927E-03 6.58127E-03-9.36260E+01
 -1      2238 1.90823E-03-2.48232E-02-9.35202E+01
 -1      2240-2.03020E-03 8.02367E-03-9.36161E+01
 -1      2241 1.76023E-03-2.20450E-02-9.35284E+01
 -1      2243-2.19189E-03 8.82183E-03-9.36076E+01
 -1      2244 1.56510E-03-1.92991E-02-9.35349E+01
 -1      2246-2.30003E-03 9.04906E-03-9.36007E+01
 -1      2247 1.33932E-03-1.66851E-02-9.35398E+01
 -1      2249-2.34624E-03 8.81403E-03-9.35953E+01
 -1      2250 1.09737E-03-1.42705E-02-9.35433E+01
 -1      2252-2.34187E-03 8.23920E-03-9.35913E+01
 -1      2253 8.51978E-04-1.20901E-02-9.35457E+01
 -1      2255-2.29122E-03 7.43966E-03-9.35883E+01
 -1      2256 6.10244E-04-1.01608E-02-9.35473E+01
 -1      2258-2.20706E-03 6.51844E-03-9.35863E+01
 -1      2259 3.80269E-04-8.48295E-03-9.35483E+01
 -1      2261-2.09710E-03 5.55794E-03-9.35849E+01
 -1      2262 1.65375E-04-7.04810E-03-9.35488E+01
 -1      2264-1.97234E-03 4.62129E-03-9.35839E+01
 -1      2265-2.98580E-05-5.83991E-03-9.35490E+01
 -1      2267-1.83959E-03 3.75185E-03-9.35833E+01
 -1      2268-2.04480E-04-4.83856E-03-9.35491E+01
 -1      2270-1.70668E-03 2.97648E-03-9.35829E+01
 -1      2271-3.56450E-04-4.02135E-03-9.35492E+01
 -1      2273-1.57808E-03 2.30835E-03-9.35826E+01
 -1      2274-4.86549E-04-3.36528E-03-9.35492E+01
 -1      2276-1.45834E-03 1.75025E-03-9.35824E+01
 -1      2277-5.94470E-04-2.84745E-03-9.35492E+01
 -1      2279-1.34956E-03 1.29786E-03-9.35822E+01
 -1      2280-6.82473E-04-2.44687E-03-9.35493E+01
 -1      2282-1.25353E-03 9.42304E-04-9.35820E+01
 -1      2283-7.51091E-04-2.14423E-03-9.35494E+01
 -1      2285-1.17050E-03 6.72766E-04-9.35818E+01
 -1      2286-8.02930E-04-1.92346E-03-9.35495E+01
 -1      2288-1.10210E-03 4.77500E-04-9.35815E+01
 -1      2289-8.40465E-04-1.77197E-03-9.35497E+01
 -1      2291-1.04270E-03 3.47463E-04-9.35813E+01
 -1      2292-8.70500E-04-1.68137E-03-9.35499E+01
 -1      2294-9.99019E-04 2.74947E-04-9.35811E+01
 -3
    1PSTEP                         4           1           1          
  100CL  101 50.00000000         930                     0    1           1
 -4  ERROR       1    1
 -5  STR(%)      1    1    0    0
 -1       404 0.00000E+00
 -1       406 0.00000E+00
 -1       407 0.00000E+00
 -1       409 0.00000E+00
 -1       410 0.00000E+00
 -1       412 0.00000E+00
 -1       413 0.00000E+00
 -1       415 0.00000E+00
 -1       424 0.00000E+00
 -1       426 0.00000E+00
 -1       427 0.00000E+00
 -1       429 0.00000E+00
 -1       438 0.00000E+00
 -1       440 0.00000E+00
 -1       441 0.00000E+00
 -1       443 0.00000E+00
 -1       444 0.00000E+00
 -1       446 0.00000E+00
 -1       447 0.00000E+00
 -1       449 0.00000E+00
 -1       458 0.00000E+00
 -1       460 0.00000E+00
 -1       461 0.00000E+00
 -1       463 0.00000E+00
 -1       472 0.00000E+00
 -1       474 0.00000E+00
 -1       475 0.00000E+00
 -1       477 0.00000E+00
 -1       478 0.00000E+00
 -1       480 0.00000E+00
 -1       481 0.00000E+00
 -1       483 0.00000E+00
 -1       484 0.00000E+00
 -1       486 0.00000E+00
 -1       487 0.00000E+00
 -1       489 0.00000E+00
 -1       490 0.00000E+00
 -1       492 0.00000E+00
 -1       493 0.00000E+00
 -1       495 0.00000E+00
 -1       496 0.00000E+00
 -1       498 0.00000E+00
 -1       499 0.00000E+00
 -1       501 0.00000E+00
 -1       502 0.00000E+00
 -1       504 0.00000E+00
 -1       505 0.00000E+00
 -1       507 0.00000E+00
 -1       508 0.00000E+00
 -1       510 0.00000E+00
 -1       511 0.00000E+00
 -1       513 0.00000E+00
 -1       514 0.00000E+00
 -1       516 0.00000E+00
 -1       517 0.00000E+00
 -1       519 0.00000E+00
 -1       520 0.00000E+00
 -1       522 0.00000E+00
 -1       523 0.00000E+00
 -1       525 0.00000E+00
 -1       526 0.00000E+00
 -1       528 0.00000E+00
 -1       529 0.00000E+00
 -1       531 0.00000E+00
 -1       532 0.00000E+00
 -1       534 0.00000E+00
 -1       535 0.00000E+00
 -1       537 0.00000E+00
 -1       538 0.00000E+00
 -1       540 0.00000E+00
 -1       541 0.00000E+00
 -1       543 0.00000E+00
 -1       544 0.00000E+00
 -1       546 0.00000E+00
 -1       547 0.00000E+00
 -1       549 0.00000E+00
 -1       550 0.00000E+00
 -1       552 0.00000E+00
 -1       553 0.00000E+00
 -1       555 0.00000E+00
 -1       556 0.00000E+00
 -1       558 0.00000E+00
 -1       559 0.00000E+00
 -1       561 0.00000E+00
 -1       562 0.00000E+00
 -1       564 0.00000E+00
 -1       565 0.00000E+00
 -1       567 0.00000E+00
 -1       568 0.00000E+00
 -1       570 0.00000E+00
 -1       571 0.00000E+00
 -1       573 0.00000E+00
 -1       574 0.00000E+00
 -1       576 0.00000E+00
 -1       577 0.00000E+00
 -1       579 0.00000E+00
 -1       588 0.00000E+00
 -1       590 0.00000E+00
 -1       591 0.00000E+00
 -1       593 0.00000E+00
 -1       602 0.00000E+00
 -1       604 0.00000E+00
 -1       605 0.00000E+00
 -1       607 0.00000E+00
 -1       616 0.00000E+00
 -1       618 0.00000E+00
 -1       619 0.00000E+00
 -1       621 0.00000E+00
 -1       630 0.00000E+00
 -1       632 0.00000E+00
 -1       633 0.00000E+00
 -1       635 0.00000E+00
 -1       644 0.00000E+00
 -1       646 0.00000E+00
 -1       647 0.00000E+00
 -1       649 0.00000E+00
 -1       658 0.00000E+00
 -1       660 0.00000E+00
 -1       661 0.00000E+00
 -1       663 0.00000E+00
 -1       672 0.00000E+00
 -1       674 0.00000E+00
 -1       675 0.00000E+00
 -1       677 0.00000E+00
 -1       686 0.00000E+00
 -1       688 0.00000E+00
 -1       689 0.00000E+00
 -1       691 0.00000E+00
 -1       700 0.00000E+00
 -1       702 0.00000E+00
 -1       703 0.00000E+00
 -1       705 0.00000E+00
 -1       714 0.00000E+00
 -1       716 0.00000E+00
 -1       717 0.00000E+00
 -1       719 0.00000E+00
 -1       728 0.00000E+00
 -1       730 0.00000E+00
 -1       731 0.00000E+00
 -1       733 0.00000E+00
 -1       742 0.00000E+00
 -1       744 0.00000E+00
 -1       745 0.00000E+00
 -1       747 0.00000E+00
 -1       756 0.00000E+00
 -1       758 0.00000E+00
 -1       759 0.00000E+00
 -1       761 0.00000E+00
 -1       770 0.00000E+00
 -1       772 0.00000E+00
 -1       773 0.00000E+00
 -1       775 0.00000E+00
 -1       784 0.00000E+00
 -1       786 0.00000E+00
 -1       787 0.00000E+00
 -1       789 0.00000E+00
 -1       798 0.00000E+00
 -1       800 0.00000E+00
 -1       801 0.00000E+00
 -1       803 0.00000E+00
 -1       812 0.00000E+00
 -1       814 0.00000E+00
 -1       815 0.00000E+00
 -1       817 0.00000E+00
 -1       826 0.00000E+00
 -1       828 0.00000E+00
 -1       829 0.00000E+00
 -1       831 0.00000E+00
 -1       840 0.00000E+00
 -1       842 0.00000E+00
 -1       843 0.00000E+00
 -1       845 0.00000E+00
 -1       854 0.00000E+00
 -1       856 0.00000E+00
 -1       857 0.00000E+00
 -1       859 0.00000E+00
 -1       868 0.00000E+00
 -1       870 0.00000E+00
 -1       871 0.00000E+00
 -1       873 0.00000E+00
 -1       882 0.00000E+00
 -1       884 0.00000E+00
 -1       885 0.00000E+00
 -1       887 0.00000E+00
 -1       896 0.00000E+00
 -1       898 0.00000E+00
 -1       899 0.00000E+00
 -1       901 0.00000E+00
 -1       910 0.00000E+00
 -1       912 0.00000E+00
 -1       913 0.00000E+00
 -1       915 0.00000E+00
 -1       924 0.00000E+00
 -1       926 0.00000E+00
 -1       927 0.00000E+00
 -1       929 0.00000E+00
 -1       938 0.00000E+00
 -1       940 0.00000E+00
 -1       941 0.00000E+00
 -1       943 0.00000E+00
 -1       952 0.00000E+00
 -1       954 0.00000E+00
 -1       955 0.00000E+00
 -1       957 0.00000E+00
 -1       966 0.00000E+00
 -1       968 0.00000E+00
 -1       969 0.00000E+00
 -1       971 0.00000E+00
 -1       980 0.00000E+00
 -1       982 0.00000E+00
 -1       983 0.00000E+00
 -1       985 0.00000E+00
 -1       986 0.00000E+00
 -1       988 0.00000E+00
 -1       989 0.00000E+00
 -1       991 0.00000E+00
 -1       992 0.00000E+00
 -1       994 0.00000E+00
 -1       995 0.00000E+00
 -1       997 0.00000E+00
 -1       998 0.00000E+00
 -1      1000 0.00000E+00
 -1      1001 0.00000E+00
 -1      1003 0.00000E+00
 -1      1004 0.00000E+00
 -1      1006 0.00000E+00
 -1      1007 0.00000E+00
 -1      1009 0.00000E+00
 -1      1010 0.00000E+00
 -1      1012 0.00000E+00
 -1      1013 0.00000E+00
 -1      1015 0.00000E+00
 -1      1016 0.00000E+00
 -1      1018 0.00000E+00
 -1      1019 0.00000E+00
 -1      1021 0.00000E+00
 -1      1022 0.00000E+00
 -1      1024 0.00000E+00
 -1      1025 0.00000E+00
 -1      1027 0.00000E+00
 -1      1028 0.00000E+00
 -1      1030 0.00000E+00
 -1      1031 0.00000E+00
 -1      1033 0.00000E+00
 -1      1034 0.00000E+00
 -1      1036 0.00000E+00
 -1      1037 0.00000E+00
 -1      1039 0.00000E+00
 -1      1040 0.00000E+00
 -1      1042 0.00000E+00
 -1      1043 0.00000E+00
 -1      1045 0.00000E+00
 -1      1046 0.00000E+00
 -1      1048 0.00000E+00
 -1      1049 0.00000E+00
 -1      1051 0.00000E+00
 -1      1052 0.00000E+00
 -1      1054 0.00000E+00
 -1      1055 0.00000E+00
 -1      1057 0.00000E+00
 -1      1058 0.00000E+00
 -1      1060 0.00000E+00
 -1      1061 0.00000E+00
 -1      1063 0.00000E+00
 -1      1064 0.00000E+00
 -1      1066 0.00000E+00
 -1      1067 0.00000E+00
 -1      1069 0.00000E+00
 -1      1070 0.00000E+00
 -1      1072 0.00000E+00
 -1      1073 0.00000E+00
 -1      1075 0.00000E+00
 -1      1076 0.00000E+00
 -1      1078 0.00000E+00
 -1      1079 0.00000E+00
 -1      1081 0.00000E+00
 -1      1082 0.00000E+00
 -1      1084 0.00000E+00
 -1      1085 0.00000E+00
 -1      1087 0.00000E+00
 -1      1088 0.00000E+00
 -1      1090 0.00000E+00
 -1      1099 0.00000E+00
 -1      1101 0.00000E+00
 -1      1102 0.00000E+00
 -1      1104 0.00000E+00
 -1      1113 0.00000E+00
 -1      1115 0.00000E+00
 -1      1116 0.00000E+00
 -1      1118 0.00000E+00
 -1      1127 0.00000E+00
 -1      1129 0.00000E+00
 -1      1130 0.00000E+00
 -1      1132 0.00000E+00
 -1      1141 0.00000E+00
 -1      1143 0.00000E+00
 -1      1144 0.00000E+00
 -1      1146 0.00000E+00
 -1      1155 0.00000E+00
 -1      1157 0.00000E+00
 -1      1158 0.00000E+00
 -1      1160 0.00000E+00
 -1      1169 0.00000E+00
 -1      1171 0.00000E+00
 -1      1172 0.00000E+00
 -1      1174 0.00000E+00
 -1      1183 0.00000E+00
 -1      1185 0.00000E+00
 -1      1186 0.00000E+00
 -1      1188 0.00000E+00
 -1      1197 0.00000E+00
 -1      1199 0.00000E+00
 -1      1200 0.00000E+00
 -1      1202 0.00000E+00
 -1      1211 0.00000E+00
 -1      1213 0.00000E+00
 -1      1214 0.00000E+00
 -1      1216 0.00000E+00
 -1      1225 0.00000E+00
 -1      1227 0.00000E+00
 -1      1228 0.00000E+00
 -1      1230 0.00000E+00
 -1      1239 0.00000E+00
 -1      1241 0.00000E+00
 -1      1242 0.00000E+00
 -1      1244 0.00000E+00
 -1      1253 0.00000E+00
 -1      1255 0.00000E+00
 -1      1256 0.00000E+00
 -1      1258 0.00000E+00
 -1      1267 0.00000E+00
 -1      1269 0.00000E+00
 -1      1270 0.00000E+00
 -1      1272 0.00000E+00
 -1      1281 0.00000E+00
 -1      1283 0.00000E+00
 -1      1284 0.00000E+00
 -1      1286 0.00000E+00
 -1      1295 0.00000E+00
 -1      1297 0.00000E+00
 -1      1298 0.00000E+00
 -1      1300 0.00000E+00
 -1      1309 0.00000E+00
 -1      1311 0.00000E+00
 -1      1312 0.00000E+00
 -1      1314 0.00000E+00
 -1      1323 0.00000E+00
 -1      1325 0.00000E+00
 -1      1326 0.00000E+00
 -1      1328 0.00000E+00
 -1      1337 0.00000E+00
 -1      1339 0.00000E+00
 -1      1340 0.00000E+00
 -1      1342 0.00000E+00
 -1      1351 0.00000E+00
 -1      1353 0.00000E+00
 -1      1354 0.00000E+00
 -1      1356 0.00000E+00
 -1      1365 0.00000E+00
 -1      1367 0.00000E+00
 -1      1368 0.00000E+00
 -1      1370 0.00000E+00
 -1      1379 0.00000E+00
 -1      1381 0.00000E+00
 -1      1382 0.00000E+00
 -1      1384 0.00000E+00
 -1      1393 0.00000E+00
 -1      1395 0.00000E+00
 -1      1396 0.00000E+00
 -1      1398 0.00000E+00
 -1      1407 0.00000E+00
 -1      1409 0.00000E+00
 -1      1410 0.00000E+00
 -1      1412 0.00000E+00
 -1      1421 0.00000E+00
 -1      1423 0.00000E+00
 -1      1424 0.00000E+00
 -1      1426 0.00000E+00
 -1      1435 0.00000E+00
 -1      1437 0.00000E+00
 -1      1438 0.00000E+00
 -1      1440 0.00000E+00
 -1      1449 0.00000E+00
 -1      1451 0.00000E+00
 -1      1452 0.00000E+00
 -1      1454 0.00000E+00
 -1      1463 0.00000E+00
 -1      1465 0.00000E+00
 -1      1466 0.00000E+00
 -1      1468 0.00000E+00
 -1      1477 0.00000E+00
 -1      1479 0.00000E+00
 -1      1480 0.00000E+00
 -1      1482 0.00000E+00
 -1      1491 0.00000E+00
 -1      1493 0.00000E+00
 -1      1494 0.00000E+00
 -1      1496 0.00000E+00
 -1      1497 0.00000E+00
 -1      1499 0.00000E+00
 -1      1500 0.00000E+00
 -1      1502 0.00000E+00
 -1      1503 0.00000E+00
 -1      1505 0.00000E+00
 -1      1506 0.00000E+00
 -1      1508 0.00000E+00
 -1      1509 0.00000E+00
 -1      1511 0.00000E+00
 -1      1512 0.00000E+00
 -1      1514 0.00000E+00
 -1      1515 0.00000E+00
 -1      1517 0.00000E+00
 -1      1518 0.00000E+00
 -1      1520 0.00000E+00
 -1      1521 0.00000E+00
 -1      1523 0.00000E+00
 -1      1524 0.00000E+00
 -1      1526 0.00000E+00
 -1      1527 0.00000E+00
 -1      1529 0.00000E+00
 -1      1530 0.00000E+00
 -1      1532 0.00000E+00
 -1      1533 0.00000E+00
 -1      1535 0.00000E+00
 -1      1536 0.00000E+00
 -1      1538 0.00000E+00
 -1      1539 0.00000E+00
 -1      1541 0.00000E+00
 -1      1542 0.00000E+00
 -1      1544 0.00000E+00
 -1      1545 0.00000E+00
 -1      1547 0.00000E+00
 -1      1548 0.00000E+00
 -1      1550 0.00000E+00
 -1      1551 0.00000E+00
 -1      1553 0.00000E+00
 -1      1554 0.00000E+00
 -1      1556 0.00000E+00
 -1      1557 0.00000E+00
 -1      1559 0.00000E+00
 -1      1560 0.00000E+00
 -1      1562 0.00000E+00
 -1      1563 0.00000E+00
 -1      1565 0.00000E+00
 -1      1566 0.00000E+00
 -1      1568 0.00000E+00
 -1      1569 0.00000E+00
 -1      1571 0.00000E+00
 -1      1572 0.00000E+00
 -1      1574 0.00000E+00
 -1      1575 0.00000E+00
 -1      1577 0.00000E+00
 -1      1578 0.00000E+00
 -1      1580 0.00000E+00
 -1      1581 0.00000E+00
 -1      1583 0.00000E+00
 -1      1584 0.00000E+00
 -1      1586 0.00000E+00
 -1      1587 0.00000E+00
 -1      1589 0.00000E+00
 -1      1590 0.00000E+00
 -1      1592 0.00000E+00
 -1      1593 0.00000E+00
 -1      1595 0.00000E+00
 -1      1596 0.00000E+00
 -1      1598 0.00000E+00
 -1      1599 0.00000E+00
 -1      1601 0.00000E+00
 -1      1602 0.00000E+00
 -1      1604 0.00000E+00
 -1      1605 0.00000E+00
 -1      1607 0.00000E+00
 -1      1608 0.00000E+00
 -1      1610 0.00000E+00
 -1      1611 0.00000E+00
 -1      1613 0.00000E+00
 -1      1614 0.00000E+00
 -1      1616 0.00000E+00
 -1      1617 0.00000E+00
 -1      1619 0.00000E+00
 -1      1620 0.00000E+00
 -1      1622 0.00000E+00
 -1      1623 0.00000E+00
 -1      1625 0.00000E+00
 -1      1626 0.00000E+00
 -1      1628 0.00000E+00
 -1      1629 0.00000E+00
 -1      1631 0.00000E+00
 -1      1632 0.00000E+00
 -1      1634 0.00000E+00
 -1      1635 0.00000E+00
 -1      1637 0.00000E+00
 -1      1638 0.00000E+00
 -1      1640 0.00000E+00
 -1      1641 0.00000E+00
 -1      1643 0.00000E+00
 -1      1644 0.00000E+00
 -1      1646 0.00000E+00
 -1      1647 0.00000E+00
 -1      1649 0.00000E+00
 -1      1650 0.00000E+00
 -1      1652 0.00000E+00
 -1      1653 0.00000E+00
 -1      1655 0.00000E+00
 -1      1656 0.00000E+00
 -1      1658 0.00000E+00
 -1      1659 0.00000E+00
 -1      1661 0.00000E+00
 -1      1662 0.00000E+00
 -1      1664 0.00000E+00
 -1      1665 0.00000E+00
 -1      1667 0.00000E+00
 -1      1668 0.00000E+00
 -1      1670 0.00000E+00
 -1      1671 0.00000E+00
 -1      1673 0.00000E+00
 -1      1674 0.00000E+00
 -1      1676 0.00000E+00
 -1      1677 0.00000E+00
 -1      1679 0.00000E+00
 -1      1680 0.00000E+00
 -1      1682 0.00000E+00
 -1      1683 0.00000E+00
 -1      1685 0.00000E+00
 -1      1686 0.00000E+00
 -1      1688 0.00000E+00
 -1      1689 0.00000E+00
 -1      1691 0.00000E+00
 -1      1692 0.00000E+00
 -1      1694 0.00000E+00
 -1      1695 0.00000E+00
 -1      1697 0.00000E+00
 -1      1698 0.00000E+00
 -1      1700 0.00000E+00
 -1      1701 0.00000E+00
 -1      1703 0.00000E+00
 -1      1704 0.00000E+00
 -1      1706 0.00000E+00
 -1      1707 0.00000E+00
 -1      1709 0.00000E+00
 -1      1710 0.00000E+00
 -1      1712 0.00000E+00
 -1      1713 0.00000E+00
 -1      1715 0.00000E+00
 -1      1716 0.00000E+00
 -1      1718 0.00000E+00
 -1      1719 0.00000E+00
 -1      1721 0.00000E+00
 -1      1722 0.00000E+00
 -1      1724 0.00000E+00
 -1      1725 0.00000E+00
 -1      1727 0.00000E+00
 -1      1728 0.00000E+00
 -1      1730 0.00000E+00
 -1      1731 0.00000E+00
 -1      1733 0.00000E+00
 -1      1734 0.00000E+00
 -1      1736 0.00000E+00
 -1      1737 0.00000E+00
 -1      1739 0.00000E+00
 -1      1740 0.00000E+00
 -1      1742 0.00000E+00
 -1      1743 0.00000E+00
 -1      1745 0.00000E+00
 -1      1746 0.00000E+00
 -1      1748 0.00000E+00
 -1      1749 0.00000E+00
 -1      1751 0.00000E+00
 -1      1752 0.00000E+00
 -1      1754 0.00000E+00
 -1      1755 0.00000E+00
 -1      1757 0.00000E+00
 -1      1758 0.00000E+00
 -1      1760 0.00000E+00
 -1      1761 0.00000E+00
 -1      1763 0.00000E+00
 -1      1764 0.00000E+00
 -1      1766 0.00000E+00
 -1      1767 0.00000E+00
 -1      1769 0.00000E+00
 -1      1770 0.00000E+00
 -1      1772 0.00000E+00
 -1      1773 0.00000E+00
 -1      1775 0.00000E+00
 -1      1776 0.00000E+00
 -1      1778 0.00000E+00
 -1      1779 0.00000E+00
 -1      1781 0.00000E+00
 -1      1782 0.00000E+00
 -1      1784 0.00000E+00
 -1      1785 0.00000E+00
 -1      1787 0.00000E+00
 -1      1788 0.00000E+00
 -1      1790 0.00000E+00
 -1      1791 0.00000E+00
 -1      1793 0.00000E+00
 -1      1794 0.00000E+00
 -1      1796 0.00000E+00
 -1      1797 0.00000E+00
 -1      1799 0.00000E+00
 -1      1800 0.00000E+00
 -1      1802 0.00000E+00
 -1      1803 0.00000E+00
 -1      1805 0.00000E+00
 -1      1806 0.00000E+00
 -1      1808 0.00000E+00
 -1      1809 0.00000E+00
 -1      1811 0.00000E+00
 -1      1812 0.00000E+00
 -1      1814 0.00000E+00
 -1      1815 0.00000E+00
 -1      1817 0.00000E+00
 -1      1818 0.00000E+00
 -1      1820 0.00000E+00
 -1      1821 0.00000E+00
 -1      1823 0.00000E+00
 -1      1824 0.00000E+00
 -1      1826 0.00000E+00
 -1      1827 0.00000E+00
 -1      1829 0.00000E+00
 -1      1830 0.00000E+00
 -1      1832 0.00000E+00
 -1      1833 0.00000E+00
 -1      1835 0.00000E+00
 -1      1836 0.00000E+00
 -1      1838 0.00000E+00
 -1      1839 0.00000E+00
 -1      1841 0.00000E+00
 -1      1842 0.00000E+00
 -1      1844 0.00000E+00
 -1      1845 0.00000E+00
 -1      1847 0.00000E+00
 -1      1848 0.00000E+00
 -1      1850 0.00000E+00
 -1      1851 0.00000E+00
 -1      1853 0.00000E+00
 -1      1854 0.00000E+00
 -1      1856 0.00000E+00
 -1      1857 0.00000E+00
 -1      1859 0.00000E+00
 -1      1860 0.00000E+00
 -1      1862 0.00000E+00
 -1      1863 0.00000E+00
 -1      1865 0.00000E+00
 -1      1866 0.00000E+00
 -1      1868 0.00000E+00
 -1      1869 0.00000E+00
 -1      1871 0.00000E+00
 -1      1872 0.00000E+00
 -1      1874 0.00000E+00
 -1      1875 0.00000E+00
 -1      1877 0.00000E+00
 -1      1878 0.00000E+00
 -1      1880 0.00000E+00
 -1      1881 0.00000E+00
 -1      1883 0.00000E+00
 -1      1884 0.00000E+00
 -1      1886 0.00000E+00
 -1      1887 0.00000E+00
 -1      1889 0.00000E+00
 -1      1890 0.00000E+00
 -1      1892 0.00000E+00
 -1      1893 0.00000E+00
 -1      1895 0.00000E+00
 -1      1896 0.00000E+00
 -1      1898 0.00000E+00
 -1      1899 0.00000E+00
 -1      1901 0.00000E+00
 -1      1902 0.00000E+00
 -1      1904 0.00000E+00
 -1      1905 0.00000E+00
 -1      1907 0.00000E+00
 -1      1908 0.00000E+00
 -1      1910 0.00000E+00
 -1      1911 0.00000E+00
 -1      1913 0.00000E+00
 -1      1914 0.00000E+00
 -1      1916 0.00000E+00
 -1      1917 0.00000E+00
 -1      1919 0.00000E+00
 -1      1920 0.00000E+00
 -1      1922 0.00000E+00
 -1      1923 0.00000E+00
 -1      1925 0.00000E+00
 -1      1926 0.00000E+00
 -1      1928 0.00000E+00
 -1      1929 0.00000E+00
 -1      1931 0.00000E+00
 -1      1932 0.00000E+00
 -1      1934 0.00000E+00
 -1      1935 0.00000E+00
 -1      1937 0.00000E+00
 -1      1938 0.00000E+00
 -1      1940 0.00000E+00
 -1      1941 0.00000E+00
 -1      1943 0.00000E+00
 -1      1944 0.00000E+00
 -1      1946 0.00000E+00
 -1      1947 0.00000E+00
 -1      1949 0.00000E+00
 -1      1950 0.00000E+00
 -1      1952 0.00000E+00
 -1      1953 0.00000E+00
 -1      1955 0.00000E+00
 -1      1956 0.00000E+00
 -1      1958 0.00000E+00
 -1      1959 0.00000E+00
 -1      1961 0.00000E+00
 -1      1962 0.00000E+00
 -1      1964 0.00000E+00
 -1      1965 0.00000E+00
 -1      1967 0.00000E+00
 -1      1968 0.00000E+00
 -1      1970 0.00000E+00
 -1      1971 0.00000E+00
 -1      1973 0.00000E+00
 -1      1974 0.00000E+00
 -1      1976 0.00000E+00
 -1      1977 0.00000E+00
 -1      1979 0.00000E+00
 -1      1980 0.00000E+00
 -1      1982 0.00000E+00
 -1      1983 0.00000E+00
 -1      1985 0.00000E+00
 -1      1986 0.00000E+00
 -1      1988 0.00000E+00
 -1      1989 0.00000E+00
 -1      1991 0.00000E+00
 -1      1992 0.00000E+00
 -1      1994 0.00000E+00
 -1      1995 0.00000E+00
 -1      1997 0.00000E+00
 -1      1998 0.00000E+00
 -1      2000 0.00000E+00
 -1      2001 0.00000E+00
 -1      2003 0.00000E+00
 -1      2004 0.00000E+00
 -1      2006 0.00000E+00
 -1      2007 0.00000E+00
 -1      2009 0.00000E+00
 -1      2010 0.00000E+00
 -1      2012 0.00000E+00
 -1      2013 0.00000E+00
 -1      2015 0.00000E+00
 -1      2016 0.00000E+00
 -1      2018 0.00000E+00
 -1      2019 0.00000E+00
 -1      2021 0.00000E+00
 -1      2022 0.00000E+00
 -1      2024 0.00000E+00
 -1      2025 0.00000E+00
 -1      2027 0.00000E+00
 -1      2028 0.00000E+00
 -1      2030 0.00000E+00
 -1      2031 0.00000E+00
 -1      2033 0.00000E+00
 -1      2034 0.00000E+00
 -1      2036 0.00000E+00
 -1      2037 0.00000E+00
 -1      2039 0.00000E+00
 -1      2040 0.00000E+00
 -1      2042 0.00000E+00
 -1      2043 0.00000E+00
 -1      2045 0.00000E+00
 -1      2046 0.00000E+00
 -1      2048 0.00000E+00
 -1      2049 0.00000E+00
 -1      2051 0.00000E+00
 -1      2052 0.00000E+00
 -1      2054 0.00000E+00
 -1      2055 0.00000E+00
 -1      2057 0.00000E+00
 -1      2058 0.00000E+00
 -1      2060 0.00000E+00
 -1      2061 0.00000E+00
 -1      2063 0.00000E+00
 -1      2064 0.00000E+00
 -1      2066 0.00000E+00
 -1      2067 0.00000E+00
 -1      2069 0.00000E+00
 -1      2070 0.00000E+00
 -1      2072 0.00000E+00
 -1      2073 0.00000E+00
 -1      2075 0.00000E+00
 -1      2076 0.00000E+00
 -1      2078 0.00000E+00
 -1      2079 0.00000E+00
 -1      2081 0.00000E+00
 -1      2082 0.00000E+00
 -1      2084 0.00000E+00
 -1      2085 0.00000E+00
 -1      2087 0.00000E+00
 -1      2088 0.00000E+00
 -1      2090 0.00000E+00
 -1      2091 0.00000E+00
 -1      2093 0.00000E+00
 -1      2094 0.00000E+00
 -1      2096 0.00000E+00
 -1      2097 0.00000E+00
 -1      2099 0.00000E+00
 -1      2100 0.00000E+00
 -1      2102 0.00000E+00
 -1      2103 0.00000E+00
 -1      2105 0.00000E+00
 -1      2106 0.00000E+00
 -1      2108 0.00000E+00
 -1      2109 0.00000E+00
 -1      2111 0.00000E+00
 -1      2112 0.00000E+00
 -1      2114 0.00000E+00
 -1      2115 0.00000E+00
 -1      2117 0.00000E+00
 -1      2118 0.00000E+00
 -1      2120 0.00000E+00
 -1      2121 0.00000E+00
 -1      2123 0.00000E+00
 -1      2124 0.00000E+00
 -1      2126 0.00000E+00
 -1      2127 0.00000E+00
 -1      2129 0.00000E+00
 -1      2130 0.00000E+00
 -1      2132 0.00000E+00
 -1      2133 0.00000E+00
 -1      2135 0.00000E+00
 -1      2136 0.00000E+00
 -1      2138 0.00000E+00
 -1      2139 0.00000E+00
 -1      2141 0.00000E+00
 -1      2142 0.00000E+00
 -1      2144 0.00000E+00
 -1      2145 0.00000E+00
 -1      2147 0.00000E+00
 -1      2148 0.00000E+00
 -1      2150 0.00000E+00
 -1      2151 0.00000E+00
 -1      2153 0.00000E+00
 -1      2154 0.00000E+00
 -1      2156 0.00000E+00
 -1      2157 0.00000E+00
 -1      2159 0.00000E+00
 -1      2160 0.00000E+00
 -1      2162 0.00000E+00
 -1      2163 0.00000E+00
 -1      2165 0.00000E+00
 -1      2166 0.00000E+00
 -1      2168 0.00000E+00
 -1      2169 0.00000E+00
 -1      2171 0.00000E+00
 -1      2172 0.00000E+00
 -1      2174 0.00000E+00
 -1      2175 0.00000E+00
 -1      2177 0.00000E+00
 -1      2178 0.00000E+00
 -1      2180 0.00000E+00
 -1      2181 0.00000E+00
 -1      2183 0.00000E+00
 -1      2184 0.00000E+00
 -1      2186 0.00000E+00
 -1      2187 0.00000E+00
 -1      2189 0.00000E+00
 -1      2190 0.00000E+00
 -1      2192 0.00000E+00
 -1      2193 0.00000E+00
 -1      2195 0.00000E+00
 -1      2196 0.00000E+00
 -1      2198 0.00000E+00
 -1      2199 0.00000E+00
 -1      2201 0.00000E+00
 -1      2202 0.00000E+00
 -1      2204 0.00000E+00
 -1      2205 0.00000E+00
 -1      2207 0.00000E+00
 -1      2208 0.00000E+00
 -1      2210 0.00000E+00
 -1      2211 0.00000E+00
 -1      2213 0.00000E+00
 -1      2214 0.00000E+00
 -1      2216 0.00000E+00
 -1      2217 0.00000E+00
 -1      2219 0.00000E+00
 -1      2220 0.00000E+00
 -1      2222 0.00000E+00
 -1      2223 0.00000E+00
 -1      2225 0.00000E+00
 -1      2226 0.00000E+00
 -1      2228 0.00000E+00
 -1      2229 0.00000E+00
 -1      2231 0.00000E+00
 -1      2232 0.00000E+00
 -1      2234 0.00000E+00
 -1      2235 0.00000E+00
 -1      2237 0.00000E+00
 -1      2238 0.00000E+00
 -1      2240 0.00000E+00
 -1      2241 0.00000E+00
 -1      2243 0.00000E+00
 -1      2244 0.00000E+00
 -1      2246 0.00000E+00
 -1      2247 0.00000E+00
 -1      2249 0.00000E+00
 -1      2250 0.00000E+00
 -1      2252 0.00000E+00
 -1      2253 0.00000E+00
 -1      2255 0.00000E+00
 -1      2256 0.00000E+00
 -1      2258 0.00000E+00
 -1      2259 0.00000E+00
 -1      2261 0.00000E+00
 -1      2262 0.00000E+00
 -1      2264 0.00000E+00
 -1      2265 0.00000E+00
 -1      2267 0.00000E+00
 -1      2268 0.00000E+00
 -1      2270 0.00000E+00
 -1      2271 0.00000E+00
 -1      2273 0.00000E+00
 -1      2274 0.00000E+00
 -1      2276 0.00000E+00
 -1      2277 0.00000E+00
 -1      2279 0.00000E+00
 -1      2280 0.00000E+00
 -1      2282 0.00000E+00
 -1      2283 0.00000E+00
 -1      2285 0.00000E+00
 -1      2286 0.00000E+00
 -1      2288 0.00000E+00
 -1      2289 0.00000E+00
 -1      2291 0.00000E+00
 -1      2292 0.00000E+00
 -1      2294 0.00000E+00
 -3
    1PSTEP                         5           2           1          
  100CL  102 100.0000000         930                     0    2           1
 -4  DISP        4    1
 -5  D1          1    2    1    0
 -5  D2          1    2    2    0
 -5  D3          1    2    3    0
 -5  ALL         1    2    0    0    1ALL
 -1       404 0.00000E+00 0.00000E+00-2.63534E-06
 -1       406 0.00000E+00 0.00000E+00 2.63534E-06
 -1       407-9.57008E-04-1.21762E-05-1.11095E-02
 -1       409-8.95930E-04 1.18642E-05-1.11097E-02
 -1       410-9.56745E-04-2.05919E-14-1.10023E-02
 -1       412-8.95694E-04-2.06161E-14-1.10025E-02
 -1       413-9.26219E-04 1.11430E-08-1.10024E-02
 -1       415-9.26219E-04-1.11430E-08-1.10024E-02
 -1       424 0.00000E+00 3.35284E-21-2.43536E-06
 -1       426 0.00000E+00 3.35284E-21 2.43536E-06
 -1       427 0.00000E+00-1.55142E-06 0.00000E+00
 -1       429 0.00000E+00 1.55142E-06 0.00000E+00
 -1       438-9.57008E-04 1.21762E-05-1.11095E-02
 -1       440-8.95930E-04-1.18642E-05-1.11097E-02
 -1       441 0.00000E+00 0.00000E+00-2.63534E-06
 -1       443 0.00000E+00 0.00000E+00 2.63534E-06
 -1       444 0.00000E+00 1.54938E-06 0.00000E+00
 -1       446 0.00000E+00-1.54938E-06 0.00000E+00
 -1       447 0.00000E+00-3.31755E-21-2.43217E-06
 -1       449 0.00000E+00-3.31755E-21 2.43217E-06
 -1       458 8.81970E-04-1.23156E-08-1.10065E-02
 -1       460 8.81970E-04 1.23156E-08-1.10065E-02
 -1       461 9.12496E-04-2.07940E-14-1.10065E-02
 -1       463 8.51444E-04-2.08183E-14-1.10064E-02
 -1       472 0.00000E+00 0.00000E+00-2.62746E-06
 -1       474 0.00000E+00 0.00000E+00 2.62746E-06
 -1       475 9.11786E-04-1.20541E-05-1.11139E-02
 -1       477 8.50707E-04 1.20311E-05-1.11138E-02
 -1       478 9.11786E-04 1.20541E-05-1.11139E-02
 -1       480 8.50707E-04-1.20311E-05-1.11138E-02
 -1       481 0.00000E+00 0.00000E+00-2.62746E-06
 -1       483 0.00000E+00 0.00000E+00 2.62746E-06
 -1       484-9.86197E-05 2.69645E-05-9.12771E-05
 -1       486-7.51317E-05 3.17041E-05-8.87283E-05
 -1       487-1.70915E-04 1.74932E-05-2.44545E-04
 -1       489-1.53144E-04 2.32018E-05-2.41228E-04
 -1       490-2.53694E-04 1.51364E-05-4.05384E-04
 -1       492-2.28358E-04 2.46248E-05-4.02356E-04
 -1       493-3.25951E-04 1.20513E-05-6.08203E-04
 -1       495-2.96799E-04 2.42700E-05-6.05762E-04
 -1       496-3.93543E-04 9.90211E-06-8.37393E-04
 -1       498-3.60982E-04 2.42972E-05-8.34716E-04
 -1       499-4.56636E-04 7.26967E-06-1.09512E-03
 -1       501-4.19767E-04 2.36549E-05-1.09307E-03
 -1       502-5.14082E-04 5.50681E-06-1.37869E-03
 -1       504-4.74475E-04 2.32756E-05-1.37649E-03
 -1       505-5.67452E-04 3.49355E-06-1.68538E-03
 -1       507-5.24317E-04 2.25596E-05-1.68368E-03
 -1       508-6.15846E-04 1.95277E-06-2.01413E-03
 -1       510-5.70265E-04 2.19301E-05-2.01235E-03
 -1       511-6.60298E-04 3.60973E-07-2.36204E-03
 -1       513-6.11955E-04 2.11752E-05-2.36065E-03
 -1       514-7.00405E-04-9.66126E-07-2.72797E-03
 -1       516-6.49962E-04 2.04514E-05-2.72657E-03
 -1       517-7.36806E-04-2.26979E-06-3.10946E-03
 -1       519-6.84229E-04 1.96911E-05-3.10838E-03
 -1       520-7.69392E-04-3.40465E-06-3.50525E-03
 -1       522-7.15105E-04 1.89551E-05-3.50419E-03
 -1       523-7.98589E-04-4.49180E-06-3.91326E-03
 -1       525-7.42686E-04 1.82226E-05-3.91245E-03
 -1       526-8.24438E-04-5.45743E-06-4.33220E-03
 -1       528-7.67216E-04 1.75198E-05-4.33143E-03
 -1       529-8.47258E-04-6.36840E-06-4.76032E-03
 -1       531-7.88859E-04 1.68407E-05-4.75975E-03
 -1       532-8.67167E-04-7.18332E-06-5.19639E-03
 -1       534-8.07813E-04 1.61982E-05-5.19587E-03
 -1       535-8.84430E-04-7.94213E-06-5.63894E-03
 -1       537-8.24270E-04 1.55903E-05-5.63858E-03
 -1       538-8.99203E-04-8.61982E-06-6.08686E-03
 -1       540-8.38412E-04 1.50247E-05-6.08654E-03
 -1       541-9.11724E-04-9.24140E-06-6.53890E-03
 -1       543-8.50440E-04 1.45005E-05-6.53872E-03
 -1       544-9.22170E-04-9.79134E-06-6.99413E-03
 -1       546-8.60531E-04 1.40224E-05-6.99399E-03
 -1       547-9.30765E-04-1.02852E-05-7.45152E-03
 -1       549-8.68890E-04 1.35904E-05-7.45148E-03
 -1       550-9.37697E-04-1.07141E-05-7.91030E-03
 -1       552-8.75694E-04 1.32063E-05-7.91029E-03
 -1       553-9.43183E-04-1.10858E-05-8.36966E-03
 -1       555-8.81147E-04 1.28730E-05-8.36973E-03
 -1       556-9.47419E-04-1.13994E-05-8.82900E-03
 -1       558-8.85428E-04 1.25857E-05-8.82909E-03
 -1       559-9.50618E-04-1.16499E-05-9.28774E-03
 -1       561-8.88741E-04 1.23586E-05-9.28789E-03
 -1       562-9.52970E-04-1.18564E-05-9.74546E-03
 -1       564-8.91263E-04 1.21650E-05-9.74562E-03
 -1       565-9.54728E-04-1.19891E-05-1.02018E-02
 -1       567-8.93216E-04 1.20453E-05-1.02020E-02
 -1       568-9.55984E-04-1.20477E-05-1.06565E-02
 -1       570-8.94740E-04 1.19926E-05-1.06567E-02
 -1       571-9.56759E-04-1.01153E-05-1.10360E-02
 -1       573-8.95694E-04 9.93986E-06-1.10361E-02
 -1       574-9.80799E-05-3.14881E-17-8.76197E-05
 -1       576-7.68251E-05-3.22860E-17-8.39222E-05
 -1       577-8.74525E-05-1.18306E-06-8.57709E-05
 -1       579-8.74525E-05 1.18306E-06-8.57709E-05
 -1       588-1.77005E-04-1.38652E-16-2.09896E-04
 -1       590-1.63970E-04-1.40243E-16-2.07009E-04
 -1       591-1.70488E-04-9.21613E-07-2.08452E-04
 -1       593-1.70488E-04 9.21613E-07-2.08452E-04
 -1       602-2.60195E-04-3.13011E-16-3.59666E-04
 -1       604-2.34052E-04-3.15911E-16-3.56651E-04
 -1       605-2.47123E-04-9.68437E-07-3.58158E-04
 -1       607-2.47123E-04 9.68437E-07-3.58158E-04
 -1       616-3.29999E-04-5.53524E-16-5.49801E-04
 -1       618-3.04378E-04-5.57200E-16-5.47186E-04
 -1       619-3.17189E-04-8.40556E-07-5.48494E-04
 -1       621-3.17189E-04 8.40556E-07-5.48494E-04
 -1       630-3.99662E-04-8.58961E-16-7.69231E-04
 -1       632-3.66628E-04-8.63472E-16-7.66750E-04
 -1       633-3.83145E-04-8.03238E-07-7.67990E-04
 -1       635-3.83145E-04 8.03238E-07-7.67990E-04
 -1       644-4.61005E-04-1.22538E-15-1.01990E-03
 -1       646-4.26198E-04-1.23112E-15-1.01765E-03
 -1       647-4.43601E-04-7.29832E-07-1.01878E-03
 -1       649-4.43601E-04 7.29832E-07-1.01878E-03
 -1       658-5.19366E-04-1.64971E-15-1.29678E-03
 -1       660-4.79680E-04-1.65662E-15-1.29474E-03
 -1       661-4.99523E-04-6.67788E-07-1.29576E-03
 -1       663-4.99523E-04 6.67788E-07-1.29576E-03
 -1       672-5.71773E-04-2.12853E-15-1.59899E-03
 -1       674-5.29791E-04-2.13731E-15-1.59712E-03
 -1       675-5.50782E-04-6.16597E-07-1.59806E-03
 -1       677-5.50782E-04 6.16597E-07-1.59806E-03
 -1       686-6.20482E-04-2.66174E-15-1.92335E-03
 -1       688-5.74994E-04-2.67074E-15-1.92170E-03
 -1       689-5.97738E-04-5.51830E-07-1.92252E-03
 -1       691-5.97738E-04 5.51830E-07-1.92252E-03
 -1       700-6.64349E-04-3.24200E-15-2.26832E-03
 -1       702-6.16656E-04-3.25264E-15-2.26681E-03
 -1       703-6.40502E-04-5.08125E-07-2.26756E-03
 -1       705-6.40502E-04 5.08125E-07-2.26756E-03
 -1       714-7.04483E-04-3.86915E-15-2.63140E-03
 -1       716-6.54175E-04-3.87967E-15-2.63009E-03
 -1       717-6.79329E-04-4.49242E-07-2.63074E-03
 -1       719-6.79329E-04 4.49242E-07-2.63074E-03
 -1       728-7.40479E-04-4.53748E-15-3.01094E-03
 -1       730-6.88277E-04-4.55170E-15-3.00976E-03
 -1       731-7.14378E-04-4.08622E-07-3.01035E-03
 -1       733-7.14378E-04 4.08622E-07-3.01035E-03
 -1       742-7.72954E-04-5.24797E-15-3.40488E-03
 -1       744-7.18792E-04-5.26074E-15-3.40386E-03
 -1       745-7.45873E-04-3.57492E-07-3.40437E-03
 -1       747-7.45873E-04 3.57492E-07-3.40437E-03
 -1       756-8.01831E-04-5.99321E-15-3.81159E-03
 -1       758-7.46151E-04-6.00777E-15-3.81070E-03
 -1       759-7.73991E-04-3.19466E-07-3.81115E-03
 -1       761-7.73991E-04 3.19466E-07-3.81115E-03
 -1       770-8.27504E-04-6.77304E-15-4.22932E-03
 -1       772-7.70381E-04-6.78798E-15-4.22858E-03
 -1       773-7.98942E-04-2.75880E-07-4.22895E-03
 -1       775-7.98942E-04 2.75880E-07-4.22895E-03
 -1       784-8.50046E-04-7.58149E-15-4.65658E-03
 -1       786-7.91781E-04-7.60056E-15-4.65595E-03
 -1       787-8.20913E-04-2.40969E-07-4.65627E-03
 -1       789-8.20913E-04 2.40969E-07-4.65627E-03
 -1       798-8.69748E-04-8.41979E-15-5.09187E-03
 -1       800-8.10466E-04-8.43891E-15-5.09136E-03
 -1       801-8.40107E-04-2.04300E-07-5.09161E-03
 -1       803-8.40107E-04 2.04300E-07-5.09161E-03
 -1       812-8.86753E-04-9.28246E-15-5.53386E-03
 -1       814-8.26674E-04-9.30118E-15-5.53345E-03
 -1       815-8.56714E-04-1.73127E-07-5.53365E-03
 -1       817-8.56714E-04 1.73127E-07-5.53365E-03
 -1       826-9.01304E-04-1.01649E-14-5.98127E-03
 -1       828-8.40564E-04-1.01864E-14-5.98095E-03
 -1       829-8.70934E-04-1.42801E-07-5.98111E-03
 -1       831-8.70934E-04 1.42801E-07-5.98111E-03
 -1       840-9.13578E-04-1.10683E-14-6.43295E-03
 -1       842-8.52344E-04-1.10889E-14-6.43273E-03
 -1       843-8.82961E-04-1.15863E-07-6.43284E-03
 -1       845-8.82961E-04 1.15863E-07-6.43284E-03
 -1       854-9.23796E-04-1.19858E-14-6.88786E-03
 -1       856-8.62192E-04-1.20089E-14-6.88771E-03
 -1       857-8.92994E-04-9.14597E-08-6.88778E-03
 -1       859-8.92994E-04 9.14596E-08-6.88778E-03
 -1       868-9.32150E-04-1.29183E-14-7.34502E-03
 -1       870-8.70305E-04-1.29394E-14-7.34495E-03
 -1       871-9.01227E-04-6.91020E-08-7.34498E-03
 -1       873-9.01227E-04 6.91020E-08-7.34498E-03
 -1       882-9.38851E-04-1.38573E-14-7.80359E-03
 -1       884-8.76871E-04-1.38862E-14-7.80358E-03
 -1       885-9.07861E-04-5.03339E-08-7.80359E-03
 -1       887-9.07861E-04 5.03339E-08-7.80359E-03
 -1       896-9.44100E-04-1.48083E-14-8.26282E-03
 -1       898-8.82080E-04-1.48341E-14-8.26286E-03
 -1       899-9.13090E-04-3.27937E-08-8.26284E-03
 -1       901-9.13090E-04 3.27937E-08-8.26284E-03
 -1       910-9.48102E-04-1.57663E-14-8.72204E-03
 -1       912-8.86127E-04-1.57903E-14-8.72212E-03
 -1       913-9.17114E-04-1.94502E-08-8.72208E-03
 -1       915-9.17114E-04 1.94502E-08-8.72208E-03
 -1       924-9.51068E-04-1.67267E-14-9.18070E-03
 -1       926-8.89197E-04-1.67512E-14-9.18082E-03
 -1       927-9.20133E-04-6.93992E-09-9.18076E-03
 -1       929-9.20133E-04 6.93989E-09-9.18076E-03
 -1       938-9.53191E-04-1.76904E-14-9.63836E-03
 -1       940-8.91494E-04-1.77146E-14-9.63850E-03
 -1       941-9.22342E-04 1.20758E-09-9.63843E-03
 -1       943-9.22342E-04-1.20761E-09-9.63843E-03
 -1       952-9.54696E-04-1.86547E-14-1.00947E-02
 -1       954-8.93186E-04-1.86842E-14-1.00948E-02
 -1       955-9.23941E-04 8.56181E-09-1.00947E-02
 -1       957-9.23941E-04-8.56184E-09-1.00947E-02
 -1       966-9.55767E-04-1.96221E-14-1.05493E-02
 -1       968-8.94519E-04-1.96502E-14-1.05495E-02
 -1       969-9.25143E-04 1.15034E-08-1.05494E-02
 -1       971-9.25143E-04-1.15034E-08-1.05494E-02
 -1       980 0.00000E+00 0.00000E+00-2.12555E-06
 -1       982 0.00000E+00 0.00000E+00 2.12555E-06
 -1       983-9.56759E-04 1.01153E-05-1.10360E-02
 -1       985-8.95694E-04-9.93986E-06-1.10361E-02
 -1       986-9.86197E-05-2.69645E-05-9.12771E-05
 -1       988-7.51317E-05-3.17041E-05-8.87283E-05
 -1       989-1.70915E-04-1.74932E-05-2.44545E-04
 -1       991-1.53144E-04-2.32018E-05-2.41228E-04
 -1       992-2.53694E-04-1.51364E-05-4.05384E-04
 -1       994-2.28358E-04-2.46248E-05-4.02356E-04
 -1       995-3.25951E-04-1.20513E-05-6.08203E-04
 -1       997-2.96799E-04-2.42700E-05-6.05762E-04
 -1       998-3.93543E-04-9.90211E-06-8.37393E-04
 -1      1000-3.60982E-04-2.42972E-05-8.34716E-04
 -1      1001-4.56636E-04-7.26967E-06-1.09512E-03
 -1      1003-4.19767E-04-2.36549E-05-1.09307E-03
 -1      1004-5.14082E-04-5.50681E-06-1.37869E-03
 -1      1006-4.74475E-04-2.32756E-05-1.37649E-03
 -1      1007-5.67452E-04-3.49355E-06-1.68538E-03
 -1      1009-5.24317E-04-2.25596E-05-1.68368E-03
 -1      1010-6.15846E-04-1.95277E-06-2.01413E-03
 -1      1012-5.70265E-04-2.19301E-05-2.01235E-03
 -1      1013-6.60298E-04-3.60973E-07-2.36204E-03
 -1      1015-6.11955E-04-2.11752E-05-2.36065E-03
 -1      1016-7.00405E-04 9.66126E-07-2.72797E-03
 -1      1018-6.49962E-04-2.04514E-05-2.72657E-03
 -1      1019-7.36806E-04 2.26979E-06-3.10946E-03
 -1      1021-6.84229E-04-1.96911E-05-3.10838E-03
 -1      1022-7.69392E-04 3.40465E-06-3.50525E-03
 -1      1024-7.15105E-04-1.89551E-05-3.50419E-03
 -1      1025-7.98589E-04 4.49180E-06-3.91326E-03
 -1      1027-7.42686E-04-1.82226E-05-3.91245E-03
 -1      1028-8.24438E-04 5.45743E-06-4.33220E-03
 -1      1030-7.67216E-04-1.75198E-05-4.33143E-03
 -1      1031-8.47258E-04 6.36840E-06-4.76032E-03
 -1      1033-7.88859E-04-1.68407E-05-4.75975E-03
 -1      1034-8.67167E-04 7.18332E-06-5.19639E-03
 -1      1036-8.07813E-04-1.61982E-05-5.19587E-03
 -1      1037-8.84430E-04 7.94213E-06-5.63894E-03
 -1      1039-8.24270E-04-1.55903E-05-5.63858E-03
 -1      1040-8.99203E-04 8.61982E-06-6.08686E-03
 -1      1042-8.38412E-04-1.50247E-05-6.08654E-03
 -1      1043-9.11724E-04 9.24140E-06-6.53890E-03
 -1      1045-8.50440E-04-1.45005E-05-6.53872E-03
 -1      1046-9.22170E-04 9.79134E-06-6.99413E-03
 -1      1048-8.60531E-04-1.40224E-05-6.99399E-03
 -1      1049-9.30765E-04 1.02852E-05-7.45152E-03
 -1      1051-8.68890E-04-1.35904E-05-7.45148E-03
 -1      1052-9.37697E-04 1.07141E-05-7.91030E-03
 -1      1054-8.75694E-04-1.32063E-05-7.91029E-03
 -1      1055-9.43183E-04 1.10858E-05-8.36966E-03
 -1      1057-8.81147E-04-1.28730E-05-8.36973E-03
 -1      1058-9.47419E-04 1.13994E-05-8.82900E-03
 -1      1060-8.85428E-04-1.25857E-05-8.82909E-03
 -1      1061-9.50618E-04 1.16499E-05-9.28774E-03
 -1      1063-8.88741E-04-1.23586E-05-9.28789E-03
 -1      1064-9.52970E-04 1.18564E-05-9.74546E-03
 -1      1066-8.91263E-04-1.21650E-05-9.74562E-03
 -1      1067-9.54728E-04 1.19891E-05-1.02018E-02
 -1      1069-8.93216E-04-1.20453E-05-1.02020E-02
 -1      1070-9.55984E-04 1.20477E-05-1.06565E-02
 -1      1072-8.94740E-04-1.19926E-05-1.06567E-02
 -1      1073 0.00000E+00 0.00000E+00-2.12555E-06
 -1      1075 0.00000E+00 0.00000E+00 2.12555E-06
 -1      1076 0.00000E+00-6.90272E-07 0.00000E+00
 -1      1078 0.00000E+00 6.90272E-07 0.00000E+00
 -1      1079 0.00000E+00-3.23124E-09 0.00000E+00
 -1      1081 0.00000E+00 3.23124E-09 0.00000E+00
 -1      1082 0.00000E+00 6.88814E-07 0.00000E+00
 -1      1084 0.00000E+00-6.88814E-07 0.00000E+00
 -1      1085 8.72538E-05 1.18030E-06-8.59851E-05
 -1      1087 8.72538E-05-1.18030E-06-8.59851E-05
 -1      1088 9.78723E-05-3.73061E-17-8.78462E-05
 -1      1090 7.66352E-05-3.79242E-17-8.41239E-05
 -1      1099 1.70004E-04 9.20654E-07-2.08867E-04
 -1      1101 1.70004E-04-9.20654E-07-2.08867E-04
 -1      1102 1.76495E-04-1.55974E-16-2.10316E-04
 -1      1104 1.63513E-04-1.57247E-16-2.07419E-04
 -1      1113 2.46330E-04 9.65887E-07-3.58732E-04
 -1      1115 2.46330E-04-9.65887E-07-3.58732E-04
 -1      1116 2.59395E-04-3.44676E-16-3.60260E-04
 -1      1118 2.33266E-04-3.46204E-16-3.57203E-04
 -1      1127 3.15966E-04 8.40478E-07-5.49269E-04
 -1      1129 3.15966E-04-8.40478E-07-5.49269E-04
 -1      1130 3.28752E-04-5.99928E-16-5.50600E-04
 -1      1132 3.03179E-04-6.01549E-16-5.47937E-04
 -1      1141 3.81397E-04 8.01017E-07-7.68940E-04
 -1      1143 3.81397E-04-8.01017E-07-7.68940E-04
 -1      1144 3.97906E-04-9.20528E-16-7.70218E-04
 -1      1146 3.64888E-04-9.22933E-16-7.67662E-04
 -1      1155 4.41196E-04 7.29967E-07-1.01996E-03
 -1      1157 4.41196E-04-7.29967E-07-1.01996E-03
 -1      1158 4.58585E-04-1.29989E-15-1.02113E-03
 -1      1160 4.23806E-04-1.30440E-15-1.01879E-03
 -1      1169 4.96336E-04 6.65828E-07-1.29716E-03
 -1      1171 4.96336E-04-6.65828E-07-1.29716E-03
 -1      1172 5.16172E-04-1.73996E-15-1.29824E-03
 -1      1174 4.76501E-04-1.74182E-15-1.29609E-03
 -1      1183 5.46678E-04 6.16667E-07-1.59971E-03
 -1      1185 5.46678E-04-6.16667E-07-1.59971E-03
 -1      1186 5.67660E-04-2.23051E-15-1.60071E-03
 -1      1188 5.25695E-04-2.23561E-15-1.59871E-03
 -1      1197 5.92588E-04 5.50140E-07-1.92442E-03
 -1      1199 5.92588E-04-5.50140E-07-1.92442E-03
 -1      1200 6.15326E-04-2.77275E-15-1.92532E-03
 -1      1202 5.69849E-04-2.77874E-15-1.92352E-03
 -1      1211 6.34174E-04 5.08053E-07-2.26970E-03
 -1      1213 6.34174E-04-5.08053E-07-2.26970E-03
 -1      1214 6.58014E-04-3.36510E-15-2.27054E-03
 -1      1216 6.10333E-04-3.36892E-15-2.26886E-03
 -1      1225 6.71700E-04 4.47776E-07-2.63312E-03
 -1      1227 6.71700E-04-4.47776E-07-2.63312E-03
 -1      1228 6.96849E-04-3.99998E-15-2.63387E-03
 -1      1230 6.46551E-04-4.00476E-15-2.63237E-03
 -1      1239 7.05330E-04 4.08404E-07-3.01295E-03
 -1      1241 7.05330E-04-4.08404E-07-3.01295E-03
 -1      1242 7.31427E-04-4.67608E-15-3.01364E-03
 -1      1244 6.79234E-04-4.68201E-15-3.01226E-03
 -1      1253 7.35299E-04 3.56188E-07-3.40718E-03
 -1      1255 7.35299E-04-3.56188E-07-3.40718E-03
 -1      1256 7.62376E-04-5.39174E-15-3.40779E-03
 -1      1258 7.08221E-04-5.39752E-15-3.40657E-03
 -1      1267 7.61790E-04 3.19112E-07-3.81415E-03
 -1      1269 7.61790E-04-3.19112E-07-3.81415E-03
 -1      1270 7.89627E-04-6.14270E-15-3.81471E-03
 -1      1272 7.33953E-04-6.14984E-15-3.81359E-03
 -1      1281 7.85025E-04 2.74679E-07-4.23213E-03
 -1      1283 7.85025E-04-2.74679E-07-4.23213E-03
 -1      1284 8.13584E-04-6.92679E-15-4.23263E-03
 -1      1286 7.56466E-04-6.93316E-15-4.23164E-03
 -1      1295 8.05200E-04 2.40485E-07-4.65961E-03
 -1      1297 8.05200E-04-2.40485E-07-4.65961E-03
 -1      1298 8.34330E-04-7.73881E-15-4.66006E-03
 -1      1300 7.76069E-04-7.74883E-15-4.65917E-03
 -1      1309 8.22528E-04 2.03150E-07-5.09510E-03
 -1      1311 8.22528E-04-2.03150E-07-5.09510E-03
 -1      1312 8.52167E-04-8.57830E-15-5.09549E-03
 -1      1314 7.92889E-04-8.58892E-15-5.09472E-03
 -1      1323 8.37209E-04 1.72519E-07-5.53727E-03
 -1      1325 8.37209E-04-1.72519E-07-5.53727E-03
 -1      1326 8.67247E-04-9.44477E-15-5.53761E-03
 -1      1328 8.07172E-04-9.45181E-15-5.53693E-03
 -1      1337 8.49455E-04 1.41664E-07-5.98483E-03
 -1      1339 8.49455E-04-1.41664E-07-5.98483E-03
 -1      1340 8.79824E-04-1.03277E-14-5.98513E-03
 -1      1342 8.19086E-04-1.03413E-14-5.98454E-03
 -1      1351 8.59467E-04 1.15135E-07-6.43666E-03
 -1      1353 8.59467E-04-1.15135E-07-6.43666E-03
 -1      1354 8.90083E-04-1.12350E-14-6.43691E-03
 -1      1356 8.28851E-04-1.12418E-14-6.43641E-03
 -1      1365 8.67454E-04 9.03039E-08-6.89167E-03
 -1      1367 8.67454E-04-9.03039E-08-6.89167E-03
 -1      1368 8.98256E-04-1.21552E-14-6.89189E-03
 -1      1370 8.36653E-04-1.21705E-14-6.89146E-03
 -1      1379 8.73619E-04 6.82607E-08-7.34894E-03
 -1      1381 8.73619E-04-6.82608E-08-7.34894E-03
 -1      1382 9.04541E-04-1.30901E-14-7.34911E-03
 -1      1384 8.42697E-04-1.31050E-14-7.34876E-03
 -1      1393 8.78169E-04 4.91389E-08-7.80759E-03
 -1      1395 8.78169E-04-4.91390E-08-7.80759E-03
 -1      1396 9.09158E-04-1.40376E-14-7.80773E-03
 -1      1398 8.47179E-04-1.40468E-14-7.80744E-03
 -1      1407 8.81306E-04 3.18457E-08-8.26687E-03
 -1      1409 8.81306E-04-3.18457E-08-8.26687E-03
 -1      1410 9.12316E-04-1.49876E-14-8.26699E-03
 -1      1412 8.50296E-04-1.50066E-14-8.26675E-03
 -1      1421 8.83235E-04 1.82022E-08-8.72614E-03
 -1      1423 8.83235E-04-1.82022E-08-8.72614E-03
 -1      1424 9.14223E-04-1.59519E-14-8.72624E-03
 -1      1426 8.52247E-04-1.59657E-14-8.72604E-03
 -1      1435 8.84161E-04 5.89379E-09-9.18484E-03
 -1      1437 8.84161E-04-5.89382E-09-9.18484E-03
 -1      1438 9.15096E-04-1.69180E-14-9.18492E-03
 -1      1440 8.53225E-04-1.69346E-14-9.18476E-03
 -1      1449 8.84284E-04-2.51684E-09-9.64251E-03
 -1      1451 8.84284E-04 2.51680E-09-9.64251E-03
 -1      1452 9.15133E-04-1.78840E-14-9.64258E-03
 -1      1454 8.53436E-04-1.79048E-14-9.64245E-03
 -1      1463 8.83807E-04-9.69625E-09-1.00988E-02
 -1      1465 8.83807E-04 9.69621E-09-1.00988E-02
 -1      1466 9.14562E-04-1.88552E-14-1.00989E-02
 -1      1468 8.53052E-04-1.88722E-14-1.00988E-02
 -1      1477 8.82944E-04-1.28855E-08-1.05535E-02
 -1      1479 8.82944E-04 1.28855E-08-1.05535E-02
 -1      1480 9.13568E-04-1.98246E-14-1.05536E-02
 -1      1482 8.52320E-04-1.98443E-14-1.05535E-02
 -1      1491-4.74243E-04 6.68576E-09-1.10028E-02
 -1      1493-4.74243E-04-6.68580E-09-1.10028E-02
 -1      1494-2.21192E-05-6.13313E-10-1.10036E-02
 -1      1496-2.21192E-05 6.13271E-10-1.10036E-02
 -1      1497 4.30002E-04-5.41983E-09-1.10048E-02
 -1      1499 4.30002E-04 5.41979E-09-1.10048E-02
 -1      1500 9.87007E-05 2.67345E-05-9.40959E-05
 -1      1502 7.46129E-05 3.18702E-05-9.15113E-05
 -1      1503 1.70342E-04 1.70954E-05-2.49851E-04
 -1      1505 1.52595E-04 2.36295E-05-2.46509E-04
 -1      1506 2.52867E-04 1.45872E-05-4.12044E-04
 -1      1508 2.27294E-04 2.52161E-05-4.08965E-04
 -1      1509 3.24457E-04 1.14222E-05-6.15927E-04
 -1      1511 2.95368E-04 2.49925E-05-6.13409E-04
 -1      1512 3.91481E-04 9.23706E-06-8.45434E-04
 -1      1514 3.58899E-04 2.50861E-05-8.42661E-04
 -1      1515 4.53786E-04 6.61214E-06-1.10337E-03
 -1      1517 4.16994E-04 2.44747E-05-1.10120E-03
 -1      1518 5.10380E-04 4.88138E-06-1.38683E-03
 -1      1520 4.70836E-04 2.40879E-05-1.38448E-03
 -1      1521 5.62749E-04 2.91913E-06-1.69334E-03
 -1      1523 5.19704E-04 2.33464E-05-1.69146E-03
 -1      1524 6.10031E-04 1.43941E-06-2.02178E-03
 -1      1526 5.64539E-04 2.26743E-05-2.01981E-03
 -1      1527 6.53246E-04-8.57965E-08-2.36936E-03
 -1      1529 6.04995E-04 2.18692E-05-2.36777E-03
 -1      1530 6.92003E-04-1.34547E-06-2.73495E-03
 -1      1532 6.41649E-04 2.10905E-05-2.73332E-03
 -1      1533 7.26943E-04-2.58275E-06-3.11610E-03
 -1      1535 6.74450E-04 2.02741E-05-3.11477E-03
 -1      1536 7.57965E-04-3.65523E-06-3.51157E-03
 -1      1538 7.03757E-04 1.94837E-05-3.51024E-03
 -1      1539 7.85505E-04-4.68413E-06-3.91928E-03
 -1      1541 7.29673E-04 1.86993E-05-3.91819E-03
 -1      1542 8.09612E-04-5.59743E-06-4.33795E-03
 -1      1544 7.52454E-04 1.79489E-05-4.33689E-03
 -1      1545 8.30616E-04-6.46133E-06-4.76583E-03
 -1      1547 7.72271E-04 1.72264E-05-4.76496E-03
 -1      1548 8.48641E-04-7.23534E-06-5.20171E-03
 -1      1550 7.89335E-04 1.65455E-05-5.20087E-03
 -1      1551 8.63966E-04-7.95850E-06-5.64408E-03
 -1      1553 8.03846E-04 1.59039E-05-5.64340E-03
 -1      1554 8.76753E-04-8.60611E-06-6.09185E-03
 -1      1556 8.15997E-04 1.53092E-05-6.09121E-03
 -1      1557 8.87252E-04-9.20223E-06-6.54378E-03
 -1      1559 8.25996E-04 1.47603E-05-6.54326E-03
 -1      1560 8.95646E-04-9.73134E-06-6.99891E-03
 -1      1562 8.34031E-04 1.42614E-05-6.99843E-03
 -1      1563 9.02170E-04-1.02081E-05-7.45622E-03
 -1      1565 8.40313E-04 1.38123E-05-7.45584E-03
 -1      1566 9.07016E-04-1.06234E-05-7.91493E-03
 -1      1568 8.45028E-04 1.34141E-05-7.91459E-03
 -1      1569 9.10410E-04-1.09845E-05-8.37423E-03
 -1      1571 8.48385E-04 1.30696E-05-8.37397E-03
 -1      1572 9.12552E-04-1.12900E-05-8.83354E-03
 -1      1574 8.50569E-04 1.27733E-05-8.83329E-03
 -1      1575 9.13661E-04-1.15345E-05-9.29224E-03
 -1      1577 8.51790E-04 1.25393E-05-9.29206E-03
 -1      1578 9.13930E-04-1.17370E-05-9.74993E-03
 -1      1580 8.52227E-04 1.23403E-05-9.74976E-03
 -1      1581 9.13615E-04-1.18671E-05-1.02063E-02
 -1      1583 8.52106E-04 1.22169E-05-1.02061E-02
 -1      1584 9.12811E-04-1.19242E-05-1.06609E-02
 -1      1586 8.51568E-04 1.21621E-05-1.06608E-02
 -1      1587 9.12204E-04-1.01072E-05-1.10403E-02
 -1      1589 8.51139E-04 9.98024E-06-1.10401E-02
 -1      1590 0.00000E+00 0.00000E+00-2.11718E-06
 -1      1592 0.00000E+00 0.00000E+00 2.11718E-06
 -1      1593 9.12204E-04 1.01072E-05-1.10403E-02
 -1      1595 8.51139E-04-9.98024E-06-1.10401E-02
 -1      1596 9.87007E-05-2.67345E-05-9.40959E-05
 -1      1598 7.46129E-05-3.18702E-05-9.15113E-05
 -1      1599 1.70342E-04-1.70954E-05-2.49851E-04
 -1      1601 1.52595E-04-2.36295E-05-2.46509E-04
 -1      1602 2.52867E-04-1.45872E-05-4.12044E-04
 -1      1604 2.27294E-04-2.52161E-05-4.08965E-04
 -1      1605 3.24457E-04-1.14222E-05-6.15927E-04
 -1      1607 2.95368E-04-2.49925E-05-6.13409E-04
 -1      1608 3.91481E-04-9.23706E-06-8.45434E-04
 -1      1610 3.58899E-04-2.50861E-05-8.42661E-04
 -1      1611 4.53786E-04-6.61214E-06-1.10337E-03
 -1      1613 4.16994E-04-2.44747E-05-1.10120E-03
 -1      1614 5.10380E-04-4.88138E-06-1.38683E-03
 -1      1616 4.70836E-04-2.40879E-05-1.38448E-03
 -1      1617 5.62749E-04-2.91913E-06-1.69334E-03
 -1      1619 5.19704E-04-2.33464E-05-1.69146E-03
 -1      1620 6.10031E-04-1.43941E-06-2.02178E-03
 -1      1622 5.64539E-04-2.26743E-05-2.01981E-03
 -1      1623 6.53246E-04 8.57965E-08-2.36936E-03
 -1      1625 6.04995E-04-2.18692E-05-2.36777E-03
 -1      1626 6.92003E-04 1.34547E-06-2.73495E-03
 -1      1628 6.41649E-04-2.10905E-05-2.73332E-03
 -1      1629 7.26943E-04 2.58275E-06-3.11610E-03
 -1      1631 6.74450E-04-2.02741E-05-3.11477E-03
 -1      1632 7.57965E-04 3.65523E-06-3.51157E-03
 -1      1634 7.03757E-04-1.94837E-05-3.51024E-03
 -1      1635 7.85505E-04 4.68413E-06-3.91928E-03
 -1      1637 7.29673E-04-1.86993E-05-3.91819E-03
 -1      1638 8.09612E-04 5.59743E-06-4.33795E-03
 -1      1640 7.52454E-04-1.79489E-05-4.33689E-03
 -1      1641 8.30616E-04 6.46133E-06-4.76583E-03
 -1      1643 7.72271E-04-1.72264E-05-4.76496E-03
 -1      1644 8.48641E-04 7.23534E-06-5.20171E-03
 -1      1646 7.89335E-04-1.65455E-05-5.20087E-03
 -1      1647 8.63966E-04 7.95850E-06-5.64408E-03
 -1      1649 8.03846E-04-1.59039E-05-5.64340E-03
 -1      1650 8.76753E-04 8.60611E-06-6.09185E-03
 -1      1652 8.15997E-04-1.53092E-05-6.09121E-03
 -1      1653 8.87252E-04 9.20223E-06-6.54378E-03
 -1      1655 8.25996E-04-1.47603E-05-6.54326E-03
 -1      1656 8.95646E-04 9.73134E-06-6.99891E-03
 -1      1658 8.34031E-04-1.42614E-05-6.99843E-03
 -1      1659 9.02170E-04 1.02081E-05-7.45622E-03
 -1      1661 8.40313E-04-1.38123E-05-7.45584E-03
 -1      1662 9.07016E-04 1.06234E-05-7.91493E-03
 -1      1664 8.45028E-04-1.34141E-05-7.91459E-03
 -1      1665 9.10410E-04 1.09845E-05-8.37423E-03
 -1      1667 8.48385E-04-1.30696E-05-8.37397E-03
 -1      1668 9.12552E-04 1.12900E-05-8.83354E-03
 -1      1670 8.50569E-04-1.27733E-05-8.83329E-03
 -1      1671 9.13661E-04 1.15345E-05-9.29224E-03
 -1      1673 8.51790E-04-1.25393E-05-9.29206E-03
 -1      1674 9.13930E-04 1.17370E-05-9.74993E-03
 -1      1676 8.52227E-04-1.23403E-05-9.74976E-03
 -1      1677 9.13615E-04 1.18671E-05-1.02063E-02
 -1      1679 8.52106E-04-1.22169E-05-1.02061E-02
 -1      1680 9.12811E-04 1.19242E-05-1.06609E-02
 -1      1682 8.51568E-04-1.21621E-05-1.06608E-02
 -1      1683 0.00000E+00 0.00000E+00-2.11718E-06
 -1      1685 0.00000E+00 0.00000E+00 2.11718E-06
 -1      1686-9.29719E-05 1.38029E-05-8.47512E-05
 -1      1688-7.06002E-05 1.30028E-05-8.14606E-05
 -1      1689-1.75345E-04 8.17553E-06-2.23433E-04
 -1      1691-1.59942E-04 1.52719E-05-2.20326E-04
 -1      1692-2.54536E-04 4.31506E-06-3.73995E-04
 -1      1694-2.28797E-04 1.34868E-05-3.70946E-04
 -1      1695-3.27147E-04 4.05044E-06-5.69565E-04
 -1      1697-2.99760E-04 1.52386E-05-5.66787E-04
 -1      1698-3.95263E-04 1.59787E-06-7.91014E-04
 -1      1700-3.62466E-04 1.48643E-05-7.88465E-04
 -1      1701-4.57713E-04 7.77631E-07-1.04429E-03
 -1      1703-4.21875E-04 1.50298E-05-1.04195E-03
 -1      1704-5.15580E-04-7.26353E-07-1.32286E-03
 -1      1706-4.75933E-04 1.48995E-05-1.32070E-03
 -1      1707-5.68543E-04-1.57445E-06-1.62657E-03
 -1      1709-5.25984E-04 1.47285E-05-1.62465E-03
 -1      1710-6.17119E-04-2.64373E-06-1.95213E-03
 -1      1712-5.71584E-04 1.45044E-05-1.95034E-03
 -1      1713-6.61328E-04-3.40652E-06-2.29803E-03
 -1      1715-6.13310E-04 1.42296E-05-2.29647E-03
 -1      1716-7.01486E-04-4.22129E-06-2.66193E-03
 -1      1718-6.51110E-04 1.39358E-05-2.66048E-03
 -1      1719-7.37729E-04-4.88070E-06-3.04206E-03
 -1      1721-6.85340E-04 1.36211E-05-3.04083E-03
 -1      1722-7.70302E-04-5.52966E-06-3.43654E-03
 -1      1724-7.16077E-04 1.32986E-05-3.43541E-03
 -1      1725-7.99383E-04-6.08974E-06-3.84364E-03
 -1      1727-7.43591E-04 1.29762E-05-3.84269E-03
 -1      1728-8.25187E-04-6.61923E-06-4.26173E-03
 -1      1730-7.68015E-04 1.26541E-05-4.26088E-03
 -1      1731-8.47913E-04-7.08984E-06-4.68925E-03
 -1      1733-7.89580E-04 1.23441E-05-4.68855E-03
 -1      1734-8.67763E-04-7.52523E-06-5.12477E-03
 -1      1736-8.08445E-04 1.20414E-05-5.12416E-03
 -1      1737-8.84943E-04-7.91593E-06-5.56692E-03
 -1      1739-8.24823E-04 1.17571E-05-5.56644E-03
 -1      1740-8.99650E-04-8.27190E-06-6.01448E-03
 -1      1742-8.38884E-04 1.14860E-05-6.01408E-03
 -1      1743-9.12093E-04-8.59033E-06-6.46627E-03
 -1      1745-8.50834E-04 1.12365E-05-6.46598E-03
 -1      1746-9.22471E-04-8.87581E-06-6.92127E-03
 -1      1748-8.60849E-04 1.10050E-05-6.92104E-03
 -1      1749-9.30992E-04-9.12766E-06-7.37850E-03
 -1      1751-8.69132E-04 1.07963E-05-7.37835E-03
 -1      1752-9.37855E-04-9.34823E-06-7.83714E-03
 -1      1754-8.75863E-04 1.06100E-05-7.83703E-03
 -1      1755-9.43269E-04-9.53756E-06-8.29640E-03
 -1      1757-8.81241E-04 1.04458E-05-8.29636E-03
 -1      1758-9.47435E-04-9.69691E-06-8.75565E-03
 -1      1760-8.85452E-04 1.03085E-05-8.75565E-03
 -1      1761-9.50563E-04-9.82576E-06-9.21434E-03
 -1      1763-8.88689E-04 1.01918E-05-9.21439E-03
 -1      1764-9.52854E-04-9.92677E-06-9.67201E-03
 -1      1766-8.91152E-04 1.01049E-05-9.67207E-03
 -1      1767-9.54514E-04-1.00046E-05-1.01283E-02
 -1      1769-8.93003E-04 1.00320E-05-1.01284E-02
 -1      1770-9.55752E-04-1.00014E-05-1.05830E-02
 -1      1772-8.94506E-04 1.00354E-05-1.05831E-02
 -1      1773-9.29719E-05-1.38029E-05-8.47512E-05
 -1      1775-7.06002E-05-1.30028E-05-8.14606E-05
 -1      1776-1.75345E-04-8.17553E-06-2.23433E-04
 -1      1778-1.59942E-04-1.52719E-05-2.20326E-04
 -1      1779-2.54536E-04-4.31506E-06-3.73995E-04
 -1      1781-2.28797E-04-1.34868E-05-3.70946E-04
 -1      1782-3.27147E-04-4.05044E-06-5.69565E-04
 -1      1784-2.99760E-04-1.52386E-05-5.66787E-04
 -1      1785-3.95263E-04-1.59787E-06-7.91014E-04
 -1      1787-3.62466E-04-1.48643E-05-7.88465E-04
 -1      1788-4.57713E-04-7.77631E-07-1.04429E-03
 -1      1790-4.21875E-04-1.50298E-05-1.04195E-03
 -1      1791-5.15580E-04 7.26353E-07-1.32286E-03
 -1      1793-4.75933E-04-1.48995E-05-1.32070E-03
 -1      1794-5.68543E-04 1.57445E-06-1.62657E-03
 -1      1796-5.25984E-04-1.47285E-05-1.62465E-03
 -1      1797-6.17119E-04 2.64373E-06-1.95213E-03
 -1      1799-5.71584E-04-1.45044E-05-1.95034E-03
 -1      1800-6.61328E-04 3.40652E-06-2.29803E-03
 -1      1802-6.13310E-04-1.42296E-05-2.29647E-03
 -1      1803-7.01486E-04 4.22129E-06-2.66193E-03
 -1      1805-6.51110E-04-1.39358E-05-2.66048E-03
 -1      1806-7.37729E-04 4.88070E-06-3.04206E-03
 -1      1808-6.85340E-04-1.36211E-05-3.04083E-03
 -1      1809-7.70302E-04 5.52966E-06-3.43654E-03
 -1      1811-7.16077E-04-1.32986E-05-3.43541E-03
 -1      1812-7.99383E-04 6.08974E-06-3.84364E-03
 -1      1814-7.43591E-04-1.29762E-05-3.84269E-03
 -1      1815-8.25187E-04 6.61923E-06-4.26173E-03
 -1      1817-7.68015E-04-1.26541E-05-4.26088E-03
 -1      1818-8.47913E-04 7.08984E-06-4.68925E-03
 -1      1820-7.89580E-04-1.23441E-05-4.68855E-03
 -1      1821-8.67763E-04 7.52523E-06-5.12477E-03
 -1      1823-8.08445E-04-1.20414E-05-5.12416E-03
 -1      1824-8.84943E-04 7.91593E-06-5.56692E-03
 -1      1826-8.24823E-04-1.17571E-05-5.56644E-03
 -1      1827-8.99650E-04 8.27190E-06-6.01448E-03
 -1      1829-8.38884E-04-1.14860E-05-6.01408E-03
 -1      1830-9.12093E-04 8.59033E-06-6.46627E-03
 -1      1832-8.50834E-04-1.12365E-05-6.46598E-03
 -1      1833-9.22471E-04 8.87581E-06-6.92127E-03
 -1      1835-8.60849E-04-1.10050E-05-6.92104E-03
 -1      1836-9.30992E-04 9.12766E-06-7.37850E-03
 -1      1838-8.69132E-04-1.07963E-05-7.37835E-03
 -1      1839-9.37855E-04 9.34823E-06-7.83714E-03
 -1      1841-8.75863E-04-1.06100E-05-7.83703E-03
 -1      1842-9.43269E-04 9.53756E-06-8.29640E-03
 -1      1844-8.81241E-04-1.04458E-05-8.29636E-03
 -1      1845-9.47435E-04 9.69691E-06-8.75565E-03
 -1      1847-8.85452E-04-1.03085E-05-8.75565E-03
 -1      1848-9.50563E-04 9.82576E-06-9.21434E-03
 -1      1850-8.88689E-04-1.01918E-05-9.21439E-03
 -1      1851-9.52854E-04 9.92677E-06-9.67201E-03
 -1      1853-8.91152E-04-1.01049E-05-9.67207E-03
 -1      1854-9.54514E-04 1.00046E-05-1.01283E-02
 -1      1856-8.93003E-04-1.00320E-05-1.01284E-02
 -1      1857-9.55752E-04 1.00014E-05-1.05830E-02
 -1      1859-8.94506E-04-1.00354E-05-1.05831E-02
 -1      1860-3.87436E-05-5.90328E-07-6.90728E-05
 -1      1862-3.87436E-05 5.90328E-07-6.90728E-05
 -1      1863-8.08816E-05-5.36945E-07-1.87540E-04
 -1      1865-8.08816E-05 5.36945E-07-1.87540E-04
 -1      1866-1.20166E-04-4.57765E-07-3.42280E-04
 -1      1868-1.20166E-04 4.57765E-07-3.42280E-04
 -1      1869-1.55943E-04-4.34711E-07-5.32121E-04
 -1      1871-1.55943E-04 4.34711E-07-5.32121E-04
 -1      1872-1.89014E-04-4.05223E-07-7.53831E-04
 -1      1874-1.89014E-04 4.05223E-07-7.53831E-04
 -1      1875-2.19609E-04-3.61367E-07-1.00525E-03
 -1      1877-2.19609E-04 3.61367E-07-1.00525E-03
 -1      1878-2.47850E-04-3.44824E-07-1.28367E-03
 -1      1880-2.47850E-04 3.44824E-07-1.28367E-03
 -1      1881-2.73842E-04-3.00669E-07-1.58686E-03
 -1      1883-2.73842E-04 3.00669E-07-1.58686E-03
 -1      1884-2.97688E-04-2.85919E-07-1.91248E-03
 -1      1886-2.97688E-04 2.85919E-07-1.91248E-03
 -1      1887-3.19489E-04-2.47248E-07-2.25843E-03
 -1      1889-3.19489E-04 2.47248E-07-2.25843E-03
 -1      1890-3.39339E-04-2.31653E-07-2.62261E-03
 -1      1892-3.39339E-04 2.31653E-07-2.62261E-03
 -1      1893-3.57340E-04-1.99213E-07-3.00307E-03
 -1      1895-3.57340E-04 1.99213E-07-3.00307E-03
 -1      1896-3.73584E-04-1.83000E-07-3.39796E-03
 -1      1898-3.73584E-04 1.83000E-07-3.39796E-03
 -1      1899-3.88170E-04-1.56070E-07-3.80552E-03
 -1      1901-3.88170E-04 1.56070E-07-3.80552E-03
 -1      1902-4.01191E-04-1.40093E-07-4.22408E-03
 -1      1904-4.01191E-04 1.40093E-07-4.22408E-03
 -1      1905-4.12745E-04-1.17792E-07-4.65208E-03
 -1      1907-4.12745E-04 1.17792E-07-4.65208E-03
 -1      1908-4.22925E-04-1.02837E-07-5.08808E-03
 -1      1910-4.22925E-04 1.02837E-07-5.08808E-03
 -1      1911-4.31829E-04-8.44640E-08-5.53071E-03
 -1      1913-4.31829E-04 8.44639E-08-5.53071E-03
 -1      1914-4.39550E-04-7.11016E-08-5.97872E-03
 -1      1916-4.39550E-04 7.11016E-08-5.97872E-03
 -1      1917-4.46185E-04-5.61688E-08-6.43095E-03
 -1      1919-4.46185E-04 5.61687E-08-6.43095E-03
 -1      1920-4.51830E-04-4.47832E-08-6.88634E-03
 -1      1922-4.51830E-04 4.47832E-08-6.88634E-03
 -1      1923-4.56582E-04-3.29675E-08-7.34394E-03
 -1      1925-4.56582E-04 3.29675E-08-7.34394E-03
 -1      1926-4.60536E-04-2.38081E-08-7.80289E-03
 -1      1928-4.60536E-04 2.38080E-08-7.80289E-03
 -1      1929-4.63791E-04-1.48954E-08-8.26245E-03
 -1      1931-4.63791E-04 1.48954E-08-8.26245E-03
 -1      1932-4.66444E-04-8.13361E-09-8.72194E-03
 -1      1934-4.66444E-04 8.13357E-09-8.72194E-03
 -1      1935-4.68593E-04-1.96608E-09-9.18083E-03
 -1      1937-4.68593E-04 1.96604E-09-9.18083E-03
 -1      1938-4.70338E-04 2.26457E-09-9.63866E-03
 -1      1940-4.70338E-04-2.26461E-09-9.63866E-03
 -1      1941-4.71788E-04 5.78968E-09-1.00951E-02
 -1      1943-4.71788E-04-5.78972E-09-1.00951E-02
 -1      1944-4.73055E-04 6.72308E-09-1.05498E-02
 -1      1946-4.73055E-04-6.72312E-09-1.05498E-02
 -1      1947-1.08103E-07-1.59725E-09-6.47261E-05
 -1      1949-1.08103E-07 1.59725E-09-6.47261E-05
 -1      1950-2.28804E-07-1.46667E-09-1.80809E-04
 -1      1952-2.28804E-07 1.46667E-09-1.80809E-04
 -1      1953-3.77260E-07-1.58196E-09-3.36592E-04
 -1      1955-3.77260E-07 1.58195E-09-3.36592E-04
 -1      1956-5.74133E-07-9.38438E-10-5.26904E-04
 -1      1958-5.74133E-07 9.38437E-10-5.26904E-04
 -1      1959-8.30667E-07-1.31105E-09-7.49168E-04
 -1      1961-8.30667E-07 1.31105E-09-7.49168E-04
 -1      1962-1.15310E-06-8.47748E-10-1.00096E-03
 -1      1964-1.15310E-06 8.47745E-10-1.00096E-03
 -1      1965-1.54324E-06-9.58439E-10-1.27982E-03
 -1      1967-1.54324E-06 9.58435E-10-1.27982E-03
 -1      1968-2.00129E-06-7.47368E-10-1.58339E-03
 -1      1970-2.00129E-06 7.47363E-10-1.58339E-03
 -1      1971-2.52663E-06-7.24421E-10-1.90941E-03
 -1      1973-2.52663E-06 7.24416E-10-1.90941E-03
 -1      1974-3.11717E-06-6.46619E-10-2.25572E-03
 -1      1976-3.11717E-06 6.46613E-10-2.25572E-03
 -1      1977-3.77021E-06-5.77185E-10-2.62025E-03
 -1      1979-3.77021E-06 5.77177E-10-2.62025E-03
 -1      1980-4.48203E-06-5.63931E-10-3.00105E-03
 -1      1982-4.48203E-06 5.63922E-10-3.00105E-03
 -1      1983-5.24853E-06-4.89852E-10-3.39625E-03
 -1      1985-5.24853E-06 4.89842E-10-3.39625E-03
 -1      1986-6.06496E-06-5.06561E-10-3.80411E-03
 -1      1988-6.06496E-06 5.06548E-10-3.80411E-03
 -1      1989-6.92643E-06-4.45599E-10-4.22294E-03
 -1      1991-6.92643E-06 4.45585E-10-4.22294E-03
 -1      1992-7.82776E-06-4.75110E-10-4.65121E-03
 -1      1994-7.82776E-06 4.75094E-10-4.65121E-03
 -1      1995-8.76382E-06-4.32794E-10-5.08745E-03
 -1      1997-8.76382E-06 4.32776E-10-5.08745E-03
 -1      1998-9.72943E-06-4.66601E-10-5.53030E-03
 -1      2000-9.72943E-06 4.66582E-10-5.53030E-03
 -1      2001-1.07197E-05-4.42417E-10-5.97851E-03
 -1      2003-1.07197E-05 4.42396E-10-5.97851E-03
 -1      2004-1.17297E-05-4.76386E-10-6.43092E-03
 -1      2006-1.17297E-05 4.76364E-10-6.43092E-03
 -1      2007-1.27551E-05-4.67102E-10-6.88647E-03
 -1      2009-1.27551E-05 4.67077E-10-6.88647E-03
 -1      2010-1.37916E-05-4.99343E-10-7.34421E-03
 -1      2012-1.37916E-05 4.99316E-10-7.34421E-03
 -1      2013-1.48355E-05-5.00793E-10-7.80329E-03
 -1      2015-1.48355E-05 5.00765E-10-7.80329E-03
 -1      2016-1.58833E-05-5.30637E-10-8.26295E-03
 -1      2018-1.58833E-05 5.30607E-10-8.26295E-03
 -1      2019-1.69322E-05-5.38473E-10-8.72254E-03
 -1      2021-1.69322E-05 5.38441E-10-8.72254E-03
 -1      2022-1.79796E-05-5.66434E-10-9.18150E-03
 -1      2024-1.79796E-05 5.66399E-10-9.18150E-03
 -1      2025-1.90233E-05-5.74857E-10-9.63938E-03
 -1      2027-1.90233E-05 5.74821E-10-9.63938E-03
 -1      2028-2.00618E-05-6.01857E-10-1.00958E-02
 -1      2030-2.00618E-05 6.01819E-10-1.00958E-02
 -1      2031-2.10938E-05-6.13790E-10-1.05506E-02
 -1      2033-2.10938E-05 6.13750E-10-1.05506E-02
 -1      2034 3.85207E-05 5.85544E-07-6.91732E-05
 -1      2036 3.85207E-05-5.85544E-07-6.91732E-05
 -1      2037 8.04202E-05 5.32208E-07-1.87741E-04
 -1      2039 8.04202E-05-5.32208E-07-1.87741E-04
 -1      2040 1.19400E-04 4.53925E-07-3.42571E-04
 -1      2042 1.19400E-04-4.53925E-07-3.42571E-04
 -1      2043 1.54779E-04 4.30442E-07-5.32503E-04
 -1      2045 1.54779E-04-4.30442E-07-5.32503E-04
 -1      2046 1.87332E-04 4.02785E-07-7.54306E-04
 -1      2048 1.87332E-04-4.02785E-07-7.54306E-04
 -1      2049 2.17278E-04 3.58862E-07-1.00584E-03
 -1      2051 2.17278E-04-3.58863E-07-1.00584E-03
 -1      2052 2.44738E-04 3.43527E-07-1.28437E-03
 -1      2054 2.44738E-04-3.43527E-07-1.28437E-03
 -1      2055 2.69813E-04 2.99579E-07-1.58768E-03
 -1      2057 2.69813E-04-2.99579E-07-1.58768E-03
 -1      2058 2.92610E-04 2.85545E-07-1.91342E-03
 -1      2060 2.92610E-04-2.85545E-07-1.91342E-03
 -1      2061 3.13231E-04 2.47173E-07-2.25949E-03
 -1      2063 3.13231E-04-2.47173E-07-2.25949E-03
 -1      2064 3.31776E-04 2.31973E-07-2.62378E-03
 -1      2066 3.31776E-04-2.31973E-07-2.62378E-03
 -1      2067 3.48355E-04 1.99833E-07-3.00436E-03
 -1      2069 3.48355E-04-1.99833E-07-3.00436E-03
 -1      2070 3.63067E-04 1.83811E-07-3.39935E-03
 -1      2072 3.63067E-04-1.83811E-07-3.39935E-03
 -1      2073 3.76022E-04 1.57143E-07-3.80701E-03
 -1      2075 3.76022E-04-1.57143E-07-3.80701E-03
 -1      2076 3.87322E-04 1.41229E-07-4.22565E-03
 -1      2078 3.87322E-04-1.41229E-07-4.22565E-03
 -1      2079 3.97075E-04 1.19138E-07-4.65374E-03
 -1      2081 3.97075E-04-1.19138E-07-4.65374E-03
 -1      2082 4.05385E-04 1.04165E-07-5.08982E-03
 -1      2084 4.05385E-04-1.04165E-07-5.08982E-03
 -1      2085 4.12358E-04 8.59522E-08-5.53251E-03
 -1      2087 4.12358E-04-8.59522E-08-5.53251E-03
 -1      2088 4.18100E-04 7.25248E-08-5.98057E-03
 -1      2090 4.18100E-04-7.25248E-08-5.98057E-03
 -1      2091 4.22717E-04 5.77079E-08-6.43285E-03
 -1      2093 4.22717E-04-5.77079E-08-6.43285E-03
 -1      2094 4.26312E-04 4.62301E-08-6.88828E-03
 -1      2096 4.26312E-04-4.62301E-08-6.88828E-03
 -1      2097 4.28992E-04 3.44970E-08-7.34591E-03
 -1      2099 4.28992E-04-3.44971E-08-7.34591E-03
 -1      2100 4.30860E-04 2.52315E-08-7.80489E-03
 -1      2102 4.30860E-04-2.52315E-08-7.80489E-03
 -1      2103 4.32020E-04 1.63790E-08-8.26446E-03
 -1      2105 4.32020E-04-1.63791E-08-8.26446E-03
 -1      2106 4.32575E-04 9.50518E-09-8.72397E-03
 -1      2108 4.32575E-04-9.50521E-09-8.72397E-03
 -1      2109 4.32630E-04 3.38646E-09-9.18287E-03
 -1      2111 4.32630E-04-3.38650E-09-9.18287E-03
 -1      2112 4.32289E-04-9.60151E-10-9.64070E-03
 -1      2114 4.32289E-04 9.60115E-10-9.64070E-03
 -1      2115 4.31661E-04-4.43502E-09-1.00971E-02
 -1      2117 4.31661E-04 4.43498E-09-1.00971E-02
 -1      2118 4.30864E-04-5.46887E-09-1.05519E-02
 -1      2120 4.30864E-04 5.46883E-09-1.05519E-02
 -1      2121 9.29263E-05 1.34948E-05-8.59444E-05
 -1      2123 7.02641E-05 1.32713E-05-8.26199E-05
 -1      2124 1.74812E-04 7.65787E-06-2.25636E-04
 -1      2126 1.59448E-04 1.57971E-05-2.22506E-04
 -1      2127 2.53758E-04 3.69248E-06-3.76674E-04
 -1      2129 2.27908E-04 1.41176E-05-3.73576E-04
 -1      2130 3.25821E-04 3.36558E-06-5.72721E-04
 -1      2132 2.98491E-04 1.59422E-05-5.69873E-04
 -1      2133 3.93417E-04 9.14366E-07-7.94316E-04
 -1      2135 3.60618E-04 1.55742E-05-7.91683E-04
 -1      2136 4.55154E-04 1.15104E-07-1.04781E-03
 -1      2138 4.19369E-04 1.57265E-05-1.04536E-03
 -1      2139 5.12224E-04-1.34974E-06-1.32646E-03
 -1      2141 4.72616E-04 1.55616E-05-1.32417E-03
 -1      2142 5.64239E-04-2.14444E-06-1.63028E-03
 -1      2144 5.21734E-04 1.53422E-05-1.62820E-03
 -1      2145 6.11750E-04-3.15837E-06-1.95589E-03
 -1      2147 5.66266E-04 1.50661E-05-1.95394E-03
 -1      2148 6.54761E-04-3.86009E-06-2.30185E-03
 -1      2150 6.06795E-04 1.47332E-05-2.30010E-03
 -1      2151 6.93605E-04-4.61737E-06-2.66579E-03
 -1      2153 6.43279E-04 1.43841E-05-2.66414E-03
 -1      2154 7.28416E-04-5.21951E-06-3.04598E-03
 -1      2156 6.76073E-04 1.40138E-05-3.04452E-03
 -1      2157 7.59452E-04-5.81674E-06-3.44050E-03
 -1      2159 7.05270E-04 1.36407E-05-3.43913E-03
 -1      2160 7.86897E-04-6.32836E-06-3.84765E-03
 -1      2162 7.31144E-04 1.32708E-05-3.84645E-03
 -1      2163 8.10979E-04-6.81532E-06-4.26578E-03
 -1      2165 7.53841E-04 1.29066E-05-4.26466E-03
 -1      2166 8.31902E-04-7.24778E-06-4.69333E-03
 -1      2168 7.73600E-04 1.25588E-05-4.69236E-03
 -1      2169 8.49882E-04-7.65055E-06-5.12890E-03
 -1      2171 7.90590E-04 1.22235E-05-5.12800E-03
 -1      2172 8.65133E-04-8.01302E-06-5.57108E-03
 -1      2174 8.05035E-04 1.19109E-05-5.57031E-03
 -1      2175 8.77863E-04-8.34547E-06-6.01868E-03
 -1      2177 8.17116E-04 1.16160E-05-6.01798E-03
 -1      2178 8.88290E-04-8.64421E-06-6.47050E-03
 -1      2180 8.27046E-04 1.13465E-05-6.46990E-03
 -1      2181 8.96620E-04-8.91374E-06-6.92552E-03
 -1      2183 8.35012E-04 1.10985E-05-6.92498E-03
 -1      2184 9.03072E-04-9.15270E-06-7.38277E-03
 -1      2186 8.41222E-04 1.08764E-05-7.38232E-03
 -1      2187 9.07851E-04-9.36316E-06-7.84142E-03
 -1      2189 8.45868E-04 1.06794E-05-7.84101E-03
 -1      2190 9.11173E-04-9.54466E-06-8.30069E-03
 -1      2192 8.49151E-04 1.05067E-05-8.30035E-03
 -1      2193 9.13245E-04-9.69814E-06-8.75995E-03
 -1      2195 8.51267E-04 1.03629E-05-8.75964E-03
 -1      2196 9.14281E-04-9.82271E-06-9.21864E-03
 -1      2198 8.52410E-04 1.02413E-05-9.21838E-03
 -1      2199 9.14488E-04-9.92080E-06-9.67631E-03
 -1      2201 8.52788E-04 1.01507E-05-9.67607E-03
 -1      2202 9.14072E-04-9.99685E-06-1.01326E-02
 -1      2204 8.52563E-04 1.00752E-05-1.01324E-02
 -1      2205 9.13247E-04-9.99235E-06-1.05873E-02
 -1      2207 8.52002E-04 1.00775E-05-1.05871E-02
 -1      2208 9.29263E-05-1.34948E-05-8.59444E-05
 -1      2210 7.02641E-05-1.32713E-05-8.26199E-05
 -1      2211 1.74812E-04-7.65787E-06-2.25636E-04
 -1      2213 1.59448E-04-1.57971E-05-2.22506E-04
 -1      2214 2.53758E-04-3.69248E-06-3.76674E-04
 -1      2216 2.27908E-04-1.41176E-05-3.73576E-04
 -1      2217 3.25821E-04-3.36558E-06-5.72721E-04
 -1      2219 2.98491E-04-1.59422E-05-5.69873E-04
 -1      2220 3.93417E-04-9.14366E-07-7.94316E-04
 -1      2222 3.60618E-04-1.55742E-05-7.91683E-04
 -1      2223 4.55154E-04-1.15104E-07-1.04781E-03
 -1      2225 4.19369E-04-1.57265E-05-1.04536E-03
 -1      2226 5.12224E-04 1.34974E-06-1.32646E-03
 -1      2228 4.72616E-04-1.55616E-05-1.32417E-03
 -1      2229 5.64239E-04 2.14444E-06-1.63028E-03
 -1      2231 5.21734E-04-1.53422E-05-1.62820E-03
 -1      2232 6.11750E-04 3.15837E-06-1.95589E-03
 -1      2234 5.66266E-04-1.50661E-05-1.95394E-03
 -1      2235 6.54761E-04 3.86009E-06-2.30185E-03
 -1      2237 6.06795E-04-1.47332E-05-2.30010E-03
 -1      2238 6.93605E-04 4.61737E-06-2.66579E-03
 -1      2240 6.43279E-04-1.43841E-05-2.66414E-03
 -1      2241 7.28416E-04 5.21951E-06-3.04598E-03
 -1      2243 6.76073E-04-1.40138E-05-3.04452E-03
 -1      2244 7.59452E-04 5.81674E-06-3.44050E-03
 -1      2246 7.05270E-04-1.36407E-05-3.43913E-03
 -1      2247 7.86897E-04 6.32836E-06-3.84765E-03
 -1      2249 7.31144E-04-1.32708E-05-3.84645E-03
 -1      2250 8.10979E-04 6.81532E-06-4.26578E-03
 -1      2252 7.53841E-04-1.29066E-05-4.26466E-03
 -1      2253 8.31902E-04 7.24778E-06-4.69333E-03
 -1      2255 7.73600E-04-1.25588E-05-4.69236E-03
 -1      2256 8.49882E-04 7.65055E-06-5.12890E-03
 -1      2258 7.90590E-04-1.22235E-05-5.12800E-03
 -1      2259 8.65133E-04 8.01302E-06-5.57108E-03
 -1      2261 8.05035E-04-1.19109E-05-5.57031E-03
 -1      2262 8.77863E-04 8.34547E-06-6.01868E-03
 -1      2264 8.17116E-04-1.16160E-05-6.01798E-03
 -1      2265 8.88290E-04 8.64421E-06-6.47050E-03
 -1      2267 8.27046E-04-1.13465E-05-6.46990E-03
 -1      2268 8.96620E-04 8.91374E-06-6.92552E-03
 -1      2270 8.35012E-04-1.10985E-05-6.92498E-03
 -1      2271 9.03072E-04 9.15270E-06-7.38277E-03
 -1      2273 8.41222E-04-1.08764E-05-7.38232E-03
 -1      2274 9.07851E-04 9.36316E-06-7.84142E-03
 -1      2276 8.45868E-04-1.06794E-05-7.84101E-03
 -1      2277 9.11173E-04 9.54466E-06-8.30069E-03
 -1      2279 8.49151E-04-1.05067E-05-8.30035E-03
 -1      2280 9.13245E-04 9.69814E-06-8.75995E-03
 -1      2282 8.51267E-04-1.03629E-05-8.75964E-03
 -1      2283 9.14281E-04 9.82271E-06-9.21864E-03
 -1      2285 8.52410E-04-1.02413E-05-9.21838E-03
 -1      2286 9.14488E-04 9.92080E-06-9.67631E-03
 -1      2288 8.52788E-04-1.01507E-05-9.67607E-03
 -1      2289 9.14072E-04 9.99685E-06-1.01326E-02
 -1      2291 8.52563E-04-1.00752E-05-1.01324E-02
 -1      2292 9.13247E-04 9.99235E-06-1.05873E-02
 -1      2294 8.52002E-04-1.00775E-05-1.05871E-02
 -3
    1PSTEP                         6           2           1          
  100CL  102 100.0000000         930                     0    2           1
 -4  STRESS      6    1
 -5  SXX         1    4    1    1
 -5  SYY         1    4    2    2
 -5  SZZ         1    4    3    3
 -5  SXY         1    4    1    2
 -5  SYZ         1    4    2    3
 -5  SZX         1    4    3    1
 -1       404-1.81988E+08-1.75267E+07-9.76062E+04 1.26619E+07-3.11765E+05-1.23525E+06
 -1       406-1.81988E+08-1.75267E+07-9.76062E+04 1.26619E+07-3.11765E+05-1.23525E+06
 -1       407-1.68127E+05-3.23193E+04 5.11095E+03 7.67493E+04-1.38017E+05 6.14092E+03
 -1       409-1.68127E+05-3.23193E+04 5.11095E+03 7.67493E+04-1.38017E+05 6.14092E+03
 -1       410-1.81126E+05-1.64633E+05-1.04263E+04-1.05560E-07 5.53380E-07 7.57692E+03
 -1       412-1.81126E+05-1.64633E+05-1.04263E+04-1.05560E-07 5.53380E-07 7.57692E+03
 -1       413 1.78861E+05 1.91269E+04 1.35229E+06-4.70230E-07 9.65399E-06-7.41472E+05
 -1       415 1.78861E+05 1.91269E+04 1.35229E+06-4.70230E-07 9.65399E-06-7.41472E+05
 -1       424-1.84541E+08-2.41565E+07 5.73817E+04 6.78003E-07 2.86382E-08-2.86590E+06
 -1       426-1.84541E+08-2.41565E+07 5.73817E+04 6.78003E-07 2.86382E-08-2.86590E+06
 -1       427-1.39717E+08-2.68404E+05-2.44344E+07 5.57920E-07 1.14673E-08-4.27675E+07
 -1       429-1.39717E+08-2.68404E+05-2.44344E+07 5.57920E-07 1.14673E-08-4.27675E+07
 -1       438-1.68127E+05-3.23193E+04 5.11095E+03-7.67493E+04 1.38017E+05 6.14092E+03
 -1       440-1.68127E+05-3.23193E+04 5.11095E+03-7.67493E+04 1.38017E+05 6.14092E+03
 -1       441-1.81988E+08-1.75267E+07-9.76062E+04-1.26619E+07 3.11765E+05-1.23525E+06
 -1       443-1.81988E+08-1.75267E+07-9.76062E+04-1.26619E+07 3.11765E+05-1.23525E+06
 -1       444 1.39649E+08 2.69360E+05 2.43518E+07 2.88774E-07 1.23451E-07-4.30741E+07
 -1       446 1.39649E+08 2.69360E+05 2.43518E+07 2.88774E-07 1.23451E-07-4.30741E+07
 -1       447 1.84908E+08 2.41444E+07-5.39532E+04-1.62050E-06-2.24332E-07-3.18248E+06
 -1       449 1.84908E+08 2.41444E+07-5.39532E+04-1.62050E-06-2.24332E-07-3.18248E+06
 -1       458-1.90088E+05-1.83803E+04-1.33992E+06 3.25379E-07 1.50585E-05-7.52726E+05
 -1       460-1.90088E+05-1.83803E+04-1.33992E+06 3.25379E-07 1.50585E-05-7.52726E+05
 -1       461 1.83410E+05 1.64723E+05 9.45183E+03-1.61337E-07 1.14090E-06 6.36484E+03
 -1       463 1.83410E+05 1.64723E+05 9.45183E+03-1.61337E-07 1.14090E-06 6.36484E+03
 -1       472 1.82344E+08 1.75140E+07 9.83503E+04 1.27242E+07 2.85171E+05-1.67279E+06
 -1       474 1.82344E+08 1.75140E+07 9.83503E+04 1.27242E+07 2.85171E+05-1.67279E+06
 -1       475 1.72151E+05 3.20577E+04-3.58299E+03 7.85821E+04 1.37815E+05 4.80048E+03
 -1       477 1.72151E+05 3.20577E+04-3.58299E+03 7.85821E+04 1.37815E+05 4.80048E+03
 -1       478 1.72151E+05 3.20577E+04-3.58299E+03-7.85821E+04-1.37815E+05 4.80048E+03
 -1       480 1.72151E+05 3.20577E+04-3.58299E+03-7.85821E+04-1.37815E+05 4.80048E+03
 -1       481 1.82344E+08 1.75140E+07 9.83503E+04-1.27242E+07-2.85171E+05-1.67279E+06
 -1       483 1.82344E+08 1.75140E+07 9.83503E+04-1.27242E+07-2.85171E+05-1.67279E+06
 -1       484-1.74120E+08-5.04034E+06 6.25306E+04 4.43516E+06-1.51839E+05-3.43261E+05
 -1       486-1.74120E+08-5.04034E+06 6.25306E+04 4.43516E+06-1.51839E+05-3.43261E+05
 -1       487-1.63642E+08 2.39085E+06-1.59329E+04 2.82018E+05 2.09064E+04 4.28279E+05
 -1       489-1.63642E+08 2.39085E+06-1.59329E+04 2.82018E+05 2.09064E+04 4.28279E+05
 -1       490-1.54612E+08-7.69429E+05-3.94867E+03 3.26284E+06-2.57086E+04 1.77931E+05
 -1       492-1.54612E+08-7.69429E+05-3.94867E+03 3.26284E+06-2.57086E+04 1.77931E+05
 -1       493-1.42797E+08 2.30430E+05 1.85222E+04 2.32236E+06-4.48719E+04 2.68776E+05
 -1       495-1.42797E+08 2.30430E+05 1.85222E+04 2.32236E+06-4.48719E+04 2.68776E+05
 -1       496-1.32171E+08-1.36071E+05-1.24238E+04 2.38488E+06-5.55803E+04 3.10401E+05
 -1       498-1.32171E+08-1.36071E+05-1.24238E+04 2.38488E+06-5.55803E+04 3.10401E+05
 -1       499-1.21872E+08 5.29267E+04 1.66878E+04 2.27809E+06-8.16176E+04 2.81585E+05
 -1       501-1.21872E+08 5.29267E+04 1.66878E+04 2.27809E+06-8.16176E+04 2.81585E+05
 -1       502-1.11946E+08-6.63531E+04-8.52609E+03 2.19073E+06-8.70108E+04 3.25576E+05
 -1       504-1.11946E+08-6.63531E+04-8.52609E+03 2.19073E+06-8.70108E+04 3.25576E+05
 -1       505-1.02455E+08 9.18902E+03 1.27376E+04 2.08793E+06-1.03787E+05 2.92351E+05
 -1       507-1.02455E+08 9.18902E+03 1.27376E+04 2.08793E+06-1.03787E+05 2.92351E+05
 -1       508-9.33852E+07-3.82444E+04-5.27000E+03 1.99848E+06-1.07981E+05 3.08616E+05
 -1       510-9.33852E+07-3.82444E+04-5.27000E+03 1.99848E+06-1.07981E+05 3.08616E+05
 -1       511-8.47334E+07-8.39088E+03 9.95089E+03 1.89980E+06-1.18084E+05 2.80727E+05
 -1       513-8.47334E+07-8.39088E+03 9.95089E+03 1.89980E+06-1.18084E+05 2.80727E+05
 -1       514-7.65061E+07-2.75725E+04-2.93917E+03 1.80673E+06-1.21179E+05 2.77464E+05
 -1       516-7.65061E+07-2.75725E+04-2.93917E+03 1.80673E+06-1.21179E+05 2.77464E+05
 -1       517-6.86982E+07-1.49750E+04 8.05269E+03 1.71032E+06-1.27305E+05 2.52190E+05
 -1       519-6.86982E+07-1.49750E+04 8.05269E+03 1.71032E+06-1.27305E+05 2.52190E+05
 -1       520-6.13137E+07-2.35102E+04-1.23593E+03 1.61596E+06-1.29382E+05 2.38245E+05
 -1       522-6.13137E+07-2.35102E+04-1.23593E+03 1.61596E+06-1.29382E+05 2.38245E+05
 -1       523-5.43497E+07-1.75744E+04 6.77255E+03 1.52032E+06-1.33121E+05 2.14059E+05
 -1       525-5.43497E+07-1.75744E+04 6.77255E+03 1.52032E+06-1.33121E+05 2.14059E+05
 -1       526-4.78085E+07-2.18500E+04 3.53978E+01 1.42552E+06-1.34396E+05 1.95215E+05
 -1       528-4.78085E+07-2.18500E+04 3.53978E+01 1.42552E+06-1.34396E+05 1.95215E+05
 -1       529-4.16885E+07-1.86892E+04 5.91980E+03 1.33018E+06-1.36648E+05 1.72113E+05
 -1       531-4.16885E+07-1.86892E+04 5.91980E+03 1.33018E+06-1.36648E+05 1.72113E+05
 -1       532-3.59912E+07-2.10992E+04 9.98024E+02 1.23523E+06-1.37348E+05 1.51939E+05
 -1       534-3.59912E+07-2.10992E+04 9.98024E+02 1.23523E+06-1.37348E+05 1.51939E+05
 -1       535-3.07154E+07-1.92289E+04 5.35912E+03 1.14001E+06-1.38645E+05 1.30576E+05
 -1       537-3.07154E+07-1.92289E+04 5.35912E+03 1.14001E+06-1.38645E+05 1.30576E+05
 -1       538-2.58620E+07-2.07009E+04 1.73040E+03 1.04501E+06-1.38948E+05 1.11296E+05
 -1       540-2.58620E+07-2.07009E+04 1.73040E+03 1.04501E+06-1.38948E+05 1.11296E+05
 -1       541-2.14306E+07-1.95496E+04 4.99441E+03 9.49855E+05-1.39621E+05 9.24474E+04
 -1       543-2.14306E+07-1.95496E+04 4.99441E+03 9.49855E+05-1.39621E+05 9.24474E+04
 -1       544-1.74215E+07-2.04180E+04 2.28338E+03 8.54853E+05-1.39655E+05 7.54485E+04
 -1       546-1.74215E+07-2.04180E+04 2.28338E+03 8.54853E+05-1.39655E+05 7.54485E+04
 -1       547-1.38345E+07-1.98353E+04 4.75928E+03 7.59704E+05-1.39924E+05 5.97717E+04
 -1       549-1.38345E+07-1.98353E+04 4.75928E+03 7.59704E+05-1.39924E+05 5.97717E+04
 -1       550-1.06698E+07-2.00727E+04 2.68898E+03 6.64764E+05-1.39766E+05 4.58925E+04
 -1       552-1.06698E+07-2.00727E+04 2.68898E+03 6.64764E+05-1.39766E+05 4.58925E+04
 -1       553-7.92742E+06-2.03115E+04 4.61267E+03 5.69523E+05-1.39789E+05 3.38338E+04
 -1       555-7.92742E+06-2.03115E+04 4.61267E+03 5.69523E+05-1.39789E+05 3.38338E+04
 -1       556-5.60709E+06-1.93965E+04 2.96557E+03 4.74668E+05-1.39474E+05 2.35796E+04
 -1       558-5.60709E+06-1.93965E+04 2.96557E+03 4.74668E+05-1.39474E+05 2.35796E+04
 -1       559-3.70763E+06-2.06667E+04 4.51949E+03 3.80769E+05-1.39386E+05 1.52494E+04
 -1       561-3.70763E+06-2.06667E+04 4.51949E+03 3.80769E+05-1.39386E+05 1.52494E+04
 -1       562-2.23521E+06-2.12279E+04 3.16977E+03 2.80340E+05-1.38884E+05 9.21522E+03
 -1       564-2.23521E+06-2.12279E+04 3.16977E+03 2.80340E+05-1.38884E+05 9.21522E+03
 -1       565-1.16858E+06-1.17909E+04 4.39048E+03 2.01955E+05-1.38839E+05 3.69683E+03
 -1       567-1.16858E+06-1.17909E+04 4.39048E+03 2.01955E+05-1.38839E+05 3.69683E+03
 -1       568-4.49159E+05-2.08223E+04 3.04006E+03 1.27028E+05-1.38470E+05 3.54217E+03
 -1       570-4.49159E+05-2.08223E+04 3.04006E+03 1.27028E+05-1.38470E+05 3.54217E+03
 -1       571-1.74627E+05-9.84763E+04-2.65768E+03 1.56010E+05-2.77971E+05 6.85892E+03
 -1       573-1.74627E+05-9.84763E+04-2.65768E+03 1.56010E+05-2.77971E+05 6.85892E+03
 -1       574-1.79803E+08-9.06871E+06-2.75722E+04-8.80565E-07-2.71466E-08-2.76701E+05
 -1       576-1.79803E+08-9.06871E+06-2.75722E+04-8.80565E-07-2.71466E-08-2.76701E+05
 -1       577-1.35364E+08-2.23548E+04-1.20241E+07 1.74187E-07-8.84583E-08-4.20919E+07
 -1       579-1.35364E+08-2.23548E+04-1.20241E+07 1.74187E-07-8.84583E-08-4.20919E+07
 -1       588-1.66229E+08 3.46363E+06 1.53959E+04-1.62679E-06 1.04774E-09 6.46267E+05
 -1       590-1.66229E+08 3.46363E+06 1.53959E+04-1.62679E-06 1.04774E-09 6.46267E+05
 -1       591-1.25884E+08-3.01170E+04 1.46457E+06 3.19591E-07 2.39770E-07-3.83939E+07
 -1       593-1.25884E+08-3.01170E+04 1.46457E+06 3.19591E-07 2.39770E-07-3.83939E+07
 -1       602-1.53101E+08-2.70852E+05-9.21063E+03-1.30152E-06 3.88172E-09 5.29959E+04
 -1       604-1.53101E+08-2.70852E+05-9.21063E+03-1.30152E-06 3.88172E-09 5.29959E+04
 -1       605-1.15565E+08-4.82577E+04 1.85858E+06 5.27072E-07 3.02754E-07-3.61919E+07
 -1       607-1.15565E+08-4.82577E+04 1.85858E+06 5.27072E-07 3.02754E-07-3.61919E+07
 -1       616-1.42914E+08-4.15086E+05-2.69671E+04-1.69501E-06-3.59141E-08 4.53460E+05
 -1       618-1.42914E+08-4.15086E+05-2.69671E+04-1.69501E-06-3.59141E-08 4.53460E+05
 -1       619-1.06740E+08 1.06851E+04 1.37522E+06 4.69545E-07-3.29265E-07-3.57690E+07
 -1       621-1.06740E+08 1.06851E+04 1.37522E+06 4.69545E-07-3.29265E-07-3.57690E+07
 -1       630-1.31898E+08 9.97408E+04 5.46765E+03-1.63913E-06-1.75423E-08 2.30443E+05
 -1       632-1.31898E+08 9.97408E+04 5.46765E+03-1.63913E-06-1.75423E-08 2.30443E+05
 -1       633-9.88608E+07-4.67277E+04 1.46699E+06 8.95164E-07-1.11927E-06-3.41722E+07
 -1       635-9.88608E+07-4.67277E+04 1.46699E+06 8.95164E-07-1.11927E-06-3.41722E+07
 -1       644-1.21640E+08-1.87324E+05-2.41306E+04-1.74646E-06 8.41537E-08 3.87054E+05
 -1       646-1.21640E+08-1.87324E+05-2.41306E+04-1.74646E-06 8.41537E-08 3.87054E+05
 -1       647-9.09381E+07 2.66175E+03 1.42705E+06 1.04611E-06-6.44898E-07-3.29380E+07
 -1       649-9.09381E+07 2.66175E+03 1.42705E+06 1.04611E-06-6.44898E-07-3.29380E+07
 -1       658-1.11698E+08-7.17665E+04-1.99423E+03-1.77929E-06-1.58005E-07 2.88855E+05
 -1       660-1.11698E+08-7.17665E+04-1.99423E+03-1.77929E-06-1.58005E-07 2.88855E+05
 -1       661-8.35636E+07-2.46932E+04 1.47475E+06 7.92999E-07 3.35833E-07-3.14837E+07
 -1       663-8.35636E+07-2.46932E+04 1.47475E+06 7.92999E-07 3.35833E-07-3.14837E+07
 -1       672-1.02223E+08-1.22302E+05-1.77014E+04-1.78115E-06-1.74477E-08 3.47665E+05
 -1       674-1.02223E+08-1.22302E+05-1.77014E+04-1.78115E-06-1.74477E-08 3.47665E+05
 -1       675-7.64136E+07-3.76166E+03 1.48202E+06 6.60108E-07 2.15141E-06-3.01486E+07
 -1       677-7.64136E+07-3.76166E+03 1.48202E+06 6.60108E-07 2.15141E-06-3.01486E+07
 -1       686-9.31420E+07-9.62772E+04-6.60789E+03-1.87079E-06-5.62140E-08 2.94305E+05
 -1       688-9.31420E+07-9.62772E+04-6.60789E+03-1.87079E-06-5.62140E-08 2.94305E+05
 -1       689-6.96203E+07-1.18560E+04 1.50532E+06 4.35739E-07 1.00052E-06-2.87479E+07
 -1       691-6.96203E+07-1.18560E+04 1.50532E+06 4.35739E-07 1.00052E-06-2.87479E+07
 -1       700-8.44999E+07-1.11565E+05-1.43870E+04-1.87545E-06-8.03557E-08 3.09176E+05
 -1       702-8.44999E+07-1.11565E+05-1.43870E+04-1.87545E-06-8.03557E-08 3.09176E+05
 -1       703-6.31221E+07-3.28998E+03 1.51383E+06 4.05205E-07-4.50925E-06-2.73924E+07
 -1       705-6.31221E+07-3.28998E+03 1.51383E+06 4.05205E-07-4.50925E-06-2.73924E+07
 -1       714-7.62686E+07-1.02168E+05-8.72026E+03-1.84309E-06 1.19777E-07 2.72799E+05
 -1       716-7.62686E+07-1.02168E+05-8.72026E+03-1.84309E-06 1.19777E-07 2.72799E+05
 -1       717-5.69502E+07-4.40295E+03 1.52520E+06 4.95419E-07-4.27558E-06-2.60129E+07
 -1       719-5.69502E+07-4.40295E+03 1.52520E+06 4.95419E-07-4.27558E-06-2.60129E+07
 -1       728-6.84660E+07-1.08043E+05-1.26193E+04-1.90875E-06 1.11031E-08 2.66752E+05
 -1       730-6.84660E+07-1.08043E+05-1.26193E+04-1.90875E-06 1.11031E-08 2.66752E+05
 -1       731-5.10874E+07-3.31919E+02 1.52904E+06 3.44191E-07-1.07043E-06-2.46525E+07
 -1       733-5.10874E+07-3.31919E+02 1.52904E+06 3.44191E-07-1.07043E-06-2.46525E+07
 -1       742-6.10805E+07-1.04310E+05-9.65029E+03-1.98185E-06 1.21305E-07 2.37153E+05
 -1       744-6.10805E+07-1.04310E+05-9.65029E+03-1.98185E-06 1.21305E-07 2.37153E+05
 -1       745-4.55437E+07 7.82059E+02 1.53286E+06 2.22537E-07-2.76417E-07-2.32823E+07
 -1       747-4.55437E+07 7.82059E+02 1.53286E+06 2.22537E-07-2.76417E-07-2.32823E+07
 -1       756-5.41200E+07-1.06698E+05-1.15459E+04-2.01073E-06 1.37341E-07 2.21392E+05
 -1       758-5.41200E+07-1.06698E+05-1.15459E+04-2.01073E-06 1.37341E-07 2.21392E+05
 -1       759-4.03136E+07 3.18871E+03 1.53193E+06 5.34839E-07 1.40294E-07-2.19205E+07
 -1       761-4.03136E+07 3.18871E+03 1.53193E+06 5.34839E-07 1.40294E-07-2.19205E+07
 -1       770-4.75791E+07-1.05135E+05-1.00022E+04-2.03797E-06 1.58761E-07 1.95125E+05
 -1       772-4.75791E+07-1.05135E+05-1.00022E+04-2.03797E-06 1.58761E-07 1.95125E+05
 -1       773-3.54004E+07 4.85877E+03 1.53024E+06 7.76781E-07-6.44021E-08-2.05541E+07
 -1       775-3.54004E+07 4.85877E+03 1.53024E+06 7.76781E-07-6.44021E-08-2.05541E+07
 -1       784-4.14616E+07-1.06141E+05-1.08137E+04-1.97731E-06-3.56391E-07 1.75596E+05
 -1       786-4.14616E+07-1.06141E+05-1.08137E+04-1.97731E-06-3.56391E-07 1.75596E+05
 -1       787-3.08023E+07 6.58740E+03 1.52535E+06 3.70870E-07 2.93175E-07-1.91913E+07
 -1       789-3.08023E+07 6.58740E+03 1.52535E+06 3.70870E-07 2.93175E-07-1.91913E+07
 -1       798-3.57650E+07-1.05474E+05-1.00629E+04-1.91212E-06-2.40558E-07 1.51885E+05
 -1       800-3.57650E+07-1.05474E+05-1.00629E+04-1.91212E-06-2.40558E-07 1.51885E+05
 -1       801-2.65207E+07 8.24182E+03 1.51957E+06-1.13983E-07 1.20965E-06-1.78260E+07
 -1       803-2.65207E+07 8.24182E+03 1.51957E+06-1.13983E-07 1.20965E-06-1.78260E+07
 -1       812-3.04911E+07-1.05881E+05-1.02721E+04-1.99105E-06-7.90023E-08 1.31954E+05
 -1       814-3.04911E+07-1.05881E+05-1.02721E+04-1.99105E-06-7.90023E-08 1.31954E+05
 -1       815-2.25548E+07 9.62364E+03 1.51164E+06-2.82268E-07 2.80150E-06-1.64619E+07
 -1       817-2.25548E+07 9.62364E+03 1.51164E+06-2.82268E-07 2.80150E-06-1.64619E+07
 -1       826-2.56386E+07-1.05629E+05-9.98357E+03-2.05648E-06 1.92143E-07 1.10997E+05
 -1       828-2.56386E+07-1.05629E+05-9.98357E+03-2.05648E-06 1.92143E-07 1.10997E+05
 -1       829-1.89052E+07 1.10807E+04 1.50293E+06 5.34517E-07-3.58968E-06-1.50960E+07
 -1       831-1.89052E+07 1.10807E+04 1.50293E+06 5.34517E-07-3.58968E-06-1.50960E+07
 -1       840-2.12086E+07-1.05732E+05-9.85398E+03-2.01340E-06 4.88362E-07 9.26434E+04
 -1       842-2.12086E+07-1.05732E+05-9.85398E+03-2.01340E-06 4.88362E-07 9.26434E+04
 -1       843-1.55718E+07 1.22141E+04 1.49279E+06 7.68101E-07-4.46916E-06-1.37299E+07
 -1       845-1.55718E+07 1.22141E+04 1.49279E+06 7.68101E-07-4.46916E-06-1.37299E+07
 -1       854-1.72004E+07-1.05723E+05-9.85070E+03-1.82411E-06 3.03407E-07 7.49001E+04
 -1       856-1.72004E+07-1.05723E+05-9.85070E+03-1.82411E-06 3.03407E-07 7.49001E+04
 -1       857-1.25546E+07 1.34304E+04 1.48212E+06 1.19655E-06 2.53083E-06-1.23623E+07
 -1       859-1.25546E+07 1.34304E+04 1.48212E+06 1.19655E-06 2.53083E-06-1.23623E+07
 -1       868-1.36145E+07-1.05619E+05-9.52855E+03-1.80735E-06 4.95813E-07 5.92830E+04
 -1       870-1.36145E+07-1.05619E+05-9.52855E+03-1.80735E-06 4.95813E-07 5.92830E+04
 -1       871-9.85395E+06 1.43314E+04 1.47051E+06 1.19779E-06 2.60053E-06-1.09938E+07
 -1       873-9.85395E+06 1.43314E+04 1.47051E+06 1.19779E-06 2.60053E-06-1.09938E+07
 -1       882-1.04506E+07-1.05759E+05-9.71435E+03-1.60298E-06-3.13288E-07 4.51901E+04
 -1       884-1.04506E+07-1.05759E+05-9.71435E+03-1.60298E-06-3.13288E-07 4.51901E+04
 -1       885-7.46962E+06 1.53103E+04 1.45867E+06 1.20048E-07-3.20926E-06-9.62398E+06
 -1       887-7.46962E+06 1.53103E+04 1.45867E+06 1.20048E-07-3.20926E-06-9.62398E+06
 -1       896-7.70892E+06-1.05718E+05-9.28163E+03-1.31078E-06 3.78015E-07 3.29226E+04
 -1       898-7.70892E+06-1.05718E+05-9.28163E+03-1.31078E-06 3.78015E-07 3.29226E+04
 -1       899-5.40181E+06 1.59670E+04 1.44621E+06-1.40228E-07-1.30339E-05-8.25278E+06
 -1       901-5.40181E+06 1.59670E+04 1.44621E+06-1.40228E-07-1.30339E-05-8.25278E+06
 -1       910-5.38919E+06-1.05239E+05-9.61360E+03-1.16770E-06 5.00833E-07 2.28394E+04
 -1       912-5.38919E+06-1.05239E+05-9.61360E+03-1.16770E-06 5.00833E-07 2.28394E+04
 -1       913-3.65118E+06 1.67474E+04 1.43412E+06-2.68626E-07-1.27776E-05-6.88063E+06
 -1       915-3.65118E+06 1.67474E+04 1.43412E+06-2.68626E-07-1.27776E-05-6.88063E+06
 -1       924-3.49311E+06-1.05187E+05-9.05433E+03-7.28411E-07-3.52084E-07 1.40866E+04
 -1       926-3.49311E+06-1.05187E+05-9.05433E+03-7.28411E-07-3.52084E-07 1.40866E+04
 -1       927-2.21733E+06 1.70299E+04 1.42185E+06-2.20086E-07-5.24656E-06-5.50707E+06
 -1       929-2.21733E+06 1.70299E+04 1.42185E+06-2.20086E-07-5.24656E-06-5.50707E+06
 -1       938-2.01247E+06-1.11492E+05-9.67538E+03-7.53294E-07-5.03045E-07 8.41377E+03
 -1       940-2.01247E+06-1.11492E+05-9.67538E+03-7.53294E-07-5.03045E-07 8.41377E+03
 -1       941-1.10245E+06 1.79243E+04 1.41480E+06 1.40834E-07-9.64717E-06-4.13838E+06
 -1       943-1.10245E+06 1.79243E+04 1.41480E+06 1.40834E-07-9.64717E-06-4.13838E+06
 -1       952-9.58520E+05-7.67092E+04-8.84190E+03-7.85163E-07-9.85310E-07 2.66548E+03
 -1       954-9.58520E+05-7.67092E+04-8.84190E+03-7.85163E-07-9.85310E-07 2.66548E+03
 -1       955-3.22954E+05 1.75139E+04 1.40717E+06 6.00162E-07-4.79136E-06-2.77318E+06
 -1       957-3.22954E+05 1.75139E+04 1.40717E+06 6.00162E-07-4.79136E-06-2.77318E+06
 -1       966-3.61990E+05-1.00161E+05-8.93331E+03-3.20819E-07-1.04003E-07 2.55409E+03
 -1       968-3.61990E+05-1.00161E+05-8.93331E+03-3.20819E-07-1.04003E-07 2.55409E+03
 -1       969 7.91531E+04 1.75803E+04 1.37613E+06 1.88538E-07 8.63281E-06-1.41522E+06
 -1       971 7.91531E+04 1.75803E+04 1.37613E+06 1.88538E-07 8.63281E-06-1.41522E+06
 -1       980-1.83265E+08-2.08416E+07-2.01123E+04 1.15692E+07 4.39553E+05-2.05058E+06
 -1       982-1.83265E+08-2.08416E+07-2.01123E+04 1.15692E+07 4.39553E+05-2.05058E+06
 -1       983-1.74627E+05-9.84763E+04-2.65768E+03-1.56010E+05 2.77971E+05 6.85892E+03
 -1       985-1.74627E+05-9.84763E+04-2.65768E+03-1.56010E+05 2.77971E+05 6.85892E+03
 -1       986-1.74120E+08-5.04034E+06 6.25306E+04-4.43516E+06 1.51839E+05-3.43261E+05
 -1       988-1.74120E+08-5.04034E+06 6.25306E+04-4.43516E+06 1.51839E+05-3.43261E+05
 -1       989-1.63642E+08 2.39085E+06-1.59329E+04-2.82018E+05-2.09064E+04 4.28279E+05
 -1       991-1.63642E+08 2.39085E+06-1.59329E+04-2.82018E+05-2.09064E+04 4.28279E+05
 -1       992-1.54612E+08-7.69429E+05-3.94867E+03-3.26284E+06 2.57086E+04 1.77931E+05
 -1       994-1.54612E+08-7.69429E+05-3.94867E+03-3.26284E+06 2.57086E+04 1.77931E+05
 -1       995-1.42797E+08 2.30430E+05 1.85222E+04-2.32236E+06 4.48719E+04 2.68776E+05
 -1       997-1.42797E+08 2.30430E+05 1.85222E+04-2.32236E+06 4.48719E+04 2.68776E+05
 -1       998-1.32171E+08-1.36071E+05-1.24238E+04-2.38488E+06 5.55803E+04 3.10401E+05
 -1      1000-1.32171E+08-1.36071E+05-1.24238E+04-2.38488E+06 5.55803E+04 3.10401E+05
 -1      1001-1.21872E+08 5.29267E+04 1.66878E+04-2.27809E+06 8.16176E+04 2.81585E+05
 -1      1003-1.21872E+08 5.29267E+04 1.66878E+04-2.27809E+06 8.16176E+04 2.81585E+05
 -1      1004-1.11946E+08-6.63531E+04-8.52609E+03-2.19073E+06 8.70108E+04 3.25576E+05
 -1      1006-1.11946E+08-6.63531E+04-8.52609E+03-2.19073E+06 8.70108E+04 3.25576E+05
 -1      1007-1.02455E+08 9.18902E+03 1.27376E+04-2.08793E+06 1.03787E+05 2.92351E+05
 -1      1009-1.02455E+08 9.18902E+03 1.27376E+04-2.08793E+06 1.03787E+05 2.92351E+05
 -1      1010-9.33852E+07-3.82444E+04-5.27000E+03-1.99848E+06 1.07981E+05 3.08616E+05
 -1      1012-9.33852E+07-3.82444E+04-5.27000E+03-1.99848E+06 1.07981E+05 3.08616E+05
 -1      1013-8.47334E+07-8.39088E+03 9.95089E+03-1.89980E+06 1.18084E+05 2.80727E+05
 -1      1015-8.47334E+07-8.39088E+03 9.95089E+03-1.89980E+06 1.18084E+05 2.80727E+05
 -1      1016-7.65061E+07-2.75725E+04-2.93917E+03-1.80673E+06 1.21179E+05 2.77464E+05
 -1      1018-7.65061E+07-2.75725E+04-2.93917E+03-1.80673E+06 1.21179E+05 2.77464E+05
 -1      1019-6.86982E+07-1.49750E+04 8.05269E+03-1.71032E+06 1.27305E+05 2.52190E+05
 -1      1021-6.86982E+07-1.49750E+04 8.05269E+03-1.71032E+06 1.27305E+05 2.52190E+05
 -1      1022-6.13137E+07-2.35102E+04-1.23593E+03-1.61596E+06 1.29382E+05 2.38245E+05
 -1      1024-6.13137E+07-2.35102E+04-1.23593E+03-1.61596E+06 1.29382E+05 2.38245E+05
 -1      1025-5.43497E+07-1.75744E+04 6.77255E+03-1.52032E+06 1.33121E+05 2.14059E+05
 -1      1027-5.43497E+07-1.75744E+04 6.77255E+03-1.52032E+06 1.33121E+05 2.14059E+05
 -1      1028-4.78085E+07-2.18500E+04 3.53978E+01-1.42552E+06 1.34396E+05 1.95215E+05
 -1      1030-4.78085E+07-2.18500E+04 3.53978E+01-1.42552E+06 1.34396E+05 1.95215E+05
 -1      1031-4.16885E+07-1.86892E+04 5.91980E+03-1.33018E+06 1.36648E+05 1.72113E+05
 -1      1033-4.16885E+07-1.86892E+04 5.91980E+03-1.33018E+06 1.36648E+05 1.72113E+05
 -1      1034-3.59912E+07-2.10992E+04 9.98024E+02-1.23523E+06 1.37348E+05 1.51939E+05
 -1      1036-3.59912E+07-2.10992E+04 9.98024E+02-1.23523E+06 1.37348E+05 1.51939E+05
 -1      1037-3.07154E+07-1.92289E+04 5.35912E+03-1.14001E+06 1.38645E+05 1.30576E+05
 -1      1039-3.07154E+07-1.92289E+04 5.35912E+03-1.14001E+06 1.38645E+05 1.30576E+05
 -1      1040-2.58620E+07-2.07009E+04 1.73040E+03-1.04501E+06 1.38948E+05 1.11296E+05
 -1      1042-2.58620E+07-2.07009E+04 1.73040E+03-1.04501E+06 1.38948E+05 1.11296E+05
 -1      1043-2.14306E+07-1.95496E+04 4.99441E+03-9.49855E+05 1.39621E+05 9.24474E+04
 -1      1045-2.14306E+07-1.95496E+04 4.99441E+03-9.49855E+05 1.39621E+05 9.24474E+04
 -1      1046-1.74215E+07-2.04180E+04 2.28338E+03-8.54853E+05 1.39655E+05 7.54485E+04
 -1      1048-1.74215E+07-2.04180E+04 2.28338E+03-8.54853E+05 1.39655E+05 7.54485E+04
 -1      1049-1.38345E+07-1.98353E+04 4.75928E+03-7.59704E+05 1.39924E+05 5.97717E+04
 -1      1051-1.38345E+07-1.98353E+04 4.75928E+03-7.59704E+05 1.39924E+05 5.97717E+04
 -1      1052-1.06698E+07-2.00727E+04 2.68898E+03-6.64764E+05 1.39766E+05 4.58925E+04
 -1      1054-1.06698E+07-2.00727E+04 2.68898E+03-6.64764E+05 1.39766E+05 4.58925E+04
 -1      1055-7.92742E+06-2.03115E+04 4.61267E+03-5.69523E+05 1.39789E+05 3.38338E+04
 -1      1057-7.92742E+06-2.03115E+04 4.61267E+03-5.69523E+05 1.39789E+05 3.38338E+04
 -1      1058-5.60709E+06-1.93965E+04 2.96557E+03-4.74668E+05 1.39474E+05 2.35796E+04
 -1      1060-5.60709E+06-1.93965E+04 2.96557E+03-4.74668E+05 1.39474E+05 2.35796E+04
 -1      1061-3.70763E+06-2.06667E+04 4.51949E+03-3.80769E+05 1.39386E+05 1.52494E+04
 -1      1063-3.70763E+06-2.06667E+04 4.51949E+03-3.80769E+05 1.39386E+05 1.52494E+04
 -1      1064-2.23521E+06-2.12279E+04 3.16977E+03-2.80340E+05 1.38884E+05 9.21522E+03
 -1      1066-2.23521E+06-2.12279E+04 3.16977E+03-2.80340E+05 1.38884E+05 9.21522E+03
 -1      1067-1.16858E+06-1.17909E+04 4.39048E+03-2.01955E+05 1.38839E+05 3.69683E+03
 -1      1069-1.16858E+06-1.17909E+04 4.39048E+03-2.01955E+05 1.38839E+05 3.69683E+03
 -1      1070-4.49159E+05-2.08223E+04 3.04006E+03-1.27028E+05 1.38470E+05 3.54217E+03
 -1      1072-4.49159E+05-2.08223E+04 3.04006E+03-1.27028E+05 1.38470E+05 3.54217E+03
 -1      1073-1.83265E+08-2.08416E+07-2.01123E+04-1.15692E+07-4.39553E+05-2.05058E+06
 -1      1075-1.83265E+08-2.08416E+07-2.01123E+04-1.15692E+07-4.39553E+05-2.05058E+06
 -1      1076-9.14378E+07-5.54438E+03-1.63430E+07 2.52558E-07 1.46893E-07-4.05865E+07
 -1      1078-9.14378E+07-5.54438E+03-1.63430E+07 2.52558E-07 1.46893E-07-4.05865E+07
 -1      1079-2.15911E+05-2.02496E+02-6.25472E+04-8.54323E-08 1.31768E-07-3.84529E+07
 -1      1081-2.15911E+05-2.02496E+02-6.25472E+04-8.54323E-08 1.31768E-07-3.84529E+07
 -1      1082 9.11880E+07 5.82005E+03 1.62391E+07 8.53569E-08 5.23343E-08-4.07872E+07
 -1      1084 9.11880E+07 5.82005E+03 1.62391E+07 8.53569E-08 5.23343E-08-4.07872E+07
 -1      1085 1.35275E+08 2.16440E+04 1.19260E+07-7.50870E-08 8.47950E-08-4.24185E+07
 -1      1087 1.35275E+08 2.16440E+04 1.19260E+07-7.50870E-08 8.47950E-08-4.24185E+07
 -1      1088 1.80174E+08 9.08141E+06 2.85597E+04-3.28920E-06 2.95986E-08-6.56138E+05
 -1      1090 1.80174E+08 9.08141E+06 2.85597E+04-3.28920E-06 2.95986E-08-6.56138E+05
 -1      1099 1.25772E+08 2.94344E+04-1.57326E+06-1.73900E-07-1.99611E-07-3.87466E+07
 -1      1101 1.25772E+08 2.94344E+04-1.57326E+06-1.73900E-07-1.99611E-07-3.87466E+07
 -1      1102 1.66567E+08-3.44844E+06-1.64223E+04-3.75160E-06-4.67116E-08 1.87611E+05
 -1      1104 1.66567E+08-3.44844E+06-1.64223E+04-3.75160E-06-4.67116E-08 1.87611E+05
 -1      1113 1.15421E+08 4.78847E+04-1.92499E+06-1.49888E-07-3.77108E-08-3.65787E+07
 -1      1115 1.15421E+08 4.78847E+04-1.92499E+06-1.49888E-07-3.77108E-08-3.65787E+07
 -1      1116 1.53402E+08 2.67603E+05 1.00181E+04-3.03378E-06 2.08456E-08-4.64850E+05
 -1      1118 1.53402E+08 2.67603E+05 1.00181E+04-3.03378E-06 2.08456E-08-4.64850E+05
 -1      1127 1.06558E+08-1.15037E+04-1.37333E+06-9.79289E-08 3.39276E-07-3.61922E+07
 -1      1129 1.06558E+08-1.15037E+04-1.37333E+06-9.79289E-08 3.39276E-07-3.61922E+07
 -1      1130 1.43197E+08 4.14474E+05 2.68427E+04-3.28082E-06-4.75266E-08-1.27968E+05
 -1      1132 1.43197E+08 4.14474E+05 2.68427E+04-3.28082E-06-4.75266E-08-1.27968E+05
 -1      1141 9.86570E+07 4.66445E+04-1.39292E+06-1.29442E-07-9.76641E-08-3.46246E+07
 -1      1143 9.86570E+07 4.66445E+04-1.39292E+06-1.29442E-07-9.76641E-08-3.46246E+07
 -1      1144 1.32159E+08-1.00139E+05-5.21775E+03-3.04542E-06-2.81580E-09-3.85679E+05
 -1      1146 1.32159E+08-1.00139E+05-5.21775E+03-3.04542E-06-2.81580E-09-3.85679E+05
 -1      1155 9.07124E+07-3.00156E+03-1.28864E+06-7.77973E-07 5.88017E-07-3.34135E+07
 -1      1157 9.07124E+07-3.00156E+03-1.28864E+06-7.77973E-07 5.88017E-07-3.34135E+07
 -1      1158 1.21881E+08 1.86196E+05 2.40342E+04-3.00701E-06 7.85803E-08-2.49327E+05
 -1      1160 1.21881E+08 1.86196E+05 2.40342E+04-3.00701E-06 7.85803E-08-2.49327E+05
 -1      1169 8.33227E+07 2.47898E+04-1.28622E+06-4.93644E-07-1.27419E-06-3.19644E+07
 -1      1171 8.33227E+07 2.47898E+04-1.28622E+06-4.93644E-07-1.27419E-06-3.19644E+07
 -1      1172 1.11918E+08 7.06091E+04 1.79490E+03-3.00026E-06-2.22615E-07-3.52904E+05
 -1      1174 1.11918E+08 7.06091E+04 1.79490E+03-3.00026E-06-2.22615E-07-3.52904E+05
 -1      1183 7.61603E+07 3.80686E+03-1.24981E+06-2.63435E-07-2.58379E-06-3.06276E+07
 -1      1185 7.61603E+07 3.80686E+03-1.24981E+06-2.63435E-07-2.58379E-06-3.06276E+07
 -1      1186 1.02424E+08 1.21549E+05 1.74923E+04-2.94950E-06 2.31928E-07-2.87209E+05
 -1      1188 1.02424E+08 1.21549E+05 1.74923E+04-2.94950E-06 2.31928E-07-2.87209E+05
 -1      1197 6.93593E+07 1.21203E+04-1.24061E+06-9.78458E-07-6.02354E-08-2.92150E+07
 -1      1199 6.93593E+07 1.21203E+04-1.24061E+06-9.78458E-07-6.02354E-08-2.92150E+07
 -1      1200 9.33251E+07 9.52084E+04 6.12629E+03-2.88757E-06 6.93835E-08-3.23639E+05
 -1      1202 9.33251E+07 9.52084E+04 6.12629E+03-2.88757E-06 6.93835E-08-3.23639E+05
 -1      1211 6.28561E+07 3.60211E+03-1.22352E+06-9.60984E-07 4.12178E-06-2.78418E+07
 -1      1213 6.28561E+07 3.60211E+03-1.22352E+06-9.60984E-07 4.12178E-06-2.78418E+07
 -1      1214 8.46669E+07 1.10762E+05 1.40390E+04-2.88314E-06-3.11804E-07-2.83485E+05
 -1      1216 8.46669E+07 1.10762E+05 1.40390E+04-2.88314E-06-3.11804E-07-2.83485E+05
 -1      1225 5.66828E+07 4.80716E+03-1.21740E+06-3.86783E-07 4.55045E-06-2.64391E+07
 -1      1227 5.66828E+07 4.80716E+03-1.21740E+06-3.86783E-07 4.55045E-06-2.64391E+07
 -1      1228 7.64202E+07 1.01182E+05 8.07056E+03-2.88966E-06 1.01863E-09-2.88118E+05
 -1      1230 7.64202E+07 1.01182E+05 8.07056E+03-2.88966E-06 1.01863E-09-2.88118E+05
 -1      1239 5.08211E+07 8.21870E+02-1.20997E+06-3.47231E-07 1.40829E-06-2.50518E+07
 -1      1241 5.08211E+07 8.21870E+02-1.20997E+06-3.47231E-07 1.40829E-06-2.50518E+07
 -1      1242 6.86038E+07 1.07218E+05 1.21445E+04-2.81143E-06-7.88132E-08-2.57365E+05
 -1      1244 6.86038E+07 1.07218E+05 1.21445E+04-2.81143E-06-7.88132E-08-2.57365E+05
 -1      1253 4.52813E+07-2.69543E+02-1.20872E+06-8.48699E-08-2.45799E-06-2.36518E+07
 -1      1255 4.52813E+07-2.69543E+02-1.20872E+06-8.48699E-08-2.45799E-06-2.36518E+07
 -1      1256 6.12054E+07 1.03374E+05 8.90131E+03-2.64961E-06-2.77607E-07-2.46632E+05
 -1      1258 6.12054E+07 1.03374E+05 8.90131E+03-2.64961E-06-2.77607E-07-2.46632E+05
 -1      1267 4.00572E+07-2.58347E+03-1.20785E+06 6.09333E-07-2.52664E-06-2.22584E+07
 -1      1269 4.00572E+07-2.58347E+03-1.20785E+06 6.09333E-07-2.52664E-06-2.22584E+07
 -1      1270 5.42333E+07 1.05881E+05 1.09670E+04-2.64123E-06 1.26252E-07-2.19671E+05
 -1      1272 5.42333E+07 1.05881E+05 1.09670E+04-2.64123E-06 1.26252E-07-2.19671E+05
 -1      1281 3.51522E+07-4.26677E+03-1.21099E+06 5.18670E-07-3.30799E-06-2.08595E+07
 -1      1283 3.51522E+07-4.26677E+03-1.21099E+06 5.18670E-07-3.30799E-06-2.08595E+07
 -1      1284 4.76816E+07 1.04248E+05 9.19421E+03-2.70049E-06-1.70403E-07-2.02020E+05
 -1      1286 4.76816E+07 1.04248E+05 9.19421E+03-2.70049E-06-1.70403E-07-2.02020E+05
 -1      1295 3.05641E+07-5.90973E+03-1.21493E+06 2.60282E-07-5.36300E-06-1.94639E+07
 -1      1297 3.05641E+07-5.90973E+03-1.21493E+06 2.60282E-07-5.36300E-06-1.94639E+07
 -1      1298 4.15543E+07 1.05345E+05 1.01538E+04-2.63948E-06 7.62375E-08-1.77335E+05
 -1      1300 4.15543E+07 1.05345E+05 1.01538E+04-2.63948E-06 7.62375E-08-1.77335E+05
 -1      1309 2.62941E+07-7.59412E+03-1.22158E+06 4.59628E-07 2.13039E-06-1.80662E+07
 -1      1311 2.62941E+07-7.59412E+03-1.22158E+06 4.59628E-07 2.13039E-06-1.80662E+07
 -1      1312 3.58485E+07 1.04635E+05 9.21921E+03-2.54239E-06 8.75152E-08-1.57438E+05
 -1      1314 3.58485E+07 1.04635E+05 9.21921E+03-2.54239E-06 8.75152E-08-1.57438E+05
 -1      1323 2.23412E+07-8.90246E+03-1.22903E+06 9.09619E-08 5.68564E-06-1.66705E+07
 -1      1325 2.23412E+07-8.90246E+03-1.22903E+06 9.09619E-08 5.68564E-06-1.66705E+07
 -1      1326 3.05661E+07 1.05114E+05 9.55103E+03-2.48093E-06-1.10784E-07-1.35050E+05
 -1      1328 3.05661E+07 1.05114E+05 9.55103E+03-2.48093E-06-1.10784E-07-1.35050E+05
 -1      1337 1.87058E+07-1.03958E+04-1.23830E+06-4.72306E-07-7.19176E-07-1.52745E+07
 -1      1339 1.87058E+07-1.03958E+04-1.23830E+06-4.72306E-07-7.19176E-07-1.52745E+07
 -1      1340 2.57057E+07 1.04834E+05 9.11750E+03-2.38116E-06 5.64280E-07-1.15625E+05
 -1      1342 2.57057E+07 1.04834E+05 9.11750E+03-2.38116E-06 5.64280E-07-1.15625E+05
 -1      1351 1.53877E+07-1.14684E+04-1.24819E+06-8.26438E-07-2.39523E-06-1.38801E+07
 -1      1353 1.53877E+07-1.14684E+04-1.24819E+06-8.26438E-07-2.39523E-06-1.38801E+07
 -1      1354 2.12683E+07 1.04995E+05 9.08755E+03-2.23715E-06-5.29995E-07-9.60300E+04
 -1      1356 2.12683E+07 1.04995E+05 9.08755E+03-2.23715E-06-5.29995E-07-9.60300E+04
 -1      1365 1.23868E+07-1.27222E+04-1.25926E+06-4.80622E-07 5.04796E-07-1.24863E+07
 -1      1367 1.23868E+07-1.27222E+04-1.25926E+06-4.80622E-07 5.04796E-07-1.24863E+07
 -1      1368 1.72531E+07 1.04967E+05 8.96986E+03-2.01492E-06-7.00893E-07-7.86912E+04
 -1      1370 1.72531E+07 1.04967E+05 8.96986E+03-2.01492E-06-7.00893E-07-7.86912E+04
 -1      1379 9.70298E+06-1.35732E+04-1.27070E+06-2.06679E-08 7.20264E-06-1.10940E+07
 -1      1381 9.70298E+06-1.35732E+04-1.27070E+06-2.06679E-08 7.20264E-06-1.10940E+07
 -1      1382 1.36605E+07 1.04908E+05 8.72884E+03-1.95822E-06 1.16974E-06-6.24249E+04
 -1      1384 1.36605E+07 1.04908E+05 8.72884E+03-1.95822E-06 1.16974E-06-6.24249E+04
 -1      1393 7.33617E+06-1.45884E+04-1.28294E+06 6.25730E-07 8.29502E-06-9.70287E+06
 -1      1395 7.33617E+06-1.45884E+04-1.28294E+06 6.25730E-07 8.29502E-06-9.70287E+06
 -1      1396 1.04902E+07 1.05033E+05 8.82270E+03-1.64047E-06 4.92189E-07-4.80948E+04
 -1      1398 1.04902E+07 1.05033E+05 8.82270E+03-1.64047E-06 4.92189E-07-4.80948E+04
 -1      1407 5.28637E+06-1.52032E+04-1.29524E+06 1.25608E-06 4.18273E-06-8.31311E+06
 -1      1409 5.28637E+06-1.52032E+04-1.29524E+06 1.25608E-06 4.18273E-06-8.31311E+06
 -1      1410 7.74233E+06 1.05030E+05 8.45790E+03-1.40280E-06 1.17197E-06-3.55963E+04
 -1      1412 7.74233E+06 1.05030E+05 8.45790E+03-1.40280E-06 1.17197E-06-3.55963E+04
 -1      1421 3.55414E+06-1.60186E+04-1.30840E+06 1.23480E-06-8.18951E-06-6.92525E+06
 -1      1423 3.55414E+06-1.60186E+04-1.30840E+06 1.23480E-06-8.18951E-06-6.92525E+06
 -1      1424 5.41657E+06 1.04525E+05 8.71232E+03-1.43534E-06 8.00472E-07-2.46931E+04
 -1      1426 5.41657E+06 1.04525E+05 8.71232E+03-1.43534E-06 8.00472E-07-2.46931E+04
 -1      1435 2.13900E+06-1.62635E+04-1.32161E+06 1.10356E-06-1.24201E-05-5.53891E+06
 -1      1437 2.13900E+06-1.62635E+04-1.32161E+06 1.10356E-06-1.24201E-05-5.53891E+06
 -1      1438 3.51458E+06 1.04503E+05 8.21429E+03-1.09363E-06-1.12840E-06-1.63539E+04
 -1      1440 3.51458E+06 1.04503E+05 8.21429E+03-1.09363E-06-1.12840E-06-1.63539E+04
 -1      1449 1.04293E+06-1.71937E+04-1.33998E+06-1.70903E-07-1.67040E-06-4.16047E+06
 -1      1451 1.04293E+06-1.71937E+04-1.33998E+06-1.70903E-07-1.67040E-06-4.16047E+06
 -1      1452 2.02804E+06 1.10885E+05 8.76245E+03-1.00059E-06 1.38144E-06-8.77094E+03
 -1      1454 2.02804E+06 1.10885E+05 8.76245E+03-1.00059E-06 1.38144E-06-8.77094E+03
 -1      1463 2.82544E+05-1.67459E+04-1.35749E+06-1.36821E-06-1.44853E-06-2.78874E+06
 -1      1465 2.82544E+05-1.67459E+04-1.35749E+06-1.36821E-06-1.44853E-06-2.78874E+06
 -1      1466 9.68207E+05 7.56794E+04 7.99746E+03-6.12737E-07 2.41169E-07-5.21459E+03
 -1      1468 9.68207E+05 7.56794E+04 7.99746E+03-6.12737E-07 2.41169E-07-5.21459E+03
 -1      1477-1.00110E+05-1.68412E+04-1.35138E+06-6.26299E-07 6.43192E-06-1.42740E+06
 -1      1479-1.00110E+05-1.68412E+04-1.35138E+06-6.26299E-07 6.43192E-06-1.42740E+06
 -1      1480 3.66505E+05 9.94187E+04 7.98621E+03-1.29156E-07-7.72285E-07-1.85537E+02
 -1      1482 3.66505E+05 9.94187E+04 7.98621E+03-1.29156E-07-7.72285E-07-1.85537E+02
 -1      1491 6.85656E+04 1.30038E+02 9.13457E+05-3.43237E-07 3.91309E-06-7.47993E+05
 -1      1493 6.85656E+04 1.30038E+02 9.13457E+05-3.43237E-07 3.91309E-06-7.47993E+05
 -1      1494-5.56058E+03-1.23188E+02 6.51052E+03-3.87704E-08 8.02910E-06-7.56878E+05
 -1      1496-5.56058E+03-1.23188E+02 6.51052E+03-3.87704E-08 8.02910E-06-7.56878E+05
 -1      1497-7.97396E+04 1.20074E+02-9.00765E+05 2.32041E-07 1.64723E-05-7.55983E+05
 -1      1499-7.97396E+04 1.20074E+02-9.00765E+05 2.32041E-07 1.64723E-05-7.55983E+05
 -1      1500 1.74464E+08 5.04665E+06-6.05433E+04 4.46600E+06 1.39534E+05-7.72841E+05
 -1      1502 1.74464E+08 5.04665E+06-6.05433E+04 4.46600E+06 1.39534E+05-7.72841E+05
 -1      1503 1.63950E+08-2.38379E+06 1.47659E+04 2.78758E+05-2.72682E+04-5.51998E+04
 -1      1505 1.63950E+08-2.38379E+06 1.47659E+04 2.78758E+05-2.72682E+04-5.51998E+04
 -1      1506 1.54880E+08 7.66399E+05 4.52046E+03 3.25854E+06 1.29332E+04-3.77511E+05
 -1      1508 1.54880E+08 7.66399E+05 4.52046E+03 3.25854E+06 1.29332E+04-3.77511E+05
 -1      1509 1.43036E+08-2.29659E+05-1.79763E+04 2.31943E+06 3.54425E+04-3.27738E+05
 -1      1511 1.43036E+08-2.29659E+05-1.79763E+04 2.31943E+06 3.54425E+04-3.27738E+05
 -1      1512 1.32386E+08 1.35599E+05 1.27542E+04 2.38162E+06 4.74183E+04-3.22748E+05
 -1      1514 1.32386E+08 1.35599E+05 1.27542E+04 2.38162E+06 4.74183E+04-3.22748E+05
 -1      1515 1.22066E+08-5.28974E+04-1.55322E+04 2.27485E+06 7.42015E+04-3.64148E+05
 -1      1517 1.22066E+08-5.28974E+04-1.55322E+04 2.27485E+06 7.42015E+04-3.64148E+05
 -1      1518 1.12120E+08 6.58051E+04 9.15558E+03 2.18811E+06 8.00866E+04-3.24384E+05
 -1      1520 1.12120E+08 6.58051E+04 9.15558E+03 2.18811E+06 8.00866E+04-3.24384E+05
 -1      1521 1.02612E+08-9.28538E+03-1.13429E+04 2.08565E+06 9.69151E+04-3.47843E+05
 -1      1523 1.02612E+08-9.28538E+03-1.13429E+04 2.08565E+06 9.69151E+04-3.47843E+05
 -1      1524 9.35277E+07 3.77407E+04 6.22356E+03 1.99645E+06 1.01027E+05-3.13580E+05
 -1      1526 9.35277E+07 3.77407E+04 6.22356E+03 1.99645E+06 1.01027E+05-3.13580E+05
 -1      1527 8.48622E+07 8.11764E+03-8.43417E+03 1.89815E+06 1.10858E+05-3.15160E+05
 -1      1529 8.48622E+07 8.11764E+03-8.43417E+03 1.89815E+06 1.10858E+05-3.15160E+05
 -1      1530 7.66232E+07 2.70867E+04 4.13198E+03 1.80531E+06 1.13741E+05-2.86061E+05
 -1      1532 7.66232E+07 2.70867E+04 4.13198E+03 1.80531E+06 1.13741E+05-2.86061E+05
 -1      1533 6.88047E+07 1.46006E+04-6.46261E+03 1.70921E+06 1.19566E+05-2.74254E+05
 -1      1535 6.88047E+07 1.46006E+04-6.46261E+03 1.70921E+06 1.19566E+05-2.74254E+05
 -1      1536 6.14110E+07 2.30198E+04 2.58867E+03 1.61507E+06 1.21499E+05-2.47606E+05
 -1      1538 6.14110E+07 2.30198E+04 2.58867E+03 1.61507E+06 1.21499E+05-2.47606E+05
 -1      1539 5.44387E+07 1.71490E+04-5.13743E+03 1.51970E+06 1.25074E+05-2.29085E+05
 -1      1541 5.44387E+07 1.71490E+04-5.13743E+03 1.51970E+06 1.25074E+05-2.29085E+05
 -1      1542 4.78902E+07 2.13544E+04 1.42042E+03 1.42511E+06 1.26361E+05-2.03946E+05
 -1      1544 4.78902E+07 2.13544E+04 1.42042E+03 1.42511E+06 1.26361E+05-2.03946E+05
 -1      1545 4.17634E+07 1.82397E+04-4.25907E+03 1.32999E+06 1.28650E+05-1.82950E+05
 -1      1547 4.17634E+07 1.82397E+04-4.25907E+03 1.32999E+06 1.28650E+05-1.82950E+05
 -1      1548 3.60600E+07 2.06030E+04 5.22732E+02 1.23522E+06 1.29546E+05-1.59533E+05
 -1      1550 3.60600E+07 2.06030E+04 5.22732E+02 1.23522E+06 1.29546E+05-1.59533E+05
 -1      1551 3.07785E+07 1.87695E+04-3.68641E+03 1.14018E+06 1.31088E+05-1.38703E+05
 -1      1553 3.07785E+07 1.87695E+04-3.68641E+03 1.14018E+06 1.31088E+05-1.38703E+05
 -1      1554 2.59199E+07 2.02079E+04-1.69959E+02 1.04533E+06 1.31766E+05-1.17636E+05
 -1      1556 2.59199E+07 2.02079E+04-1.69959E+02 1.04533E+06 1.31766E+05-1.17636E+05
 -1      1557 2.14834E+07 1.90879E+04-3.31900E+03 9.50317E+05 1.32867E+05-9.86296E+04
 -1      1559 2.14834E+07 1.90879E+04-3.31900E+03 9.50317E+05 1.32867E+05-9.86296E+04
 -1      1560 1.74695E+07 1.99300E+04-7.00046E+02 8.55434E+05 1.33427E+05-8.05637E+04
 -1      1562 1.74695E+07 1.99300E+04-7.00046E+02 8.55434E+05 1.33427E+05-8.05637E+04
 -1      1563 1.38778E+07 1.93750E+04-3.08718E+03 7.60398E+05 1.34273E+05-6.44056E+04
 -1      1565 1.38778E+07 1.93750E+04-3.08718E+03 7.60398E+05 1.34273E+05-6.44056E+04
 -1      1566 1.07085E+07 1.95891E+04-1.09404E+03 6.65555E+05 1.34760E+05-4.98475E+04
 -1      1568 1.07085E+07 1.95891E+04-1.09404E+03 6.65555E+05 1.34760E+05-4.98475E+04
 -1      1569 7.96144E+06 1.98550E+04-2.94731E+03 5.70403E+05 1.35471E+05-3.71443E+04
 -1      1571 7.96144E+06 1.98550E+04-2.94731E+03 5.70403E+05 1.35471E+05-3.71443E+04
 -1      1572 5.63635E+06 1.89143E+04-1.36738E+03 4.75629E+05 1.35884E+05-2.63679E+04
 -1      1574 5.63635E+06 1.89143E+04-1.36738E+03 4.75629E+05 1.35884E+05-2.63679E+04
 -1      1575 3.73200E+06 2.02085E+04-2.86080E+03 3.81824E+05 1.36551E+05-1.75394E+04
 -1      1577 3.73200E+06 2.02085E+04-2.86080E+03 3.81824E+05 1.36551E+05-1.75394E+04
 -1      1578 2.25460E+06 2.07824E+04-1.57928E+03 2.81394E+05 1.36894E+05-1.03461E+04
 -1      1580 2.25460E+06 2.07824E+04-1.57928E+03 2.81394E+05 1.36894E+05-1.03461E+04
 -1      1581 1.18258E+06 1.12267E+04-2.72580E+03 2.03250E+05 1.37483E+05-6.34363E+03
 -1      1583 1.18258E+06 1.12267E+04-2.72580E+03 2.03250E+05 1.37483E+05-6.34363E+03
 -1      1584 4.56734E+05 2.03248E+04-1.48514E+03 1.28730E+05 1.37788E+05-1.65895E+02
 -1      1586 4.56734E+05 2.03248E+04-1.48514E+03 1.28730E+05 1.37788E+05-1.65895E+02
 -1      1587 1.77781E+05 9.83904E+04 2.93442E+03 1.59194E+05 2.77036E+05 5.58266E+03
 -1      1589 1.77781E+05 9.83904E+04 2.93442E+03 1.59194E+05 2.77036E+05 5.58266E+03
 -1      1590 1.83626E+08 2.08292E+07 2.21985E+04 1.16139E+07-4.56443E+05-2.42763E+06
 -1      1592 1.83626E+08 2.08292E+07 2.21985E+04 1.16139E+07-4.56443E+05-2.42763E+06
 -1      1593 1.77781E+05 9.83904E+04 2.93442E+03-1.59194E+05-2.77036E+05 5.58266E+03
 -1      1595 1.77781E+05 9.83904E+04 2.93442E+03-1.59194E+05-2.77036E+05 5.58266E+03
 -1      1596 1.74464E+08 5.04665E+06-6.05433E+04-4.46600E+06-1.39534E+05-7.72841E+05
 -1      1598 1.74464E+08 5.04665E+06-6.05433E+04-4.46600E+06-1.39534E+05-7.72841E+05
 -1      1599 1.63950E+08-2.38379E+06 1.47659E+04-2.78758E+05 2.72682E+04-5.51998E+04
 -1      1601 1.63950E+08-2.38379E+06 1.47659E+04-2.78758E+05 2.72682E+04-5.51998E+04
 -1      1602 1.54880E+08 7.66399E+05 4.52046E+03-3.25854E+06-1.29332E+04-3.77511E+05
 -1      1604 1.54880E+08 7.66399E+05 4.52046E+03-3.25854E+06-1.29332E+04-3.77511E+05
 -1      1605 1.43036E+08-2.29659E+05-1.79763E+04-2.31943E+06-3.54425E+04-3.27738E+05
 -1      1607 1.43036E+08-2.29659E+05-1.79763E+04-2.31943E+06-3.54425E+04-3.27738E+05
 -1      1608 1.32386E+08 1.35599E+05 1.27542E+04-2.38162E+06-4.74183E+04-3.22748E+05
 -1      1610 1.32386E+08 1.35599E+05 1.27542E+04-2.38162E+06-4.74183E+04-3.22748E+05
 -1      1611 1.22066E+08-5.28974E+04-1.55322E+04-2.27485E+06-7.42015E+04-3.64148E+05
 -1      1613 1.22066E+08-5.28974E+04-1.55322E+04-2.27485E+06-7.42015E+04-3.64148E+05
 -1      1614 1.12120E+08 6.58051E+04 9.15558E+03-2.18811E+06-8.00866E+04-3.24384E+05
 -1      1616 1.12120E+08 6.58051E+04 9.15558E+03-2.18811E+06-8.00866E+04-3.24384E+05
 -1      1617 1.02612E+08-9.28538E+03-1.13429E+04-2.08565E+06-9.69151E+04-3.47843E+05
 -1      1619 1.02612E+08-9.28538E+03-1.13429E+04-2.08565E+06-9.69151E+04-3.47843E+05
 -1      1620 9.35277E+07 3.77407E+04 6.22356E+03-1.99645E+06-1.01027E+05-3.13580E+05
 -1      1622 9.35277E+07 3.77407E+04 6.22356E+03-1.99645E+06-1.01027E+05-3.13580E+05
 -1      1623 8.48622E+07 8.11764E+03-8.43417E+03-1.89815E+06-1.10858E+05-3.15160E+05
 -1      1625 8.48622E+07 8.11764E+03-8.43417E+03-1.89815E+06-1.10858E+05-3.15160E+05
 -1      1626 7.66232E+07 2.70867E+04 4.13198E+03-1.80531E+06-1.13741E+05-2.86061E+05
 -1      1628 7.66232E+07 2.70867E+04 4.13198E+03-1.80531E+06-1.13741E+05-2.86061E+05
 -1      1629 6.88047E+07 1.46006E+04-6.46261E+03-1.70921E+06-1.19566E+05-2.74254E+05
 -1      1631 6.88047E+07 1.46006E+04-6.46261E+03-1.70921E+06-1.19566E+05-2.74254E+05
 -1      1632 6.14110E+07 2.30198E+04 2.58867E+03-1.61507E+06-1.21499E+05-2.47606E+05
 -1      1634 6.14110E+07 2.30198E+04 2.58867E+03-1.61507E+06-1.21499E+05-2.47606E+05
 -1      1635 5.44387E+07 1.71490E+04-5.13743E+03-1.51970E+06-1.25074E+05-2.29085E+05
 -1      1637 5.44387E+07 1.71490E+04-5.13743E+03-1.51970E+06-1.25074E+05-2.29085E+05
 -1      1638 4.78902E+07 2.13544E+04 1.42042E+03-1.42511E+06-1.26361E+05-2.03946E+05
 -1      1640 4.78902E+07 2.13544E+04 1.42042E+03-1.42511E+06-1.26361E+05-2.03946E+05
 -1      1641 4.17634E+07 1.82397E+04-4.25907E+03-1.32999E+06-1.28650E+05-1.82950E+05
 -1      1643 4.17634E+07 1.82397E+04-4.25907E+03-1.32999E+06-1.28650E+05-1.82950E+05
 -1      1644 3.60600E+07 2.06030E+04 5.22732E+02-1.23522E+06-1.29546E+05-1.59533E+05
 -1      1646 3.60600E+07 2.06030E+04 5.22732E+02-1.23522E+06-1.29546E+05-1.59533E+05
 -1      1647 3.07785E+07 1.87695E+04-3.68641E+03-1.14018E+06-1.31088E+05-1.38703E+05
 -1      1649 3.07785E+07 1.87695E+04-3.68641E+03-1.14018E+06-1.31088E+05-1.38703E+05
 -1      1650 2.59199E+07 2.02079E+04-1.69959E+02-1.04533E+06-1.31766E+05-1.17636E+05
 -1      1652 2.59199E+07 2.02079E+04-1.69959E+02-1.04533E+06-1.31766E+05-1.17636E+05
 -1      1653 2.14834E+07 1.90879E+04-3.31900E+03-9.50317E+05-1.32867E+05-9.86296E+04
 -1      1655 2.14834E+07 1.90879E+04-3.31900E+03-9.50317E+05-1.32867E+05-9.86296E+04
 -1      1656 1.74695E+07 1.99300E+04-7.00046E+02-8.55434E+05-1.33427E+05-8.05637E+04
 -1      1658 1.74695E+07 1.99300E+04-7.00046E+02-8.55434E+05-1.33427E+05-8.05637E+04
 -1      1659 1.38778E+07 1.93750E+04-3.08718E+03-7.60398E+05-1.34273E+05-6.44056E+04
 -1      1661 1.38778E+07 1.93750E+04-3.08718E+03-7.60398E+05-1.34273E+05-6.44056E+04
 -1      1662 1.07085E+07 1.95891E+04-1.09404E+03-6.65555E+05-1.34760E+05-4.98475E+04
 -1      1664 1.07085E+07 1.95891E+04-1.09404E+03-6.65555E+05-1.34760E+05-4.98475E+04
 -1      1665 7.96144E+06 1.98550E+04-2.94731E+03-5.70403E+05-1.35471E+05-3.71443E+04
 -1      1667 7.96144E+06 1.98550E+04-2.94731E+03-5.70403E+05-1.35471E+05-3.71443E+04
 -1      1668 5.63635E+06 1.89143E+04-1.36738E+03-4.75629E+05-1.35884E+05-2.63679E+04
 -1      1670 5.63635E+06 1.89143E+04-1.36738E+03-4.75629E+05-1.35884E+05-2.63679E+04
 -1      1671 3.73200E+06 2.02085E+04-2.86080E+03-3.81824E+05-1.36551E+05-1.75394E+04
 -1      1673 3.73200E+06 2.02085E+04-2.86080E+03-3.81824E+05-1.36551E+05-1.75394E+04
 -1      1674 2.25460E+06 2.07824E+04-1.57928E+03-2.81394E+05-1.36894E+05-1.03461E+04
 -1      1676 2.25460E+06 2.07824E+04-1.57928E+03-2.81394E+05-1.36894E+05-1.03461E+04
 -1      1677 1.18258E+06 1.12267E+04-2.72580E+03-2.03250E+05-1.37483E+05-6.34363E+03
 -1      1679 1.18258E+06 1.12267E+04-2.72580E+03-2.03250E+05-1.37483E+05-6.34363E+03
 -1      1680 4.56734E+05 2.03248E+04-1.48514E+03-1.28730E+05-1.37788E+05-1.65895E+02
 -1      1682 4.56734E+05 2.03248E+04-1.48514E+03-1.28730E+05-1.37788E+05-1.65895E+02
 -1      1683 1.83626E+08 2.08292E+07 2.21985E+04-1.16139E+07 4.56443E+05-2.42763E+06
 -1      1685 1.83626E+08 2.08292E+07 2.21985E+04-1.16139E+07 4.56443E+05-2.42763E+06
 -1      1686-1.76962E+08-7.05452E+06 1.74792E+04 6.57821E+06 1.61678E+05-3.09981E+05
 -1      1688-1.76962E+08-7.05452E+06 1.74792E+04 6.57821E+06 1.61678E+05-3.09981E+05
 -1      1689-1.64936E+08 2.92724E+06-2.68485E+02 3.46772E+06-1.89831E+05 5.37273E+05
 -1      1691-1.64936E+08 2.92724E+06-2.68485E+02 3.46772E+06-1.89831E+05 5.37273E+05
 -1      1692-1.53857E+08-5.20141E+05-6.57965E+03 5.36669E+06-1.66845E+05 1.15464E+05
 -1      1694-1.53857E+08-5.20141E+05-6.57965E+03 5.36669E+06-1.66845E+05 1.15464E+05
 -1      1695-1.42855E+08-9.23282E+04-4.22246E+03 4.98593E+06-1.87365E+05 3.61118E+05
 -1      1697-1.42855E+08-9.23282E+04-4.22246E+03 4.98593E+06-1.87365E+05 3.61118E+05
 -1      1698-1.32034E+08-1.81651E+04-3.47809E+03 4.67341E+06-2.30646E+05 2.70422E+05
 -1      1700-1.32034E+08-1.81651E+04-3.47809E+03 4.67341E+06-2.30646E+05 2.70422E+05
 -1      1701-1.21756E+08-6.71989E+04-3.72139E+03 4.59203E+06-2.20440E+05 3.34320E+05
 -1      1703-1.21756E+08-6.71989E+04-3.72139E+03 4.59203E+06-2.20440E+05 3.34320E+05
 -1      1704-1.11822E+08-6.90598E+04-5.26016E+03 4.36018E+06-2.51533E+05 3.07215E+05
 -1      1706-1.11822E+08-6.90598E+04-5.26016E+03 4.36018E+06-2.51533E+05 3.07215E+05
 -1      1707-1.02339E+08-5.65567E+04-2.48190E+03 4.18582E+06-2.46842E+05 3.20008E+05
 -1      1709-1.02339E+08-5.65567E+04-2.48190E+03 4.18582E+06-2.46842E+05 3.20008E+05
 -1      1710-9.32636E+07-6.72608E+04-5.93895E+03 3.98900E+06-2.63658E+05 3.01461E+05
 -1      1712-9.32636E+07-6.72608E+04-5.93895E+03 3.98900E+06-2.63658E+05 3.01461E+05
 -1      1713-8.46166E+07-5.99779E+04-2.21806E+03 3.80227E+06-2.63486E+05 2.94952E+05
 -1      1715-8.46166E+07-5.99779E+04-2.21806E+03 3.80227E+06-2.63486E+05 2.94952E+05
 -1      1716-7.63874E+07-6.48703E+04-5.82971E+03 3.61005E+06-2.72024E+05 2.75131E+05
 -1      1718-7.63874E+07-6.48703E+04-5.82971E+03 3.61005E+06-2.72024E+05 2.75131E+05
 -1      1719-6.85821E+07-6.15088E+04-2.28330E+03 3.42108E+06-2.73365E+05 2.59471E+05
 -1      1721-6.85821E+07-6.15088E+04-2.28330E+03 3.42108E+06-2.73365E+05 2.59471E+05
 -1      1722-6.11971E+07-6.39101E+04-5.44311E+03 3.23015E+06-2.77603E+05 2.37699E+05
 -1      1724-6.11971E+07-6.39101E+04-5.44311E+03 3.23015E+06-2.77603E+05 2.37699E+05
 -1      1725-5.42348E+07-6.21361E+04-2.38667E+03 3.04045E+06-2.78982E+05 2.17726E+05
 -1      1727-5.42348E+07-6.21361E+04-2.38667E+03 3.04045E+06-2.78982E+05 2.17726E+05
 -1      1728-4.76938E+07-6.34927E+04-4.98340E+03 2.84999E+06-2.80978E+05 1.95170E+05
 -1      1730-4.76938E+07-6.34927E+04-4.98340E+03 2.84999E+06-2.80978E+05 1.95170E+05
 -1      1731-4.15751E+07-6.24150E+04-2.44696E+03 2.66004E+06-2.81904E+05 1.73855E+05
 -1      1733-4.15751E+07-6.24150E+04-2.44696E+03 2.66004E+06-2.81904E+05 1.73855E+05
 -1      1734-3.58781E+07-6.32869E+04-4.53245E+03 2.46977E+06-2.82682E+05 1.51912E+05
 -1      1736-3.58781E+07-6.32869E+04-4.53245E+03 2.46977E+06-2.82682E+05 1.51912E+05
 -1      1737-3.06032E+07-6.25548E+04-2.45650E+03 2.27974E+06-2.83083E+05 1.31265E+05
 -1      1739-3.06032E+07-6.25548E+04-2.45650E+03 2.27974E+06-2.83083E+05 1.31265E+05
 -1      1740-2.57503E+07-6.31650E+04-4.12659E+03 2.08955E+06-2.83173E+05 1.11147E+05
 -1      1742-2.57503E+07-6.31650E+04-4.12659E+03 2.08955E+06-2.83173E+05 1.11147E+05
 -1      1743-2.13196E+07-6.26410E+04-2.42979E+03 1.89950E+06-2.83123E+05 9.25454E+04
 -1      1745-2.13196E+07-6.26410E+04-2.42979E+03 1.89950E+06-2.83123E+05 9.25454E+04
 -1      1746-1.73109E+07-6.30705E+04-3.78366E+03 1.70935E+06-2.82823E+05 7.51743E+04
 -1      1748-1.73109E+07-6.30705E+04-3.78366E+03 1.70935E+06-2.82823E+05 7.51743E+04
 -1      1749-1.37245E+07-6.27274E+04-2.38463E+03 1.51931E+06-2.82416E+05 5.95274E+04
 -1      1751-1.37245E+07-6.27274E+04-2.38463E+03 1.51931E+06-2.82416E+05 5.95274E+04
 -1      1752-1.05602E+07-6.29159E+04-3.51269E+03 1.32921E+06-2.81920E+05 4.55413E+04
 -1      1754-1.05602E+07-6.29159E+04-3.51269E+03 1.32921E+06-2.81920E+05 4.55413E+04
 -1      1755-7.81817E+06-6.30148E+04-2.33448E+03 1.13905E+06-2.81225E+05 3.33782E+04
 -1      1757-7.81817E+06-6.30148E+04-2.33448E+03 1.13905E+06-2.81225E+05 3.33782E+04
 -1      1758-5.49814E+06-6.23177E+04-3.32401E+03 9.49337E+05-2.80675E+05 2.32095E+04
 -1      1760-5.49814E+06-6.23177E+04-3.32401E+03 9.49337E+05-2.80675E+05 2.32095E+04
 -1      1761-3.60037E+06-6.29270E+04-2.26742E+03 7.59710E+05-2.79746E+05 1.46680E+04
 -1      1763-3.60037E+06-6.29270E+04-2.26742E+03 7.59710E+05-2.79746E+05 1.46680E+04
 -1      1764-2.12384E+06-6.63601E+04-3.25280E+03 5.66846E+05-2.79166E+05 8.81450E+03
 -1      1766-2.12384E+06-6.63601E+04-3.25280E+03 5.66846E+05-2.79166E+05 8.81450E+03
 -1      1767-1.06355E+06-4.42500E+04-2.22571E+03 3.91412E+05-2.78316E+05 3.18116E+03
 -1      1769-1.06355E+06-4.42500E+04-2.22571E+03 3.91412E+05-2.78316E+05 3.18116E+03
 -1      1770-4.05574E+05-6.04915E+04-2.94663E+03 2.34920E+05-2.77284E+05 3.04813E+03
 -1      1772-4.05574E+05-6.04915E+04-2.94663E+03 2.34920E+05-2.77284E+05 3.04813E+03
 -1      1773-1.76962E+08-7.05452E+06 1.74792E+04-6.57821E+06-1.61678E+05-3.09981E+05
 -1      1775-1.76962E+08-7.05452E+06 1.74792E+04-6.57821E+06-1.61678E+05-3.09981E+05
 -1      1776-1.64936E+08 2.92724E+06-2.68485E+02-3.46772E+06 1.89831E+05 5.37273E+05
 -1      1778-1.64936E+08 2.92724E+06-2.68485E+02-3.46772E+06 1.89831E+05 5.37273E+05
 -1      1779-1.53857E+08-5.20141E+05-6.57965E+03-5.36669E+06 1.66845E+05 1.15464E+05
 -1      1781-1.53857E+08-5.20141E+05-6.57965E+03-5.36669E+06 1.66845E+05 1.15464E+05
 -1      1782-1.42855E+08-9.23282E+04-4.22246E+03-4.98593E+06 1.87365E+05 3.61118E+05
 -1      1784-1.42855E+08-9.23282E+04-4.22246E+03-4.98593E+06 1.87365E+05 3.61118E+05
 -1      1785-1.32034E+08-1.81651E+04-3.47809E+03-4.67341E+06 2.30646E+05 2.70422E+05
 -1      1787-1.32034E+08-1.81651E+04-3.47809E+03-4.67341E+06 2.30646E+05 2.70422E+05
 -1      1788-1.21756E+08-6.71989E+04-3.72139E+03-4.59203E+06 2.20440E+05 3.34320E+05
 -1      1790-1.21756E+08-6.71989E+04-3.72139E+03-4.59203E+06 2.20440E+05 3.34320E+05
 -1      1791-1.11822E+08-6.90598E+04-5.26016E+03-4.36018E+06 2.51533E+05 3.07215E+05
 -1      1793-1.11822E+08-6.90598E+04-5.26016E+03-4.36018E+06 2.51533E+05 3.07215E+05
 -1      1794-1.02339E+08-5.65567E+04-2.48190E+03-4.18582E+06 2.46842E+05 3.20008E+05
 -1      1796-1.02339E+08-5.65567E+04-2.48190E+03-4.18582E+06 2.46842E+05 3.20008E+05
 -1      1797-9.32636E+07-6.72608E+04-5.93895E+03-3.98900E+06 2.63658E+05 3.01461E+05
 -1      1799-9.32636E+07-6.72608E+04-5.93895E+03-3.98900E+06 2.63658E+05 3.01461E+05
 -1      1800-8.46166E+07-5.99779E+04-2.21806E+03-3.80227E+06 2.63486E+05 2.94952E+05
 -1      1802-8.46166E+07-5.99779E+04-2.21806E+03-3.80227E+06 2.63486E+05 2.94952E+05
 -1      1803-7.63874E+07-6.48703E+04-5.82971E+03-3.61005E+06 2.72024E+05 2.75131E+05
 -1      1805-7.63874E+07-6.48703E+04-5.82971E+03-3.61005E+06 2.72024E+05 2.75131E+05
 -1      1806-6.85821E+07-6.15088E+04-2.28330E+03-3.42108E+06 2.73365E+05 2.59471E+05
 -1      1808-6.85821E+07-6.15088E+04-2.28330E+03-3.42108E+06 2.73365E+05 2.59471E+05
 -1      1809-6.11971E+07-6.39101E+04-5.44311E+03-3.23015E+06 2.77603E+05 2.37699E+05
 -1      1811-6.11971E+07-6.39101E+04-5.44311E+03-3.23015E+06 2.77603E+05 2.37699E+05
 -1      1812-5.42348E+07-6.21361E+04-2.38667E+03-3.04045E+06 2.78982E+05 2.17726E+05
 -1      1814-5.42348E+07-6.21361E+04-2.38667E+03-3.04045E+06 2.78982E+05 2.17726E+05
 -1      1815-4.76938E+07-6.34927E+04-4.98340E+03-2.84999E+06 2.80978E+05 1.95170E+05
 -1      1817-4.76938E+07-6.34927E+04-4.98340E+03-2.84999E+06 2.80978E+05 1.95170E+05
 -1      1818-4.15751E+07-6.24150E+04-2.44696E+03-2.66004E+06 2.81904E+05 1.73855E+05
 -1      1820-4.15751E+07-6.24150E+04-2.44696E+03-2.66004E+06 2.81904E+05 1.73855E+05
 -1      1821-3.58781E+07-6.32869E+04-4.53245E+03-2.46977E+06 2.82682E+05 1.51912E+05
 -1      1823-3.58781E+07-6.32869E+04-4.53245E+03-2.46977E+06 2.82682E+05 1.51912E+05
 -1      1824-3.06032E+07-6.25548E+04-2.45650E+03-2.27974E+06 2.83083E+05 1.31265E+05
 -1      1826-3.06032E+07-6.25548E+04-2.45650E+03-2.27974E+06 2.83083E+05 1.31265E+05
 -1      1827-2.57503E+07-6.31650E+04-4.12659E+03-2.08955E+06 2.83173E+05 1.11147E+05
 -1      1829-2.57503E+07-6.31650E+04-4.12659E+03-2.08955E+06 2.83173E+05 1.11147E+05
 -1      1830-2.13196E+07-6.26410E+04-2.42979E+03-1.89950E+06 2.83123E+05 9.25454E+04
 -1      1832-2.13196E+07-6.26410E+04-2.42979E+03-1.89950E+06 2.83123E+05 9.25454E+04
 -1      1833-1.73109E+07-6.30705E+04-3.78366E+03-1.70935E+06 2.82823E+05 7.51743E+04
 -1      1835-1.73109E+07-6.30705E+04-3.78366E+03-1.70935E+06 2.82823E+05 7.51743E+04
 -1      1836-1.37245E+07-6.27274E+04-2.38463E+03-1.51931E+06 2.82416E+05 5.95274E+04
 -1      1838-1.37245E+07-6.27274E+04-2.38463E+03-1.51931E+06 2.82416E+05 5.95274E+04
 -1      1839-1.05602E+07-6.29159E+04-3.51269E+03-1.32921E+06 2.81920E+05 4.55413E+04
 -1      1841-1.05602E+07-6.29159E+04-3.51269E+03-1.32921E+06 2.81920E+05 4.55413E+04
 -1      1842-7.81817E+06-6.30148E+04-2.33448E+03-1.13905E+06 2.81225E+05 3.33782E+04
 -1      1844-7.81817E+06-6.30148E+04-2.33448E+03-1.13905E+06 2.81225E+05 3.33782E+04
 -1      1845-5.49814E+06-6.23177E+04-3.32401E+03-9.49337E+05 2.80675E+05 2.32095E+04
 -1      1847-5.49814E+06-6.23177E+04-3.32401E+03-9.49337E+05 2.80675E+05 2.32095E+04
 -1      1848-3.60037E+06-6.29270E+04-2.26742E+03-7.59710E+05 2.79746E+05 1.46680E+04
 -1      1850-3.60037E+06-6.29270E+04-2.26742E+03-7.59710E+05 2.79746E+05 1.46680E+04
 -1      1851-2.12384E+06-6.63601E+04-3.25280E+03-5.66846E+05 2.79166E+05 8.81450E+03
 -1      1853-2.12384E+06-6.63601E+04-3.25280E+03-5.66846E+05 2.79166E+05 8.81450E+03
 -1      1854-1.06355E+06-4.42500E+04-2.22571E+03-3.91412E+05 2.78316E+05 3.18116E+03
 -1      1856-1.06355E+06-4.42500E+04-2.22571E+03-3.91412E+05 2.78316E+05 3.18116E+03
 -1      1857-4.05574E+05-6.04915E+04-2.94663E+03-2.34920E+05 2.77284E+05 3.04813E+03
 -1      1859-4.05574E+05-6.04915E+04-2.94663E+03-2.34920E+05 2.77284E+05 3.04813E+03
 -1      1860-8.96908E+07 2.68616E+03-8.50798E+06 8.54053E-08 1.30657E-08-4.22745E+07
 -1      1862-8.96908E+07 2.68616E+03-8.50798E+06 8.54053E-08 1.30657E-08-4.22745E+07
 -1      1863-8.43745E+07-4.29404E+03 5.80413E+05 1.60396E-07-8.16173E-08-4.19274E+07
 -1      1865-8.43745E+07-4.29404E+03 5.80413E+05 1.60396E-07-8.16173E-08-4.19274E+07
 -1      1866-7.73496E+07 1.91018E+03 1.35427E+06 2.87045E-07-5.51416E-08-3.97882E+07
 -1      1868-7.73496E+07 1.91018E+03 1.35427E+06 2.87045E-07-5.51416E-08-3.97882E+07
 -1      1869-7.13337E+07-4.06723E+02 9.83166E+05 2.80513E-07-1.77393E-07-3.86004E+07
 -1      1871-7.13337E+07-4.06723E+02 9.83166E+05 2.80513E-07-1.77393E-07-3.86004E+07
 -1      1872-6.60049E+07-1.11161E+03 1.01537E+06 5.35656E-07-2.37737E-07-3.69509E+07
 -1      1874-6.60049E+07-1.11161E+03 1.01537E+06 5.35656E-07-2.37737E-07-3.69509E+07
 -1      1875-6.07546E+07 1.21925E+03 9.95017E+05 5.94158E-07-2.59240E-07-3.55354E+07
 -1      1877-6.07546E+07 1.21925E+03 9.95017E+05 5.94158E-07-2.59240E-07-3.55354E+07
 -1      1878-5.58185E+07-1.59217E+03 1.04092E+06 4.58742E-07 6.66691E-07-3.40053E+07
 -1      1880-5.58185E+07-1.59217E+03 1.04092E+06 4.58742E-07 6.66691E-07-3.40053E+07
 -1      1881-5.10574E+07 1.35593E+03 1.05180E+06 3.84874E-07 1.61574E-06-3.25433E+07
 -1      1883-5.10574E+07 1.35593E+03 1.05180E+06 3.84874E-07 1.61574E-06-3.25433E+07
 -1      1884-4.65233E+07-1.28928E+03 1.07520E+06 1.35680E-07-1.56299E-07-3.10469E+07
 -1      1886-4.65233E+07-1.28928E+03 1.07520E+06 1.35680E-07-1.56299E-07-3.10469E+07
 -1      1887-4.21905E+07 1.09122E+03 1.08596E+06 2.19984E-07-3.74632E-06-2.95753E+07
 -1      1889-4.21905E+07 1.09122E+03 1.08596E+06 2.19984E-07-3.74632E-06-2.95753E+07
 -1      1890-3.80728E+07-8.59235E+02 1.09701E+06 4.28515E-07-1.72669E-06-2.80912E+07
 -1      1892-3.80728E+07-8.59235E+02 1.09701E+06 4.28515E-07-1.72669E-06-2.80912E+07
 -1      1893-3.41619E+07 8.04404E+02 1.10228E+06 3.09484E-07 7.02463E-07-2.66177E+07
 -1      1895-3.41619E+07 8.04404E+02 1.10228E+06 3.09484E-07 7.02463E-07-2.66177E+07
 -1      1896-3.04635E+07-4.99414E+02 1.10549E+06 2.27831E-07-1.03240E-06-2.51390E+07
 -1      1898-3.04635E+07-4.99414E+02 1.10549E+06 2.27831E-07-1.03240E-06-2.51390E+07
 -1      1899-2.69737E+07 5.89941E+02 1.10529E+06 4.34595E-07-3.46550E-07-2.36650E+07
 -1      1901-2.69737E+07 5.89941E+02 1.10529E+06 4.34595E-07-3.46550E-07-2.36650E+07
 -1      1902-2.36954E+07-2.39273E+02 1.10283E+06 5.29456E-07 7.18600E-07-2.21886E+07
 -1      1904-2.36954E+07-2.39273E+02 1.10283E+06 5.29456E-07 7.18600E-07-2.21886E+07
 -1      1905-2.06267E+07 4.49957E+02 1.09810E+06 2.88925E-07 3.67349E-07-2.07141E+07
 -1      1907-2.06267E+07 4.49957E+02 1.09810E+06 2.88925E-07 3.67349E-07-2.07141E+07
 -1      1908-1.77692E+07-6.20105E+01 1.09146E+06-3.91768E-08-1.13742E-06-1.92383E+07
 -1      1910-1.77692E+07-6.20105E+01 1.09146E+06-3.91768E-08-1.13742E-06-1.92383E+07
 -1      1911-1.51218E+07 3.65389E+02 1.08325E+06-2.53111E-07-2.85667E-06-1.77630E+07
 -1      1913-1.51218E+07 3.65389E+02 1.08325E+06-2.53111E-07-2.85667E-06-1.77630E+07
 -1      1914-1.26853E+07 5.55553E+01 1.07361E+06 1.73990E-07-4.14448E-06-1.62868E+07
 -1      1916-1.26853E+07 5.55553E+01 1.07361E+06 1.73990E-07-4.14448E-06-1.62868E+07
 -1      1917-1.04594E+07 3.17290E+02 1.06290E+06 3.57167E-07-3.81178E-06-1.48103E+07
 -1      1919-1.04594E+07 3.17290E+02 1.06290E+06 3.57167E-07-3.81178E-06-1.48103E+07
 -1      1920-8.44443E+06 1.32339E+02 1.05123E+06 5.85187E-07-2.75705E-06-1.33328E+07
 -1      1922-8.44443E+06 1.32339E+02 1.05123E+06 5.85187E-07-2.75705E-06-1.33328E+07
 -1      1923-6.64018E+06 2.91753E+02 1.03887E+06 6.45719E-07 2.17120E-07-1.18548E+07
 -1      1925-6.64018E+06 2.91753E+02 1.03887E+06 6.45719E-07 2.17120E-07-1.18548E+07
 -1      1926-5.04691E+06 1.81293E+02 1.02598E+06 7.46066E-08-2.18863E-06-1.03758E+07
 -1      1928-5.04691E+06 1.81293E+02 1.02598E+06 7.46066E-08-2.18863E-06-1.03758E+07
 -1      1929-3.66449E+06 2.80214E+02 1.01270E+06-1.93390E-07-1.17901E-05-8.89590E+06
 -1      1931-3.66449E+06 2.80214E+02 1.01270E+06-1.93390E-07-1.17901E-05-8.89590E+06
 -1      1932-2.49354E+06 2.09774E+02 9.99414E+05-1.66688E-07-1.35395E-05-7.41521E+06
 -1      1934-2.49354E+06 2.09774E+02 9.99414E+05-1.66688E-07-1.35395E-05-7.41521E+06
 -1      1935-1.53390E+06 2.78959E+02 9.86649E+05-1.92974E-07-1.07835E-05-5.93310E+06
 -1      1937-1.53390E+06 2.78959E+02 9.86649E+05-1.92974E-07-1.07835E-05-5.93310E+06
 -1      1938-7.88938E+05 2.20640E+02 9.77666E+05 5.34601E-08-1.11242E-05-4.45102E+06
 -1      1940-7.88938E+05 2.20640E+02 9.77666E+05 5.34601E-08-1.11242E-05-4.45102E+06
 -1      1941-2.69924E+05 2.98063E+02 9.68889E+05 4.62148E-07-8.43801E-06-2.96547E+06
 -1      1943-2.69924E+05 2.98063E+02 9.68889E+05 4.62148E-07-8.43801E-06-2.96547E+06
 -1      1944-1.71999E+02 1.91483E+02 9.38075E+05 8.34386E-08-6.57330E-07-1.48408E+06
 -1      1946-1.71999E+02 1.91483E+02 9.38075E+05 8.34386E-08-6.57330E-07-1.48408E+06
 -1      1947-2.04618E+05 8.07123E+01-5.98010E+04-3.71083E-08 1.13963E-07-4.25116E+07
 -1      1949-2.04618E+05 8.07123E+01-5.98010E+04-3.71083E-08 1.13963E-07-4.25116E+07
 -1      1950-1.91916E+05 8.55954E+01-5.25047E+04-4.20032E-08-2.21133E-07-4.55237E+07
 -1      1952-1.91916E+05 8.55954E+01-5.25047E+04-4.20032E-08-2.21133E-07-4.55237E+07
 -1      1953-1.92072E+05 3.87597E+01-3.32636E+04-2.79401E-08-4.85621E-07-4.34513E+07
 -1      1955-1.92072E+05 3.87597E+01-3.32636E+04-2.79401E-08-4.85621E-07-4.34513E+07
 -1      1956-1.96442E+05 1.13770E+02 7.70128E+02 8.12073E-09-1.78139E-07-4.15033E+07
 -1      1958-1.96442E+05 1.13770E+02 7.70128E+02 8.12073E-09-1.78139E-07-4.15033E+07
 -1      1959-2.01470E+05-1.18881E+00 4.01549E+04 3.33734E-08 3.83405E-07-3.98058E+07
 -1      1961-2.01470E+05-1.18881E+00 4.01549E+04 3.33734E-08 3.83405E-07-3.98058E+07
 -1      1962-2.03701E+05 3.83939E+01 7.68903E+04-2.97626E-08-2.26867E-07-3.82127E+07
 -1      1964-2.03701E+05 3.83939E+01 7.68903E+04-2.97626E-08-2.26867E-07-3.82127E+07
 -1      1965-2.03261E+05-2.43022E+01 1.07467E+05-8.98717E-09 1.53835E-07-3.66080E+07
 -1      1967-2.03261E+05-2.43022E+01 1.07467E+05-8.98717E-09 1.53835E-07-3.66080E+07
 -1      1968-2.01267E+05-2.11214E+01 1.32365E+05 1.92642E-07 2.62499E-07-3.50188E+07
 -1      1970-2.01267E+05-2.11214E+01 1.32365E+05 1.92642E-07 2.62499E-07-3.50188E+07
 -1      1971-1.97797E+05-4.87817E+01 1.51850E+05 1.98530E-08 4.80630E-07-3.34247E+07
 -1      1973-1.97797E+05-4.87817E+01 1.51850E+05 1.98530E-08 4.80630E-07-3.34247E+07
 -1      1974-1.93334E+05-6.09085E+01 1.66535E+05-7.75775E-08 1.30962E-07-3.18341E+07
 -1      1976-1.93334E+05-6.09085E+01 1.66535E+05-7.75775E-08 1.30962E-07-3.18341E+07
 -1      1977-1.87936E+05-7.03564E+01 1.76891E+05 1.42599E-07 7.99432E-07-3.02413E+07
 -1      1979-1.87936E+05-7.03564E+01 1.76891E+05 1.42599E-07 7.99432E-07-3.02413E+07
 -1      1980-1.81771E+05-8.66241E+01 1.83389E+05 1.41760E-07 1.53815E-06-2.86501E+07
 -1      1982-1.81771E+05-8.66241E+01 1.83389E+05 1.41760E-07 1.53815E-06-2.86501E+07
 -1      1983-1.74888E+05-8.74890E+01 1.86440E+05 1.21433E-07-3.17061E-07-2.70580E+07
 -1      1985-1.74888E+05-8.74890E+01 1.86440E+05 1.21433E-07-3.17061E-07-2.70580E+07
 -1      1986-1.67374E+05-1.02899E+02 1.86429E+05 1.34676E-07-2.32273E-07-2.54665E+07
 -1      1988-1.67374E+05-1.02899E+02 1.86429E+05 1.34676E-07-2.32273E-07-2.54665E+07
 -1      1989-1.59280E+05-1.00250E+02 1.83724E+05 1.61194E-07 2.33063E-06-2.38745E+07
 -1      1991-1.59280E+05-1.00250E+02 1.83724E+05 1.61194E-07 2.33063E-06-2.38745E+07
 -1      1992-1.50674E+05-1.12925E+02 1.78657E+05 2.25815E-07 2.86393E-06-2.22830E+07
 -1      1994-1.50674E+05-1.12925E+02 1.78657E+05 2.25815E-07 2.86393E-06-2.22830E+07
 -1      1995-1.41602E+05-1.09294E+02 1.71555E+05 3.11769E-08-3.03113E-06-2.06912E+07
 -1      1997-1.41602E+05-1.09294E+02 1.71555E+05 3.11769E-08-3.03113E-06-2.06912E+07
 -1      1998-1.32127E+05-1.18859E+02 1.62707E+05-1.50055E-07-6.74734E-06-1.90996E+07
 -1      2000-1.32127E+05-1.18859E+02 1.62707E+05-1.50055E-07-6.74734E-06-1.90996E+07
 -1      2001-1.22288E+05-1.15402E+02 1.52396E+05-9.01473E-08-9.27389E-07-1.75079E+07
 -1      2003-1.22288E+05-1.15402E+02 1.52396E+05-9.01473E-08-9.27389E-07-1.75079E+07
 -1      2004-1.12140E+05-1.22165E+02 1.40870E+05-2.53137E-08-4.67773E-07-1.59162E+07
 -1      2006-1.12140E+05-1.22165E+02 1.40870E+05-2.53137E-08-4.67773E-07-1.59162E+07
 -1      2007-1.01718E+05-1.19307E+02 1.28368E+05-5.86860E-08-5.72836E-06-1.43246E+07
 -1      2009-1.01718E+05-1.19307E+02 1.28368E+05-5.86860E-08-5.72836E-06-1.43246E+07
 -1      2010-9.10663E+04-1.23847E+02 1.15094E+05 1.11129E-07-8.85454E-07-1.27330E+07
 -1      2012-9.10663E+04-1.23847E+02 1.15094E+05 1.11129E-07-8.85454E-07-1.27330E+07
 -1      2013-8.02121E+04-1.21640E+02 1.01241E+05 3.61410E-08 1.45506E-06-1.11413E+07
 -1      2015-8.02121E+04-1.21640E+02 1.01241E+05 3.61410E-08 1.45506E-06-1.11413E+07
 -1      2016-6.91873E+04-1.24603E+02 8.69685E+04-9.69701E-08-5.58557E-06-9.54960E+06
 -1      2018-6.91873E+04-1.24603E+02 8.69685E+04-9.69701E-08-5.58557E-06-9.54960E+06
 -1      2019-5.80038E+04-1.22884E+02 7.24190E+04-9.20858E-08-1.40061E-05-7.95775E+06
 -1      2021-5.80038E+04-1.22884E+02 7.24190E+04-9.20858E-08-1.40061E-05-7.95775E+06
 -1      2022-4.66655E+04-1.24997E+02 5.77040E+04-2.23073E-07-1.79578E-05-6.36497E+06
 -1      2024-4.66655E+04-1.24997E+02 5.77040E+04-2.23073E-07-1.79578E-05-6.36497E+06
 -1      2025-3.51381E+04-1.23220E+02 4.29240E+04 4.64479E-09-9.52751E-06-4.76791E+06
 -1      2027-3.51381E+04-1.23220E+02 4.29240E+04 4.64479E-09-9.52751E-06-4.76791E+06
 -1      2028-2.33772E+04-1.25281E+02 2.81459E+04 1.27050E-07-7.82052E-06-3.16096E+06
 -1      2030-2.33772E+04-1.25281E+02 2.81459E+04 1.27050E-07-7.82052E-06-3.16096E+06
 -1      2031-1.14947E+04-1.24669E+02 1.36375E+04-1.12422E-09-3.14064E-06-1.55554E+06
 -1      2033-1.14947E+04-1.24669E+02 1.36375E+04-1.12422E-09-3.14064E-06-1.55554E+06
 -1      2034 8.94417E+07-2.96083E+03 8.39912E+06-7.29639E-08 9.90656E-08-4.24922E+07
 -1      2036 8.94417E+07-2.96083E+03 8.39912E+06-7.29639E-08 9.90656E-08-4.24922E+07
 -1      2037 8.41268E+07 4.03833E+03-6.87264E+05-1.29553E-07-1.19436E-07-4.21666E+07
 -1      2039 8.41268E+07 4.03833E+03-6.87264E+05-1.29553E-07-1.19436E-07-4.21666E+07
 -1      2040 7.70856E+07-2.05792E+03-1.42073E+06-1.26393E-07-2.97958E-07-4.00484E+07
 -1      2042 7.70856E+07-2.05792E+03-1.42073E+06-1.26393E-07-2.97958E-07-4.00484E+07
 -1      2043 7.10464E+07 1.11225E+02-9.81454E+05-8.65841E-08 4.25977E-09-3.88834E+07
 -1      2045 7.10464E+07 1.11225E+02-9.81454E+05-8.65841E-08 4.25977E-09-3.88834E+07
 -1      2046 6.57016E+07 1.06882E+03-9.38182E+05-1.19422E-07 1.26757E-08-3.72533E+07
 -1      2048 6.57016E+07 1.06882E+03-9.38182E+05-1.19422E-07 1.26757E-08-3.72533E+07
 -1      2049 6.04380E+07-1.35076E+03-8.48921E+05-4.89850E-07 3.93322E-09-3.58531E+07
 -1      2051 6.04380E+07-1.35076E+03-8.48921E+05-4.89850E-07 3.93322E-09-3.58531E+07
 -1      2052 5.54947E+07 1.61618E+03-8.39187E+05-3.18051E-07-9.82037E-07-3.43268E+07
 -1      2054 5.54947E+07 1.61618E+03-8.39187E+05-3.18051E-07-9.82037E-07-3.43268E+07
 -1      2055 5.07295E+07-1.35445E+03-8.03336E+05 6.10479E-09-1.56943E-06-3.28636E+07
 -1      2057 5.07295E+07-1.35445E+03-8.03336E+05 6.10479E-09-1.56943E-06-3.28636E+07
 -1      2058 4.61950E+07 1.37266E+03-7.91001E+05-3.87187E-07 1.10707E-06-3.13592E+07
 -1      2060 4.61950E+07 1.37266E+03-7.91001E+05-3.87187E-07 1.10707E-06-3.13592E+07
 -1      2061 4.18641E+07-9.96061E+02-7.74269E+05-5.75451E-07 3.68354E-06-2.98758E+07
 -1      2063 4.18641E+07-9.96061E+02-7.74269E+05-5.75451E-07 3.68354E-06-2.98758E+07
 -1      2064 3.77512E+07 9.90984E+02-7.66214E+05-2.31598E-07 2.66355E-06-2.83762E+07
 -1      2066 3.77512E+07 9.90984E+02-7.66214E+05-2.31598E-07 2.66355E-06-2.83762E+07
 -1      2067 3.38470E+07-6.46052E+02-7.59351E+05-1.69244E-07 1.00462E-06-2.68846E+07
 -1      2069 3.38470E+07-6.46052E+02-7.59351E+05-1.69244E-07 1.00462E-06-2.68846E+07
 -1      2070 3.01574E+07 6.68183E+02-7.56978E+05-3.75648E-08-6.51858E-07-2.53860E+07
 -1      2072 3.01574E+07 6.68183E+02-7.56978E+05-3.75648E-08-6.51858E-07-2.53860E+07
 -1      2073 2.66781E+07-3.90216E+02-7.56815E+05 2.72167E-07-1.07890E-06-2.38909E+07
 -1      2075 2.66781E+07-3.90216E+02-7.56815E+05 2.72167E-07-1.07890E-06-2.38909E+07
 -1      2076 2.34120E+07 4.35027E+02-7.59482E+05 2.79464E-07-7.41621E-08-2.23928E+07
 -1      2078 2.34120E+07 4.35027E+02-7.59482E+05 2.79464E-07-7.41621E-08-2.23928E+07
 -1      2079 2.03570E+07-2.24049E+02-7.64232E+05 2.52467E-07-3.83322E-08-2.08965E+07
 -1      2081 2.03570E+07-2.24049E+02-7.64232E+05 2.52467E-07-3.83322E-08-2.08965E+07
 -1      2082 1.75143E+07 2.76568E+02-7.70909E+05 2.43176E-07-2.23702E-07-1.93990E+07
 -1      2084 1.75143E+07 2.76568E+02-7.70909E+05 2.43176E-07-2.23702E-07-1.93990E+07
 -1      2085 1.48828E+07-1.23661E+02-7.79243E+05 7.40245E-09 3.52900E-07-1.79027E+07
 -1      2087 1.48828E+07-1.23661E+02-7.79243E+05 7.40245E-09 3.52900E-07-1.79027E+07
 -1      2088 1.24634E+07 1.71468E+02-7.88894E+05-2.33031E-07 1.06266E-06-1.64064E+07
 -1      2090 1.24634E+07 1.71468E+02-7.88894E+05-2.33031E-07 1.06266E-06-1.64064E+07
 -1      2091 1.02552E+07-6.66197E+01-7.99729E+05-4.11649E-07-8.81889E-08-1.49110E+07
 -1      2093 1.02552E+07-6.66197E+01-7.99729E+05-4.11649E-07-8.81889E-08-1.49110E+07
 -1      2094 8.25877E+06 1.02463E+02-8.11431E+05-2.85909E-07-1.45350E-06-1.34161E+07
 -1      2096 8.25877E+06 1.02463E+02-8.11431E+05-2.85909E-07-1.45350E-06-1.34161E+07
 -1      2097 6.47363E+06-3.65038E+01-8.23875E+05 5.39686E-08 3.79901E-06-1.19221E+07
 -1      2099 6.47363E+06-3.65038E+01-8.23875E+05 5.39686E-08 3.79901E-06-1.19221E+07
 -1      2100 4.89997E+06 5.79917E+01-8.36874E+05 3.34423E-07 6.18657E-06-1.04289E+07
 -1      2102 4.89997E+06 5.79917E+01-8.36874E+05 3.34423E-07 6.18657E-06-1.04289E+07
 -1      2103 3.53758E+06-2.29411E+01-8.50250E+05 6.54344E-07 1.77893E-06-8.93664E+06
 -1      2105 3.53758E+06-2.29411E+01-8.50250E+05 6.54344E-07 1.77893E-06-8.93664E+06
 -1      2106 2.38702E+06 3.17728E+01-8.64134E+05 5.57688E-07-1.09502E-05-7.44548E+06
 -1      2108 2.38702E+06 3.17728E+01-8.64134E+05 5.57688E-07-1.09502E-05-7.44548E+06
 -1      2109 1.44807E+06-2.07912E+01-8.78827E+05 4.11639E-07-1.60076E-05-5.95486E+06
 -1      2111 1.44807E+06-2.07912E+01-8.78827E+05 4.11639E-07-1.60076E-05-5.95486E+06
 -1      2112 7.24040E+05 2.14207E+01-8.97334E+05-6.38500E-08-4.06209E-06-4.46632E+06
 -1      2114 7.24040E+05 2.14207E+01-8.97334E+05-6.38500E-08-4.06209E-06-4.46632E+06
 -1      2115 2.26342E+05-3.93573E+01-9.15902E+05-7.19121E-07-2.50245E-06-2.97645E+06
 -1      2117 2.26342E+05-3.93573E+01-9.15902E+05-7.19121E-07-2.50245E-06-2.97645E+06
 -1      2118-2.18014E+04 5.33575E+01-9.12064E+05-3.03443E-07 5.04905E-06-1.49277E+06
 -1      2120-2.18014E+04 5.33575E+01-9.12064E+05-3.03443E-07 5.04905E-06-1.49277E+06
 -1      2121 1.77319E+08 7.06403E+06-1.59918E+04 6.60374E+06-1.60560E+05-7.14489E+05
 -1      2123 1.77319E+08 7.06403E+06-1.59918E+04 6.60374E+06-1.60560E+05-7.14489E+05
 -1      2124 1.65259E+08-2.91612E+06-8.28175E+02 3.46833E+06 2.03114E+05 6.62058E+04
 -1      2126 1.65259E+08-2.91612E+06-8.28175E+02 3.46833E+06 2.03114E+05 6.62058E+04
 -1      2127 1.54141E+08 5.17001E+05 7.26928E+03 5.36256E+06 1.73192E+05-4.21180E+05
 -1      2129 1.54141E+08 5.17001E+05 7.26928E+03 5.36256E+06 1.73192E+05-4.21180E+05
 -1      2130 1.43117E+08 9.24075E+04 4.43321E+03 4.98282E+06 1.92711E+05-2.27853E+05
 -1      2132 1.43117E+08 9.24075E+04 4.43321E+03 4.98282E+06 1.92711E+05-2.27853E+05
 -1      2133 1.32272E+08 1.77300E+04 3.76824E+03 4.67010E+06 2.31947E+05-3.54214E+05
 -1      2135 1.32272E+08 1.77300E+04 3.76824E+03 4.67010E+06 2.31947E+05-3.54214E+05
 -1      2136 1.21973E+08 6.66493E+04 4.25102E+03 4.58919E+06 2.17959E+05-3.06738E+05
 -1      2138 1.21973E+08 6.66493E+04 4.25102E+03 4.58919E+06 2.17959E+05-3.06738E+05
 -1      2139 1.12019E+08 6.82071E+04 5.47524E+03 4.35813E+06 2.46034E+05-3.38644E+05
 -1      2141 1.12019E+08 6.82071E+04 5.47524E+03 4.35813E+06 2.46034E+05-3.38644E+05
 -1      2142 1.02518E+08 5.61318E+04 3.07473E+03 4.18417E+06 2.37942E+05-3.17526E+05
 -1      2144 1.02518E+08 5.61318E+04 3.07473E+03 4.18417E+06 2.37942E+05-3.17526E+05
 -1      2145 9.34264E+07 6.64745E+04 6.17493E+03 3.98778E+06 2.52436E+05-3.18609E+05
 -1      2147 9.34264E+07 6.64745E+04 6.17493E+03 3.98778E+06 2.52436E+05-3.18609E+05
 -1      2148 8.47646E+07 5.94400E+04 2.80240E+03 3.80137E+06 2.49764E+05-2.99322E+05
 -1      2150 8.47646E+07 5.94400E+04 2.80240E+03 3.80137E+06 2.49764E+05-2.99322E+05
 -1      2151 7.65217E+07 6.41343E+04 6.10127E+03 3.60949E+06 2.56708E+05-2.87089E+05
 -1      2153 7.65217E+07 6.41343E+04 6.10127E+03 3.60949E+06 2.56708E+05-2.87089E+05
 -1      2154 6.87043E+07 6.09096E+04 2.84094E+03 3.42081E+06 2.56513E+05-2.65810E+05
 -1      2156 6.87043E+07 6.09096E+04 2.84094E+03 3.42081E+06 2.56513E+05-2.65810E+05
 -1      2157 6.13082E+07 6.31967E+04 5.74499E+03 3.23018E+06 2.59899E+05-2.47119E+05
 -1      2159 6.13082E+07 6.31967E+04 5.74499E+03 3.23018E+06 2.59899E+05-2.47119E+05
 -1      2160 5.43360E+07 6.15148E+04 2.91479E+03 3.04074E+06 2.60612E+05-2.24378E+05
 -1      2162 5.43360E+07 6.15148E+04 2.91479E+03 3.04074E+06 2.60612E+05-2.24378E+05
 -1      2163 4.77859E+07 6.28011E+04 5.30731E+03 2.85054E+06 2.62448E+05-2.02983E+05
 -1      2165 4.77859E+07 6.28011E+04 5.30731E+03 2.85054E+06 2.62448E+05-2.02983E+05
 -1      2166 4.16589E+07 6.17926E+04 2.94737E+03 2.66082E+06 2.63435E+05-1.80143E+05
 -1      2168 4.16589E+07 6.17926E+04 2.94737E+03 2.66082E+06 2.63435E+05-1.80143E+05
 -1      2169 3.59542E+07 6.26191E+04 4.87097E+03 2.47077E+06 2.64648E+05-1.58486E+05
 -1      2171 3.59542E+07 6.26191E+04 4.87097E+03 2.47077E+06 2.64648E+05-1.58486E+05
 -1      2172 3.06723E+07 6.19417E+04 2.93231E+03 2.28093E+06 2.65688E+05-1.36877E+05
 -1      2174 3.06723E+07 6.19417E+04 2.93231E+03 2.28093E+06 2.65688E+05-1.36877E+05
 -1      2175 2.58128E+07 6.25212E+04 4.47377E+03 2.09092E+06 2.66687E+05-1.16631E+05
 -1      2177 2.58128E+07 6.25212E+04 4.47377E+03 2.09092E+06 2.66687E+05-1.16631E+05
 -1      2178 2.13759E+07 6.20414E+04 2.88427E+03 1.90104E+06 2.67708E+05-9.73298E+04
 -1      2180 2.13759E+07 6.20414E+04 2.88427E+03 1.90104E+06 2.67708E+05-9.73298E+04
 -1      2181 1.73613E+07 6.24486E+04 4.13491E+03 1.71103E+06 2.68665E+05-7.96275E+04
 -1      2183 1.73613E+07 6.24486E+04 4.13491E+03 1.71103E+06 2.68665E+05-7.96275E+04
 -1      2184 1.37692E+07 6.21417E+04 2.82083E+03 1.52112E+06 2.69632E+05-6.34152E+04
 -1      2186 1.37692E+07 6.21417E+04 2.82083E+03 1.52112E+06 2.69632E+05-6.34152E+04
 -1      2187 1.05993E+07 6.23109E+04 3.86433E+03 1.33114E+06 2.70627E+05-4.89711E+04
 -1      2189 1.05993E+07 6.23109E+04 3.86433E+03 1.33114E+06 2.70627E+05-4.89711E+04
 -1      2190 7.85188E+06 6.24426E+04 2.75529E+03 1.14109E+06 2.71500E+05-3.63703E+04
 -1      2192 7.85188E+06 6.24426E+04 2.75529E+03 1.14109E+06 2.71500E+05-3.63703E+04
 -1      2193 5.52646E+06 6.17194E+04 3.67247E+03 9.51484E+05 2.72575E+05-2.55305E+04
 -1      2195 5.52646E+06 6.17194E+04 3.67247E+03 9.51484E+05 2.72575E+05-2.55305E+04
 -1      2196 3.62329E+06 6.23559E+04 2.67675E+03 7.61964E+05 2.73315E+05-1.69467E+04
 -1      2198 3.62329E+06 6.23559E+04 2.67675E+03 7.61964E+05 2.73315E+05-1.69467E+04
 -1      2199 2.14132E+06 6.58336E+04 3.59158E+03 5.69146E+05 2.74463E+05-9.55853E+03
 -1      2201 2.14132E+06 6.58336E+04 3.59158E+03 5.69146E+05 2.74463E+05-9.55853E+03
 -1      2202 1.07540E+06 4.34531E+04 2.63583E+03 3.93989E+05 2.75146E+05-5.77911E+03
 -1      2204 1.07540E+06 4.34531E+04 2.63583E+03 3.93989E+05 2.75146E+05-5.77911E+03
 -1      2205 4.11620E+05 5.98717E+04 3.25053E+03 2.37935E+05 2.75565E+05-1.75716E+02
 -1      2207 4.11620E+05 5.98717E+04 3.25053E+03 2.37935E+05 2.75565E+05-1.75716E+02
 -1      2208 1.77319E+08 7.06403E+06-1.59918E+04-6.60374E+06 1.60560E+05-7.14489E+05
 -1      2210 1.77319E+08 7.06403E+06-1.59918E+04-6.60374E+06 1.60560E+05-7.14489E+05
 -1      2211 1.65259E+08-2.91612E+06-8.28175E+02-3.46833E+06-2.03114E+05 6.62058E+04
 -1      2213 1.65259E+08-2.91612E+06-8.28175E+02-3.46833E+06-2.03114E+05 6.62058E+04
 -1      2214 1.54141E+08 5.17001E+05 7.26928E+03-5.36256E+06-1.73192E+05-4.21180E+05
 -1      2216 1.54141E+08 5.17001E+05 7.26928E+03-5.36256E+06-1.73192E+05-4.21180E+05
 -1      2217 1.43117E+08 9.24075E+04 4.43321E+03-4.98282E+06-1.92711E+05-2.27853E+05
 -1      2219 1.43117E+08 9.24075E+04 4.43321E+03-4.98282E+06-1.92711E+05-2.27853E+05
 -1      2220 1.32272E+08 1.77300E+04 3.76824E+03-4.67010E+06-2.31947E+05-3.54214E+05
 -1      2222 1.32272E+08 1.77300E+04 3.76824E+03-4.67010E+06-2.31947E+05-3.54214E+05
 -1      2223 1.21973E+08 6.66493E+04 4.25102E+03-4.58919E+06-2.17959E+05-3.06738E+05
 -1      2225 1.21973E+08 6.66493E+04 4.25102E+03-4.58919E+06-2.17959E+05-3.06738E+05
 -1      2226 1.12019E+08 6.82071E+04 5.47524E+03-4.35813E+06-2.46034E+05-3.38644E+05
 -1      2228 1.12019E+08 6.82071E+04 5.47524E+03-4.35813E+06-2.46034E+05-3.38644E+05
 -1      2229 1.02518E+08 5.61318E+04 3.07473E+03-4.18417E+06-2.37942E+05-3.17526E+05
 -1      2231 1.02518E+08 5.61318E+04 3.07473E+03-4.18417E+06-2.37942E+05-3.17526E+05
 -1      2232 9.34264E+07 6.64745E+04 6.17493E+03-3.98778E+06-2.52436E+05-3.18609E+05
 -1      2234 9.34264E+07 6.64745E+04 6.17493E+03-3.98778E+06-2.52436E+05-3.18609E+05
 -1      2235 8.47646E+07 5.94400E+04 2.80240E+03-3.80137E+06-2.49764E+05-2.99322E+05
 -1      2237 8.47646E+07 5.94400E+04 2.80240E+03-3.80137E+06-2.49764E+05-2.99322E+05
 -1      2238 7.65217E+07 6.41343E+04 6.10127E+03-3.60949E+06-2.56708E+05-2.87089E+05
 -1      2240 7.65217E+07 6.41343E+04 6.10127E+03-3.60949E+06-2.56708E+05-2.87089E+05
 -1      2241 6.87043E+07 6.09096E+04 2.84094E+03-3.42081E+06-2.56513E+05-2.65810E+05
 -1      2243 6.87043E+07 6.09096E+04 2.84094E+03-3.42081E+06-2.56513E+05-2.65810E+05
 -1      2244 6.13082E+07 6.31967E+04 5.74499E+03-3.23018E+06-2.59899E+05-2.47119E+05
 -1      2246 6.13082E+07 6.31967E+04 5.74499E+03-3.23018E+06-2.59899E+05-2.47119E+05
 -1      2247 5.43360E+07 6.15148E+04 2.91479E+03-3.04074E+06-2.60612E+05-2.24378E+05
 -1      2249 5.43360E+07 6.15148E+04 2.91479E+03-3.04074E+06-2.60612E+05-2.24378E+05
 -1      2250 4.77859E+07 6.28011E+04 5.30731E+03-2.85054E+06-2.62448E+05-2.02983E+05
 -1      2252 4.77859E+07 6.28011E+04 5.30731E+03-2.85054E+06-2.62448E+05-2.02983E+05
 -1      2253 4.16589E+07 6.17926E+04 2.94737E+03-2.66082E+06-2.63435E+05-1.80143E+05
 -1      2255 4.16589E+07 6.17926E+04 2.94737E+03-2.66082E+06-2.63435E+05-1.80143E+05
 -1      2256 3.59542E+07 6.26191E+04 4.87097E+03-2.47077E+06-2.64648E+05-1.58486E+05
 -1      2258 3.59542E+07 6.26191E+04 4.87097E+03-2.47077E+06-2.64648E+05-1.58486E+05
 -1      2259 3.06723E+07 6.19417E+04 2.93231E+03-2.28093E+06-2.65688E+05-1.36877E+05
 -1      2261 3.06723E+07 6.19417E+04 2.93231E+03-2.28093E+06-2.65688E+05-1.36877E+05
 -1      2262 2.58128E+07 6.25212E+04 4.47377E+03-2.09092E+06-2.66687E+05-1.16631E+05
 -1      2264 2.58128E+07 6.25212E+04 4.47377E+03-2.09092E+06-2.66687E+05-1.16631E+05
 -1      2265 2.13759E+07 6.20414E+04 2.88427E+03-1.90104E+06-2.67708E+05-9.73298E+04
 -1      2267 2.13759E+07 6.20414E+04 2.88427E+03-1.90104E+06-2.67708E+05-9.73298E+04
 -1      2268 1.73613E+07 6.24486E+04 4.13491E+03-1.71103E+06-2.68665E+05-7.96275E+04
 -1      2270 1.73613E+07 6.24486E+04 4.13491E+03-1.71103E+06-2.68665E+05-7.96275E+04
 -1      2271 1.37692E+07 6.21417E+04 2.82083E+03-1.52112E+06-2.69632E+05-6.34152E+04
 -1      2273 1.37692E+07 6.21417E+04 2.82083E+03-1.52112E+06-2.69632E+05-6.34152E+04
 -1      2274 1.05993E+07 6.23109E+04 3.86433E+03-1.33114E+06-2.70627E+05-4.89711E+04
 -1      2276 1.05993E+07 6.23109E+04 3.86433E+03-1.33114E+06-2.70627E+05-4.89711E+04
 -1      2277 7.85188E+06 6.24426E+04 2.75529E+03-1.14109E+06-2.71500E+05-3.63703E+04
 -1      2279 7.85188E+06 6.24426E+04 2.75529E+03-1.14109E+06-2.71500E+05-3.63703E+04
 -1      2280 5.52646E+06 6.17194E+04 3.67247E+03-9.51484E+05-2.72575E+05-2.55305E+04
 -1      2282 5.52646E+06 6.17194E+04 3.67247E+03-9.51484E+05-2.72575E+05-2.55305E+04
 -1      2283 3.62329E+06 6.23559E+04 2.67675E+03-7.61964E+05-2.73315E+05-1.69467E+04
 -1      2285 3.62329E+06 6.23559E+04 2.67675E+03-7.61964E+05-2.73315E+05-1.69467E+04
 -1      2286 2.14132E+06 6.58336E+04 3.59158E+03-5.69146E+05-2.74463E+05-9.55853E+03
 -1      2288 2.14132E+06 6.58336E+04 3.59158E+03-5.69146E+05-2.74463E+05-9.55853E+03
 -1      2289 1.07540E+06 4.34531E+04 2.63583E+03-3.93989E+05-2.75146E+05-5.77911E+03
 -1      2291 1.07540E+06 4.34531E+04 2.63583E+03-3.93989E+05-2.75146E+05-5.77911E+03
 -1      2292 4.11620E+05 5.98717E+04 3.25053E+03-2.37935E+05-2.75565E+05-1.75716E+02
 -1      2294 4.11620E+05 5.98717E+04 3.25053E+03-2.37935E+05-2.75565E+05-1.75716E+02
 -3
    1PSTEP                         7           2           1          
  100CL  102 100.0000000         930                     0    2           1
 -4  FORC        4    1
 -5  F1          1    2    1    0
 -5  F2          1    2    2    0
 -5  F3          1    2    3    0
 -5  ALL         1    2    0    0    1ALL
 -1       404 3.45878E+04-8.03852E+03 3.50123E+02
 -1       406 2.96793E+04-8.87069E+03 3.50123E+02
 -1       407 3.24701E-08 1.35855E-07-4.67827E+01
 -1       409 3.14881E-08 9.76266E-08-4.67827E+01
 -1       410-2.12073E+02 2.35595E-09 3.18833E+02
 -1       412-2.12342E+02 5.44962E-09 2.59258E+02
 -1       413 2.12207E+02-4.67623E+01-4.48838E+02
 -1       415 2.12207E+02 4.67623E+01-4.48838E+02
 -1       424 5.79298E+04-2.90663E-09 1.98333E+01
 -1       426 4.09551E+04-2.65971E-09 5.28483E+02
 -1       427 4.52960E+04 3.99231E+02 1.65240E+04
 -1       429 4.52960E+04-3.99231E+02 1.65240E+04
 -1       438 3.30844E-08-1.38086E-07-4.67827E+01
 -1       440 3.18762E-08-9.77473E-08-4.67827E+01
 -1       441 3.45878E+04 8.03852E+03 3.50123E+02
 -1       443 2.96793E+04 8.87069E+03 3.50123E+02
 -1       444-4.52965E+04-4.01996E+02 1.65728E+04
 -1       446-4.52965E+04 4.01996E+02 1.65728E+04
 -1       447-5.80084E+04-3.12439E-09 3.32448E+01
 -1       449-4.09810E+04-1.97082E-09 5.45417E+02
 -1       458-2.15970E+02 4.43184E+01-4.47254E+02
 -1       460-2.15970E+02-4.43184E+01-4.47254E+02
 -1       461 2.16097E+02-6.83238E-09 3.15695E+02
 -1       463 2.15842E+02-1.35529E-08 2.59228E+02
 -1       472-3.47706E+04-8.03542E+03 4.88055E+02
 -1       474-2.95515E+04-8.88963E+03 4.88055E+02
 -1       475 2.94057E-08-9.39808E-08-4.67827E+01
 -1       477 1.62427E-08-6.18158E-08-4.67827E+01
 -1       478 2.72091E-08 9.18357E-08-4.67827E+01
 -1       480 1.68325E-08 6.04883E-08-4.67827E+01
 -1       481-3.47706E+04 8.03542E+03 4.88055E+02
 -1       483-2.95515E+04 8.88963E+03 4.88055E+02
 -1       484-1.09417E-08 1.24731E-07-9.35653E+01
 -1       486-1.11880E-08 1.23179E-07-9.35653E+01
 -1       487-2.27736E-08 4.36664E-07-9.35653E+01
 -1       489-1.96168E-08 4.46102E-07-9.35653E+01
 -1       490-3.82412E-08 9.69777E-07-9.35653E+01
 -1       492-3.01168E-08 9.83800E-07-9.35653E+01
 -1       493-5.03868E-08 1.70192E-06-9.35653E+01
 -1       495-3.17048E-08 1.73095E-06-9.35653E+01
 -1       496-6.71950E-08 2.58744E-06-9.35653E+01
 -1       498-3.41409E-08 2.61308E-06-9.35653E+01
 -1       499-7.31929E-08 3.53323E-06-9.35653E+01
 -1       501-2.19156E-08 3.54703E-06-9.35653E+01
 -1       502-8.16447E-08 4.43251E-06-9.35653E+01
 -1       504-7.82705E-09 4.42173E-06-9.35653E+01
 -1       505-8.22001E-08 5.18997E-06-9.35653E+01
 -1       507 1.41950E-08 5.14110E-06-9.35653E+01
 -1       508-8.00871E-08 5.72406E-06-9.35653E+01
 -1       510 3.64673E-08 5.63722E-06-9.35653E+01
 -1       511-7.15449E-08 5.99959E-06-9.35653E+01
 -1       513 5.68095E-08 5.86702E-06-9.35653E+01
 -1       514-6.43816E-08 6.00828E-06-9.35653E+01
 -1       516 7.35494E-08 5.84082E-06-9.35653E+01
 -1       517-5.58344E-08 5.78647E-06-9.35653E+01
 -1       519 8.66218E-08 5.58337E-06-9.35653E+01
 -1       520-4.93435E-08 5.37686E-06-9.35653E+01
 -1       522 9.34276E-08 5.15308E-06-9.35653E+01
 -1       523-4.28636E-08 4.84352E-06-9.35653E+01
 -1       525 9.65466E-08 4.60431E-06-9.35653E+01
 -1       526-3.44493E-08 4.23877E-06-9.35653E+01
 -1       528 9.27118E-08 3.99499E-06-9.35653E+01
 -1       529-2.70452E-08 3.61839E-06-9.35653E+01
 -1       531 8.34804E-08 3.37349E-06-9.35653E+01
 -1       532-2.53255E-08 3.02350E-06-9.35653E+01
 -1       534 7.41053E-08 2.78701E-06-9.35653E+01
 -1       535-2.03028E-08 2.47777E-06-9.35653E+01
 -1       537 6.71863E-08 2.25537E-06-9.35653E+01
 -1       538-1.64466E-08 1.99647E-06-9.35653E+01
 -1       540 5.43689E-08 1.78850E-06-9.35653E+01
 -1       541-1.35824E-08 1.58740E-06-9.35653E+01
 -1       543 4.71414E-08 1.39368E-06-9.35653E+01
 -1       544-1.54701E-08 1.25422E-06-9.35653E+01
 -1       546 3.35758E-08 1.08028E-06-9.35653E+01
 -1       547-7.18851E-09 9.88771E-07-9.35653E+01
 -1       549 2.76099E-08 8.31651E-07-9.35653E+01
 -1       550-5.10240E-09 7.72096E-07-9.35653E+01
 -1       552 2.04012E-08 6.31253E-07-9.35653E+01
 -1       553-1.00468E-08 6.12387E-07-9.35653E+01
 -1       555 1.36518E-08 4.87324E-07-9.35653E+01
 -1       556-1.15397E-08 5.02833E-07-9.35653E+01
 -1       558 1.16198E-08 3.88758E-07-9.35653E+01
 -1       559-4.61176E-09 4.09663E-07-9.35653E+01
 -1       561 1.44813E-08 3.09310E-07-9.35653E+01
 -1       562-8.91391E-09 3.40782E-07-9.35653E+01
 -1       564 7.03241E-09 2.49440E-07-9.35653E+01
 -1       565-1.24550E-08 3.05120E-07-9.35653E+01
 -1       567 6.02895E-09 2.23537E-07-9.35653E+01
 -1       568-3.61320E-09 2.81485E-07-9.35653E+01
 -1       570 6.65531E-09 2.05794E-07-9.35653E+01
 -1       571 1.10532E-05 3.77834E-05-9.35661E+01
 -1       573 1.88064E-05 2.85298E-05-9.35646E+01
 -1       574-1.53067E+04 3.37366E-11-3.56633E+03
 -1       576-1.53071E+04-2.56051E-10-3.77411E+03
 -1       577 1.53069E+04-1.63087E+02 3.35064E+03
 -1       579 1.53069E+04 1.63087E+02 3.35064E+03
 -1       588-1.39281E+04 7.75273E-11 2.73632E+03
 -1       590-1.39281E+04 1.02581E-10 2.72983E+03
 -1       591 1.39281E+04-5.09184E+00-3.05266E+03
 -1       593 1.39281E+04 5.09184E+00-3.05266E+03
 -1       602-1.30243E+04-2.82505E-10-5.67742E+02
 -1       604-1.30243E+04-4.46654E-10-6.01630E+02
 -1       605 1.30243E+04-2.65986E+01 2.65100E+02
 -1       607 1.30243E+04 2.65986E+01 2.65100E+02
 -1       616-1.37300E+04 7.72793E-10 1.26574E+03
 -1       618-1.37306E+04 3.42872E-10 9.54731E+02
 -1       619 1.37303E+04-2.44107E+02-1.42982E+03
 -1       621 1.37303E+04 2.44107E+02-1.42982E+03
 -1       630-1.25857E+04 4.84786E-10 2.13942E+02
 -1       632-1.25856E+04 3.97474E-10 2.52226E+02
 -1       633 1.25856E+04 3.00484E+01-5.52669E+02
 -1       635 1.25856E+04-3.00484E+01-5.52669E+02
 -1       644-1.24086E+04-1.96621E-10 8.56107E+02
 -1       646-1.24092E+04 5.27429E-10 6.12609E+02
 -1       647 1.24089E+04-1.91119E+02-1.05394E+03
 -1       649 1.24089E+04 1.91119E+02-1.05394E+03
 -1       658-1.17471E+04 7.97128E-10 4.79003E+02
 -1       660-1.17473E+04-7.31644E-10 4.29689E+02
 -1       661 1.17472E+04-3.87067E+01-7.73932E+02
 -1       663 1.17472E+04 3.87067E+01-7.73932E+02
 -1       672-1.13102E+04 5.14859E-11 7.23871E+02
 -1       674-1.13107E+04-5.23279E-10 5.50846E+02
 -1       675 1.13105E+04-1.35807E+02-9.56944E+02
 -1       677 1.13105E+04 1.35807E+02-9.56944E+02
 -1       686-1.07548E+04-9.10164E-10 5.76941E+02
 -1       688-1.07552E+04-1.32034E-09 4.84098E+02
 -1       689 1.07550E+04-7.28729E+01-8.50105E+02
 -1       691 1.07550E+04 7.28729E+01-8.50105E+02
 -1       700-1.02676E+04-2.15295E-09 6.79377E+02
 -1       702-1.02681E+04-3.26225E-09 5.36857E+02
 -1       703 1.02678E+04-1.11864E+02-9.27703E+02
 -1       705 1.02678E+04 1.11864E+02-9.27703E+02
 -1       714-9.73842E+03-3.49868E-09 6.17400E+02
 -1       716-9.73882E+03-1.97021E-09 5.08279E+02
 -1       717 9.73862E+03-8.56500E+01-8.82425E+02
 -1       719 9.73862E+03 8.56500E+01-8.82425E+02
 -1       728-9.23587E+03 3.70814E-12 6.62646E+02
 -1       730-9.23637E+03-1.01284E-09 5.33440E+02
 -1       731 9.23612E+03-1.01415E+02-9.17628E+02
 -1       733 9.23612E+03 1.01415E+02-9.17628E+02
 -1       742-8.71596E+03-6.13043E-09 6.35038E+02
 -1       744-8.71643E+03-4.69566E-09 5.20260E+02
 -1       745 8.71620E+03-9.00913E+01-8.97234E+02
 -1       747 8.71620E+03 9.00913E+01-8.97234E+02
 -1       756-8.20759E+03-6.72151E-09 6.55026E+02
 -1       758-8.20809E+03-5.61414E-09 5.32399E+02
 -1       759 8.20784E+03-9.62522E+01-9.13298E+02
 -1       761 8.20784E+03 9.62522E+01-9.13298E+02
 -1       770-7.69137E+03-5.88080E-09 6.42034E+02
 -1       772-7.69186E+03-3.98821E-09 5.25723E+02
 -1       773 7.69162E+03-9.12952E+01-9.03464E+02
 -1       775 7.69162E+03 9.12952E+01-9.03464E+02
 -1       784-7.18055E+03-6.45276E-10 6.50164E+02
 -1       786-7.18106E+03-5.02040E-09 5.31315E+02
 -1       787 7.18080E+03-9.32878E+01-9.10325E+02
 -1       789 7.18080E+03 9.32878E+01-9.10325E+02
 -1       798-6.66591E+03 1.18417E-09 6.43474E+02
 -1       800-6.66643E+03-1.51521E-09 5.27244E+02
 -1       801 6.66617E+03-9.12327E+01-9.04944E+02
 -1       803 6.66617E+03 9.12327E+01-9.04944E+02
 -1       812-6.15400E+03-2.17963E-09 6.45807E+02
 -1       814-6.15451E+03-2.72218E-09 5.29452E+02
 -1       815 6.15425E+03-9.13301E+01-9.07215E+02
 -1       817 6.15425E+03 9.13301E+01-9.07215E+02
 -1       826-5.64007E+03-1.22899E-09 6.41816E+02
 -1       828-5.64059E+03-5.29825E-10 5.26253E+02
 -1       829 5.64033E+03-9.07094E+01-9.03620E+02
 -1       831 5.64033E+03 9.07094E+01-9.03620E+02
 -1       840-5.12766E+03-3.58139E-09 6.41240E+02
 -1       842-5.12818E+03 9.59425E-10 5.26711E+02
 -1       843 5.12792E+03-8.98979E+01-9.03561E+02
 -1       845 5.12792E+03 8.98979E+01-9.03561E+02
 -1       854-4.61402E+03 4.73325E-09 6.38393E+02
 -1       856-4.61454E+03 6.53370E-09 5.23630E+02
 -1       857 4.61428E+03-9.00820E+01-9.00597E+02
 -1       859 4.61428E+03 9.00820E+01-9.00597E+02
 -1       868-4.10145E+03 6.33105E-09 6.36373E+02
 -1       870-4.10197E+03 1.17740E-08 5.23256E+02
 -1       871 4.10171E+03-8.87892E+01-8.99400E+02
 -1       873 4.10171E+03 8.87892E+01-8.99400E+02
 -1       882-3.58786E+03 6.10539E-09 6.33966E+02
 -1       884-3.58839E+03 1.36429E-10 5.19928E+02
 -1       885 3.58813E+03-8.95133E+01-8.96532E+02
 -1       887 3.58813E+03 8.95133E+01-8.96532E+02
 -1       896-3.07519E+03 1.30888E-09 6.31413E+02
 -1       898-3.07570E+03 3.81899E-09 5.19407E+02
 -1       899 3.07544E+03-8.79178E+01-8.94995E+02
 -1       901 3.07544E+03 8.79178E+01-8.94995E+02
 -1       910-2.56226E+03-7.14751E-09 6.28876E+02
 -1       912-2.56278E+03-2.49105E-09 5.15277E+02
 -1       913 2.56252E+03-8.91682E+01-8.91661E+02
 -1       915 2.56252E+03 8.91682E+01-8.91661E+02
 -1       924-2.04897E+03-4.35248E-09 6.26790E+02
 -1       926-2.04948E+03-7.58716E-09 5.16166E+02
 -1       927 2.04923E+03-8.68335E+01-8.91063E+02
 -1       929 2.04923E+03 8.68335E+01-8.91063E+02
 -1       938-1.53859E+03 7.83092E-09 6.22825E+02
 -1       940-1.53912E+03 3.87165E-09 5.08217E+02
 -1       941 1.53885E+03-8.99596E+01-8.85107E+02
 -1       943 1.53885E+03 8.99596E+01-8.85107E+02
 -1       952-1.03747E+03 5.90674E-09 6.25319E+02
 -1       954-1.03796E+03-5.30183E-09 5.16612E+02
 -1       955 1.03772E+03-8.53282E+01-8.90551E+02
 -1       957 1.03772E+03 8.53282E+01-8.90551E+02
 -1       966-5.60912E+02-7.97148E-11 6.06282E+02
 -1       968-5.61403E+02-2.25388E-09 4.97989E+02
 -1       969 5.61158E+02-8.50033E+01-8.71721E+02
 -1       971 5.61158E+02 8.50033E+01-8.71721E+02
 -1       980 6.12260E+04-6.60237E+03 7.59104E+02
 -1       982 4.78301E+04-4.70440E+03 7.59104E+02
 -1       983 1.10536E-05-3.77876E-05-9.35661E+01
 -1       985 1.88107E-05-2.85313E-05-9.35646E+01
 -1       986-1.10589E-08-1.24656E-07-9.35653E+01
 -1       988-1.10351E-08-1.23197E-07-9.35653E+01
 -1       989-2.34166E-08-4.36429E-07-9.35653E+01
 -1       991-1.89180E-08-4.46064E-07-9.35653E+01
 -1       992-3.86108E-08-9.69794E-07-9.35653E+01
 -1       994-2.99708E-08-9.84038E-07-9.35653E+01
 -1       995-4.96959E-08-1.70230E-06-9.35653E+01
 -1       997-3.23806E-08-1.73126E-06-9.35653E+01
 -1       998-6.78633E-08-2.58824E-06-9.35653E+01
 -1      1000-3.39338E-08-2.61407E-06-9.35653E+01
 -1      1001-7.37300E-08-3.53484E-06-9.35653E+01
 -1      1003-2.16524E-08-3.54922E-06-9.35653E+01
 -1      1004-8.01013E-08-4.43249E-06-9.35653E+01
 -1      1006-7.64290E-09-4.42249E-06-9.35653E+01
 -1      1007-8.15815E-08-5.18811E-06-9.35653E+01
 -1      1009 1.35184E-08-5.14003E-06-9.35653E+01
 -1      1010-7.74439E-08-5.72111E-06-9.35653E+01
 -1      1012 3.52617E-08-5.63461E-06-9.35653E+01
 -1      1013-7.15594E-08-5.99846E-06-9.35653E+01
 -1      1015 5.40208E-08-5.86601E-06-9.35653E+01
 -1      1016-6.37425E-08-6.00861E-06-9.35653E+01
 -1      1018 7.39954E-08-5.84235E-06-9.35653E+01
 -1      1019-5.69704E-08-5.78827E-06-9.35653E+01
 -1      1021 8.52477E-08-5.58691E-06-9.35653E+01
 -1      1022-4.71199E-08-5.37989E-06-9.35653E+01
 -1      1024 9.25205E-08-5.15808E-06-9.35653E+01
 -1      1025-3.94501E-08-4.84519E-06-9.35653E+01
 -1      1027 9.35723E-08-4.60683E-06-9.35653E+01
 -1      1028-3.22791E-08-4.23923E-06-9.35653E+01
 -1      1030 9.17974E-08-3.99491E-06-9.35653E+01
 -1      1031-2.88127E-08-3.61927E-06-9.35653E+01
 -1      1033 8.30862E-08-3.37522E-06-9.35653E+01
 -1      1034-2.38696E-08-3.02361E-06-9.35653E+01
 -1      1036 7.63415E-08-2.78650E-06-9.35653E+01
 -1      1037-2.13431E-08-2.47468E-06-9.35653E+01
 -1      1039 6.71305E-08-2.25167E-06-9.35653E+01
 -1      1040-1.92854E-08-1.99605E-06-9.35653E+01
 -1      1042 5.44749E-08-1.79055E-06-9.35653E+01
 -1      1043-1.20437E-08-1.58808E-06-9.35653E+01
 -1      1045 4.72430E-08-1.39742E-06-9.35653E+01
 -1      1046-1.23119E-08-1.25357E-06-9.35653E+01
 -1      1048 3.16221E-08-1.07968E-06-9.35653E+01
 -1      1049-5.62340E-09-9.86371E-07-9.35653E+01
 -1      1051 2.63959E-08-8.29934E-07-9.35653E+01
 -1      1052-9.96277E-09-7.73874E-07-9.35653E+01
 -1      1054 2.16491E-08-6.32164E-07-9.35653E+01
 -1      1055-1.12113E-08-6.13916E-07-9.35653E+01
 -1      1057 1.93186E-08-4.86256E-07-9.35653E+01
 -1      1058-9.21065E-09-4.87817E-07-9.35653E+01
 -1      1060 1.77476E-08-3.76223E-07-9.35653E+01
 -1      1061-1.21275E-08-4.00732E-07-9.35653E+01
 -1      1063 8.25911E-09-3.03203E-07-9.35653E+01
 -1      1064-6.47011E-09-3.48438E-07-9.35653E+01
 -1      1066 4.71580E-09-2.56812E-07-9.35653E+01
 -1      1067-8.47585E-09-3.08423E-07-9.35653E+01
 -1      1069 5.03798E-09-2.28054E-07-9.35653E+01
 -1      1070-2.72437E-09-2.83083E-07-9.35653E+01
 -1      1072 4.98451E-09-2.07407E-07-9.35653E+01
 -1      1073 6.12260E+04 6.60237E+03 7.59104E+02
 -1      1075 4.78301E+04 4.70440E+03 7.59104E+02
 -1      1076 3.71245E+04-3.86404E-10 1.24449E+04
 -1      1078 3.71245E+04 5.66768E-10 1.24449E+04
 -1      1079 1.00604E+02 3.41259E-10 1.19239E+04
 -1      1081 1.00604E+02 7.39469E-10 1.19239E+04
 -1      1082-3.69835E+04-3.71401E-11 1.25157E+04
 -1      1084-3.69835E+04 8.98758E-10 1.25157E+04
 -1      1085-1.53358E+04 1.66668E+02 3.28006E+03
 -1      1087-1.53358E+04-1.66668E+02 3.28006E+03
 -1      1088 1.53360E+04-3.95033E-10-3.49347E+03
 -1      1090 1.53356E+04-5.58174E-10-3.70582E+03
 -1      1099-1.39585E+04 1.06235E+01-3.14595E+03
 -1      1101-1.39585E+04-1.06235E+01-3.14595E+03
 -1      1102 1.39585E+04-1.00357E-10 2.83313E+03
 -1      1104 1.39585E+04 3.98870E-10 2.81960E+03
 -1      1113-1.30269E+04 2.85482E+01 2.00269E+02
 -1      1115-1.30269E+04-2.85482E+01 2.00269E+02
 -1      1116 1.30269E+04-1.79767E-12-5.01668E+02
 -1      1118 1.30268E+04 1.18163E-11-5.38040E+02
 -1      1127-1.37407E+04 2.50631E+02-1.49271E+03
 -1      1129-1.37407E+04-2.50631E+02-1.49271E+03
 -1      1130 1.37410E+04-2.94790E-10 1.33279E+03
 -1      1132 1.37404E+04 5.95648E-10 1.01347E+03
 -1      1141-1.25897E+04-3.00140E+01-5.76168E+02
 -1      1143-1.25897E+04 3.00140E+01-5.76168E+02
 -1      1144 1.25897E+04 2.23228E-10 2.37462E+02
 -1      1146 1.25898E+04 6.41133E-10 2.75702E+02
 -1      1155-1.24181E+04 1.94536E+02-1.07052E+03
 -1      1157-1.24181E+04-1.94536E+02-1.07052E+03
 -1      1158 1.24185E+04 2.14078E-09 8.74861E+02
 -1      1160 1.24178E+04 8.83912E-10 6.27008E+02
 -1      1169-1.17538E+04 3.74352E+01-7.68949E+02
 -1      1171-1.17538E+04-3.74352E+01-7.68949E+02
 -1      1172 1.17539E+04-9.25874E-10 4.73211E+02
 -1      1174 1.17538E+04 2.43951E-09 4.25515E+02
 -1      1183-1.13191E+04 1.36555E+02-9.41731E+02
 -1      1185-1.13191E+04-1.36555E+02-9.41731E+02
 -1      1186 1.13193E+04 8.12483E-10 7.09137E+02
 -1      1188 1.13188E+04-1.58739E-09 5.35155E+02
 -1      1197-1.07620E+04 7.05033E+01-8.22882E+02
 -1      1199-1.07620E+04-7.05033E+01-8.22882E+02
 -1      1200 1.07622E+04-3.18728E-10 5.48211E+02
 -1      1202 1.07619E+04-1.47426E-09 4.58383E+02
 -1      1211-1.02755E+04 1.10660E+02-8.92223E+02
 -1      1213-1.02755E+04-1.10660E+02-8.92223E+02
 -1      1214 1.02757E+04-2.77660E-09 6.43133E+02
 -1      1216 1.02752E+04 9.70636E-10 5.02143E+02
 -1      1225-9.74536E+03 8.24195E+01-8.40046E+02
 -1      1227-9.74536E+03-8.24195E+01-8.40046E+02
 -1      1228 9.74556E+03 1.43370E-09 5.72966E+02
 -1      1230 9.74517E+03 1.89379E-09 4.67955E+02
 -1      1239-9.24310E+03 9.88516E+01-8.70205E+02
 -1      1241-9.24310E+03-9.88516E+01-8.70205E+02
 -1      1242 9.24334E+03-2.63572E-10 6.13593E+02
 -1      1244 9.24286E+03 5.12774E-10 4.87646E+02
 -1      1253-8.72261E+03 8.62204E+01-8.46372E+02
 -1      1255-8.72261E+03-8.62204E+01-8.46372E+02
 -1      1256 8.72283E+03-2.33389E-09 5.81714E+02
 -1      1258 8.72239E+03 7.70407E-10 4.71860E+02
 -1      1267-8.21436E+03 9.27693E+01-8.60321E+02
 -1      1269-8.21436E+03-9.27693E+01-8.60321E+02
 -1      1270 8.21461E+03 1.86482E-09 5.99835E+02
 -1      1272 8.21412E+03 8.45073E-10 4.81637E+02
 -1      1281-7.69780E+03 8.69701E+01-8.49680E+02
 -1      1283-7.69780E+03-8.69701E+01-8.49680E+02
 -1      1284 7.69804E+03-5.92655E-10 5.85500E+02
 -1      1286 7.69757E+03 1.89288E-09 4.74689E+02
 -1      1295-7.18706E+03 8.91980E+01-8.56766E+02
 -1      1297-7.18706E+03-8.91980E+01-8.56766E+02
 -1      1298 7.18730E+03-1.32487E-09 5.94005E+02
 -1      1300 7.18681E+03-2.88677E-09 4.80356E+02
 -1      1309-6.67224E+03 8.66012E+01-8.52590E+02
 -1      1311-6.67224E+03-8.66012E+01-8.52590E+02
 -1      1312 6.67248E+03-5.31831E-09 5.88175E+02
 -1      1314 6.67199E+03-7.07348E-09 4.77835E+02
 -1      1323-6.16038E+03 8.68522E+01-8.56845E+02
 -1      1325-6.16038E+03-8.68522E+01-8.56845E+02
 -1      1326 6.16062E+03-5.55955E-09 5.92590E+02
 -1      1328 6.16013E+03-2.92989E-09 4.81930E+02
 -1      1337-5.64637E+03 8.58834E+01-8.55934E+02
 -1      1339-5.64637E+03-8.58834E+01-8.55934E+02
 -1      1340 5.64661E+03 5.83021E-09 5.91062E+02
 -1      1342 5.64612E+03-1.43196E-09 4.81635E+02
 -1      1351-5.13402E+03 8.51814E+01-8.59109E+02
 -1      1353-5.13402E+03-8.51814E+01-8.59109E+02
 -1      1354 5.13427E+03 1.01810E-09 5.93789E+02
 -1      1356 5.13378E+03 8.81735E-09 4.85257E+02
 -1      1365-4.62036E+03 8.51422E+01-8.59846E+02
 -1      1367-4.62036E+03-8.51422E+01-8.59846E+02
 -1      1368 4.62061E+03-5.47092E-09 5.94502E+02
 -1      1370 4.62011E+03-3.07020E-10 4.86019E+02
 -1      1379-4.10786E+03 8.39333E+01-8.62701E+02
 -1      1381-4.10786E+03-8.39333E+01-8.62701E+02
 -1      1382 4.10811E+03 1.41403E-09 5.96587E+02
 -1      1384 4.10762E+03-1.05767E-08 4.89644E+02
 -1      1393-3.59431E+03 8.45144E+01-8.64167E+02
 -1      1395-3.59431E+03-8.45144E+01-8.64167E+02
 -1      1396 3.59455E+03-2.28509E-09 5.98423E+02
 -1      1398 3.59406E+03-4.13193E-09 4.90740E+02
 -1      1407-3.08172E+03 8.29851E+01-8.67155E+02
 -1      1409-3.08172E+03-8.29851E+01-8.67155E+02
 -1      1410 3.08197E+03 4.84312E-09 6.00437E+02
 -1      1412 3.08148E+03-7.91908E-09 4.94702E+02
 -1      1421-2.56888E+03 8.41447E+01-8.68468E+02
 -1      1423-2.56888E+03-8.41447E+01-8.68468E+02
 -1      1424 2.56913E+03 7.23230E-09 6.02489E+02
 -1      1426 2.56864E+03 1.54606E-09 4.95277E+02
 -1      1435-2.05573E+03 8.18580E+01-8.72615E+02
 -1      1437-2.05573E+03-8.18580E+01-8.72615E+02
 -1      1438 2.05597E+03-2.26720E-09 6.05179E+02
 -1      1440 2.05549E+03 8.25211E-09 5.00881E+02
 -1      1449-1.54545E+03 8.49364E+01-8.71395E+02
 -1      1451-1.54545E+03-8.49364E+01-8.71395E+02
 -1      1452 1.54569E+03 6.62861E-09 6.05920E+02
 -1      1454 1.54520E+03-8.67823E-09 4.97699E+02
 -1      1463-1.04472E+03 8.03251E+01-8.81363E+02
 -1      1465-1.04472E+03-8.03251E+01-8.81363E+02
 -1      1466 1.04496E+03 1.26921E-08 6.12951E+02
 -1      1468 1.04449E+03 1.08124E-08 5.10605E+02
 -1      1477-5.68284E+02 7.99302E+01-8.66980E+02
 -1      1479-5.68284E+02-7.99302E+01-8.66980E+02
 -1      1480 5.68515E+02 6.90104E-10 5.98316E+02
 -1      1482 5.68053E+02 7.50392E-09 4.96474E+02
 -1      1491 7.08263E-09-3.08026E-07-1.32455E+02
 -1      1493 3.68529E-09 3.12214E-07-1.32455E+02
 -1      1494 1.74030E-09-6.45216E-08-1.32455E+02
 -1      1496 1.03300E-09 5.49062E-08-1.32455E+02
 -1      1497 4.16591E-09-3.10655E-07-1.32455E+02
 -1      1499 6.34513E-09 3.14020E-07-1.32455E+02
 -1      1500-9.13291E-09-1.23329E-07-9.35653E+01
 -1      1502-1.26566E-08-1.21123E-07-9.35653E+01
 -1      1503-1.71970E-08-4.31382E-07-9.35653E+01
 -1      1505-2.38300E-08-4.37356E-07-9.35653E+01
 -1      1506-2.50670E-08-9.58919E-07-9.35653E+01
 -1      1508-4.02732E-08-9.62269E-07-9.35653E+01
 -1      1509-2.38481E-08-1.68460E-06-9.35653E+01
 -1      1511-5.33041E-08-1.69071E-06-9.35653E+01
 -1      1512-2.13480E-08-2.56103E-06-9.35653E+01
 -1      1514-7.15568E-08-2.54822E-06-9.35653E+01
 -1      1515-4.64089E-09-3.49465E-06-9.35653E+01
 -1      1517-7.86946E-08-3.45252E-06-9.35653E+01
 -1      1518 1.28681E-08-4.37863E-06-9.35653E+01
 -1      1520-8.63493E-08-4.29306E-06-9.35653E+01
 -1      1521 3.61194E-08-5.11943E-06-9.35653E+01
 -1      1523-8.69470E-08-4.97923E-06-9.35653E+01
 -1      1524 5.96679E-08-5.63397E-06-9.35653E+01
 -1      1526-8.03534E-08-5.44341E-06-9.35653E+01
 -1      1527 7.73720E-08-5.89294E-06-9.35653E+01
 -1      1529-7.28892E-08-5.64868E-06-9.35653E+01
 -1      1530 9.39962E-08-5.88246E-06-9.35653E+01
 -1      1532-5.58220E-08-5.60191E-06-9.35653E+01
 -1      1533 1.00429E-07-5.63861E-06-9.35653E+01
 -1      1535-4.52541E-08-5.32886E-06-9.35653E+01
 -1      1536 1.03267E-07-5.21470E-06-9.35653E+01
 -1      1538-3.18750E-08-4.89101E-06-9.35653E+01
 -1      1539 9.82730E-08-4.67229E-06-9.35653E+01
 -1      1541-2.06128E-08-4.33938E-06-9.35653E+01
 -1      1542 9.31712E-08-4.06094E-06-9.35653E+01
 -1      1544-1.01886E-08-3.73596E-06-9.35653E+01
 -1      1545 8.19420E-08-3.43637E-06-9.35653E+01
 -1      1547-4.14849E-09-3.12773E-06-9.35653E+01
 -1      1548 7.08930E-08-2.84025E-06-9.35653E+01
 -1      1550 2.23751E-09-2.55388E-06-9.35653E+01
 -1      1551 5.91039E-08-2.29820E-06-9.35653E+01
 -1      1553 4.91699E-09-2.03695E-06-9.35653E+01
 -1      1554 4.82493E-08-1.82662E-06-9.35653E+01
 -1      1556 7.68113E-09-1.58959E-06-9.35653E+01
 -1      1557 3.54131E-08-1.43348E-06-9.35653E+01
 -1      1559 7.60425E-09-1.22056E-06-9.35653E+01
 -1      1560 3.10271E-08-1.10637E-06-9.35653E+01
 -1      1562 1.32911E-08-9.17723E-07-9.35653E+01
 -1      1563 1.85488E-08-8.45990E-07-9.35653E+01
 -1      1565 8.00236E-09-6.80234E-07-9.35653E+01
 -1      1566 1.25785E-08-6.54495E-07-9.35653E+01
 -1      1568 8.21678E-09-5.07568E-07-9.35653E+01
 -1      1569 1.21172E-08-4.99473E-07-9.35653E+01
 -1      1571 1.10520E-08-3.74440E-07-9.35653E+01
 -1      1572 4.21526E-09-3.86985E-07-9.35653E+01
 -1      1574 2.38524E-09-2.84935E-07-9.35653E+01
 -1      1575 3.99138E-09-3.13934E-07-9.35653E+01
 -1      1577 6.32268E-09-2.26181E-07-9.35653E+01
 -1      1578 6.06285E-09-2.56508E-07-9.35653E+01
 -1      1580 5.45842E-09-1.73303E-07-9.35653E+01
 -1      1581 4.41391E-09-2.15973E-07-9.35653E+01
 -1      1583 1.01338E-09-1.39222E-07-9.35653E+01
 -1      1584 9.05669E-09-1.92343E-07-9.35653E+01
 -1      1586-3.32210E-09-1.25992E-07-9.35653E+01
 -1      1587 1.83763E-05-3.76068E-05-9.35646E+01
 -1      1589 1.14205E-05-2.87544E-05-9.35661E+01
 -1      1590-6.14614E+04-6.58279E+03 8.41385E+02
 -1      1592-4.77286E+04-4.75197E+03 8.41385E+02
 -1      1593 1.83795E-05 3.76181E-05-9.35646E+01
 -1      1595 1.14248E-05 2.87669E-05-9.35661E+01
 -1      1596-9.16478E-09 1.23188E-07-9.35653E+01
 -1      1598-1.24863E-08 1.20942E-07-9.35653E+01
 -1      1599-1.76275E-08 4.31422E-07-9.35653E+01
 -1      1601-2.35339E-08 4.37064E-07-9.35653E+01
 -1      1602-2.49854E-08 9.59206E-07-9.35653E+01
 -1      1604-4.05940E-08 9.62459E-07-9.35653E+01
 -1      1605-2.34295E-08 1.68478E-06-9.35653E+01
 -1      1607-5.35441E-08 1.69089E-06-9.35653E+01
 -1      1608-2.07743E-08 2.56068E-06-9.35653E+01
 -1      1610-7.17145E-08 2.54744E-06-9.35653E+01
 -1      1611-4.60235E-09 3.49496E-06-9.35653E+01
 -1      1613-7.97724E-08 3.45253E-06-9.35653E+01
 -1      1614 1.27656E-08 4.37999E-06-9.35653E+01
 -1      1616-8.57356E-08 4.29387E-06-9.35653E+01
 -1      1617 3.74073E-08 5.11904E-06-9.35653E+01
 -1      1619-8.66051E-08 4.97799E-06-9.35653E+01
 -1      1620 5.97245E-08 5.63266E-06-9.35653E+01
 -1      1622-8.10569E-08 5.44162E-06-9.35653E+01
 -1      1623 7.71624E-08 5.88978E-06-9.35653E+01
 -1      1625-7.07812E-08 5.64625E-06-9.35653E+01
 -1      1626 9.33527E-08 5.87820E-06-9.35653E+01
 -1      1628-5.57087E-08 5.59762E-06-9.35653E+01
 -1      1629 9.86025E-08 5.63985E-06-9.35653E+01
 -1      1631-4.64923E-08 5.32706E-06-9.35653E+01
 -1      1632 1.03145E-07 5.21884E-06-9.35653E+01
 -1      1634-3.26878E-08 4.89455E-06-9.35653E+01
 -1      1635 1.00598E-07 4.67168E-06-9.35653E+01
 -1      1637-1.98083E-08 4.34266E-06-9.35653E+01
 -1      1638 9.28930E-08 4.05745E-06-9.35653E+01
 -1      1640-1.08726E-08 3.73724E-06-9.35653E+01
 -1      1641 8.27079E-08 3.43368E-06-9.35653E+01
 -1      1643-4.23861E-09 3.12890E-06-9.35653E+01
 -1      1644 7.16583E-08 2.83785E-06-9.35653E+01
 -1      1646 1.59065E-09 2.55310E-06-9.35653E+01
 -1      1647 5.87702E-08 2.29708E-06-9.35653E+01
 -1      1649 5.08618E-09 2.03427E-06-9.35653E+01
 -1      1650 4.83408E-08 1.82378E-06-9.35653E+01
 -1      1652 8.28604E-09 1.58723E-06-9.35653E+01
 -1      1653 3.82829E-08 1.42868E-06-9.35653E+01
 -1      1655 4.69757E-09 1.21849E-06-9.35653E+01
 -1      1656 3.02251E-08 1.10877E-06-9.35653E+01
 -1      1658 6.14433E-09 9.25129E-07-9.35653E+01
 -1      1659 2.32559E-08 8.48572E-07-9.35653E+01
 -1      1661 8.47112E-09 6.92372E-07-9.35653E+01
 -1      1662 1.61636E-08 6.46984E-07-9.35653E+01
 -1      1664 6.59656E-09 5.14134E-07-9.35653E+01
 -1      1665 1.51395E-08 4.94586E-07-9.35653E+01
 -1      1667 5.93595E-09 3.78333E-07-9.35653E+01
 -1      1668 7.62152E-09 3.86742E-07-9.35653E+01
 -1      1670 6.88362E-10 2.84547E-07-9.35653E+01
 -1      1671 1.02082E-08 3.08534E-07-9.35653E+01
 -1      1673 4.42310E-09 2.17126E-07-9.35653E+01
 -1      1674 5.74982E-09 2.57045E-07-9.35653E+01
 -1      1676-4.92401E-09 1.72733E-07-9.35653E+01
 -1      1677 8.47983E-09 2.20447E-07-9.35653E+01
 -1      1679 2.36072E-09 1.46669E-07-9.35653E+01
 -1      1680 8.99053E-09 1.90030E-07-9.35653E+01
 -1      1682-1.68719E-09 1.24791E-07-9.35653E+01
 -1      1683-6.14614E+04 6.58279E+03 8.41385E+02
 -1      1685-4.77286E+04 4.75197E+03 8.41385E+02
 -1      1686 2.01567E-06 7.49244E-07-1.87131E+02
 -1      1688-2.25321E-06-1.78080E-07-1.87131E+02
 -1      1689 3.14881E-06 1.67871E-06-1.87131E+02
 -1      1691-3.52726E-06-9.55261E-07-1.87131E+02
 -1      1692 5.26012E-06 3.75685E-06-1.87131E+02
 -1      1694-6.16625E-06-2.23817E-06-1.87131E+02
 -1      1695 8.23990E-06 7.09552E-06-1.87131E+02
 -1      1697-9.30256E-06-3.95514E-06-1.87131E+02
 -1      1698 1.11346E-05 1.18490E-05-1.87131E+02
 -1      1700-1.27557E-05-6.00469E-06-1.87131E+02
 -1      1701 1.45045E-05 1.79951E-05-1.87131E+02
 -1      1703-1.62514E-05-8.06472E-06-1.87130E+02
 -1      1704 1.71685E-05 2.52217E-05-1.87131E+02
 -1      1706-1.92962E-05-9.82145E-06-1.87130E+02
 -1      1707 1.97059E-05 3.33267E-05-1.87131E+02
 -1      1709-2.18668E-05-1.09215E-05-1.87130E+02
 -1      1710 2.13650E-05 4.18028E-05-1.87131E+02
 -1      1712-2.36870E-05-1.10654E-05-1.87130E+02
 -1      1713 2.24745E-05 5.03614E-05-1.87131E+02
 -1      1715-2.47249E-05-1.00603E-05-1.87130E+02
 -1      1716 2.27442E-05 5.85286E-05-1.87131E+02
 -1      1718-2.49880E-05-7.81585E-06-1.87130E+02
 -1      1719 2.23410E-05 6.60635E-05-1.87131E+02
 -1      1721-2.44423E-05-4.37025E-06-1.87130E+02
 -1      1722 2.12598E-05 7.26714E-05-1.87132E+02
 -1      1724-2.32555E-05 1.44906E-07-1.87130E+02
 -1      1725 1.96170E-05 7.82476E-05-1.87132E+02
 -1      1727-2.14299E-05 5.51991E-06-1.87130E+02
 -1      1728 1.75354E-05 8.26893E-05-1.87132E+02
 -1      1730-1.91765E-05 1.14852E-05-1.87129E+02
 -1      1731 1.50984E-05 8.60232E-05-1.87132E+02
 -1      1733-1.65368E-05 1.77719E-05-1.87129E+02
 -1      1734 1.24569E-05 8.82904E-05-1.87132E+02
 -1      1736-1.36990E-05 2.41012E-05-1.87129E+02
 -1      1737 9.69316E-06 8.96094E-05-1.87132E+02
 -1      1739-1.07193E-05 3.02436E-05-1.87129E+02
 -1      1740 6.94571E-06 9.01038E-05-1.87132E+02
 -1      1742-7.76135E-06 3.59850E-05-1.87129E+02
 -1      1743 4.26820E-06 8.99086E-05-1.87132E+02
 -1      1745-4.87353E-06 4.11769E-05-1.87129E+02
 -1      1746 1.76021E-06 8.91448E-05-1.87132E+02
 -1      1748-2.16999E-06 4.57010E-05-1.87129E+02
 -1      1749-5.31715E-07 8.79592E-05-1.87132E+02
 -1      1751 3.13038E-07 4.95020E-05-1.87129E+02
 -1      1752-2.55806E-06 8.64825E-05-1.87132E+02
 -1      1754 2.51004E-06 5.25767E-05-1.87129E+02
 -1      1755-4.30253E-06 8.47859E-05-1.87132E+02
 -1      1757 4.40465E-06 5.49119E-05-1.87129E+02
 -1      1758-5.73908E-06 8.29762E-05-1.87132E+02
 -1      1760 5.96690E-06 5.65496E-05-1.87129E+02
 -1      1761-6.83969E-06 8.11411E-05-1.87132E+02
 -1      1763 7.19777E-06 5.75482E-05-1.87129E+02
 -1      1764-7.64838E-06 7.93661E-05-1.87132E+02
 -1      1766 8.07877E-06 5.80011E-05-1.87129E+02
 -1      1767-8.16517E-06 7.76908E-05-1.87132E+02
 -1      1769 8.63713E-06 5.79294E-05-1.87129E+02
 -1      1770-7.91058E-06 7.62011E-05-1.87132E+02
 -1      1772 8.42038E-06 5.73857E-05-1.87129E+02
 -1      1773 2.01569E-06-7.49228E-07-1.87131E+02
 -1      1775-2.25317E-06 1.77976E-07-1.87131E+02
 -1      1776 3.14852E-06-1.67842E-06-1.87131E+02
 -1      1778-3.52671E-06 9.55349E-07-1.87131E+02
 -1      1779 5.25974E-06-3.75647E-06-1.87131E+02
 -1      1781-6.16661E-06 2.23853E-06-1.87131E+02
 -1      1782 8.24045E-06-7.09553E-06-1.87131E+02
 -1      1784-9.30336E-06 3.95515E-06-1.87131E+02
 -1      1785 1.11335E-05-1.18484E-05-1.87131E+02
 -1      1787-1.27550E-05 6.00486E-06-1.87131E+02
 -1      1788 1.45036E-05-1.79929E-05-1.87131E+02
 -1      1790-1.62506E-05 8.06629E-06-1.87130E+02
 -1      1791 1.71698E-05-2.52209E-05-1.87131E+02
 -1      1793-1.92965E-05 9.82122E-06-1.87130E+02
 -1      1794 1.97064E-05-3.33271E-05-1.87131E+02
 -1      1796-2.18667E-05 1.09196E-05-1.87130E+02
 -1      1797 2.13677E-05-4.18039E-05-1.87131E+02
 -1      1799-2.36882E-05 1.10635E-05-1.87130E+02
 -1      1800 2.24758E-05-5.03596E-05-1.87131E+02
 -1      1802-2.47282E-05 1.00616E-05-1.87130E+02
 -1      1803 2.27436E-05-5.85244E-05-1.87131E+02
 -1      1805-2.49875E-05 7.81916E-06-1.87130E+02
 -1      1806 2.23392E-05-6.60599E-05-1.87131E+02
 -1      1808-2.44440E-05 4.37315E-06-1.87130E+02
 -1      1809 2.12664E-05-7.26615E-05-1.87132E+02
 -1      1811-2.32552E-05-1.35881E-07-1.87130E+02
 -1      1812 1.96193E-05-7.82394E-05-1.87132E+02
 -1      1814-2.14364E-05-5.51167E-06-1.87130E+02
 -1      1815 1.75399E-05-8.26845E-05-1.87132E+02
 -1      1817-1.91756E-05-1.14795E-05-1.87129E+02
 -1      1818 1.50917E-05-8.60180E-05-1.87132E+02
 -1      1820-1.65383E-05-1.77690E-05-1.87129E+02
 -1      1821 1.24580E-05-8.82894E-05-1.87132E+02
 -1      1823-1.36930E-05-2.41023E-05-1.87129E+02
 -1      1824 9.69042E-06-8.96102E-05-1.87132E+02
 -1      1826-1.07189E-05-3.02443E-05-1.87129E+02
 -1      1827 6.94373E-06-9.01019E-05-1.87132E+02
 -1      1829-7.76180E-06-3.59837E-05-1.87129E+02
 -1      1830 4.27238E-06-8.99057E-05-1.87132E+02
 -1      1832-4.87598E-06-4.11727E-05-1.87129E+02
 -1      1833 1.76332E-06-8.91527E-05-1.87132E+02
 -1      1835-2.17892E-06-4.57058E-05-1.87129E+02
 -1      1836-5.27060E-07-8.79709E-05-1.87132E+02
 -1      1838 3.12393E-07-4.95128E-05-1.87129E+02
 -1      1839-2.56448E-06-8.64859E-05-1.87132E+02
 -1      1841 2.51482E-06-5.25773E-05-1.87129E+02
 -1      1842-4.30513E-06-8.47912E-05-1.87132E+02
 -1      1844 4.41080E-06-5.49113E-05-1.87129E+02
 -1      1845-5.73396E-06-8.29860E-05-1.87132E+02
 -1      1847 5.97682E-06-5.65584E-05-1.87129E+02
 -1      1848-6.85371E-06-8.11401E-05-1.87132E+02
 -1      1850 7.19179E-06-5.75529E-05-1.87129E+02
 -1      1851-7.65148E-06-7.93608E-05-1.87132E+02
 -1      1853 8.07760E-06-5.80028E-05-1.87129E+02
 -1      1854-8.15599E-06-7.76842E-05-1.87132E+02
 -1      1856 8.64028E-06-5.79288E-05-1.87129E+02
 -1      1857-7.91426E-06-7.61988E-05-1.87132E+02
 -1      1859 8.41528E-06-5.73836E-05-1.87129E+02
 -1      1860-9.34667E-11-5.30294E-09-2.64909E+02
 -1      1862-1.93107E-11 5.16396E-09-2.64909E+02
 -1      1863-6.46232E-10-5.17470E-09-2.64909E+02
 -1      1865 7.51734E-10 5.63238E-09-2.64909E+02
 -1      1866-1.23299E-09-2.06288E-08-2.64909E+02
 -1      1868 6.47280E-10 2.14028E-08-2.64909E+02
 -1      1869-7.73141E-10-2.77652E-08-2.64909E+02
 -1      1871 1.02598E-09 2.74736E-08-2.64909E+02
 -1      1872-3.48564E-09-5.31384E-08-2.64909E+02
 -1      1874 2.58888E-09 5.12092E-08-2.64909E+02
 -1      1875-3.47151E-09-7.30375E-08-2.64909E+02
 -1      1877 3.81348E-09 7.24457E-08-2.64909E+02
 -1      1878-2.53735E-09-1.06716E-07-2.64909E+02
 -1      1880 1.07852E-09 1.06440E-07-2.64909E+02
 -1      1881-1.25073E-09-1.42993E-07-2.64909E+02
 -1      1883 1.53449E-09 1.43876E-07-2.64909E+02
 -1      1884 5.26527E-10-1.83511E-07-2.64909E+02
 -1      1886-2.05039E-09 1.86096E-07-2.64909E+02
 -1      1887 7.22209E-10-2.32886E-07-2.64909E+02
 -1      1889-3.65687E-10 2.31071E-07-2.64909E+02
 -1      1890-2.35661E-09-2.78006E-07-2.64909E+02
 -1      1892 1.06058E-09 2.73545E-07-2.64909E+02
 -1      1893-5.52834E-10-3.28762E-07-2.64909E+02
 -1      1895 7.42464E-10 3.26148E-07-2.64909E+02
 -1      1896-3.85642E-10-3.70592E-07-2.64909E+02
 -1      1898-6.56639E-10 3.71962E-07-2.64909E+02
 -1      1899-2.33062E-09-4.21390E-07-2.64909E+02
 -1      1901 2.15326E-09 4.21421E-07-2.64909E+02
 -1      1902-3.41713E-09-4.60982E-07-2.64909E+02
 -1      1904 3.02741E-09 4.59689E-07-2.64909E+02
 -1      1905-8.86128E-10-5.00367E-07-2.64909E+02
 -1      1907 1.16125E-09 5.01158E-07-2.64909E+02
 -1      1908 1.82586E-09-5.32842E-07-2.64909E+02
 -1      1910-2.30130E-09 5.37255E-07-2.64909E+02
 -1      1911 4.14184E-09-5.62144E-07-2.64909E+02
 -1      1913-3.90924E-09 5.71679E-07-2.64909E+02
 -1      1914-1.99259E-10-5.87791E-07-2.64909E+02
 -1      1916 8.79561E-10 5.88394E-07-2.64909E+02
 -1      1917-1.95242E-09-6.09124E-07-2.64909E+02
 -1      1919 2.50494E-09 6.07920E-07-2.64909E+02
 -1      1920-5.61405E-09-6.21511E-07-2.64909E+02
 -1      1922 4.94330E-09 6.29360E-07-2.64909E+02
 -1      1923-5.15306E-09-6.35138E-07-2.64909E+02
 -1      1925 5.88100E-09 6.39700E-07-2.64909E+02
 -1      1926 4.40541E-10-6.39510E-07-2.64909E+02
 -1      1928 5.06243E-10 6.38818E-07-2.64909E+02
 -1      1929 1.83232E-09-6.48006E-07-2.64909E+02
 -1      1931-2.54719E-09 6.46450E-07-2.64909E+02
 -1      1932 2.71300E-09-6.50189E-07-2.64909E+02
 -1      1934-1.43095E-09 6.49634E-07-2.64909E+02
 -1      1935 2.49086E-09-6.37627E-07-2.64909E+02
 -1      1937-1.54453E-09 6.46254E-07-2.64909E+02
 -1      1938 2.92341E-10-6.29958E-07-2.64909E+02
 -1      1940 8.53423E-10 6.32728E-07-2.64909E+02
 -1      1941-3.81984E-09-6.15222E-07-2.64909E+02
 -1      1943 5.00994E-09 6.22042E-07-2.64909E+02
 -1      1944-7.64325E-10-6.07796E-07-2.64909E+02
 -1      1946 1.04489E-09 6.24960E-07-2.64909E+02
 -1      1947 3.22682E-11-1.04731E-09-2.64909E+02
 -1      1949-1.13498E-11 1.00370E-09-2.64909E+02
 -1      1950 1.74049E-10-1.13619E-09-2.64909E+02
 -1      1952-1.88600E-10 8.76881E-10-2.64909E+02
 -1      1953 1.67489E-10-3.48793E-09-2.64909E+02
 -1      1955-2.85723E-10 3.52710E-09-2.64909E+02
 -1      1956-1.95394E-10-4.92282E-09-2.64909E+02
 -1      1958 1.94484E-10 5.30508E-09-2.64909E+02
 -1      1959-5.73188E-10-9.15179E-09-2.64909E+02
 -1      1961 4.40402E-10 9.70623E-09-2.64909E+02
 -1      1962 2.99614E-10-1.29419E-08-2.64909E+02
 -1      1964-1.19534E-10 1.36619E-08-2.64909E+02
 -1      1965-1.44829E-10-1.87716E-08-2.64909E+02
 -1      1967-1.66219E-10 2.01967E-08-2.64909E+02
 -1      1968-2.03399E-09-2.69791E-08-2.64909E+02
 -1      1970 2.08947E-09 2.81851E-08-2.64909E+02
 -1      1971-5.46177E-10-3.76500E-08-2.64909E+02
 -1      1973 1.82156E-11 3.47497E-08-2.64909E+02
 -1      1974 6.31356E-10-4.87020E-08-2.64909E+02
 -1      1976-5.74967E-10 4.32213E-08-2.64909E+02
 -1      1977-1.63564E-09-5.33301E-08-2.64909E+02
 -1      1979 1.54469E-09 5.36353E-08-2.64909E+02
 -1      1980-1.47154E-09-6.27847E-08-2.64909E+02
 -1      1982 1.42743E-09 6.42645E-08-2.64909E+02
 -1      1983-1.48863E-09-7.29922E-08-2.64909E+02
 -1      1985 1.56958E-09 7.03959E-08-2.64909E+02
 -1      1986-1.66189E-09-8.26023E-08-2.64909E+02
 -1      1988 1.08845E-09 8.20448E-08-2.64909E+02
 -1      1989-2.03753E-09-9.13620E-08-2.64909E+02
 -1      1991 1.74422E-09 9.03223E-08-2.64909E+02
 -1      1992-2.64109E-09-1.01682E-07-2.64909E+02
 -1      1994 2.18543E-09 9.67338E-08-2.64909E+02
 -1      1995-3.54038E-10-1.05537E-07-2.64909E+02
 -1      1997 6.70770E-10 1.04939E-07-2.64909E+02
 -1      1998 1.23561E-09-1.11571E-07-2.64909E+02
 -1      2000-1.32656E-09 1.09333E-07-2.64909E+02
 -1      2001 7.48084E-10-1.17286E-07-2.64909E+02
 -1      2003-6.36899E-10 1.09554E-07-2.64909E+02
 -1      2004-5.98500E-11-1.18104E-07-2.64909E+02
 -1      2006-2.11179E-10 1.14291E-07-2.64909E+02
 -1      2007 3.13328E-10-1.24026E-07-2.64909E+02
 -1      2009-1.33135E-10 1.21338E-07-2.64909E+02
 -1      2010-1.10364E-09-1.29970E-07-2.64909E+02
 -1      2012 1.39082E-09 1.25241E-07-2.64909E+02
 -1      2013 2.95178E-11-1.30620E-07-2.64909E+02
 -1      2015 7.90846E-10 1.27340E-07-2.64909E+02
 -1      2016 7.14049E-10-1.32354E-07-2.64909E+02
 -1      2018-5.34935E-10 1.22526E-07-2.64909E+02
 -1      2019 5.17192E-10-1.26685E-07-2.64909E+02
 -1      2021-1.33642E-09 1.26945E-07-2.64909E+02
 -1      2022 1.94137E-09-1.24274E-07-2.64909E+02
 -1      2024-1.96951E-09 1.29558E-07-2.64909E+02
 -1      2025 7.03781E-11-1.30718E-07-2.64909E+02
 -1      2027 2.42261E-10 1.22149E-07-2.64909E+02
 -1      2028-1.59019E-09-1.30515E-07-2.64909E+02
 -1      2030 1.25752E-09 1.23613E-07-2.64909E+02
 -1      2031-1.76718E-12-1.30373E-07-2.64909E+02
 -1      2033 6.15676E-10 1.18972E-07-2.64909E+02
 -1      2034-1.51607E-10-4.94012E-09-2.64909E+02
 -1      2036 4.70156E-11 4.95946E-09-2.64909E+02
 -1      2037-2.56616E-10-5.04182E-09-2.64909E+02
 -1      2039 3.13005E-10 5.16826E-09-2.64909E+02
 -1      2040-6.00197E-10-2.04045E-08-2.64909E+02
 -1      2042 8.36041E-11 2.00067E-08-2.64909E+02
 -1      2043-1.21491E-09-2.69647E-08-2.64909E+02
 -1      2045 1.42955E-09 2.59992E-08-2.64909E+02
 -1      2046-1.43018E-09-5.08086E-08-2.64909E+02
 -1      2048 5.21597E-10 5.11271E-08-2.64909E+02
 -1      2049 2.32033E-09-7.13366E-08-2.64909E+02
 -1      2051-2.25030E-09 7.11201E-08-2.64909E+02
 -1      2052-1.81271E-10-1.06070E-07-2.64909E+02
 -1      2054-1.57587E-09 1.05306E-07-2.64909E+02
 -1      2055-2.73594E-09-1.41769E-07-2.64909E+02
 -1      2057 2.76868E-09 1.43920E-07-2.64909E+02
 -1      2058 4.32012E-10-1.81217E-07-2.64909E+02
 -1      2060-2.02954E-09 1.84528E-07-2.64909E+02
 -1      2061 3.00172E-09-2.30987E-07-2.64909E+02
 -1      2063-3.24364E-09 2.29482E-07-2.64909E+02
 -1      2064-1.00384E-09-2.75983E-07-2.64909E+02
 -1      2066-5.85960E-10 2.72302E-07-2.64909E+02
 -1      2067-1.34254E-09-3.25849E-07-2.64909E+02
 -1      2069 1.73381E-10 3.25747E-07-2.64909E+02
 -1      2070-2.76301E-09-3.69429E-07-2.64909E+02
 -1      2072 1.15048E-09 3.71713E-07-2.64909E+02
 -1      2073-5.25889E-09-4.18544E-07-2.64909E+02
 -1      2075 4.30983E-09 4.20742E-07-2.64909E+02
 -1      2076-5.67065E-09-4.57678E-07-2.64909E+02
 -1      2078 3.95761E-09 4.62965E-07-2.64909E+02
 -1      2079-4.71510E-09-4.97750E-07-2.64909E+02
 -1      2081 3.75240E-09 5.07726E-07-2.64909E+02
 -1      2082-4.55126E-09-5.36568E-07-2.64909E+02
 -1      2084 3.69770E-09 5.33191E-07-2.64909E+02
 -1      2085-2.08251E-09-5.70521E-07-2.64909E+02
 -1      2087 1.11685E-09 5.60451E-07-2.64909E+02
 -1      2088 9.39324E-10-5.83279E-07-2.64909E+02
 -1      2090-1.51003E-09 5.88279E-07-2.64909E+02
 -1      2091 2.25036E-09-6.04408E-07-2.64909E+02
 -1      2093-3.21556E-09 6.07164E-07-2.64909E+02
 -1      2094 1.23147E-09-6.25907E-07-2.64909E+02
 -1      2096-3.05785E-09 6.21115E-07-2.64909E+02
 -1      2097-1.76389E-09-6.38397E-07-2.64909E+02
 -1      2099 7.98011E-10 6.34417E-07-2.64909E+02
 -1      2100-5.13732E-09-6.45832E-07-2.64909E+02
 -1      2102 3.20948E-09 6.40392E-07-2.64909E+02
 -1      2103-6.48087E-09-6.45189E-07-2.64909E+02
 -1      2105 6.60809E-09 6.41528E-07-2.64909E+02
 -1      2106-6.22479E-09-6.39599E-07-2.64909E+02
 -1      2108 6.24915E-09 6.35333E-07-2.64909E+02
 -1      2109-4.52130E-09-6.37912E-07-2.64909E+02
 -1      2111 3.95280E-09 6.28970E-07-2.64909E+02
 -1      2112 2.81152E-10-6.25090E-07-2.64909E+02
 -1      2114-8.67819E-10 6.24930E-07-2.64909E+02
 -1      2115 5.80140E-09-6.21411E-07-2.64909E+02
 -1      2117-7.57663E-09 6.18909E-07-2.64909E+02
 -1      2118 2.86695E-09-6.25676E-07-2.64909E+02
 -1      2120-3.58352E-09 6.19804E-07-2.64909E+02
 -1      2121 2.02627E-06-7.42859E-07-1.87131E+02
 -1      2123-2.26220E-06 1.75728E-07-1.87131E+02
 -1      2124 3.18225E-06-1.66732E-06-1.87131E+02
 -1      2126-3.56118E-06 9.45807E-07-1.87131E+02
 -1      2127 5.38229E-06-3.74057E-06-1.87131E+02
 -1      2129-6.29208E-06 2.21889E-06-1.87131E+02
 -1      2130 8.52944E-06-7.07604E-06-1.87131E+02
 -1      2132-9.60490E-06 3.92720E-06-1.87131E+02
 -1      2133 1.17294E-05-1.18406E-05-1.87131E+02
 -1      2135-1.33785E-05 5.97004E-06-1.87131E+02
 -1      2136 1.55550E-05-1.80078E-05-1.87130E+02
 -1      2138-1.73470E-05 8.02559E-06-1.87131E+02
 -1      2139 1.88310E-05-2.52658E-05-1.87130E+02
 -1      2141-2.10284E-05 9.77821E-06-1.87131E+02
 -1      2142 2.21482E-05-3.34064E-05-1.87130E+02
 -1      2144-2.44040E-05 1.08766E-05-1.87131E+02
 -1      2145 2.47260E-05-4.19177E-05-1.87130E+02
 -1      2147-2.71675E-05 1.10198E-05-1.87131E+02
 -1      2148 2.68786E-05-5.05084E-05-1.87130E+02
 -1      2150-2.92825E-05 1.00133E-05-1.87131E+02
 -1      2151 2.82902E-05-5.87025E-05-1.87130E+02
 -1      2153-3.07001E-05 7.76186E-06-1.87131E+02
 -1      2154 2.90892E-05-6.62604E-05-1.87130E+02
 -1      2156-3.13846E-05 4.30193E-06-1.87132E+02
 -1      2157 2.92405E-05-7.28771E-05-1.87130E+02
 -1      2159-3.14352E-05-2.23795E-07-1.87132E+02
 -1      2160 2.88096E-05-7.84478E-05-1.87130E+02
 -1      2162-3.08361E-05-5.61215E-06-1.87132E+02
 -1      2163 2.78928E-05-8.28726E-05-1.87129E+02
 -1      2165-2.97462E-05-1.15993E-05-1.87132E+02
 -1      2166 2.65361E-05-8.61806E-05-1.87129E+02
 -1      2168-2.81895E-05-1.79140E-05-1.87132E+02
 -1      2169 2.48833E-05-8.84150E-05-1.87129E+02
 -1      2171-2.63224E-05-2.42733E-05-1.87132E+02
 -1      2172 2.29774E-05-8.96921E-05-1.87129E+02
 -1      2174-2.41990E-05-3.04467E-05-1.87132E+02
 -1      2175 2.09595E-05-9.01402E-05-1.87129E+02
 -1      2177-2.19542E-05-3.62239E-05-1.87132E+02
 -1      2178 1.88686E-05-8.98853E-05-1.87129E+02
 -1      2180-1.96389E-05-4.14387E-05-1.87132E+02
 -1      2181 1.68100E-05-8.90781E-05-1.87129E+02
 -1      2183-1.73582E-05-4.59991E-05-1.87132E+02
 -1      2184 1.48102E-05-8.78608E-05-1.87129E+02
 -1      2186-1.51723E-05-4.98498E-05-1.87132E+02
 -1      2187 1.29678E-05-8.63183E-05-1.87129E+02
 -1      2189-1.31260E-05-5.29386E-05-1.87132E+02
 -1      2190 1.12872E-05-8.45718E-05-1.87129E+02
 -1      2192-1.12797E-05-5.52992E-05-1.87132E+02
 -1      2193 9.81418E-06-8.27229E-05-1.87129E+02
 -1      2195-9.67238E-06-5.69687E-05-1.87132E+02
 -1      2196 8.57654E-06-8.08463E-05-1.87129E+02
 -1      2198-8.31803E-06-5.79892E-05-1.87132E+02
 -1      2199 7.59503E-06-7.90420E-05-1.87129E+02
 -1      2201-7.22391E-06-5.84748E-05-1.87132E+02
 -1      2202 6.84456E-06-7.73498E-05-1.87129E+02
 -1      2204-6.43090E-06-5.84252E-05-1.87132E+02
 -1      2205 6.87493E-06-7.58529E-05-1.87129E+02
 -1      2207-6.41554E-06-5.78610E-05-1.87132E+02
 -1      2208 2.02643E-06 7.42986E-07-1.87131E+02
 -1      2210-2.26215E-06-1.75610E-07-1.87131E+02
 -1      2211 3.18142E-06 1.66750E-06-1.87131E+02
 -1      2213-3.56051E-06-9.45808E-07-1.87131E+02
 -1      2214 5.38160E-06 3.74009E-06-1.87131E+02
 -1      2216-6.29124E-06-2.21935E-06-1.87131E+02
 -1      2217 8.52904E-06 7.07585E-06-1.87131E+02
 -1      2219-9.60465E-06-3.92755E-06-1.87131E+02
 -1      2220 1.17301E-05 1.18409E-05-1.87131E+02
 -1      2222-1.33780E-05-5.97031E-06-1.87131E+02
 -1      2223 1.55534E-05 1.80059E-05-1.87130E+02
 -1      2225-1.73463E-05-8.02719E-06-1.87131E+02
 -1      2226 1.88288E-05 2.52644E-05-1.87130E+02
 -1      2228-2.10272E-05-9.78036E-06-1.87131E+02
 -1      2229 2.21495E-05 3.34085E-05-1.87130E+02
 -1      2231-2.44040E-05-1.08765E-05-1.87131E+02
 -1      2232 2.47263E-05 4.19201E-05-1.87130E+02
 -1      2234-2.71691E-05-1.10172E-05-1.87131E+02
 -1      2235 2.68796E-05 5.05111E-05-1.87130E+02
 -1      2237-2.92810E-05-1.00087E-05-1.87131E+02
 -1      2238 2.82916E-05 5.87052E-05-1.87130E+02
 -1      2240-3.07008E-05-7.75921E-06-1.87131E+02
 -1      2241 2.90878E-05 6.62612E-05-1.87130E+02
 -1      2243-3.13887E-05-4.30260E-06-1.87132E+02
 -1      2244 2.92404E-05 7.28733E-05-1.87130E+02
 -1      2246-3.14337E-05 2.21081E-07-1.87132E+02
 -1      2247 2.88083E-05 7.84436E-05-1.87130E+02
 -1      2249-3.08319E-05 5.61101E-06-1.87132E+02
 -1      2250 2.78897E-05 8.28707E-05-1.87129E+02
 -1      2252-2.97449E-05 1.16022E-05-1.87132E+02
 -1      2253 2.65356E-05 8.61810E-05-1.87129E+02
 -1      2255-2.81902E-05 1.79191E-05-1.87132E+02
 -1      2256 2.48844E-05 8.84213E-05-1.87129E+02
 -1      2258-2.63253E-05 2.42825E-05-1.87132E+02
 -1      2259 2.29804E-05 8.97000E-05-1.87129E+02
 -1      2261-2.41983E-05 3.04510E-05-1.87132E+02
 -1      2262 2.09596E-05 9.01410E-05-1.87129E+02
 -1      2264-2.19518E-05 3.62237E-05-1.87132E+02
 -1      2265 1.88720E-05 8.98805E-05-1.87129E+02
 -1      2267-1.96412E-05 4.14401E-05-1.87132E+02
 -1      2268 1.68033E-05 8.90732E-05-1.87129E+02
 -1      2270-1.73667E-05 4.60005E-05-1.87132E+02
 -1      2271 1.48144E-05 8.78535E-05-1.87129E+02
 -1      2273-1.51637E-05 4.98499E-05-1.87132E+02
 -1      2274 1.29679E-05 8.63195E-05-1.87129E+02
 -1      2276-1.31311E-05 5.29450E-05-1.87132E+02
 -1      2277 1.12954E-05 8.45746E-05-1.87129E+02
 -1      2279-1.12808E-05 5.53000E-05-1.87132E+02
 -1      2280 9.81434E-06 8.27205E-05-1.87129E+02
 -1      2282-9.67389E-06 5.69626E-05-1.87132E+02
 -1      2283 8.58175E-06 8.08520E-05-1.87129E+02
 -1      2285-8.31714E-06 5.79920E-05-1.87132E+02
 -1      2286 7.59475E-06 7.90438E-05-1.87129E+02
 -1      2288-7.23884E-06 5.84739E-05-1.87132E+02
 -1      2289 6.85775E-06 7.73320E-05-1.87129E+02
 -1      2291-6.42264E-06 5.84073E-05-1.87132E+02
 -1      2292 6.86289E-06 7.58497E-05-1.87129E+02
 -1      2294-6.42427E-06 5.78587E-05-1.87132E+02
 -3
    1PSTEP                         8           2           1          
  100CL  102 100.0000000         930                     0    2           1
 -4  ERROR       1    1
 -5  STR(%)      1    1    0    0
 -1       404 0.00000E+00
 -1       406 0.00000E+00
 -1       407 0.00000E+00
 -1       409 0.00000E+00
 -1       410 0.00000E+00
 -1       412 0.00000E+00
 -1       413 0.00000E+00
 -1       415 0.00000E+00
 -1       424 0.00000E+00
 -1       426 0.00000E+00
 -1       427 0.00000E+00
 -1       429 0.00000E+00
 -1       438 0.00000E+00
 -1       440 0.00000E+00
 -1       441 0.00000E+00
 -1       443 0.00000E+00
 -1       444 0.00000E+00
 -1       446 0.00000E+00
 -1       447 0.00000E+00
 -1       449 0.00000E+00
 -1       458 0.00000E+00
 -1       460 0.00000E+00
 -1       461 0.00000E+00
 -1       463 0.00000E+00
 -1       472 0.00000E+00
 -1       474 0.00000E+00
 -1       475 0.00000E+00
 -1       477 0.00000E+00
 -1       478 0.00000E+00
 -1       480 0.00000E+00
 -1       481 0.00000E+00
 -1       483 0.00000E+00
 -1       484 0.00000E+00
 -1       486 0.00000E+00
 -1       487 0.00000E+00
 -1       489 0.00000E+00
 -1       490 0.00000E+00
 -1       492 0.00000E+00
 -1       493 0.00000E+00
 -1       495 0.00000E+00
 -1       496 0.00000E+00
 -1       498 0.00000E+00
 -1       499 0.00000E+00
 -1       501 0.00000E+00
 -1       502 0.00000E+00
 -1       504 0.00000E+00
 -1       505 0.00000E+00
 -1       507 0.00000E+00
 -1       508 0.00000E+00
 -1       510 0.00000E+00
 -1       511 0.00000E+00
 -1       513 0.00000E+00
 -1       514 0.00000E+00
 -1       516 0.00000E+00
 -1       517 0.00000E+00
 -1       519 0.00000E+00
 -1       520 0.00000E+00
 -1       522 0.00000E+00
 -1       523 0.00000E+00
 -1       525 0.00000E+00
 -1       526 0.00000E+00
 -1       528 0.00000E+00
 -1       529 0.00000E+00
 -1       531 0.00000E+00
 -1       532 0.00000E+00
 -1       534 0.00000E+00
 -1       535 0.00000E+00
 -1       537 0.00000E+00
 -1       538 0.00000E+00
 -1       540 0.00000E+00
 -1       541 0.00000E+00
 -1       543 0.00000E+00
 -1       544 0.00000E+00
 -1       546 0.00000E+00
 -1       547 0.00000E+00
 -1       549 0.00000E+00
 -1       550 0.00000E+00
 -1       552 0.00000E+00
 -1       553 0.00000E+00
 -1       555 0.00000E+00
 -1       556 0.00000E+00
 -1       558 0.00000E+00
 -1       559 0.00000E+00
 -1       561 0.00000E+00
 -1       562 0.00000E+00
 -1       564 0.00000E+00
 -1       565 0.00000E+00
 -1       567 0.00000E+00
 -1       568 0.00000E+00
 -1       570 0.00000E+00
 -1       571 0.00000E+00
 -1       573 0.00000E+00
 -1       574 0.00000E+00
 -1       576 0.00000E+00
 -1       577 0.00000E+00
 -1       579 0.00000E+00
 -1       588 0.00000E+00
 -1       590 0.00000E+00
 -1       591 0.00000E+00
 -1       593 0.00000E+00
 -1       602 0.00000E+00
 -1       604 0.00000E+00
 -1       605 0.00000E+00
 -1       607 0.00000E+00
 -1       616 0.00000E+00
 -1       618 0.00000E+00
 -1       619 0.00000E+00
 -1       621 0.00000E+00
 -1       630 0.00000E+00
 -1       632 0.00000E+00
 -1       633 0.00000E+00
 -1       635 0.00000E+00
 -1       644 0.00000E+00
 -1       646 0.00000E+00
 -1       647 0.00000E+00
 -1       649 0.00000E+00
 -1       658 0.00000E+00
 -1       660 0.00000E+00
 -1       661 0.00000E+00
 -1       663 0.00000E+00
 -1       672 0.00000E+00
 -1       674 0.00000E+00
 -1       675 0.00000E+00
 -1       677 0.00000E+00
 -1       686 0.00000E+00
 -1       688 0.00000E+00
 -1       689 0.00000E+00
 -1       691 0.00000E+00
 -1       700 0.00000E+00
 -1       702 0.00000E+00
 -1       703 0.00000E+00
 -1       705 0.00000E+00
 -1       714 0.00000E+00
 -1       716 0.00000E+00
 -1       717 0.00000E+00
 -1       719 0.00000E+00
 -1       728 0.00000E+00
 -1       730 0.00000E+00
 -1       731 0.00000E+00
 -1       733 0.00000E+00
 -1       742 0.00000E+00
 -1       744 0.00000E+00
 -1       745 0.00000E+00
 -1       747 0.00000E+00
 -1       756 0.00000E+00
 -1       758 0.00000E+00
 -1       759 0.00000E+00
 -1       761 0.00000E+00
 -1       770 0.00000E+00
 -1       772 0.00000E+00
 -1       773 0.00000E+00
 -1       775 0.00000E+00
 -1       784 0.00000E+00
 -1       786 0.00000E+00
 -1       787 0.00000E+00
 -1       789 0.00000E+00
 -1       798 0.00000E+00
 -1       800 0.00000E+00
 -1       801 0.00000E+00
 -1       803 0.00000E+00
 -1       812 0.00000E+00
 -1       814 0.00000E+00
 -1       815 0.00000E+00
 -1       817 0.00000E+00
 -1       826 0.00000E+00
 -1       828 0.00000E+00
 -1       829 0.00000E+00
 -1       831 0.00000E+00
 -1       840 0.00000E+00
 -1       842 0.00000E+00
 -1       843 0.00000E+00
 -1       845 0.00000E+00
 -1       854 0.00000E+00
 -1       856 0.00000E+00
 -1       857 0.00000E+00
 -1       859 0.00000E+00
 -1       868 0.00000E+00
 -1       870 0.00000E+00
 -1       871 0.00000E+00
 -1       873 0.00000E+00
 -1       882 0.00000E+00
 -1       884 0.00000E+00
 -1       885 0.00000E+00
 -1       887 0.00000E+00
 -1       896 0.00000E+00
 -1       898 0.00000E+00
 -1       899 0.00000E+00
 -1       901 0.00000E+00
 -1       910 0.00000E+00
 -1       912 0.00000E+00
 -1       913 0.00000E+00
 -1       915 0.00000E+00
 -1       924 0.00000E+00
 -1       926 0.00000E+00
 -1       927 0.00000E+00
 -1       929 0.00000E+00
 -1       938 0.00000E+00
 -1       940 0.00000E+00
 -1       941 0.00000E+00
 -1       943 0.00000E+00
 -1       952 0.00000E+00
 -1       954 0.00000E+00
 -1       955 0.00000E+00
 -1       957 0.00000E+00
 -1       966 0.00000E+00
 -1       968 0.00000E+00
 -1       969 0.00000E+00
 -1       971 0.00000E+00
 -1       980 0.00000E+00
 -1       982 0.00000E+00
 -1       983 0.00000E+00
 -1       985 0.00000E+00
 -1       986 0.00000E+00
 -1       988 0.00000E+00
 -1       989 0.00000E+00
 -1       991 0.00000E+00
 -1       992 0.00000E+00
 -1       994 0.00000E+00
 -1       995 0.00000E+00
 -1       997 0.00000E+00
 -1       998 0.00000E+00
 -1      1000 0.00000E+00
 -1      1001 0.00000E+00
 -1      1003 0.00000E+00
 -1      1004 0.00000E+00
 -1      1006 0.00000E+00
 -1      1007 0.00000E+00
 -1      1009 0.00000E+00
 -1      1010 0.00000E+00
 -1      1012 0.00000E+00
 -1      1013 0.00000E+00
 -1      1015 0.00000E+00
 -1      1016 0.00000E+00
 -1      1018 0.00000E+00
 -1      1019 0.00000E+00
 -1      1021 0.00000E+00
 -1      1022 0.00000E+00
 -1      1024 0.00000E+00
 -1      1025 0.00000E+00
 -1      1027 0.00000E+00
 -1      1028 0.00000E+00
 -1      1030 0.00000E+00
 -1      1031 0.00000E+00
 -1      1033 0.00000E+00
 -1      1034 0.00000E+00
 -1      1036 0.00000E+00
 -1      1037 0.00000E+00
 -1      1039 0.00000E+00
 -1      1040 0.00000E+00
 -1      1042 0.00000E+00
 -1      1043 0.00000E+00
 -1      1045 0.00000E+00
 -1      1046 0.00000E+00
 -1      1048 0.00000E+00
 -1      1049 0.00000E+00
 -1      1051 0.00000E+00
 -1      1052 0.00000E+00
 -1      1054 0.00000E+00
 -1      1055 0.00000E+00
 -1      1057 0.00000E+00
 -1      1058 0.00000E+00
 -1      1060 0.00000E+00
 -1      1061 0.00000E+00
 -1      1063 0.00000E+00
 -1      1064 0.00000E+00
 -1      1066 0.00000E+00
 -1      1067 0.00000E+00
 -1      1069 0.00000E+00
 -1      1070 0.00000E+00
 -1      1072 0.00000E+00
 -1      1073 0.00000E+00
 -1      1075 0.00000E+00
 -1      1076 0.00000E+00
 -1      1078 0.00000E+00
 -1      1079 0.00000E+00
 -1      1081 0.00000E+00
 -1      1082 0.00000E+00
 -1      1084 0.00000E+00
 -1      1085 0.00000E+00
 -1      1087 0.00000E+00
 -1      1088 0.00000E+00
 -1      1090 0.00000E+00
 -1      1099 0.00000E+00
 -1      1101 0.00000E+00
 -1      1102 0.00000E+00
 -1      1104 0.00000E+00
 -1      1113 0.00000E+00
 -1      1115 0.00000E+00
 -1      1116 0.00000E+00
 -1      1118 0.00000E+00
 -1      1127 0.00000E+00
 -1      1129 0.00000E+00
 -1      1130 0.00000E+00
 -1      1132 0.00000E+00
 -1      1141 0.00000E+00
 -1      1143 0.00000E+00
 -1      1144 0.00000E+00
 -1      1146 0.00000E+00
 -1      1155 0.00000E+00
 -1      1157 0.00000E+00
 -1      1158 0.00000E+00
 -1      1160 0.00000E+00
 -1      1169 0.00000E+00
 -1      1171 0.00000E+00
 -1      1172 0.00000E+00
 -1      1174 0.00000E+00
 -1      1183 0.00000E+00
 -1      1185 0.00000E+00
 -1      1186 0.00000E+00
 -1      1188 0.00000E+00
 -1      1197 0.00000E+00
 -1      1199 0.00000E+00
 -1      1200 0.00000E+00
 -1      1202 0.00000E+00
 -1      1211 0.00000E+00
 -1      1213 0.00000E+00
 -1      1214 0.00000E+00
 -1      1216 0.00000E+00
 -1      1225 0.00000E+00
 -1      1227 0.00000E+00
 -1      1228 0.00000E+00
 -1      1230 0.00000E+00
 -1      1239 0.00000E+00
 -1      1241 0.00000E+00
 -1      1242 0.00000E+00
 -1      1244 0.00000E+00
 -1      1253 0.00000E+00
 -1      1255 0.00000E+00
 -1      1256 0.00000E+00
 -1      1258 0.00000E+00
 -1      1267 0.00000E+00
 -1      1269 0.00000E+00
 -1      1270 0.00000E+00
 -1      1272 0.00000E+00
 -1      1281 0.00000E+00
 -1      1283 0.00000E+00
 -1      1284 0.00000E+00
 -1      1286 0.00000E+00
 -1      1295 0.00000E+00
 -1      1297 0.00000E+00
 -1      1298 0.00000E+00
 -1      1300 0.00000E+00
 -1      1309 0.00000E+00
 -1      1311 0.00000E+00
 -1      1312 0.00000E+00
 -1      1314 0.00000E+00
 -1      1323 0.00000E+00
 -1      1325 0.00000E+00
 -1      1326 0.00000E+00
 -1      1328 0.00000E+00
 -1      1337 0.00000E+00
 -1      1339 0.00000E+00
 -1      1340 0.00000E+00
 -1      1342 0.00000E+00
 -1      1351 0.00000E+00
 -1      1353 0.00000E+00
 -1      1354 0.00000E+00
 -1      1356 0.00000E+00
 -1      1365 0.00000E+00
 -1      1367 0.00000E+00
 -1      1368 0.00000E+00
 -1      1370 0.00000E+00
 -1      1379 0.00000E+00
 -1      1381 0.00000E+00
 -1      1382 0.00000E+00
 -1      1384 0.00000E+00
 -1      1393 0.00000E+00
 -1      1395 0.00000E+00
 -1      1396 0.00000E+00
 -1      1398 0.00000E+00
 -1      1407 0.00000E+00
 -1      1409 0.00000E+00
 -1      1410 0.00000E+00
 -1      1412 0.00000E+00
 -1      1421 0.00000E+00
 -1      1423 0.00000E+00
 -1      1424 0.00000E+00
 -1      1426 0.00000E+00
 -1      1435 0.00000E+00
 -1      1437 0.00000E+00
 -1      1438 0.00000E+00
 -1      1440 0.00000E+00
 -1      1449 0.00000E+00
 -1      1451 0.00000E+00
 -1      1452 0.00000E+00
 -1      1454 0.00000E+00
 -1      1463 0.00000E+00
 -1      1465 0.00000E+00
 -1      1466 0.00000E+00
 -1      1468 0.00000E+00
 -1      1477 0.00000E+00
 -1      1479 0.00000E+00
 -1      1480 0.00000E+00
 -1      1482 0.00000E+00
 -1      1491 0.00000E+00
 -1      1493 0.00000E+00
 -1      1494 0.00000E+00
 -1      1496 0.00000E+00
 -1      1497 0.00000E+00
 -1      1499 0.00000E+00
 -1      1500 0.00000E+00
 -1      1502 0.00000E+00
 -1      1503 0.00000E+00
 -1      1505 0.00000E+00
 -1      1506 0.00000E+00
 -1      1508 0.00000E+00
 -1      1509 0.00000E+00
 -1      1511 0.00000E+00
 -1      1512 0.00000E+00
 -1      1514 0.00000E+00
 -1      1515 0.00000E+00
 -1      1517 0.00000E+00
 -1      1518 0.00000E+00
 -1      1520 0.00000E+00
 -1      1521 0.00000E+00
 -1      1523 0.00000E+00
 -1      1524 0.00000E+00
 -1      1526 0.00000E+00
 -1      1527 0.00000E+00
 -1      1529 0.00000E+00
 -1      1530 0.00000E+00
 -1      1532 0.00000E+00
 -1      1533 0.00000E+00
 -1      1535 0.00000E+00
 -1      1536 0.00000E+00
 -1      1538 0.00000E+00
 -1      1539 0.00000E+00
 -1      1541 0.00000E+00
 -1      1542 0.00000E+00
 -1      1544 0.00000E+00
 -1      1545 0.00000E+00
 -1      1547 0.00000E+00
 -1      1548 0.00000E+00
 -1      1550 0.00000E+00
 -1      1551 0.00000E+00
 -1      1553 0.00000E+00
 -1      1554 0.00000E+00
 -1      1556 0.00000E+00
 -1      1557 0.00000E+00
 -1      1559 0.00000E+00
 -1      1560 0.00000E+00
 -1      1562 0.00000E+00
 -1      1563 0.00000E+00
 -1      1565 0.00000E+00
 -1      1566 0.00000E+00
 -1      1568 0.00000E+00
 -1      1569 0.00000E+00
 -1      1571 0.00000E+00
 -1      1572 0.00000E+00
 -1      1574 0.00000E+00
 -1      1575 0.00000E+00
 -1      1577 0.00000E+00
 -1      1578 0.00000E+00
 -1      1580 0.00000E+00
 -1      1581 0.00000E+00
 -1      1583 0.00000E+00
 -1      1584 0.00000E+00
 -1      1586 0.00000E+00
 -1      1587 0.00000E+00
 -1      1589 0.00000E+00
 -1      1590 0.00000E+00
 -1      1592 0.00000E+00
 -1      1593 0.00000E+00
 -1      1595 0.00000E+00
 -1      1596 0.00000E+00
 -1      1598 0.00000E+00
 -1      1599 0.00000E+00
 -1      1601 0.00000E+00
 -1      1602 0.00000E+00
 -1      1604 0.00000E+00
 -1      1605 0.00000E+00
 -1      1607 0.00000E+00
 -1      1608 0.00000E+00
 -1      1610 0.00000E+00
 -1      1611 0.00000E+00
 -1      1613 0.00000E+00
 -1      1614 0.00000E+00
 -1      1616 0.00000E+00
 -1      1617 0.00000E+00
 -1      1619 0.00000E+00
 -1      1620 0.00000E+00
 -1      1622 0.00000E+00
 -1      1623 0.00000E+00
 -1      1625 0.00000E+00
 -1      1626 0.00000E+00
 -1      1628 0.00000E+00
 -1      1629 0.00000E+00
 -1      1631 0.00000E+00
 -1      1632 0.00000E+00
 -1      1634 0.00000E+00
 -1      1635 0.00000E+00
 -1      1637 0.00000E+00
 -1      1638 0.00000E+00
 -1      1640 0.00000E+00
 -1      1641 0.00000E+00
 -1      1643 0.00000E+00
 -1      1644 0.00000E+00
 -1      1646 0.00000E+00
 -1      1647 0.00000E+00
 -1      1649 0.00000E+00
 -1      1650 0.00000E+00
 -1      1652 0.00000E+00
 -1      1653 0.00000E+00
 -1      1655 0.00000E+00
 -1      1656 0.00000E+00
 -1      1658 0.00000E+00
 -1      1659 0.00000E+00
 -1      1661 0.00000E+00
 -1      1662 0.00000E+00
 -1      1664 0.00000E+00
 -1      1665 0.00000E+00
 -1      1667 0.00000E+00
 -1      1668 0.00000E+00
 -1      1670 0.00000E+00
 -1      1671 0.00000E+00
 -1      1673 0.00000E+00
 -1      1674 0.00000E+00
 -1      1676 0.00000E+00
 -1      1677 0.00000E+00
 -1      1679 0.00000E+00
 -1      1680 0.00000E+00
 -1      1682 0.00000E+00
 -1      1683 0.00000E+00
 -1      1685 0.00000E+00
 -1      1686 0.00000E+00
 -1      1688 0.00000E+00
 -1      1689 0.00000E+00
 -1      1691 0.00000E+00
 -1      1692 0.00000E+00
 -1      1694 0.00000E+00
 -1      1695 0.00000E+00
 -1      1697 0.00000E+00
 -1      1698 0.00000E+00
 -1      1700 0.00000E+00
 -1      1701 0.00000E+00
 -1      1703 0.00000E+00
 -1      1704 0.00000E+00
 -1      1706 0.00000E+00
 -1      1707 0.00000E+00
 -1      1709 0.00000E+00
 -1      1710 0.00000E+00
 -1      1712 0.00000E+00
 -1      1713 0.00000E+00
 -1      1715 0.00000E+00
 -1      1716 0.00000E+00
 -1      1718 0.00000E+00
 -1      1719 0.00000E+00
 -1      1721 0.00000E+00
 -1      1722 0.00000E+00
 -1      1724 0.00000E+00
 -1      1725 0.00000E+00
 -1      1727 0.00000E+00
 -1      1728 0.00000E+00
 -1      1730 0.00000E+00
 -1      1731 0.00000E+00
 -1      1733 0.00000E+00
 -1      1734 0.00000E+00
 -1      1736 0.00000E+00
 -1      1737 0.00000E+00
 -1      1739 0.00000E+00
 -1      1740 0.00000E+00
 -1      1742 0.00000E+00
 -1      1743 0.00000E+00
 -1      1745 0.00000E+00
 -1      1746 0.00000E+00
 -1      1748 0.00000E+00
 -1      1749 0.00000E+00
 -1      1751 0.00000E+00
 -1      1752 0.00000E+00
 -1      1754 0.00000E+00
 -1      1755 0.00000E+00
 -1      1757 0.00000E+00
 -1      1758 0.00000E+00
 -1      1760 0.00000E+00
 -1      1761 0.00000E+00
 -1      1763 0.00000E+00
 -1      1764 0.00000E+00
 -1      1766 0.00000E+00
 -1      1767 0.00000E+00
 -1      1769 0.00000E+00
 -1      1770 0.00000E+00
 -1      1772 0.00000E+00
 -1      1773 0.00000E+00
 -1      1775 0.00000E+00
 -1      1776 0.00000E+00
 -1      1778 0.00000E+00
 -1      1779 0.00000E+00
 -1      1781 0.00000E+00
 -1      1782 0.00000E+00
 -1      1784 0.00000E+00
 -1      1785 0.00000E+00
 -1      1787 0.00000E+00
 -1      1788 0.00000E+00
 -1      1790 0.00000E+00
 -1      1791 0.00000E+00
 -1      1793 0.00000E+00
 -1      1794 0.00000E+00
 -1      1796 0.00000E+00
 -1      1797 0.00000E+00
 -1      1799 0.00000E+00
 -1      1800 0.00000E+00
 -1      1802 0.00000E+00
 -1      1803 0.00000E+00
 -1      1805 0.00000E+00
 -1      1806 0.00000E+00
 -1      1808 0.00000E+00
 -1      1809 0.00000E+00
 -1      1811 0.00000E+00
 -1      1812 0.00000E+00
 -1      1814 0.00000E+00
 -1      1815 0.00000E+00
 -1      1817 0.00000E+00
 -1      1818 0.00000E+00
 -1      1820 0.00000E+00
 -1      1821 0.00000E+00
 -1      1823 0.00000E+00
 -1      1824 0.00000E+00
 -1      1826 0.00000E+00
 -1      1827 0.00000E+00
 -1      1829 0.00000E+00
 -1      1830 0.00000E+00
 -1      1832 0.00000E+00
 -1      1833 0.00000E+00
 -1      1835 0.00000E+00
 -1      1836 0.00000E+00
 -1      1838 0.00000E+00
 -1      1839 0.00000E+00
 -1      1841 0.00000E+00
 -1      1842 0.00000E+00
 -1      1844 0.00000E+00
 -1      1845 0.00000E+00
 -1      1847 0.00000E+00
 -1      1848 0.00000E+00
 -1      1850 0.00000E+00
 -1      1851 0.00000E+00
 -1      1853 0.00000E+00
 -1      1854 0.00000E+00
 -1      1856 0.00000E+00
 -1      1857 0.00000E+00
 -1      1859 0.00000E+00
 -1      1860 0.00000E+00
 -1      1862 0.00000E+00
 -1      1863 0.00000E+00
 -1      1865 0.00000E+00
 -1      1866 0.00000E+00
 -1      1868 0.00000E+00
 -1      1869 0.00000E+00
 -1      1871 0.00000E+00
 -1      1872 0.00000E+00
 -1      1874 0.00000E+00
 -1      1875 0.00000E+00
 -1      1877 0.00000E+00
 -1      1878 0.00000E+00
 -1      1880 0.00000E+00
 -1      1881 0.00000E+00
 -1      1883 0.00000E+00
 -1      1884 0.00000E+00
 -1      1886 0.00000E+00
 -1      1887 0.00000E+00
 -1      1889 0.00000E+00
 -1      1890 0.00000E+00
 -1      1892 0.00000E+00
 -1      1893 0.00000E+00
 -1      1895 0.00000E+00
 -1      1896 0.00000E+00
 -1      1898 0.00000E+00
 -1      1899 0.00000E+00
 -1      1901 0.00000E+00
 -1      1902 0.00000E+00
 -1      1904 0.00000E+00
 -1      1905 0.00000E+00
 -1      1907 0.00000E+00
 -1      1908 0.00000E+00
 -1      1910 0.00000E+00
 -1      1911 0.00000E+00
 -1      1913 0.00000E+00
 -1      1914 0.00000E+00
 -1      1916 0.00000E+00
 -1      1917 0.00000E+00
 -1      1919 0.00000E+00
 -1      1920 0.00000E+00
 -1      1922 0.00000E+00
 -1      1923 0.00000E+00
 -1      1925 0.00000E+00
 -1      1926 0.00000E+00
 -1      1928 0.00000E+00
 -1      1929 0.00000E+00
 -1      1931 0.00000E+00
 -1      1932 0.00000E+00
 -1      1934 0.00000E+00
 -1      1935 0.00000E+00
 -1      1937 0.00000E+00
 -1      1938 0.00000E+00
 -1      1940 0.00000E+00
 -1      1941 0.00000E+00
 -1      1943 0.00000E+00
 -1      1944 0.00000E+00
 -1      1946 0.00000E+00
 -1      1947 0.00000E+00
 -1      1949 0.00000E+00
 -1      1950 0.00000E+00
 -1      1952 0.00000E+00
 -1      1953 0.00000E+00
 -1      1955 0.00000E+00
 -1      1956 0.00000E+00
 -1      1958 0.00000E+00
 -1      1959 0.00000E+00
 -1      1961 0.00000E+00
 -1      1962 0.00000E+00
 -1      1964 0.00000E+00
 -1      1965 0.00000E+00
 -1      1967 0.00000E+00
 -1      1968 0.00000E+00
 -1      1970 0.00000E+00
 -1      1971 0.00000E+00
 -1      1973 0.00000E+00
 -1      1974 0.00000E+00
 -1      1976 0.00000E+00
 -1      1977 0.00000E+00
 -1      1979 0.00000E+00
 -1      1980 0.00000E+00
 -1      1982 0.00000E+00
 -1      1983 0.00000E+00
 -1      1985 0.00000E+00
 -1      1986 0.00000E+00
 -1      1988 0.00000E+00
 -1      1989 0.00000E+00
 -1      1991 0.00000E+00
 -1      1992 0.00000E+00
 -1      1994 0.00000E+00
 -1      1995 0.00000E+00
 -1      1997 0.00000E+00
 -1      1998 0.00000E+00
 -1      2000 0.00000E+00
 -1      2001 0.00000E+00
 -1      2003 0.00000E+00
 -1      2004 0.00000E+00
 -1      2006 0.00000E+00
 -1      2007 0.00000E+00
 -1      2009 0.00000E+00
 -1      2010 0.00000E+00
 -1      2012 0.00000E+00
 -1      2013 0.00000E+00
 -1      2015 0.00000E+00
 -1      2016 0.00000E+00
 -1      2018 0.00000E+00
 -1      2019 0.00000E+00
 -1      2021 0.00000E+00
 -1      2022 0.00000E+00
 -1      2024 0.00000E+00
 -1      2025 0.00000E+00
 -1      2027 0.00000E+00
 -1      2028 0.00000E+00
 -1      2030 0.00000E+00
 -1      2031 0.00000E+00
 -1      2033 0.00000E+00
 -1      2034 0.00000E+00
 -1      2036 0.00000E+00
 -1      2037 0.00000E+00
 -1      2039 0.00000E+00
 -1      2040 0.00000E+00
 -1      2042 0.00000E+00
 -1      2043 0.00000E+00
 -1      2045 0.00000E+00
 -1      2046 0.00000E+00
 -1      2048 0.00000E+00
 -1      2049 0.00000E+00
 -1      2051 0.00000E+00
 -1      2052 0.00000E+00
 -1      2054 0.00000E+00
 -1      2055 0.00000E+00
 -1      2057 0.00000E+00
 -1      2058 0.00000E+00
 -1      2060 0.00000E+00
 -1      2061 0.00000E+00
 -1      2063 0.00000E+00
 -1      2064 0.00000E+00
 -1      2066 0.00000E+00
 -1      2067 0.00000E+00
 -1      2069 0.00000E+00
 -1      2070 0.00000E+00
 -1      2072 0.00000E+00
 -1      2073 0.00000E+00
 -1      2075 0.00000E+00
 -1      2076 0.00000E+00
 -1      2078 0.00000E+00
 -1      2079 0.00000E+00
 -1      2081 0.00000E+00
 -1      2082 0.00000E+00
 -1      2084 0.00000E+00
 -1      2085 0.00000E+00
 -1      2087 0.00000E+00
 -1      2088 0.00000E+00
 -1      2090 0.00000E+00
 -1      2091 0.00000E+00
 -1      2093 0.00000E+00
 -1      2094 0.00000E+00
 -1      2096 0.00000E+00
 -1      2097 0.00000E+00
 -1      2099 0.00000E+00
 -1      2100 0.00000E+00
 -1      2102 0.00000E+00
 -1      2103 0.00000E+00
 -1      2105 0.00000E+00
 -1      2106 0.00000E+00
 -1      2108 0.00000E+00
 -1      2109 0.00000E+00
 -1      2111 0.00000E+00
 -1      2112 0.00000E+00
 -1      2114 0.00000E+00
 -1      2115 0.00000E+00
 -1      2117 0.00000E+00
 -1      2118 0.00000E+00
 -1      2120 0.00000E+00
 -1      2121 0.00000E+00
 -1      2123 0.00000E+00
 -1      2124 0.00000E+00
 -1      2126 0.00000E+00
 -1      2127 0.00000E+00
 -1      2129 0.00000E+00
 -1      2130 0.00000E+00
 -1      2132 0.00000E+00
 -1      2133 0.00000E+00
 -1      2135 0.00000E+00
 -1      2136 0.00000E+00
 -1      2138 0.00000E+00
 -1      2139 0.00000E+00
 -1      2141 0.00000E+00
 -1      2142 0.00000E+00
 -1      2144 0.00000E+00
 -1      2145 0.00000E+00
 -1      2147 0.00000E+00
 -1      2148 0.00000E+00
 -1      2150 0.00000E+00
 -1      2151 0.00000E+00
 -1      2153 0.00000E+00
 -1      2154 0.00000E+00
 -1      2156 0.00000E+00
 -1      2157 0.00000E+00
 -1      2159 0.00000E+00
 -1      2160 0.00000E+00
 -1      2162 0.00000E+00
 -1      2163 0.00000E+00
 -1      2165 0.00000E+00
 -1      2166 0.00000E+00
 -1      2168 0.00000E+00
 -1      2169 0.00000E+00
 -1      2171 0.00000E+00
 -1      2172 0.00000E+00
 -1      2174 0.00000E+00
 -1      2175 0.00000E+00
 -1      2177 0.00000E+00
 -1      2178 0.00000E+00
 -1      2180 0.00000E+00
 -1      2181 0.00000E+00
 -1      2183 0.00000E+00
 -1      2184 0.00000E+00
 -1      2186 0.00000E+00
 -1      2187 0.00000E+00
 -1      2189 0.00000E+00
 -1      2190 0.00000E+00
 -1      2192 0.00000E+00
 -1      2193 0.00000E+00
 -1      2195 0.00000E+00
 -1      2196 0.00000E+00
 -1      2198 0.00000E+00
 -1      2199 0.00000E+00
 -1      2201 0.00000E+00
 -1      2202 0.00000E+00
 -1      2204 0.00000E+00
 -1      2205 0.00000E+00
 -1      2207 0.00000E+00
 -1      2208 0.00000E+00
 -1      2210 0.00000E+00
 -1      2211 0.00000E+00
 -1      2213 0.00000E+00
 -1      2214 0.00000E+00
 -1      2216 0.00000E+00
 -1      2217 0.00000E+00
 -1      2219 0.00000E+00
 -1      2220 0.00000E+00
 -1      2222 0.00000E+00
 -1      2223 0.00000E+00
 -1      2225 0.00000E+00
 -1      2226 0.00000E+00
 -1      2228 0.00000E+00
 -1      2229 0.00000E+00
 -1      2231 0.00000E+00
 -1      2232 0.00000E+00
 -1      2234 0.00000E+00
 -1      2235 0.00000E+00
 -1      2237 0.00000E+00
 -1      2238 0.00000E+00
 -1      2240 0.00000E+00
 -1      2241 0.00000E+00
 -1      2243 0.00000E+00
 -1      2244 0.00000E+00
 -1      2246 0.00000E+00
 -1      2247 0.00000E+00
 -1      2249 0.00000E+00
 -1      2250 0.00000E+00
 -1      2252 0.00000E+00
 -1      2253 0.00000E+00
 -1      2255 0.00000E+00
 -1      2256 0.00000E+00
 -1      2258 0.00000E+00
 -1      2259 0.00000E+00
 -1      2261 0.00000E+00
 -1      2262 0.00000E+00
 -1      2264 0.00000E+00
 -1      2265 0.00000E+00
 -1      2267 0.00000E+00
 -1      2268 0.00000E+00
 -1      2270 0.00000E+00
 -1      2271 0.00000E+00
 -1      2273 0.00000E+00
 -1      2274 0.00000E+00
 -1      2276 0.00000E+00
 -1      2277 0.00000E+00
 -1      2279 0.00000E+00
 -1      2280 0.00000E+00
 -1      2282 0.00000E+00
 -1      2283 0.00000E+00
 -1      2285 0.00000E+00
 -1      2286 0.00000E+00
 -1      2288 0.00000E+00
 -1      2289 0.00000E+00
 -1      2291 0.00000E+00
 -1      2292 0.00000E+00
 -1      2294 0.00000E+00
 -3
 9999
