    1C
    1UUSER                                                              
    1UDATE              17.october.2022                                 
    1UTIME              08:45:28                                        
    1UHOST                                                              
    1UPGM               CalculiX                                        
    1UVERSION           Version 2.20                             
    1UCOMPILETIME       Fri Jul 29 19:13:05 CEST 2022                    
    1UDIR                                                               
    1UDBN                                                               
    1UMAT    1S420                                                      
    2C                           930                                     1
 -1         1 0.00000E+00 4.95700E-01 3.13500E-01
 -1         2 0.00000E+00 5.04300E-01 3.13500E-01
 -1         3 3.00000E+00 4.95700E-01 3.13500E-01
 -1         4 3.00000E+00 5.04300E-01 3.13500E-01
 -1         5 0.00000E+00 4.95700E-01 6.86500E-01
 -1         6 0.00000E+00 5.04300E-01 6.86500E-01
 -1         7 3.00000E+00 4.95700E-01 6.86500E-01
 -1         8 3.00000E+00 5.04300E-01 6.86500E-01
 -1         9 0.00000E+00 4.95700E-01 3.00000E-01
 -1        10 3.00000E+00 4.95700E-01 3.00000E-01
 -1        11 0.00000E+00 4.10000E-01 3.00000E-01
 -1        12 0.00000E+00 4.10000E-01 3.13500E-01
 -1        13 3.00000E+00 4.10000E-01 3.00000E-01
 -1        14 3.00000E+00 4.10000E-01 3.13500E-01
 -1        15 0.00000E+00 4.95700E-01 7.00000E-01
 -1        16 3.00000E+00 4.95700E-01 7.00000E-01
 -1        17 0.00000E+00 4.10000E-01 6.86500E-01
 -1        18 0.00000E+00 4.10000E-01 7.00000E-01
 -1        19 3.00000E+00 4.10000E-01 6.86500E-01
 -1        20 3.00000E+00 4.10000E-01 7.00000E-01
 -1        21 0.00000E+00 5.90000E-01 3.13500E-01
 -1        22 0.00000E+00 5.90000E-01 3.00000E-01
 -1        23 3.00000E+00 5.90000E-01 3.00000E-01
 -1        24 3.00000E+00 5.90000E-01 3.13500E-01
 -1        25 0.00000E+00 5.04300E-01 3.00000E-01
 -1        26 3.00000E+00 5.04300E-01 3.00000E-01
 -1        27 0.00000E+00 5.04300E-01 7.00000E-01
 -1        28 0.00000E+00 5.90000E-01 7.00000E-01
 -1        29 0.00000E+00 5.90000E-01 6.86500E-01
 -1        30 3.00000E+00 5.04300E-01 7.00000E-01
 -1        31 3.00000E+00 5.90000E-01 7.00000E-01
 -1        32 3.00000E+00 5.90000E-01 6.86500E-01
 -1        33 1.00000E-01 5.04300E-01 3.13500E-01
 -1        34 2.00000E-01 5.04300E-01 3.13500E-01
 -1        35 3.00000E-01 5.04300E-01 3.13500E-01
 -1        36 4.00000E-01 5.04300E-01 3.13500E-01
 -1        37 5.00000E-01 5.04300E-01 3.13500E-01
 -1        38 6.00000E-01 5.04300E-01 3.13500E-01
 -1        39 7.00000E-01 5.04300E-01 3.13500E-01
 -1        40 8.00000E-01 5.04300E-01 3.13500E-01
 -1        41 9.00000E-01 5.04300E-01 3.13500E-01
 -1        42 1.00000E+00 5.04300E-01 3.13500E-01
 -1        43 1.10000E+00 5.04300E-01 3.13500E-01
 -1        44 1.20000E+00 5.04300E-01 3.13500E-01
 -1        45 1.30000E+00 5.04300E-01 3.13500E-01
 -1        46 1.40000E+00 5.04300E-01 3.13500E-01
 -1        47 1.50000E+00 5.04300E-01 3.13500E-01
 -1        48 1.60000E+00 5.04300E-01 3.13500E-01
 -1        49 1.70000E+00 5.04300E-01 3.13500E-01
 -1        50 1.80000E+00 5.04300E-01 3.13500E-01
 -1        51 1.90000E+00 5.04300E-01 3.13500E-01
 -1        52 2.00000E+00 5.04300E-01 3.13500E-01
 -1        53 2.10000E+00 5.04300E-01 3.13500E-01
 -1        54 2.20000E+00 5.04300E-01 3.13500E-01
 -1        55 2.30000E+00 5.04300E-01 3.13500E-01
 -1        56 2.40000E+00 5.04300E-01 3.13500E-01
 -1        57 2.50000E+00 5.04300E-01 3.13500E-01
 -1        58 2.60000E+00 5.04300E-01 3.13500E-01
 -1        59 2.70000E+00 5.04300E-01 3.13500E-01
 -1        60 2.80000E+00 5.04300E-01 3.13500E-01
 -1        61 2.90000E+00 5.04300E-01 3.13500E-01
 -1        62 1.00000E-01 4.95700E-01 3.13500E-01
 -1        63 2.00000E-01 4.95700E-01 3.13500E-01
 -1        64 3.00000E-01 4.95700E-01 3.13500E-01
 -1        65 4.00000E-01 4.95700E-01 3.13500E-01
 -1        66 5.00000E-01 4.95700E-01 3.13500E-01
 -1        67 6.00000E-01 4.95700E-01 3.13500E-01
 -1        68 7.00000E-01 4.95700E-01 3.13500E-01
 -1        69 8.00000E-01 4.95700E-01 3.13500E-01
 -1        70 9.00000E-01 4.95700E-01 3.13500E-01
 -1        71 1.00000E+00 4.95700E-01 3.13500E-01
 -1        72 1.10000E+00 4.95700E-01 3.13500E-01
 -1        73 1.20000E+00 4.95700E-01 3.13500E-01
 -1        74 1.30000E+00 4.95700E-01 3.13500E-01
 -1        75 1.40000E+00 4.95700E-01 3.13500E-01
 -1        76 1.50000E+00 4.95700E-01 3.13500E-01
 -1        77 1.60000E+00 4.95700E-01 3.13500E-01
 -1        78 1.70000E+00 4.95700E-01 3.13500E-01
 -1        79 1.80000E+00 4.95700E-01 3.13500E-01
 -1        80 1.90000E+00 4.95700E-01 3.13500E-01
 -1        81 2.00000E+00 4.95700E-01 3.13500E-01
 -1        82 2.10000E+00 4.95700E-01 3.13500E-01
 -1        83 2.20000E+00 4.95700E-01 3.13500E-01
 -1        84 2.30000E+00 4.95700E-01 3.13500E-01
 -1        85 2.40000E+00 4.95700E-01 3.13500E-01
 -1        86 2.50000E+00 4.95700E-01 3.13500E-01
 -1        87 2.60000E+00 4.95700E-01 3.13500E-01
 -1        88 2.70000E+00 4.95700E-01 3.13500E-01
 -1        89 2.80000E+00 4.95700E-01 3.13500E-01
 -1        90 2.90000E+00 4.95700E-01 3.13500E-01
 -1        91 0.00000E+00 4.95700E-01 4.06750E-01
 -1        92 0.00000E+00 4.95700E-01 5.00000E-01
 -1        93 0.00000E+00 4.95700E-01 5.93250E-01
 -1        94 0.00000E+00 5.04300E-01 5.93250E-01
 -1        95 0.00000E+00 5.04300E-01 5.00000E-01
 -1        96 0.00000E+00 5.04300E-01 4.06750E-01
 -1        97 1.00000E-01 4.95700E-01 6.86500E-01
 -1        98 2.00000E-01 4.95700E-01 6.86500E-01
 -1        99 3.00000E-01 4.95700E-01 6.86500E-01
 -1       100 4.00000E-01 4.95700E-01 6.86500E-01
 -1       101 5.00000E-01 4.95700E-01 6.86500E-01
 -1       102 6.00000E-01 4.95700E-01 6.86500E-01
 -1       103 7.00000E-01 4.95700E-01 6.86500E-01
 -1       104 8.00000E-01 4.95700E-01 6.86500E-01
 -1       105 9.00000E-01 4.95700E-01 6.86500E-01
 -1       106 1.00000E+00 4.95700E-01 6.86500E-01
 -1       107 1.10000E+00 4.95700E-01 6.86500E-01
 -1       108 1.20000E+00 4.95700E-01 6.86500E-01
 -1       109 1.30000E+00 4.95700E-01 6.86500E-01
 -1       110 1.40000E+00 4.95700E-01 6.86500E-01
 -1       111 1.50000E+00 4.95700E-01 6.86500E-01
 -1       112 1.60000E+00 4.95700E-01 6.86500E-01
 -1       113 1.70000E+00 4.95700E-01 6.86500E-01
 -1       114 1.80000E+00 4.95700E-01 6.86500E-01
 -1       115 1.90000E+00 4.95700E-01 6.86500E-01
 -1       116 2.00000E+00 4.95700E-01 6.86500E-01
 -1       117 2.10000E+00 4.95700E-01 6.86500E-01
 -1       118 2.20000E+00 4.95700E-01 6.86500E-01
 -1       119 2.30000E+00 4.95700E-01 6.86500E-01
 -1       120 2.40000E+00 4.95700E-01 6.86500E-01
 -1       121 2.50000E+00 4.95700E-01 6.86500E-01
 -1       122 2.60000E+00 4.95700E-01 6.86500E-01
 -1       123 2.70000E+00 4.95700E-01 6.86500E-01
 -1       124 2.80000E+00 4.95700E-01 6.86500E-01
 -1       125 2.90000E+00 4.95700E-01 6.86500E-01
 -1       126 3.00000E+00 4.95700E-01 4.06750E-01
 -1       127 3.00000E+00 4.95700E-01 5.00000E-01
 -1       128 3.00000E+00 4.95700E-01 5.93250E-01
 -1       129 1.00000E-01 5.04300E-01 6.86500E-01
 -1       130 2.00000E-01 5.04300E-01 6.86500E-01
 -1       131 3.00000E-01 5.04300E-01 6.86500E-01
 -1       132 4.00000E-01 5.04300E-01 6.86500E-01
 -1       133 5.00000E-01 5.04300E-01 6.86500E-01
 -1       134 6.00000E-01 5.04300E-01 6.86500E-01
 -1       135 7.00000E-01 5.04300E-01 6.86500E-01
 -1       136 8.00000E-01 5.04300E-01 6.86500E-01
 -1       137 9.00000E-01 5.04300E-01 6.86500E-01
 -1       138 1.00000E+00 5.04300E-01 6.86500E-01
 -1       139 1.10000E+00 5.04300E-01 6.86500E-01
 -1       140 1.20000E+00 5.04300E-01 6.86500E-01
 -1       141 1.30000E+00 5.04300E-01 6.86500E-01
 -1       142 1.40000E+00 5.04300E-01 6.86500E-01
 -1       143 1.50000E+00 5.04300E-01 6.86500E-01
 -1       144 1.60000E+00 5.04300E-01 6.86500E-01
 -1       145 1.70000E+00 5.04300E-01 6.86500E-01
 -1       146 1.80000E+00 5.04300E-01 6.86500E-01
 -1       147 1.90000E+00 5.04300E-01 6.86500E-01
 -1       148 2.00000E+00 5.04300E-01 6.86500E-01
 -1       149 2.10000E+00 5.04300E-01 6.86500E-01
 -1       150 2.20000E+00 5.04300E-01 6.86500E-01
 -1       151 2.30000E+00 5.04300E-01 6.86500E-01
 -1       152 2.40000E+00 5.04300E-01 6.86500E-01
 -1       153 2.50000E+00 5.04300E-01 6.86500E-01
 -1       154 2.60000E+00 5.04300E-01 6.86500E-01
 -1       155 2.70000E+00 5.04300E-01 6.86500E-01
 -1       156 2.80000E+00 5.04300E-01 6.86500E-01
 -1       157 2.90000E+00 5.04300E-01 6.86500E-01
 -1       158 3.00000E+00 5.04300E-01 5.93250E-01
 -1       159 3.00000E+00 5.04300E-01 5.00000E-01
 -1       160 3.00000E+00 5.04300E-01 4.06750E-01
 -1       161 1.00000E-01 4.95700E-01 3.00000E-01
 -1       162 2.00000E-01 4.95700E-01 3.00000E-01
 -1       163 3.00000E-01 4.95700E-01 3.00000E-01
 -1       164 4.00000E-01 4.95700E-01 3.00000E-01
 -1       165 5.00000E-01 4.95700E-01 3.00000E-01
 -1       166 6.00000E-01 4.95700E-01 3.00000E-01
 -1       167 7.00000E-01 4.95700E-01 3.00000E-01
 -1       168 8.00000E-01 4.95700E-01 3.00000E-01
 -1       169 9.00000E-01 4.95700E-01 3.00000E-01
 -1       170 1.00000E+00 4.95700E-01 3.00000E-01
 -1       171 1.10000E+00 4.95700E-01 3.00000E-01
 -1       172 1.20000E+00 4.95700E-01 3.00000E-01
 -1       173 1.30000E+00 4.95700E-01 3.00000E-01
 -1       174 1.40000E+00 4.95700E-01 3.00000E-01
 -1       175 1.50000E+00 4.95700E-01 3.00000E-01
 -1       176 1.60000E+00 4.95700E-01 3.00000E-01
 -1       177 1.70000E+00 4.95700E-01 3.00000E-01
 -1       178 1.80000E+00 4.95700E-01 3.00000E-01
 -1       179 1.90000E+00 4.95700E-01 3.00000E-01
 -1       180 2.00000E+00 4.95700E-01 3.00000E-01
 -1       181 2.10000E+00 4.95700E-01 3.00000E-01
 -1       182 2.20000E+00 4.95700E-01 3.00000E-01
 -1       183 2.30000E+00 4.95700E-01 3.00000E-01
 -1       184 2.40000E+00 4.95700E-01 3.00000E-01
 -1       185 2.50000E+00 4.95700E-01 3.00000E-01
 -1       186 2.60000E+00 4.95700E-01 3.00000E-01
 -1       187 2.70000E+00 4.95700E-01 3.00000E-01
 -1       188 2.80000E+00 4.95700E-01 3.00000E-01
 -1       189 2.90000E+00 4.95700E-01 3.00000E-01
 -1       190 0.00000E+00 4.52850E-01 3.00000E-01
 -1       191 0.00000E+00 4.52850E-01 3.13500E-01
 -1       192 3.00000E+00 4.52850E-01 3.00000E-01
 -1       193 1.00000E-01 4.10000E-01 3.00000E-01
 -1       194 2.00000E-01 4.10000E-01 3.00000E-01
 -1       195 3.00000E-01 4.10000E-01 3.00000E-01
 -1       196 4.00000E-01 4.10000E-01 3.00000E-01
 -1       197 5.00000E-01 4.10000E-01 3.00000E-01
 -1       198 6.00000E-01 4.10000E-01 3.00000E-01
 -1       199 7.00000E-01 4.10000E-01 3.00000E-01
 -1       200 8.00000E-01 4.10000E-01 3.00000E-01
 -1       201 9.00000E-01 4.10000E-01 3.00000E-01
 -1       202 1.00000E+00 4.10000E-01 3.00000E-01
 -1       203 1.10000E+00 4.10000E-01 3.00000E-01
 -1       204 1.20000E+00 4.10000E-01 3.00000E-01
 -1       205 1.30000E+00 4.10000E-01 3.00000E-01
 -1       206 1.40000E+00 4.10000E-01 3.00000E-01
 -1       207 1.50000E+00 4.10000E-01 3.00000E-01
 -1       208 1.60000E+00 4.10000E-01 3.00000E-01
 -1       209 1.70000E+00 4.10000E-01 3.00000E-01
 -1       210 1.80000E+00 4.10000E-01 3.00000E-01
 -1       211 1.90000E+00 4.10000E-01 3.00000E-01
 -1       212 2.00000E+00 4.10000E-01 3.00000E-01
 -1       213 2.10000E+00 4.10000E-01 3.00000E-01
 -1       214 2.20000E+00 4.10000E-01 3.00000E-01
 -1       215 2.30000E+00 4.10000E-01 3.00000E-01
 -1       216 2.40000E+00 4.10000E-01 3.00000E-01
 -1       217 2.50000E+00 4.10000E-01 3.00000E-01
 -1       218 2.60000E+00 4.10000E-01 3.00000E-01
 -1       219 2.70000E+00 4.10000E-01 3.00000E-01
 -1       220 2.80000E+00 4.10000E-01 3.00000E-01
 -1       221 2.90000E+00 4.10000E-01 3.00000E-01
 -1       222 1.00000E-01 4.10000E-01 3.13500E-01
 -1       223 2.00000E-01 4.10000E-01 3.13500E-01
 -1       224 3.00000E-01 4.10000E-01 3.13500E-01
 -1       225 4.00000E-01 4.10000E-01 3.13500E-01
 -1       226 5.00000E-01 4.10000E-01 3.13500E-01
 -1       227 6.00000E-01 4.10000E-01 3.13500E-01
 -1       228 7.00000E-01 4.10000E-01 3.13500E-01
 -1       229 8.00000E-01 4.10000E-01 3.13500E-01
 -1       230 9.00000E-01 4.10000E-01 3.13500E-01
 -1       231 1.00000E+00 4.10000E-01 3.13500E-01
 -1       232 1.10000E+00 4.10000E-01 3.13500E-01
 -1       233 1.20000E+00 4.10000E-01 3.13500E-01
 -1       234 1.30000E+00 4.10000E-01 3.13500E-01
 -1       235 1.40000E+00 4.10000E-01 3.13500E-01
 -1       236 1.50000E+00 4.10000E-01 3.13500E-01
 -1       237 1.60000E+00 4.10000E-01 3.13500E-01
 -1       238 1.70000E+00 4.10000E-01 3.13500E-01
 -1       239 1.80000E+00 4.10000E-01 3.13500E-01
 -1       240 1.90000E+00 4.10000E-01 3.13500E-01
 -1       241 2.00000E+00 4.10000E-01 3.13500E-01
 -1       242 2.10000E+00 4.10000E-01 3.13500E-01
 -1       243 2.20000E+00 4.10000E-01 3.13500E-01
 -1       244 2.30000E+00 4.10000E-01 3.13500E-01
 -1       245 2.40000E+00 4.10000E-01 3.13500E-01
 -1       246 2.50000E+00 4.10000E-01 3.13500E-01
 -1       247 2.60000E+00 4.10000E-01 3.13500E-01
 -1       248 2.70000E+00 4.10000E-01 3.13500E-01
 -1       249 2.80000E+00 4.10000E-01 3.13500E-01
 -1       250 2.90000E+00 4.10000E-01 3.13500E-01
 -1       251 3.00000E+00 4.52850E-01 3.13500E-01
 -1       252 2.90000E+00 4.95700E-01 7.00000E-01
 -1       253 2.80000E+00 4.95700E-01 7.00000E-01
 -1       254 2.70000E+00 4.95700E-01 7.00000E-01
 -1       255 2.60000E+00 4.95700E-01 7.00000E-01
 -1       256 2.50000E+00 4.95700E-01 7.00000E-01
 -1       257 2.40000E+00 4.95700E-01 7.00000E-01
 -1       258 2.30000E+00 4.95700E-01 7.00000E-01
 -1       259 2.20000E+00 4.95700E-01 7.00000E-01
 -1       260 2.10000E+00 4.95700E-01 7.00000E-01
 -1       261 2.00000E+00 4.95700E-01 7.00000E-01
 -1       262 1.90000E+00 4.95700E-01 7.00000E-01
 -1       263 1.80000E+00 4.95700E-01 7.00000E-01
 -1       264 1.70000E+00 4.95700E-01 7.00000E-01
 -1       265 1.60000E+00 4.95700E-01 7.00000E-01
 -1       266 1.50000E+00 4.95700E-01 7.00000E-01
 -1       267 1.40000E+00 4.95700E-01 7.00000E-01
 -1       268 1.30000E+00 4.95700E-01 7.00000E-01
 -1       269 1.20000E+00 4.95700E-01 7.00000E-01
 -1       270 1.10000E+00 4.95700E-01 7.00000E-01
 -1       271 1.00000E+00 4.95700E-01 7.00000E-01
 -1       272 9.00000E-01 4.95700E-01 7.00000E-01
 -1       273 8.00000E-01 4.95700E-01 7.00000E-01
 -1       274 7.00000E-01 4.95700E-01 7.00000E-01
 -1       275 6.00000E-01 4.95700E-01 7.00000E-01
 -1       276 5.00000E-01 4.95700E-01 7.00000E-01
 -1       277 4.00000E-01 4.95700E-01 7.00000E-01
 -1       278 3.00000E-01 4.95700E-01 7.00000E-01
 -1       279 2.00000E-01 4.95700E-01 7.00000E-01
 -1       280 1.00000E-01 4.95700E-01 7.00000E-01
 -1       281 0.00000E+00 4.52850E-01 6.86500E-01
 -1       282 0.00000E+00 4.52850E-01 7.00000E-01
 -1       283 1.00000E-01 4.10000E-01 6.86500E-01
 -1       284 2.00000E-01 4.10000E-01 6.86500E-01
 -1       285 3.00000E-01 4.10000E-01 6.86500E-01
 -1       286 4.00000E-01 4.10000E-01 6.86500E-01
 -1       287 5.00000E-01 4.10000E-01 6.86500E-01
 -1       288 6.00000E-01 4.10000E-01 6.86500E-01
 -1       289 7.00000E-01 4.10000E-01 6.86500E-01
 -1       290 8.00000E-01 4.10000E-01 6.86500E-01
 -1       291 9.00000E-01 4.10000E-01 6.86500E-01
 -1       292 1.00000E+00 4.10000E-01 6.86500E-01
 -1       293 1.10000E+00 4.10000E-01 6.86500E-01
 -1       294 1.20000E+00 4.10000E-01 6.86500E-01
 -1       295 1.30000E+00 4.10000E-01 6.86500E-01
 -1       296 1.40000E+00 4.10000E-01 6.86500E-01
 -1       297 1.50000E+00 4.10000E-01 6.86500E-01
 -1       298 1.60000E+00 4.10000E-01 6.86500E-01
 -1       299 1.70000E+00 4.10000E-01 6.86500E-01
 -1       300 1.80000E+00 4.10000E-01 6.86500E-01
 -1       301 1.90000E+00 4.10000E-01 6.86500E-01
 -1       302 2.00000E+00 4.10000E-01 6.86500E-01
 -1       303 2.10000E+00 4.10000E-01 6.86500E-01
 -1       304 2.20000E+00 4.10000E-01 6.86500E-01
 -1       305 2.30000E+00 4.10000E-01 6.86500E-01
 -1       306 2.40000E+00 4.10000E-01 6.86500E-01
 -1       307 2.50000E+00 4.10000E-01 6.86500E-01
 -1       308 2.60000E+00 4.10000E-01 6.86500E-01
 -1       309 2.70000E+00 4.10000E-01 6.86500E-01
 -1       310 2.80000E+00 4.10000E-01 6.86500E-01
 -1       311 2.90000E+00 4.10000E-01 6.86500E-01
 -1       312 3.00000E+00 4.52850E-01 6.86500E-01
 -1       313 1.00000E-01 4.10000E-01 7.00000E-01
 -1       314 2.00000E-01 4.10000E-01 7.00000E-01
 -1       315 3.00000E-01 4.10000E-01 7.00000E-01
 -1       316 4.00000E-01 4.10000E-01 7.00000E-01
 -1       317 5.00000E-01 4.10000E-01 7.00000E-01
 -1       318 6.00000E-01 4.10000E-01 7.00000E-01
 -1       319 7.00000E-01 4.10000E-01 7.00000E-01
 -1       320 8.00000E-01 4.10000E-01 7.00000E-01
 -1       321 9.00000E-01 4.10000E-01 7.00000E-01
 -1       322 1.00000E+00 4.10000E-01 7.00000E-01
 -1       323 1.10000E+00 4.10000E-01 7.00000E-01
 -1       324 1.20000E+00 4.10000E-01 7.00000E-01
 -1       325 1.30000E+00 4.10000E-01 7.00000E-01
 -1       326 1.40000E+00 4.10000E-01 7.00000E-01
 -1       327 1.50000E+00 4.10000E-01 7.00000E-01
 -1       328 1.60000E+00 4.10000E-01 7.00000E-01
 -1       329 1.70000E+00 4.10000E-01 7.00000E-01
 -1       330 1.80000E+00 4.10000E-01 7.00000E-01
 -1       331 1.90000E+00 4.10000E-01 7.00000E-01
 -1       332 2.00000E+00 4.10000E-01 7.00000E-01
 -1       333 2.10000E+00 4.10000E-01 7.00000E-01
 -1       334 2.20000E+00 4.10000E-01 7.00000E-01
 -1       335 2.30000E+00 4.10000E-01 7.00000E-01
 -1       336 2.40000E+00 4.10000E-01 7.00000E-01
 -1       337 2.50000E+00 4.10000E-01 7.00000E-01
 -1       338 2.60000E+00 4.10000E-01 7.00000E-01
 -1       339 2.70000E+00 4.10000E-01 7.00000E-01
 -1       340 2.80000E+00 4.10000E-01 7.00000E-01
 -1       341 2.90000E+00 4.10000E-01 7.00000E-01
 -1       342 3.00000E+00 4.52850E-01 7.00000E-01
 -1       343 1.00000E-01 5.90000E-01 3.00000E-01
 -1       344 2.00000E-01 5.90000E-01 3.00000E-01
 -1       345 3.00000E-01 5.90000E-01 3.00000E-01
 -1       346 4.00000E-01 5.90000E-01 3.00000E-01
 -1       347 5.00000E-01 5.90000E-01 3.00000E-01
 -1       348 6.00000E-01 5.90000E-01 3.00000E-01
 -1       349 7.00000E-01 5.90000E-01 3.00000E-01
 -1       350 8.00000E-01 5.90000E-01 3.00000E-01
 -1       351 9.00000E-01 5.90000E-01 3.00000E-01
 -1       352 1.00000E+00 5.90000E-01 3.00000E-01
 -1       353 1.10000E+00 5.90000E-01 3.00000E-01
 -1       354 1.20000E+00 5.90000E-01 3.00000E-01
 -1       355 1.30000E+00 5.90000E-01 3.00000E-01
 -1       356 1.40000E+00 5.90000E-01 3.00000E-01
 -1       357 1.50000E+00 5.90000E-01 3.00000E-01
 -1       358 1.60000E+00 5.90000E-01 3.00000E-01
 -1       359 1.70000E+00 5.90000E-01 3.00000E-01
 -1       360 1.80000E+00 5.90000E-01 3.00000E-01
 -1       361 1.90000E+00 5.90000E-01 3.00000E-01
 -1       362 2.00000E+00 5.90000E-01 3.00000E-01
 -1       363 2.10000E+00 5.90000E-01 3.00000E-01
 -1       364 2.20000E+00 5.90000E-01 3.00000E-01
 -1       365 2.30000E+00 5.90000E-01 3.00000E-01
 -1       366 2.40000E+00 5.90000E-01 3.00000E-01
 -1       367 2.50000E+00 5.90000E-01 3.00000E-01
 -1       368 2.60000E+00 5.90000E-01 3.00000E-01
 -1       369 2.70000E+00 5.90000E-01 3.00000E-01
 -1       370 2.80000E+00 5.90000E-01 3.00000E-01
 -1       371 2.90000E+00 5.90000E-01 3.00000E-01
 -1       372 1.00000E-01 5.90000E-01 3.13500E-01
 -1       373 2.00000E-01 5.90000E-01 3.13500E-01
 -1       374 3.00000E-01 5.90000E-01 3.13500E-01
 -1       375 4.00000E-01 5.90000E-01 3.13500E-01
 -1       376 5.00000E-01 5.90000E-01 3.13500E-01
 -1       377 6.00000E-01 5.90000E-01 3.13500E-01
 -1       378 7.00000E-01 5.90000E-01 3.13500E-01
 -1       379 8.00000E-01 5.90000E-01 3.13500E-01
 -1       380 9.00000E-01 5.90000E-01 3.13500E-01
 -1       381 1.00000E+00 5.90000E-01 3.13500E-01
 -1       382 1.10000E+00 5.90000E-01 3.13500E-01
 -1       383 1.20000E+00 5.90000E-01 3.13500E-01
 -1       384 1.30000E+00 5.90000E-01 3.13500E-01
 -1       385 1.40000E+00 5.90000E-01 3.13500E-01
 -1       386 1.50000E+00 5.90000E-01 3.13500E-01
 -1       387 1.60000E+00 5.90000E-01 3.13500E-01
 -1       388 1.70000E+00 5.90000E-01 3.13500E-01
 -1       389 1.80000E+00 5.90000E-01 3.13500E-01
 -1       390 1.90000E+00 5.90000E-01 3.13500E-01
 -1       391 2.00000E+00 5.90000E-01 3.13500E-01
 -1       392 2.10000E+00 5.90000E-01 3.13500E-01
 -1       393 2.20000E+00 5.90000E-01 3.13500E-01
 -1       394 2.30000E+00 5.90000E-01 3.13500E-01
 -1       395 2.40000E+00 5.90000E-01 3.13500E-01
 -1       396 2.50000E+00 5.90000E-01 3.13500E-01
 -1       397 2.60000E+00 5.90000E-01 3.13500E-01
 -1       398 2.70000E+00 5.90000E-01 3.13500E-01
 -1       399 2.80000E+00 5.90000E-01 3.13500E-01
 -1       400 2.90000E+00 5.90000E-01 3.13500E-01
 -1       401 0.00000E+00 5.47150E-01 3.00000E-01
 -1       402 0.00000E+00 5.47150E-01 3.13500E-01
 -1       403 3.00000E+00 5.47150E-01 3.00000E-01
 -1       404 1.00000E-01 5.04300E-01 3.00000E-01
 -1       405 2.00000E-01 5.04300E-01 3.00000E-01
 -1       406 3.00000E-01 5.04300E-01 3.00000E-01
 -1       407 4.00000E-01 5.04300E-01 3.00000E-01
 -1       408 5.00000E-01 5.04300E-01 3.00000E-01
 -1       409 6.00000E-01 5.04300E-01 3.00000E-01
 -1       410 7.00000E-01 5.04300E-01 3.00000E-01
 -1       411 8.00000E-01 5.04300E-01 3.00000E-01
 -1       412 9.00000E-01 5.04300E-01 3.00000E-01
 -1       413 1.00000E+00 5.04300E-01 3.00000E-01
 -1       414 1.10000E+00 5.04300E-01 3.00000E-01
 -1       415 1.20000E+00 5.04300E-01 3.00000E-01
 -1       416 1.30000E+00 5.04300E-01 3.00000E-01
 -1       417 1.40000E+00 5.04300E-01 3.00000E-01
 -1       418 1.50000E+00 5.04300E-01 3.00000E-01
 -1       419 1.60000E+00 5.04300E-01 3.00000E-01
 -1       420 1.70000E+00 5.04300E-01 3.00000E-01
 -1       421 1.80000E+00 5.04300E-01 3.00000E-01
 -1       422 1.90000E+00 5.04300E-01 3.00000E-01
 -1       423 2.00000E+00 5.04300E-01 3.00000E-01
 -1       424 2.10000E+00 5.04300E-01 3.00000E-01
 -1       425 2.20000E+00 5.04300E-01 3.00000E-01
 -1       426 2.30000E+00 5.04300E-01 3.00000E-01
 -1       427 2.40000E+00 5.04300E-01 3.00000E-01
 -1       428 2.50000E+00 5.04300E-01 3.00000E-01
 -1       429 2.60000E+00 5.04300E-01 3.00000E-01
 -1       430 2.70000E+00 5.04300E-01 3.00000E-01
 -1       431 2.80000E+00 5.04300E-01 3.00000E-01
 -1       432 2.90000E+00 5.04300E-01 3.00000E-01
 -1       433 3.00000E+00 5.47150E-01 3.13500E-01
 -1       434 0.00000E+00 5.47150E-01 7.00000E-01
 -1       435 0.00000E+00 5.47150E-01 6.86500E-01
 -1       436 2.90000E+00 5.04300E-01 7.00000E-01
 -1       437 2.80000E+00 5.04300E-01 7.00000E-01
 -1       438 2.70000E+00 5.04300E-01 7.00000E-01
 -1       439 2.60000E+00 5.04300E-01 7.00000E-01
 -1       440 2.50000E+00 5.04300E-01 7.00000E-01
 -1       441 2.40000E+00 5.04300E-01 7.00000E-01
 -1       442 2.30000E+00 5.04300E-01 7.00000E-01
 -1       443 2.20000E+00 5.04300E-01 7.00000E-01
 -1       444 2.10000E+00 5.04300E-01 7.00000E-01
 -1       445 2.00000E+00 5.04300E-01 7.00000E-01
 -1       446 1.90000E+00 5.04300E-01 7.00000E-01
 -1       447 1.80000E+00 5.04300E-01 7.00000E-01
 -1       448 1.70000E+00 5.04300E-01 7.00000E-01
 -1       449 1.60000E+00 5.04300E-01 7.00000E-01
 -1       450 1.50000E+00 5.04300E-01 7.00000E-01
 -1       451 1.40000E+00 5.04300E-01 7.00000E-01
 -1       452 1.30000E+00 5.04300E-01 7.00000E-01
 -1       453 1.20000E+00 5.04300E-01 7.00000E-01
 -1       454 1.10000E+00 5.04300E-01 7.00000E-01
 -1       455 1.00000E+00 5.04300E-01 7.00000E-01
 -1       456 9.00000E-01 5.04300E-01 7.00000E-01
 -1       457 8.00000E-01 5.04300E-01 7.00000E-01
 -1       458 7.00000E-01 5.04300E-01 7.00000E-01
 -1       459 6.00000E-01 5.04300E-01 7.00000E-01
 -1       460 5.00000E-01 5.04300E-01 7.00000E-01
 -1       461 4.00000E-01 5.04300E-01 7.00000E-01
 -1       462 3.00000E-01 5.04300E-01 7.00000E-01
 -1       463 2.00000E-01 5.04300E-01 7.00000E-01
 -1       464 1.00000E-01 5.04300E-01 7.00000E-01
 -1       465 3.00000E+00 5.47150E-01 7.00000E-01
 -1       466 1.00000E-01 5.90000E-01 7.00000E-01
 -1       467 2.00000E-01 5.90000E-01 7.00000E-01
 -1       468 3.00000E-01 5.90000E-01 7.00000E-01
 -1       469 4.00000E-01 5.90000E-01 7.00000E-01
 -1       470 5.00000E-01 5.90000E-01 7.00000E-01
 -1       471 6.00000E-01 5.90000E-01 7.00000E-01
 -1       472 7.00000E-01 5.90000E-01 7.00000E-01
 -1       473 8.00000E-01 5.90000E-01 7.00000E-01
 -1       474 9.00000E-01 5.90000E-01 7.00000E-01
 -1       475 1.00000E+00 5.90000E-01 7.00000E-01
 -1       476 1.10000E+00 5.90000E-01 7.00000E-01
 -1       477 1.20000E+00 5.90000E-01 7.00000E-01
 -1       478 1.30000E+00 5.90000E-01 7.00000E-01
 -1       479 1.40000E+00 5.90000E-01 7.00000E-01
 -1       480 1.50000E+00 5.90000E-01 7.00000E-01
 -1       481 1.60000E+00 5.90000E-01 7.00000E-01
 -1       482 1.70000E+00 5.90000E-01 7.00000E-01
 -1       483 1.80000E+00 5.90000E-01 7.00000E-01
 -1       484 1.90000E+00 5.90000E-01 7.00000E-01
 -1       485 2.00000E+00 5.90000E-01 7.00000E-01
 -1       486 2.10000E+00 5.90000E-01 7.00000E-01
 -1       487 2.20000E+00 5.90000E-01 7.00000E-01
 -1       488 2.30000E+00 5.90000E-01 7.00000E-01
 -1       489 2.40000E+00 5.90000E-01 7.00000E-01
 -1       490 2.50000E+00 5.90000E-01 7.00000E-01
 -1       491 2.60000E+00 5.90000E-01 7.00000E-01
 -1       492 2.70000E+00 5.90000E-01 7.00000E-01
 -1       493 2.80000E+00 5.90000E-01 7.00000E-01
 -1       494 2.90000E+00 5.90000E-01 7.00000E-01
 -1       495 1.00000E-01 5.90000E-01 6.86500E-01
 -1       496 2.00000E-01 5.90000E-01 6.86500E-01
 -1       497 3.00000E-01 5.90000E-01 6.86500E-01
 -1       498 4.00000E-01 5.90000E-01 6.86500E-01
 -1       499 5.00000E-01 5.90000E-01 6.86500E-01
 -1       500 6.00000E-01 5.90000E-01 6.86500E-01
 -1       501 7.00000E-01 5.90000E-01 6.86500E-01
 -1       502 8.00000E-01 5.90000E-01 6.86500E-01
 -1       503 9.00000E-01 5.90000E-01 6.86500E-01
 -1       504 1.00000E+00 5.90000E-01 6.86500E-01
 -1       505 1.10000E+00 5.90000E-01 6.86500E-01
 -1       506 1.20000E+00 5.90000E-01 6.86500E-01
 -1       507 1.30000E+00 5.90000E-01 6.86500E-01
 -1       508 1.40000E+00 5.90000E-01 6.86500E-01
 -1       509 1.50000E+00 5.90000E-01 6.86500E-01
 -1       510 1.60000E+00 5.90000E-01 6.86500E-01
 -1       511 1.70000E+00 5.90000E-01 6.86500E-01
 -1       512 1.80000E+00 5.90000E-01 6.86500E-01
 -1       513 1.90000E+00 5.90000E-01 6.86500E-01
 -1       514 2.00000E+00 5.90000E-01 6.86500E-01
 -1       515 2.10000E+00 5.90000E-01 6.86500E-01
 -1       516 2.20000E+00 5.90000E-01 6.86500E-01
 -1       517 2.30000E+00 5.90000E-01 6.86500E-01
 -1       518 2.40000E+00 5.90000E-01 6.86500E-01
 -1       519 2.50000E+00 5.90000E-01 6.86500E-01
 -1       520 2.60000E+00 5.90000E-01 6.86500E-01
 -1       521 2.70000E+00 5.90000E-01 6.86500E-01
 -1       522 2.80000E+00 5.90000E-01 6.86500E-01
 -1       523 2.90000E+00 5.90000E-01 6.86500E-01
 -1       524 3.00000E+00 5.47150E-01 6.86500E-01
 -1       525 1.00000E-01 4.95700E-01 4.06750E-01
 -1       526 2.00000E-01 4.95700E-01 4.06750E-01
 -1       527 3.00000E-01 4.95700E-01 4.06750E-01
 -1       528 4.00000E-01 4.95700E-01 4.06750E-01
 -1       529 5.00000E-01 4.95700E-01 4.06750E-01
 -1       530 6.00000E-01 4.95700E-01 4.06750E-01
 -1       531 7.00000E-01 4.95700E-01 4.06750E-01
 -1       532 8.00000E-01 4.95700E-01 4.06750E-01
 -1       533 9.00000E-01 4.95700E-01 4.06750E-01
 -1       534 1.00000E+00 4.95700E-01 4.06750E-01
 -1       535 1.10000E+00 4.95700E-01 4.06750E-01
 -1       536 1.20000E+00 4.95700E-01 4.06750E-01
 -1       537 1.30000E+00 4.95700E-01 4.06750E-01
 -1       538 1.40000E+00 4.95700E-01 4.06750E-01
 -1       539 1.50000E+00 4.95700E-01 4.06750E-01
 -1       540 1.60000E+00 4.95700E-01 4.06750E-01
 -1       541 1.70000E+00 4.95700E-01 4.06750E-01
 -1       542 1.80000E+00 4.95700E-01 4.06750E-01
 -1       543 1.90000E+00 4.95700E-01 4.06750E-01
 -1       544 2.00000E+00 4.95700E-01 4.06750E-01
 -1       545 2.10000E+00 4.95700E-01 4.06750E-01
 -1       546 2.20000E+00 4.95700E-01 4.06750E-01
 -1       547 2.30000E+00 4.95700E-01 4.06750E-01
 -1       548 2.40000E+00 4.95700E-01 4.06750E-01
 -1       549 2.50000E+00 4.95700E-01 4.06750E-01
 -1       550 2.60000E+00 4.95700E-01 4.06750E-01
 -1       551 2.70000E+00 4.95700E-01 4.06750E-01
 -1       552 2.80000E+00 4.95700E-01 4.06750E-01
 -1       553 2.90000E+00 4.95700E-01 4.06750E-01
 -1       554 1.00000E-01 4.95700E-01 5.00000E-01
 -1       555 2.00000E-01 4.95700E-01 5.00000E-01
 -1       556 3.00000E-01 4.95700E-01 5.00000E-01
 -1       557 4.00000E-01 4.95700E-01 5.00000E-01
 -1       558 5.00000E-01 4.95700E-01 5.00000E-01
 -1       559 6.00000E-01 4.95700E-01 5.00000E-01
 -1       560 7.00000E-01 4.95700E-01 5.00000E-01
 -1       561 8.00000E-01 4.95700E-01 5.00000E-01
 -1       562 9.00000E-01 4.95700E-01 5.00000E-01
 -1       563 1.00000E+00 4.95700E-01 5.00000E-01
 -1       564 1.10000E+00 4.95700E-01 5.00000E-01
 -1       565 1.20000E+00 4.95700E-01 5.00000E-01
 -1       566 1.30000E+00 4.95700E-01 5.00000E-01
 -1       567 1.40000E+00 4.95700E-01 5.00000E-01
 -1       568 1.50000E+00 4.95700E-01 5.00000E-01
 -1       569 1.60000E+00 4.95700E-01 5.00000E-01
 -1       570 1.70000E+00 4.95700E-01 5.00000E-01
 -1       571 1.80000E+00 4.95700E-01 5.00000E-01
 -1       572 1.90000E+00 4.95700E-01 5.00000E-01
 -1       573 2.00000E+00 4.95700E-01 5.00000E-01
 -1       574 2.10000E+00 4.95700E-01 5.00000E-01
 -1       575 2.20000E+00 4.95700E-01 5.00000E-01
 -1       576 2.30000E+00 4.95700E-01 5.00000E-01
 -1       577 2.40000E+00 4.95700E-01 5.00000E-01
 -1       578 2.50000E+00 4.95700E-01 5.00000E-01
 -1       579 2.60000E+00 4.95700E-01 5.00000E-01
 -1       580 2.70000E+00 4.95700E-01 5.00000E-01
 -1       581 2.80000E+00 4.95700E-01 5.00000E-01
 -1       582 2.90000E+00 4.95700E-01 5.00000E-01
 -1       583 1.00000E-01 4.95700E-01 5.93250E-01
 -1       584 2.00000E-01 4.95700E-01 5.93250E-01
 -1       585 3.00000E-01 4.95700E-01 5.93250E-01
 -1       586 4.00000E-01 4.95700E-01 5.93250E-01
 -1       587 5.00000E-01 4.95700E-01 5.93250E-01
 -1       588 6.00000E-01 4.95700E-01 5.93250E-01
 -1       589 7.00000E-01 4.95700E-01 5.93250E-01
 -1       590 8.00000E-01 4.95700E-01 5.93250E-01
 -1       591 9.00000E-01 4.95700E-01 5.93250E-01
 -1       592 1.00000E+00 4.95700E-01 5.93250E-01
 -1       593 1.10000E+00 4.95700E-01 5.93250E-01
 -1       594 1.20000E+00 4.95700E-01 5.93250E-01
 -1       595 1.30000E+00 4.95700E-01 5.93250E-01
 -1       596 1.40000E+00 4.95700E-01 5.93250E-01
 -1       597 1.50000E+00 4.95700E-01 5.93250E-01
 -1       598 1.60000E+00 4.95700E-01 5.93250E-01
 -1       599 1.70000E+00 4.95700E-01 5.93250E-01
 -1       600 1.80000E+00 4.95700E-01 5.93250E-01
 -1       601 1.90000E+00 4.95700E-01 5.93250E-01
 -1       602 2.00000E+00 4.95700E-01 5.93250E-01
 -1       603 2.10000E+00 4.95700E-01 5.93250E-01
 -1       604 2.20000E+00 4.95700E-01 5.93250E-01
 -1       605 2.30000E+00 4.95700E-01 5.93250E-01
 -1       606 2.40000E+00 4.95700E-01 5.93250E-01
 -1       607 2.50000E+00 4.95700E-01 5.93250E-01
 -1       608 2.60000E+00 4.95700E-01 5.93250E-01
 -1       609 2.70000E+00 4.95700E-01 5.93250E-01
 -1       610 2.80000E+00 4.95700E-01 5.93250E-01
 -1       611 2.90000E+00 4.95700E-01 5.93250E-01
 -1       612 1.00000E-01 5.04300E-01 5.93250E-01
 -1       613 2.00000E-01 5.04300E-01 5.93250E-01
 -1       614 3.00000E-01 5.04300E-01 5.93250E-01
 -1       615 4.00000E-01 5.04300E-01 5.93250E-01
 -1       616 5.00000E-01 5.04300E-01 5.93250E-01
 -1       617 6.00000E-01 5.04300E-01 5.93250E-01
 -1       618 7.00000E-01 5.04300E-01 5.93250E-01
 -1       619 8.00000E-01 5.04300E-01 5.93250E-01
 -1       620 9.00000E-01 5.04300E-01 5.93250E-01
 -1       621 1.00000E+00 5.04300E-01 5.93250E-01
 -1       622 1.10000E+00 5.04300E-01 5.93250E-01
 -1       623 1.20000E+00 5.04300E-01 5.93250E-01
 -1       624 1.30000E+00 5.04300E-01 5.93250E-01
 -1       625 1.40000E+00 5.04300E-01 5.93250E-01
 -1       626 1.50000E+00 5.04300E-01 5.93250E-01
 -1       627 1.60000E+00 5.04300E-01 5.93250E-01
 -1       628 1.70000E+00 5.04300E-01 5.93250E-01
 -1       629 1.80000E+00 5.04300E-01 5.93250E-01
 -1       630 1.90000E+00 5.04300E-01 5.93250E-01
 -1       631 2.00000E+00 5.04300E-01 5.93250E-01
 -1       632 2.10000E+00 5.04300E-01 5.93250E-01
 -1       633 2.20000E+00 5.04300E-01 5.93250E-01
 -1       634 2.30000E+00 5.04300E-01 5.93250E-01
 -1       635 2.40000E+00 5.04300E-01 5.93250E-01
 -1       636 2.50000E+00 5.04300E-01 5.93250E-01
 -1       637 2.60000E+00 5.04300E-01 5.93250E-01
 -1       638 2.70000E+00 5.04300E-01 5.93250E-01
 -1       639 2.80000E+00 5.04300E-01 5.93250E-01
 -1       640 2.90000E+00 5.04300E-01 5.93250E-01
 -1       641 1.00000E-01 5.04300E-01 5.00000E-01
 -1       642 2.00000E-01 5.04300E-01 5.00000E-01
 -1       643 3.00000E-01 5.04300E-01 5.00000E-01
 -1       644 4.00000E-01 5.04300E-01 5.00000E-01
 -1       645 5.00000E-01 5.04300E-01 5.00000E-01
 -1       646 6.00000E-01 5.04300E-01 5.00000E-01
 -1       647 7.00000E-01 5.04300E-01 5.00000E-01
 -1       648 8.00000E-01 5.04300E-01 5.00000E-01
 -1       649 9.00000E-01 5.04300E-01 5.00000E-01
 -1       650 1.00000E+00 5.04300E-01 5.00000E-01
 -1       651 1.10000E+00 5.04300E-01 5.00000E-01
 -1       652 1.20000E+00 5.04300E-01 5.00000E-01
 -1       653 1.30000E+00 5.04300E-01 5.00000E-01
 -1       654 1.40000E+00 5.04300E-01 5.00000E-01
 -1       655 1.50000E+00 5.04300E-01 5.00000E-01
 -1       656 1.60000E+00 5.04300E-01 5.00000E-01
 -1       657 1.70000E+00 5.04300E-01 5.00000E-01
 -1       658 1.80000E+00 5.04300E-01 5.00000E-01
 -1       659 1.90000E+00 5.04300E-01 5.00000E-01
 -1       660 2.00000E+00 5.04300E-01 5.00000E-01
 -1       661 2.10000E+00 5.04300E-01 5.00000E-01
 -1       662 2.20000E+00 5.04300E-01 5.00000E-01
 -1       663 2.30000E+00 5.04300E-01 5.00000E-01
 -1       664 2.40000E+00 5.04300E-01 5.00000E-01
 -1       665 2.50000E+00 5.04300E-01 5.00000E-01
 -1       666 2.60000E+00 5.04300E-01 5.00000E-01
 -1       667 2.70000E+00 5.04300E-01 5.00000E-01
 -1       668 2.80000E+00 5.04300E-01 5.00000E-01
 -1       669 2.90000E+00 5.04300E-01 5.00000E-01
 -1       670 1.00000E-01 5.04300E-01 4.06750E-01
 -1       671 2.00000E-01 5.04300E-01 4.06750E-01
 -1       672 3.00000E-01 5.04300E-01 4.06750E-01
 -1       673 4.00000E-01 5.04300E-01 4.06750E-01
 -1       674 5.00000E-01 5.04300E-01 4.06750E-01
 -1       675 6.00000E-01 5.04300E-01 4.06750E-01
 -1       676 7.00000E-01 5.04300E-01 4.06750E-01
 -1       677 8.00000E-01 5.04300E-01 4.06750E-01
 -1       678 9.00000E-01 5.04300E-01 4.06750E-01
 -1       679 1.00000E+00 5.04300E-01 4.06750E-01
 -1       680 1.10000E+00 5.04300E-01 4.06750E-01
 -1       681 1.20000E+00 5.04300E-01 4.06750E-01
 -1       682 1.30000E+00 5.04300E-01 4.06750E-01
 -1       683 1.40000E+00 5.04300E-01 4.06750E-01
 -1       684 1.50000E+00 5.04300E-01 4.06750E-01
 -1       685 1.60000E+00 5.04300E-01 4.06750E-01
 -1       686 1.70000E+00 5.04300E-01 4.06750E-01
 -1       687 1.80000E+00 5.04300E-01 4.06750E-01
 -1       688 1.90000E+00 5.04300E-01 4.06750E-01
 -1       689 2.00000E+00 5.04300E-01 4.06750E-01
 -1       690 2.10000E+00 5.04300E-01 4.06750E-01
 -1       691 2.20000E+00 5.04300E-01 4.06750E-01
 -1       692 2.30000E+00 5.04300E-01 4.06750E-01
 -1       693 2.40000E+00 5.04300E-01 4.06750E-01
 -1       694 2.50000E+00 5.04300E-01 4.06750E-01
 -1       695 2.60000E+00 5.04300E-01 4.06750E-01
 -1       696 2.70000E+00 5.04300E-01 4.06750E-01
 -1       697 2.80000E+00 5.04300E-01 4.06750E-01
 -1       698 2.90000E+00 5.04300E-01 4.06750E-01
 -1       699 1.00000E-01 4.52850E-01 3.00000E-01
 -1       700 2.00000E-01 4.52850E-01 3.00000E-01
 -1       701 3.00000E-01 4.52850E-01 3.00000E-01
 -1       702 4.00000E-01 4.52850E-01 3.00000E-01
 -1       703 5.00000E-01 4.52850E-01 3.00000E-01
 -1       704 6.00000E-01 4.52850E-01 3.00000E-01
 -1       705 7.00000E-01 4.52850E-01 3.00000E-01
 -1       706 8.00000E-01 4.52850E-01 3.00000E-01
 -1       707 9.00000E-01 4.52850E-01 3.00000E-01
 -1       708 1.00000E+00 4.52850E-01 3.00000E-01
 -1       709 1.10000E+00 4.52850E-01 3.00000E-01
 -1       710 1.20000E+00 4.52850E-01 3.00000E-01
 -1       711 1.30000E+00 4.52850E-01 3.00000E-01
 -1       712 1.40000E+00 4.52850E-01 3.00000E-01
 -1       713 1.50000E+00 4.52850E-01 3.00000E-01
 -1       714 1.60000E+00 4.52850E-01 3.00000E-01
 -1       715 1.70000E+00 4.52850E-01 3.00000E-01
 -1       716 1.80000E+00 4.52850E-01 3.00000E-01
 -1       717 1.90000E+00 4.52850E-01 3.00000E-01
 -1       718 2.00000E+00 4.52850E-01 3.00000E-01
 -1       719 2.10000E+00 4.52850E-01 3.00000E-01
 -1       720 2.20000E+00 4.52850E-01 3.00000E-01
 -1       721 2.30000E+00 4.52850E-01 3.00000E-01
 -1       722 2.40000E+00 4.52850E-01 3.00000E-01
 -1       723 2.50000E+00 4.52850E-01 3.00000E-01
 -1       724 2.60000E+00 4.52850E-01 3.00000E-01
 -1       725 2.70000E+00 4.52850E-01 3.00000E-01
 -1       726 2.80000E+00 4.52850E-01 3.00000E-01
 -1       727 2.90000E+00 4.52850E-01 3.00000E-01
 -1       728 1.00000E-01 4.52850E-01 3.13500E-01
 -1       729 2.00000E-01 4.52850E-01 3.13500E-01
 -1       730 3.00000E-01 4.52850E-01 3.13500E-01
 -1       731 4.00000E-01 4.52850E-01 3.13500E-01
 -1       732 5.00000E-01 4.52850E-01 3.13500E-01
 -1       733 6.00000E-01 4.52850E-01 3.13500E-01
 -1       734 7.00000E-01 4.52850E-01 3.13500E-01
 -1       735 8.00000E-01 4.52850E-01 3.13500E-01
 -1       736 9.00000E-01 4.52850E-01 3.13500E-01
 -1       737 1.00000E+00 4.52850E-01 3.13500E-01
 -1       738 1.10000E+00 4.52850E-01 3.13500E-01
 -1       739 1.20000E+00 4.52850E-01 3.13500E-01
 -1       740 1.30000E+00 4.52850E-01 3.13500E-01
 -1       741 1.40000E+00 4.52850E-01 3.13500E-01
 -1       742 1.50000E+00 4.52850E-01 3.13500E-01
 -1       743 1.60000E+00 4.52850E-01 3.13500E-01
 -1       744 1.70000E+00 4.52850E-01 3.13500E-01
 -1       745 1.80000E+00 4.52850E-01 3.13500E-01
 -1       746 1.90000E+00 4.52850E-01 3.13500E-01
 -1       747 2.00000E+00 4.52850E-01 3.13500E-01
 -1       748 2.10000E+00 4.52850E-01 3.13500E-01
 -1       749 2.20000E+00 4.52850E-01 3.13500E-01
 -1       750 2.30000E+00 4.52850E-01 3.13500E-01
 -1       751 2.40000E+00 4.52850E-01 3.13500E-01
 -1       752 2.50000E+00 4.52850E-01 3.13500E-01
 -1       753 2.60000E+00 4.52850E-01 3.13500E-01
 -1       754 2.70000E+00 4.52850E-01 3.13500E-01
 -1       755 2.80000E+00 4.52850E-01 3.13500E-01
 -1       756 2.90000E+00 4.52850E-01 3.13500E-01
 -1       757 1.00000E-01 4.52850E-01 6.86500E-01
 -1       758 2.00000E-01 4.52850E-01 6.86500E-01
 -1       759 3.00000E-01 4.52850E-01 6.86500E-01
 -1       760 4.00000E-01 4.52850E-01 6.86500E-01
 -1       761 5.00000E-01 4.52850E-01 6.86500E-01
 -1       762 6.00000E-01 4.52850E-01 6.86500E-01
 -1       763 7.00000E-01 4.52850E-01 6.86500E-01
 -1       764 8.00000E-01 4.52850E-01 6.86500E-01
 -1       765 9.00000E-01 4.52850E-01 6.86500E-01
 -1       766 1.00000E+00 4.52850E-01 6.86500E-01
 -1       767 1.10000E+00 4.52850E-01 6.86500E-01
 -1       768 1.20000E+00 4.52850E-01 6.86500E-01
 -1       769 1.30000E+00 4.52850E-01 6.86500E-01
 -1       770 1.40000E+00 4.52850E-01 6.86500E-01
 -1       771 1.50000E+00 4.52850E-01 6.86500E-01
 -1       772 1.60000E+00 4.52850E-01 6.86500E-01
 -1       773 1.70000E+00 4.52850E-01 6.86500E-01
 -1       774 1.80000E+00 4.52850E-01 6.86500E-01
 -1       775 1.90000E+00 4.52850E-01 6.86500E-01
 -1       776 2.00000E+00 4.52850E-01 6.86500E-01
 -1       777 2.10000E+00 4.52850E-01 6.86500E-01
 -1       778 2.20000E+00 4.52850E-01 6.86500E-01
 -1       779 2.30000E+00 4.52850E-01 6.86500E-01
 -1       780 2.40000E+00 4.52850E-01 6.86500E-01
 -1       781 2.50000E+00 4.52850E-01 6.86500E-01
 -1       782 2.60000E+00 4.52850E-01 6.86500E-01
 -1       783 2.70000E+00 4.52850E-01 6.86500E-01
 -1       784 2.80000E+00 4.52850E-01 6.86500E-01
 -1       785 2.90000E+00 4.52850E-01 6.86500E-01
 -1       786 1.00000E-01 4.52850E-01 7.00000E-01
 -1       787 2.00000E-01 4.52850E-01 7.00000E-01
 -1       788 3.00000E-01 4.52850E-01 7.00000E-01
 -1       789 4.00000E-01 4.52850E-01 7.00000E-01
 -1       790 5.00000E-01 4.52850E-01 7.00000E-01
 -1       791 6.00000E-01 4.52850E-01 7.00000E-01
 -1       792 7.00000E-01 4.52850E-01 7.00000E-01
 -1       793 8.00000E-01 4.52850E-01 7.00000E-01
 -1       794 9.00000E-01 4.52850E-01 7.00000E-01
 -1       795 1.00000E+00 4.52850E-01 7.00000E-01
 -1       796 1.10000E+00 4.52850E-01 7.00000E-01
 -1       797 1.20000E+00 4.52850E-01 7.00000E-01
 -1       798 1.30000E+00 4.52850E-01 7.00000E-01
 -1       799 1.40000E+00 4.52850E-01 7.00000E-01
 -1       800 1.50000E+00 4.52850E-01 7.00000E-01
 -1       801 1.60000E+00 4.52850E-01 7.00000E-01
 -1       802 1.70000E+00 4.52850E-01 7.00000E-01
 -1       803 1.80000E+00 4.52850E-01 7.00000E-01
 -1       804 1.90000E+00 4.52850E-01 7.00000E-01
 -1       805 2.00000E+00 4.52850E-01 7.00000E-01
 -1       806 2.10000E+00 4.52850E-01 7.00000E-01
 -1       807 2.20000E+00 4.52850E-01 7.00000E-01
 -1       808 2.30000E+00 4.52850E-01 7.00000E-01
 -1       809 2.40000E+00 4.52850E-01 7.00000E-01
 -1       810 2.50000E+00 4.52850E-01 7.00000E-01
 -1       811 2.60000E+00 4.52850E-01 7.00000E-01
 -1       812 2.70000E+00 4.52850E-01 7.00000E-01
 -1       813 2.80000E+00 4.52850E-01 7.00000E-01
 -1       814 2.90000E+00 4.52850E-01 7.00000E-01
 -1       815 1.00000E-01 5.47150E-01 3.00000E-01
 -1       816 2.00000E-01 5.47150E-01 3.00000E-01
 -1       817 3.00000E-01 5.47150E-01 3.00000E-01
 -1       818 4.00000E-01 5.47150E-01 3.00000E-01
 -1       819 5.00000E-01 5.47150E-01 3.00000E-01
 -1       820 6.00000E-01 5.47150E-01 3.00000E-01
 -1       821 7.00000E-01 5.47150E-01 3.00000E-01
 -1       822 8.00000E-01 5.47150E-01 3.00000E-01
 -1       823 9.00000E-01 5.47150E-01 3.00000E-01
 -1       824 1.00000E+00 5.47150E-01 3.00000E-01
 -1       825 1.10000E+00 5.47150E-01 3.00000E-01
 -1       826 1.20000E+00 5.47150E-01 3.00000E-01
 -1       827 1.30000E+00 5.47150E-01 3.00000E-01
 -1       828 1.40000E+00 5.47150E-01 3.00000E-01
 -1       829 1.50000E+00 5.47150E-01 3.00000E-01
 -1       830 1.60000E+00 5.47150E-01 3.00000E-01
 -1       831 1.70000E+00 5.47150E-01 3.00000E-01
 -1       832 1.80000E+00 5.47150E-01 3.00000E-01
 -1       833 1.90000E+00 5.47150E-01 3.00000E-01
 -1       834 2.00000E+00 5.47150E-01 3.00000E-01
 -1       835 2.10000E+00 5.47150E-01 3.00000E-01
 -1       836 2.20000E+00 5.47150E-01 3.00000E-01
 -1       837 2.30000E+00 5.47150E-01 3.00000E-01
 -1       838 2.40000E+00 5.47150E-01 3.00000E-01
 -1       839 2.50000E+00 5.47150E-01 3.00000E-01
 -1       840 2.60000E+00 5.47150E-01 3.00000E-01
 -1       841 2.70000E+00 5.47150E-01 3.00000E-01
 -1       842 2.80000E+00 5.47150E-01 3.00000E-01
 -1       843 2.90000E+00 5.47150E-01 3.00000E-01
 -1       844 1.00000E-01 5.47150E-01 3.13500E-01
 -1       845 2.00000E-01 5.47150E-01 3.13500E-01
 -1       846 3.00000E-01 5.47150E-01 3.13500E-01
 -1       847 4.00000E-01 5.47150E-01 3.13500E-01
 -1       848 5.00000E-01 5.47150E-01 3.13500E-01
 -1       849 6.00000E-01 5.47150E-01 3.13500E-01
 -1       850 7.00000E-01 5.47150E-01 3.13500E-01
 -1       851 8.00000E-01 5.47150E-01 3.13500E-01
 -1       852 9.00000E-01 5.47150E-01 3.13500E-01
 -1       853 1.00000E+00 5.47150E-01 3.13500E-01
 -1       854 1.10000E+00 5.47150E-01 3.13500E-01
 -1       855 1.20000E+00 5.47150E-01 3.13500E-01
 -1       856 1.30000E+00 5.47150E-01 3.13500E-01
 -1       857 1.40000E+00 5.47150E-01 3.13500E-01
 -1       858 1.50000E+00 5.47150E-01 3.13500E-01
 -1       859 1.60000E+00 5.47150E-01 3.13500E-01
 -1       860 1.70000E+00 5.47150E-01 3.13500E-01
 -1       861 1.80000E+00 5.47150E-01 3.13500E-01
 -1       862 1.90000E+00 5.47150E-01 3.13500E-01
 -1       863 2.00000E+00 5.47150E-01 3.13500E-01
 -1       864 2.10000E+00 5.47150E-01 3.13500E-01
 -1       865 2.20000E+00 5.47150E-01 3.13500E-01
 -1       866 2.30000E+00 5.47150E-01 3.13500E-01
 -1       867 2.40000E+00 5.47150E-01 3.13500E-01
 -1       868 2.50000E+00 5.47150E-01 3.13500E-01
 -1       869 2.60000E+00 5.47150E-01 3.13500E-01
 -1       870 2.70000E+00 5.47150E-01 3.13500E-01
 -1       871 2.80000E+00 5.47150E-01 3.13500E-01
 -1       872 2.90000E+00 5.47150E-01 3.13500E-01
 -1       873 2.90000E+00 5.47150E-01 7.00000E-01
 -1       874 2.80000E+00 5.47150E-01 7.00000E-01
 -1       875 2.70000E+00 5.47150E-01 7.00000E-01
 -1       876 2.60000E+00 5.47150E-01 7.00000E-01
 -1       877 2.50000E+00 5.47150E-01 7.00000E-01
 -1       878 2.40000E+00 5.47150E-01 7.00000E-01
 -1       879 2.30000E+00 5.47150E-01 7.00000E-01
 -1       880 2.20000E+00 5.47150E-01 7.00000E-01
 -1       881 2.10000E+00 5.47150E-01 7.00000E-01
 -1       882 2.00000E+00 5.47150E-01 7.00000E-01
 -1       883 1.90000E+00 5.47150E-01 7.00000E-01
 -1       884 1.80000E+00 5.47150E-01 7.00000E-01
 -1       885 1.70000E+00 5.47150E-01 7.00000E-01
 -1       886 1.60000E+00 5.47150E-01 7.00000E-01
 -1       887 1.50000E+00 5.47150E-01 7.00000E-01
 -1       888 1.40000E+00 5.47150E-01 7.00000E-01
 -1       889 1.30000E+00 5.47150E-01 7.00000E-01
 -1       890 1.20000E+00 5.47150E-01 7.00000E-01
 -1       891 1.10000E+00 5.47150E-01 7.00000E-01
 -1       892 1.00000E+00 5.47150E-01 7.00000E-01
 -1       893 9.00000E-01 5.47150E-01 7.00000E-01
 -1       894 8.00000E-01 5.47150E-01 7.00000E-01
 -1       895 7.00000E-01 5.47150E-01 7.00000E-01
 -1       896 6.00000E-01 5.47150E-01 7.00000E-01
 -1       897 5.00000E-01 5.47150E-01 7.00000E-01
 -1       898 4.00000E-01 5.47150E-01 7.00000E-01
 -1       899 3.00000E-01 5.47150E-01 7.00000E-01
 -1       900 2.00000E-01 5.47150E-01 7.00000E-01
 -1       901 1.00000E-01 5.47150E-01 7.00000E-01
 -1       902 1.00000E-01 5.47150E-01 6.86500E-01
 -1       903 2.00000E-01 5.47150E-01 6.86500E-01
 -1       904 3.00000E-01 5.47150E-01 6.86500E-01
 -1       905 4.00000E-01 5.47150E-01 6.86500E-01
 -1       906 5.00000E-01 5.47150E-01 6.86500E-01
 -1       907 6.00000E-01 5.47150E-01 6.86500E-01
 -1       908 7.00000E-01 5.47150E-01 6.86500E-01
 -1       909 8.00000E-01 5.47150E-01 6.86500E-01
 -1       910 9.00000E-01 5.47150E-01 6.86500E-01
 -1       911 1.00000E+00 5.47150E-01 6.86500E-01
 -1       912 1.10000E+00 5.47150E-01 6.86500E-01
 -1       913 1.20000E+00 5.47150E-01 6.86500E-01
 -1       914 1.30000E+00 5.47150E-01 6.86500E-01
 -1       915 1.40000E+00 5.47150E-01 6.86500E-01
 -1       916 1.50000E+00 5.47150E-01 6.86500E-01
 -1       917 1.60000E+00 5.47150E-01 6.86500E-01
 -1       918 1.70000E+00 5.47150E-01 6.86500E-01
 -1       919 1.80000E+00 5.47150E-01 6.86500E-01
 -1       920 1.90000E+00 5.47150E-01 6.86500E-01
 -1       921 2.00000E+00 5.47150E-01 6.86500E-01
 -1       922 2.10000E+00 5.47150E-01 6.86500E-01
 -1       923 2.20000E+00 5.47150E-01 6.86500E-01
 -1       924 2.30000E+00 5.47150E-01 6.86500E-01
 -1       925 2.40000E+00 5.47150E-01 6.86500E-01
 -1       926 2.50000E+00 5.47150E-01 6.86500E-01
 -1       927 2.60000E+00 5.47150E-01 6.86500E-01
 -1       928 2.70000E+00 5.47150E-01 6.86500E-01
 -1       929 2.80000E+00 5.47150E-01 6.86500E-01
 -1       930 2.90000E+00 5.47150E-01 6.86500E-01
 -3
    3C                           420                                     1
 -1         1    1    0    1
 -2        91         1         2        96       525        62        33       670
 -1         2    1    0    1
 -2       525        62        33       670       526        63        34       671
 -1         3    1    0    1
 -2       526        63        34       671       527        64        35       672
 -1         4    1    0    1
 -2       527        64        35       672       528        65        36       673
 -1         5    1    0    1
 -2       528        65        36       673       529        66        37       674
 -1         6    1    0    1
 -2       529        66        37       674       530        67        38       675
 -1         7    1    0    1
 -2       530        67        38       675       531        68        39       676
 -1         8    1    0    1
 -2       531        68        39       676       532        69        40       677
 -1         9    1    0    1
 -2       532        69        40       677       533        70        41       678
 -1        10    1    0    1
 -2       533        70        41       678       534        71        42       679
 -1        11    1    0    1
 -2       534        71        42       679       535        72        43       680
 -1        12    1    0    1
 -2       535        72        43       680       536        73        44       681
 -1        13    1    0    1
 -2       536        73        44       681       537        74        45       682
 -1        14    1    0    1
 -2       537        74        45       682       538        75        46       683
 -1        15    1    0    1
 -2       538        75        46       683       539        76        47       684
 -1        16    1    0    1
 -2       539        76        47       684       540        77        48       685
 -1        17    1    0    1
 -2       540        77        48       685       541        78        49       686
 -1        18    1    0    1
 -2       541        78        49       686       542        79        50       687
 -1        19    1    0    1
 -2       542        79        50       687       543        80        51       688
 -1        20    1    0    1
 -2       543        80        51       688       544        81        52       689
 -1        21    1    0    1
 -2       544        81        52       689       545        82        53       690
 -1        22    1    0    1
 -2       545        82        53       690       546        83        54       691
 -1        23    1    0    1
 -2       546        83        54       691       547        84        55       692
 -1        24    1    0    1
 -2       547        84        55       692       548        85        56       693
 -1        25    1    0    1
 -2       548        85        56       693       549        86        57       694
 -1        26    1    0    1
 -2       549        86        57       694       550        87        58       695
 -1        27    1    0    1
 -2       550        87        58       695       551        88        59       696
 -1        28    1    0    1
 -2       551        88        59       696       552        89        60       697
 -1        29    1    0    1
 -2       552        89        60       697       553        90        61       698
 -1        30    1    0    1
 -2       553        90        61       698       126         3         4       160
 -1        31    1    0    1
 -2        92        91        96        95       554       525       670       641
 -1        32    1    0    1
 -2       554       525       670       641       555       526       671       642
 -1        33    1    0    1
 -2       555       526       671       642       556       527       672       643
 -1        34    1    0    1
 -2       556       527       672       643       557       528       673       644
 -1        35    1    0    1
 -2       557       528       673       644       558       529       674       645
 -1        36    1    0    1
 -2       558       529       674       645       559       530       675       646
 -1        37    1    0    1
 -2       559       530       675       646       560       531       676       647
 -1        38    1    0    1
 -2       560       531       676       647       561       532       677       648
 -1        39    1    0    1
 -2       561       532       677       648       562       533       678       649
 -1        40    1    0    1
 -2       562       533       678       649       563       534       679       650
 -1        41    1    0    1
 -2       563       534       679       650       564       535       680       651
 -1        42    1    0    1
 -2       564       535       680       651       565       536       681       652
 -1        43    1    0    1
 -2       565       536       681       652       566       537       682       653
 -1        44    1    0    1
 -2       566       537       682       653       567       538       683       654
 -1        45    1    0    1
 -2       567       538       683       654       568       539       684       655
 -1        46    1    0    1
 -2       568       539       684       655       569       540       685       656
 -1        47    1    0    1
 -2       569       540       685       656       570       541       686       657
 -1        48    1    0    1
 -2       570       541       686       657       571       542       687       658
 -1        49    1    0    1
 -2       571       542       687       658       572       543       688       659
 -1        50    1    0    1
 -2       572       543       688       659       573       544       689       660
 -1        51    1    0    1
 -2       573       544       689       660       574       545       690       661
 -1        52    1    0    1
 -2       574       545       690       661       575       546       691       662
 -1        53    1    0    1
 -2       575       546       691       662       576       547       692       663
 -1        54    1    0    1
 -2       576       547       692       663       577       548       693       664
 -1        55    1    0    1
 -2       577       548       693       664       578       549       694       665
 -1        56    1    0    1
 -2       578       549       694       665       579       550       695       666
 -1        57    1    0    1
 -2       579       550       695       666       580       551       696       667
 -1        58    1    0    1
 -2       580       551       696       667       581       552       697       668
 -1        59    1    0    1
 -2       581       552       697       668       582       553       698       669
 -1        60    1    0    1
 -2       582       553       698       669       127       126       160       159
 -1        61    1    0    1
 -2        93        92        95        94       583       554       641       612
 -1        62    1    0    1
 -2       583       554       641       612       584       555       642       613
 -1        63    1    0    1
 -2       584       555       642       613       585       556       643       614
 -1        64    1    0    1
 -2       585       556       643       614       586       557       644       615
 -1        65    1    0    1
 -2       586       557       644       615       587       558       645       616
 -1        66    1    0    1
 -2       587       558       645       616       588       559       646       617
 -1        67    1    0    1
 -2       588       559       646       617       589       560       647       618
 -1        68    1    0    1
 -2       589       560       647       618       590       561       648       619
 -1        69    1    0    1
 -2       590       561       648       619       591       562       649       620
 -1        70    1    0    1
 -2       591       562       649       620       592       563       650       621
 -1        71    1    0    1
 -2       592       563       650       621       593       564       651       622
 -1        72    1    0    1
 -2       593       564       651       622       594       565       652       623
 -1        73    1    0    1
 -2       594       565       652       623       595       566       653       624
 -1        74    1    0    1
 -2       595       566       653       624       596       567       654       625
 -1        75    1    0    1
 -2       596       567       654       625       597       568       655       626
 -1        76    1    0    1
 -2       597       568       655       626       598       569       656       627
 -1        77    1    0    1
 -2       598       569       656       627       599       570       657       628
 -1        78    1    0    1
 -2       599       570       657       628       600       571       658       629
 -1        79    1    0    1
 -2       600       571       658       629       601       572       659       630
 -1        80    1    0    1
 -2       601       572       659       630       602       573       660       631
 -1        81    1    0    1
 -2       602       573       660       631       603       574       661       632
 -1        82    1    0    1
 -2       603       574       661       632       604       575       662       633
 -1        83    1    0    1
 -2       604       575       662       633       605       576       663       634
 -1        84    1    0    1
 -2       605       576       663       634       606       577       664       635
 -1        85    1    0    1
 -2       606       577       664       635       607       578       665       636
 -1        86    1    0    1
 -2       607       578       665       636       608       579       666       637
 -1        87    1    0    1
 -2       608       579       666       637       609       580       667       638
 -1        88    1    0    1
 -2       609       580       667       638       610       581       668       639
 -1        89    1    0    1
 -2       610       581       668       639       611       582       669       640
 -1        90    1    0    1
 -2       611       582       669       640       128       127       159       158
 -1        91    1    0    1
 -2         5        93        94         6        97       583       612       129
 -1        92    1    0    1
 -2        97       583       612       129        98       584       613       130
 -1        93    1    0    1
 -2        98       584       613       130        99       585       614       131
 -1        94    1    0    1
 -2        99       585       614       131       100       586       615       132
 -1        95    1    0    1
 -2       100       586       615       132       101       587       616       133
 -1        96    1    0    1
 -2       101       587       616       133       102       588       617       134
 -1        97    1    0    1
 -2       102       588       617       134       103       589       618       135
 -1        98    1    0    1
 -2       103       589       618       135       104       590       619       136
 -1        99    1    0    1
 -2       104       590       619       136       105       591       620       137
 -1       100    1    0    1
 -2       105       591       620       137       106       592       621       138
 -1       101    1    0    1
 -2       106       592       621       138       107       593       622       139
 -1       102    1    0    1
 -2       107       593       622       139       108       594       623       140
 -1       103    1    0    1
 -2       108       594       623       140       109       595       624       141
 -1       104    1    0    1
 -2       109       595       624       141       110       596       625       142
 -1       105    1    0    1
 -2       110       596       625       142       111       597       626       143
 -1       106    1    0    1
 -2       111       597       626       143       112       598       627       144
 -1       107    1    0    1
 -2       112       598       627       144       113       599       628       145
 -1       108    1    0    1
 -2       113       599       628       145       114       600       629       146
 -1       109    1    0    1
 -2       114       600       629       146       115       601       630       147
 -1       110    1    0    1
 -2       115       601       630       147       116       602       631       148
 -1       111    1    0    1
 -2       116       602       631       148       117       603       632       149
 -1       112    1    0    1
 -2       117       603       632       149       118       604       633       150
 -1       113    1    0    1
 -2       118       604       633       150       119       605       634       151
 -1       114    1    0    1
 -2       119       605       634       151       120       606       635       152
 -1       115    1    0    1
 -2       120       606       635       152       121       607       636       153
 -1       116    1    0    1
 -2       121       607       636       153       122       608       637       154
 -1       117    1    0    1
 -2       122       608       637       154       123       609       638       155
 -1       118    1    0    1
 -2       123       609       638       155       124       610       639       156
 -1       119    1    0    1
 -2       124       610       639       156       125       611       640       157
 -1       120    1    0    1
 -2       125       611       640       157         7       128       158         8
 -1       121    1    0    1
 -2       191       190         9         1       728       699       161        62
 -1       122    1    0    1
 -2       728       699       161        62       729       700       162        63
 -1       123    1    0    1
 -2       729       700       162        63       730       701       163        64
 -1       124    1    0    1
 -2       730       701       163        64       731       702       164        65
 -1       125    1    0    1
 -2       731       702       164        65       732       703       165        66
 -1       126    1    0    1
 -2       732       703       165        66       733       704       166        67
 -1       127    1    0    1
 -2       733       704       166        67       734       705       167        68
 -1       128    1    0    1
 -2       734       705       167        68       735       706       168        69
 -1       129    1    0    1
 -2       735       706       168        69       736       707       169        70
 -1       130    1    0    1
 -2       736       707       169        70       737       708       170        71
 -1       131    1    0    1
 -2       737       708       170        71       738       709       171        72
 -1       132    1    0    1
 -2       738       709       171        72       739       710       172        73
 -1       133    1    0    1
 -2       739       710       172        73       740       711       173        74
 -1       134    1    0    1
 -2       740       711       173        74       741       712       174        75
 -1       135    1    0    1
 -2       741       712       174        75       742       713       175        76
 -1       136    1    0    1
 -2       742       713       175        76       743       714       176        77
 -1       137    1    0    1
 -2       743       714       176        77       744       715       177        78
 -1       138    1    0    1
 -2       744       715       177        78       745       716       178        79
 -1       139    1    0    1
 -2       745       716       178        79       746       717       179        80
 -1       140    1    0    1
 -2       746       717       179        80       747       718       180        81
 -1       141    1    0    1
 -2       747       718       180        81       748       719       181        82
 -1       142    1    0    1
 -2       748       719       181        82       749       720       182        83
 -1       143    1    0    1
 -2       749       720       182        83       750       721       183        84
 -1       144    1    0    1
 -2       750       721       183        84       751       722       184        85
 -1       145    1    0    1
 -2       751       722       184        85       752       723       185        86
 -1       146    1    0    1
 -2       752       723       185        86       753       724       186        87
 -1       147    1    0    1
 -2       753       724       186        87       754       725       187        88
 -1       148    1    0    1
 -2       754       725       187        88       755       726       188        89
 -1       149    1    0    1
 -2       755       726       188        89       756       727       189        90
 -1       150    1    0    1
 -2       756       727       189        90       251       192        10         3
 -1       151    1    0    1
 -2        12        11       190       191       222       193       699       728
 -1       152    1    0    1
 -2       222       193       699       728       223       194       700       729
 -1       153    1    0    1
 -2       223       194       700       729       224       195       701       730
 -1       154    1    0    1
 -2       224       195       701       730       225       196       702       731
 -1       155    1    0    1
 -2       225       196       702       731       226       197       703       732
 -1       156    1    0    1
 -2       226       197       703       732       227       198       704       733
 -1       157    1    0    1
 -2       227       198       704       733       228       199       705       734
 -1       158    1    0    1
 -2       228       199       705       734       229       200       706       735
 -1       159    1    0    1
 -2       229       200       706       735       230       201       707       736
 -1       160    1    0    1
 -2       230       201       707       736       231       202       708       737
 -1       161    1    0    1
 -2       231       202       708       737       232       203       709       738
 -1       162    1    0    1
 -2       232       203       709       738       233       204       710       739
 -1       163    1    0    1
 -2       233       204       710       739       234       205       711       740
 -1       164    1    0    1
 -2       234       205       711       740       235       206       712       741
 -1       165    1    0    1
 -2       235       206       712       741       236       207       713       742
 -1       166    1    0    1
 -2       236       207       713       742       237       208       714       743
 -1       167    1    0    1
 -2       237       208       714       743       238       209       715       744
 -1       168    1    0    1
 -2       238       209       715       744       239       210       716       745
 -1       169    1    0    1
 -2       239       210       716       745       240       211       717       746
 -1       170    1    0    1
 -2       240       211       717       746       241       212       718       747
 -1       171    1    0    1
 -2       241       212       718       747       242       213       719       748
 -1       172    1    0    1
 -2       242       213       719       748       243       214       720       749
 -1       173    1    0    1
 -2       243       214       720       749       244       215       721       750
 -1       174    1    0    1
 -2       244       215       721       750       245       216       722       751
 -1       175    1    0    1
 -2       245       216       722       751       246       217       723       752
 -1       176    1    0    1
 -2       246       217       723       752       247       218       724       753
 -1       177    1    0    1
 -2       247       218       724       753       248       219       725       754
 -1       178    1    0    1
 -2       248       219       725       754       249       220       726       755
 -1       179    1    0    1
 -2       249       220       726       755       250       221       727       756
 -1       180    1    0    1
 -2       250       221       727       756        14        13       192       251
 -1       181    1    0    1
 -2       282       281         5        15       786       757        97       280
 -1       182    1    0    1
 -2       786       757        97       280       787       758        98       279
 -1       183    1    0    1
 -2       787       758        98       279       788       759        99       278
 -1       184    1    0    1
 -2       788       759        99       278       789       760       100       277
 -1       185    1    0    1
 -2       789       760       100       277       790       761       101       276
 -1       186    1    0    1
 -2       790       761       101       276       791       762       102       275
 -1       187    1    0    1
 -2       791       762       102       275       792       763       103       274
 -1       188    1    0    1
 -2       792       763       103       274       793       764       104       273
 -1       189    1    0    1
 -2       793       764       104       273       794       765       105       272
 -1       190    1    0    1
 -2       794       765       105       272       795       766       106       271
 -1       191    1    0    1
 -2       795       766       106       271       796       767       107       270
 -1       192    1    0    1
 -2       796       767       107       270       797       768       108       269
 -1       193    1    0    1
 -2       797       768       108       269       798       769       109       268
 -1       194    1    0    1
 -2       798       769       109       268       799       770       110       267
 -1       195    1    0    1
 -2       799       770       110       267       800       771       111       266
 -1       196    1    0    1
 -2       800       771       111       266       801       772       112       265
 -1       197    1    0    1
 -2       801       772       112       265       802       773       113       264
 -1       198    1    0    1
 -2       802       773       113       264       803       774       114       263
 -1       199    1    0    1
 -2       803       774       114       263       804       775       115       262
 -1       200    1    0    1
 -2       804       775       115       262       805       776       116       261
 -1       201    1    0    1
 -2       805       776       116       261       806       777       117       260
 -1       202    1    0    1
 -2       806       777       117       260       807       778       118       259
 -1       203    1    0    1
 -2       807       778       118       259       808       779       119       258
 -1       204    1    0    1
 -2       808       779       119       258       809       780       120       257
 -1       205    1    0    1
 -2       809       780       120       257       810       781       121       256
 -1       206    1    0    1
 -2       810       781       121       256       811       782       122       255
 -1       207    1    0    1
 -2       811       782       122       255       812       783       123       254
 -1       208    1    0    1
 -2       812       783       123       254       813       784       124       253
 -1       209    1    0    1
 -2       813       784       124       253       814       785       125       252
 -1       210    1    0    1
 -2       814       785       125       252       342       312         7        16
 -1       211    1    0    1
 -2        18        17       281       282       313       283       757       786
 -1       212    1    0    1
 -2       313       283       757       786       314       284       758       787
 -1       213    1    0    1
 -2       314       284       758       787       315       285       759       788
 -1       214    1    0    1
 -2       315       285       759       788       316       286       760       789
 -1       215    1    0    1
 -2       316       286       760       789       317       287       761       790
 -1       216    1    0    1
 -2       317       287       761       790       318       288       762       791
 -1       217    1    0    1
 -2       318       288       762       791       319       289       763       792
 -1       218    1    0    1
 -2       319       289       763       792       320       290       764       793
 -1       219    1    0    1
 -2       320       290       764       793       321       291       765       794
 -1       220    1    0    1
 -2       321       291       765       794       322       292       766       795
 -1       221    1    0    1
 -2       322       292       766       795       323       293       767       796
 -1       222    1    0    1
 -2       323       293       767       796       324       294       768       797
 -1       223    1    0    1
 -2       324       294       768       797       325       295       769       798
 -1       224    1    0    1
 -2       325       295       769       798       326       296       770       799
 -1       225    1    0    1
 -2       326       296       770       799       327       297       771       800
 -1       226    1    0    1
 -2       327       297       771       800       328       298       772       801
 -1       227    1    0    1
 -2       328       298       772       801       329       299       773       802
 -1       228    1    0    1
 -2       329       299       773       802       330       300       774       803
 -1       229    1    0    1
 -2       330       300       774       803       331       301       775       804
 -1       230    1    0    1
 -2       331       301       775       804       332       302       776       805
 -1       231    1    0    1
 -2       332       302       776       805       333       303       777       806
 -1       232    1    0    1
 -2       333       303       777       806       334       304       778       807
 -1       233    1    0    1
 -2       334       304       778       807       335       305       779       808
 -1       234    1    0    1
 -2       335       305       779       808       336       306       780       809
 -1       235    1    0    1
 -2       336       306       780       809       337       307       781       810
 -1       236    1    0    1
 -2       337       307       781       810       338       308       782       811
 -1       237    1    0    1
 -2       338       308       782       811       339       309       783       812
 -1       238    1    0    1
 -2       339       309       783       812       340       310       784       813
 -1       239    1    0    1
 -2       340       310       784       813       341       311       785       814
 -1       240    1    0    1
 -2       341       311       785       814        20        19       312       342
 -1       241    1    0    1
 -2        21        22       343       372       402       401       815       844
 -1       242    1    0    1
 -2       402       401       815       844         2        25       404        33
 -1       243    1    0    1
 -2       372       343       344       373       844       815       816       845
 -1       244    1    0    1
 -2       844       815       816       845        33       404       405        34
 -1       245    1    0    1
 -2       373       344       345       374       845       816       817       846
 -1       246    1    0    1
 -2       845       816       817       846        34       405       406        35
 -1       247    1    0    1
 -2       374       345       346       375       846       817       818       847
 -1       248    1    0    1
 -2       846       817       818       847        35       406       407        36
 -1       249    1    0    1
 -2       375       346       347       376       847       818       819       848
 -1       250    1    0    1
 -2       847       818       819       848        36       407       408        37
 -1       251    1    0    1
 -2       376       347       348       377       848       819       820       849
 -1       252    1    0    1
 -2       848       819       820       849        37       408       409        38
 -1       253    1    0    1
 -2       377       348       349       378       849       820       821       850
 -1       254    1    0    1
 -2       849       820       821       850        38       409       410        39
 -1       255    1    0    1
 -2       378       349       350       379       850       821       822       851
 -1       256    1    0    1
 -2       850       821       822       851        39       410       411        40
 -1       257    1    0    1
 -2       379       350       351       380       851       822       823       852
 -1       258    1    0    1
 -2       851       822       823       852        40       411       412        41
 -1       259    1    0    1
 -2       380       351       352       381       852       823       824       853
 -1       260    1    0    1
 -2       852       823       824       853        41       412       413        42
 -1       261    1    0    1
 -2       381       352       353       382       853       824       825       854
 -1       262    1    0    1
 -2       853       824       825       854        42       413       414        43
 -1       263    1    0    1
 -2       382       353       354       383       854       825       826       855
 -1       264    1    0    1
 -2       854       825       826       855        43       414       415        44
 -1       265    1    0    1
 -2       383       354       355       384       855       826       827       856
 -1       266    1    0    1
 -2       855       826       827       856        44       415       416        45
 -1       267    1    0    1
 -2       384       355       356       385       856       827       828       857
 -1       268    1    0    1
 -2       856       827       828       857        45       416       417        46
 -1       269    1    0    1
 -2       385       356       357       386       857       828       829       858
 -1       270    1    0    1
 -2       857       828       829       858        46       417       418        47
 -1       271    1    0    1
 -2       386       357       358       387       858       829       830       859
 -1       272    1    0    1
 -2       858       829       830       859        47       418       419        48
 -1       273    1    0    1
 -2       387       358       359       388       859       830       831       860
 -1       274    1    0    1
 -2       859       830       831       860        48       419       420        49
 -1       275    1    0    1
 -2       388       359       360       389       860       831       832       861
 -1       276    1    0    1
 -2       860       831       832       861        49       420       421        50
 -1       277    1    0    1
 -2       389       360       361       390       861       832       833       862
 -1       278    1    0    1
 -2       861       832       833       862        50       421       422        51
 -1       279    1    0    1
 -2       390       361       362       391       862       833       834       863
 -1       280    1    0    1
 -2       862       833       834       863        51       422       423        52
 -1       281    1    0    1
 -2       391       362       363       392       863       834       835       864
 -1       282    1    0    1
 -2       863       834       835       864        52       423       424        53
 -1       283    1    0    1
 -2       392       363       364       393       864       835       836       865
 -1       284    1    0    1
 -2       864       835       836       865        53       424       425        54
 -1       285    1    0    1
 -2       393       364       365       394       865       836       837       866
 -1       286    1    0    1
 -2       865       836       837       866        54       425       426        55
 -1       287    1    0    1
 -2       394       365       366       395       866       837       838       867
 -1       288    1    0    1
 -2       866       837       838       867        55       426       427        56
 -1       289    1    0    1
 -2       395       366       367       396       867       838       839       868
 -1       290    1    0    1
 -2       867       838       839       868        56       427       428        57
 -1       291    1    0    1
 -2       396       367       368       397       868       839       840       869
 -1       292    1    0    1
 -2       868       839       840       869        57       428       429        58
 -1       293    1    0    1
 -2       397       368       369       398       869       840       841       870
 -1       294    1    0    1
 -2       869       840       841       870        58       429       430        59
 -1       295    1    0    1
 -2       398       369       370       399       870       841       842       871
 -1       296    1    0    1
 -2       870       841       842       871        59       430       431        60
 -1       297    1    0    1
 -2       399       370       371       400       871       842       843       872
 -1       298    1    0    1
 -2       871       842       843       872        60       431       432        61
 -1       299    1    0    1
 -2       400       371        23        24       872       843       403       433
 -1       300    1    0    1
 -2       872       843       403       433        61       432        26         4
 -1       301    1    0    1
 -2         9        25         2         1       161       404        33        62
 -1       302    1    0    1
 -2       161       404        33        62       162       405        34        63
 -1       303    1    0    1
 -2       162       405        34        63       163       406        35        64
 -1       304    1    0    1
 -2       163       406        35        64       164       407        36        65
 -1       305    1    0    1
 -2       164       407        36        65       165       408        37        66
 -1       306    1    0    1
 -2       165       408        37        66       166       409        38        67
 -1       307    1    0    1
 -2       166       409        38        67       167       410        39        68
 -1       308    1    0    1
 -2       167       410        39        68       168       411        40        69
 -1       309    1    0    1
 -2       168       411        40        69       169       412        41        70
 -1       310    1    0    1
 -2       169       412        41        70       170       413        42        71
 -1       311    1    0    1
 -2       170       413        42        71       171       414        43        72
 -1       312    1    0    1
 -2       171       414        43        72       172       415        44        73
 -1       313    1    0    1
 -2       172       415        44        73       173       416        45        74
 -1       314    1    0    1
 -2       173       416        45        74       174       417        46        75
 -1       315    1    0    1
 -2       174       417        46        75       175       418        47        76
 -1       316    1    0    1
 -2       175       418        47        76       176       419        48        77
 -1       317    1    0    1
 -2       176       419        48        77       177       420        49        78
 -1       318    1    0    1
 -2       177       420        49        78       178       421        50        79
 -1       319    1    0    1
 -2       178       421        50        79       179       422        51        80
 -1       320    1    0    1
 -2       179       422        51        80       180       423        52        81
 -1       321    1    0    1
 -2       180       423        52        81       181       424        53        82
 -1       322    1    0    1
 -2       181       424        53        82       182       425        54        83
 -1       323    1    0    1
 -2       182       425        54        83       183       426        55        84
 -1       324    1    0    1
 -2       183       426        55        84       184       427        56        85
 -1       325    1    0    1
 -2       184       427        56        85       185       428        57        86
 -1       326    1    0    1
 -2       185       428        57        86       186       429        58        87
 -1       327    1    0    1
 -2       186       429        58        87       187       430        59        88
 -1       328    1    0    1
 -2       187       430        59        88       188       431        60        89
 -1       329    1    0    1
 -2       188       431        60        89       189       432        61        90
 -1       330    1    0    1
 -2       189       432        61        90        10        26         4         3
 -1       331    1    0    1
 -2        27         6       435       434       464       129       902       901
 -1       332    1    0    1
 -2       464       129       902       901       463       130       903       900
 -1       333    1    0    1
 -2       463       130       903       900       462       131       904       899
 -1       334    1    0    1
 -2       462       131       904       899       461       132       905       898
 -1       335    1    0    1
 -2       461       132       905       898       460       133       906       897
 -1       336    1    0    1
 -2       460       133       906       897       459       134       907       896
 -1       337    1    0    1
 -2       459       134       907       896       458       135       908       895
 -1       338    1    0    1
 -2       458       135       908       895       457       136       909       894
 -1       339    1    0    1
 -2       457       136       909       894       456       137       910       893
 -1       340    1    0    1
 -2       456       137       910       893       455       138       911       892
 -1       341    1    0    1
 -2       455       138       911       892       454       139       912       891
 -1       342    1    0    1
 -2       454       139       912       891       453       140       913       890
 -1       343    1    0    1
 -2       453       140       913       890       452       141       914       889
 -1       344    1    0    1
 -2       452       141       914       889       451       142       915       888
 -1       345    1    0    1
 -2       451       142       915       888       450       143       916       887
 -1       346    1    0    1
 -2       450       143       916       887       449       144       917       886
 -1       347    1    0    1
 -2       449       144       917       886       448       145       918       885
 -1       348    1    0    1
 -2       448       145       918       885       447       146       919       884
 -1       349    1    0    1
 -2       447       146       919       884       446       147       920       883
 -1       350    1    0    1
 -2       446       147       920       883       445       148       921       882
 -1       351    1    0    1
 -2       445       148       921       882       444       149       922       881
 -1       352    1    0    1
 -2       444       149       922       881       443       150       923       880
 -1       353    1    0    1
 -2       443       150       923       880       442       151       924       879
 -1       354    1    0    1
 -2       442       151       924       879       441       152       925       878
 -1       355    1    0    1
 -2       441       152       925       878       440       153       926       877
 -1       356    1    0    1
 -2       440       153       926       877       439       154       927       876
 -1       357    1    0    1
 -2       439       154       927       876       438       155       928       875
 -1       358    1    0    1
 -2       438       155       928       875       437       156       929       874
 -1       359    1    0    1
 -2       437       156       929       874       436       157       930       873
 -1       360    1    0    1
 -2       436       157       930       873        30         8       524       465
 -1       361    1    0    1
 -2       434       435        29        28       901       902       495       466
 -1       362    1    0    1
 -2       901       902       495       466       900       903       496       467
 -1       363    1    0    1
 -2       900       903       496       467       899       904       497       468
 -1       364    1    0    1
 -2       899       904       497       468       898       905       498       469
 -1       365    1    0    1
 -2       898       905       498       469       897       906       499       470
 -1       366    1    0    1
 -2       897       906       499       470       896       907       500       471
 -1       367    1    0    1
 -2       896       907       500       471       895       908       501       472
 -1       368    1    0    1
 -2       895       908       501       472       894       909       502       473
 -1       369    1    0    1
 -2       894       909       502       473       893       910       503       474
 -1       370    1    0    1
 -2       893       910       503       474       892       911       504       475
 -1       371    1    0    1
 -2       892       911       504       475       891       912       505       476
 -1       372    1    0    1
 -2       891       912       505       476       890       913       506       477
 -1       373    1    0    1
 -2       890       913       506       477       889       914       507       478
 -1       374    1    0    1
 -2       889       914       507       478       888       915       508       479
 -1       375    1    0    1
 -2       888       915       508       479       887       916       509       480
 -1       376    1    0    1
 -2       887       916       509       480       886       917       510       481
 -1       377    1    0    1
 -2       886       917       510       481       885       918       511       482
 -1       378    1    0    1
 -2       885       918       511       482       884       919       512       483
 -1       379    1    0    1
 -2       884       919       512       483       883       920       513       484
 -1       380    1    0    1
 -2       883       920       513       484       882       921       514       485
 -1       381    1    0    1
 -2       882       921       514       485       881       922       515       486
 -1       382    1    0    1
 -2       881       922       515       486       880       923       516       487
 -1       383    1    0    1
 -2       880       923       516       487       879       924       517       488
 -1       384    1    0    1
 -2       879       924       517       488       878       925       518       489
 -1       385    1    0    1
 -2       878       925       518       489       877       926       519       490
 -1       386    1    0    1
 -2       877       926       519       490       876       927       520       491
 -1       387    1    0    1
 -2       876       927       520       491       875       928       521       492
 -1       388    1    0    1
 -2       875       928       521       492       874       929       522       493
 -1       389    1    0    1
 -2       874       929       522       493       873       930       523       494
 -1       390    1    0    1
 -2       873       930       523       494       465       524        32        31
 -1       391    1    0    1
 -2        15         5         6        27       280        97       129       464
 -1       392    1    0    1
 -2       280        97       129       464       279        98       130       463
 -1       393    1    0    1
 -2       279        98       130       463       278        99       131       462
 -1       394    1    0    1
 -2       278        99       131       462       277       100       132       461
 -1       395    1    0    1
 -2       277       100       132       461       276       101       133       460
 -1       396    1    0    1
 -2       276       101       133       460       275       102       134       459
 -1       397    1    0    1
 -2       275       102       134       459       274       103       135       458
 -1       398    1    0    1
 -2       274       103       135       458       273       104       136       457
 -1       399    1    0    1
 -2       273       104       136       457       272       105       137       456
 -1       400    1    0    1
 -2       272       105       137       456       271       106       138       455
 -1       401    1    0    1
 -2       271       106       138       455       270       107       139       454
 -1       402    1    0    1
 -2       270       107       139       454       269       108       140       453
 -1       403    1    0    1
 -2       269       108       140       453       268       109       141       452
 -1       404    1    0    1
 -2       268       109       141       452       267       110       142       451
 -1       405    1    0    1
 -2       267       110       142       451       266       111       143       450
 -1       406    1    0    1
 -2       266       111       143       450       265       112       144       449
 -1       407    1    0    1
 -2       265       112       144       449       264       113       145       448
 -1       408    1    0    1
 -2       264       113       145       448       263       114       146       447
 -1       409    1    0    1
 -2       263       114       146       447       262       115       147       446
 -1       410    1    0    1
 -2       262       115       147       446       261       116       148       445
 -1       411    1    0    1
 -2       261       116       148       445       260       117       149       444
 -1       412    1    0    1
 -2       260       117       149       444       259       118       150       443
 -1       413    1    0    1
 -2       259       118       150       443       258       119       151       442
 -1       414    1    0    1
 -2       258       119       151       442       257       120       152       441
 -1       415    1    0    1
 -2       257       120       152       441       256       121       153       440
 -1       416    1    0    1
 -2       256       121       153       440       255       122       154       439
 -1       417    1    0    1
 -2       255       122       154       439       254       123       155       438
 -1       418    1    0    1
 -2       254       123       155       438       253       124       156       437
 -1       419    1    0    1
 -2       253       124       156       437       252       125       157       436
 -1       420    1    0    1
 -2       252       125       157       436        16         7         8        30
 -3
    1PSTEP                         1           1           1          
  100CL  101 50.00000000         930                     0    1           1
 -4  DISP        4    1
 -5  D1          1    2    1    0
 -5  D2          1    2    2    0
 -5  D3          1    2    3    0
 -5  ALL         1    2    0    0    1ALL
 -1         1 0.00000E+00 0.00000E+00 0.00000E+00
 -1         2 0.00000E+00 0.00000E+00 0.00000E+00
 -1         3-4.50627E-04-4.70066E-09-5.74854E-03
 -1         4-4.50627E-04 4.70042E-09-5.74854E-03
 -1         5 0.00000E+00 0.00000E+00 0.00000E+00
 -1         6 0.00000E+00 0.00000E+00 0.00000E+00
 -1         7 4.38442E-04 4.70360E-09-5.74960E-03
 -1         8 4.38442E-04-4.70325E-09-5.74960E-03
 -1         9 0.00000E+00 0.00000E+00 0.00000E+00
 -1        10-4.82844E-04 5.79623E-08-5.74853E-03
 -1        11 0.00000E+00 0.00000E+00 0.00000E+00
 -1        12 0.00000E+00 0.00000E+00 0.00000E+00
 -1        13-4.82785E-04 2.67040E-07-5.75063E-03
 -1        14-4.50473E-04-1.53615E-07-5.75067E-03
 -1        15 0.00000E+00 0.00000E+00 0.00000E+00
 -1        16 4.70659E-04-5.79586E-08-5.74966E-03
 -1        17 0.00000E+00 0.00000E+00 0.00000E+00
 -1        18 0.00000E+00 0.00000E+00 0.00000E+00
 -1        19 4.38277E-04 1.53723E-07-5.75173E-03
 -1        20 4.70590E-04-2.66927E-07-5.75177E-03
 -1        21 0.00000E+00 0.00000E+00 0.00000E+00
 -1        22 0.00000E+00 0.00000E+00 0.00000E+00
 -1        23-4.82785E-04-2.67040E-07-5.75063E-03
 -1        24-4.50473E-04 1.53615E-07-5.75067E-03
 -1        25 0.00000E+00 0.00000E+00 0.00000E+00
 -1        26-4.82844E-04-5.79626E-08-5.74853E-03
 -1        27 0.00000E+00 0.00000E+00 0.00000E+00
 -1        28 0.00000E+00 0.00000E+00 0.00000E+00
 -1        29 0.00000E+00 0.00000E+00 0.00000E+00
 -1        30 4.70659E-04 5.79590E-08-5.74966E-03
 -1        31 4.70590E-04 2.66928E-07-5.75177E-03
 -1        32 4.38277E-04-1.53723E-07-5.75173E-03
 -1        33-3.73660E-05 6.98814E-07-3.44175E-05
 -1        34-7.94078E-05 5.03854E-07-9.40026E-05
 -1        35-1.17235E-04 5.01652E-07-1.71815E-04
 -1        36-1.52275E-04 4.62702E-07-2.68226E-04
 -1        37-1.84751E-04 4.29493E-07-3.81619E-04
 -1        38-2.14759E-04 3.94904E-07-5.10754E-04
 -1        39-2.42389E-04 3.62946E-07-6.54390E-04
 -1        40-2.67750E-04 3.32401E-07-8.11278E-04
 -1        41-2.90939E-04 3.03237E-07-9.80208E-04
 -1        42-3.12054E-04 2.75397E-07-1.16003E-03
 -1        43-3.31195E-04 2.48906E-07-1.34964E-03
 -1        44-3.48461E-04 2.23772E-07-1.54801E-03
 -1        45-3.63949E-04 1.99998E-07-1.75414E-03
 -1        46-3.77759E-04 1.77584E-07-1.96711E-03
 -1        47-3.89988E-04 1.56529E-07-2.18602E-03
 -1        48-4.00734E-04 1.36833E-07-2.41007E-03
 -1        49-4.10097E-04 1.18495E-07-2.63846E-03
 -1        50-4.18173E-04 1.01516E-07-2.87049E-03
 -1        51-4.25061E-04 8.58964E-08-3.10547E-03
 -1        52-4.30860E-04 7.16350E-08-3.34281E-03
 -1        53-4.35667E-04 5.87321E-08-3.58193E-03
 -1        54-4.39581E-04 4.71878E-08-3.82233E-03
 -1        55-4.42701E-04 3.70035E-08-4.06356E-03
 -1        56-4.45126E-04 2.81820E-08-4.30522E-03
 -1        57-4.46953E-04 2.07260E-08-4.54695E-03
 -1        58-4.48283E-04 1.46007E-08-4.78847E-03
 -1        59-4.49213E-04 9.73670E-09-5.02953E-03
 -1        60-4.49843E-04 6.11666E-09-5.26994E-03
 -1        61-4.50276E-04 4.73329E-09-5.50962E-03
 -1        62-3.73660E-05-6.98814E-07-3.44175E-05
 -1        63-7.94078E-05-5.03854E-07-9.40026E-05
 -1        64-1.17235E-04-5.01652E-07-1.71815E-04
 -1        65-1.52275E-04-4.62702E-07-2.68226E-04
 -1        66-1.84751E-04-4.29493E-07-3.81619E-04
 -1        67-2.14759E-04-3.94904E-07-5.10754E-04
 -1        68-2.42389E-04-3.62946E-07-6.54390E-04
 -1        69-2.67750E-04-3.32401E-07-8.11278E-04
 -1        70-2.90939E-04-3.03237E-07-9.80208E-04
 -1        71-3.12054E-04-2.75397E-07-1.16003E-03
 -1        72-3.31195E-04-2.48906E-07-1.34964E-03
 -1        73-3.48461E-04-2.23772E-07-1.54801E-03
 -1        74-3.63949E-04-1.99998E-07-1.75414E-03
 -1        75-3.77759E-04-1.77584E-07-1.96711E-03
 -1        76-3.89988E-04-1.56529E-07-2.18602E-03
 -1        77-4.00734E-04-1.36833E-07-2.41007E-03
 -1        78-4.10097E-04-1.18495E-07-2.63846E-03
 -1        79-4.18173E-04-1.01517E-07-2.87049E-03
 -1        80-4.25061E-04-8.58966E-08-3.10547E-03
 -1        81-4.30860E-04-7.16352E-08-3.34281E-03
 -1        82-4.35667E-04-5.87322E-08-3.58193E-03
 -1        83-4.39581E-04-4.71879E-08-3.82233E-03
 -1        84-4.42701E-04-3.70037E-08-4.06356E-03
 -1        85-4.45126E-04-2.81822E-08-4.30522E-03
 -1        86-4.46953E-04-2.07262E-08-4.54695E-03
 -1        87-4.48283E-04-1.46009E-08-4.78847E-03
 -1        88-4.49213E-04-9.73691E-09-5.02953E-03
 -1        89-4.49843E-04-6.11688E-09-5.26994E-03
 -1        90-4.50276E-04-4.73353E-09-5.50962E-03
 -1        91 0.00000E+00 0.00000E+00 0.00000E+00
 -1        92 0.00000E+00 0.00000E+00 0.00000E+00
 -1        93 0.00000E+00 0.00000E+00 0.00000E+00
 -1        94 0.00000E+00 0.00000E+00 0.00000E+00
 -1        95 0.00000E+00 0.00000E+00 0.00000E+00
 -1        96 0.00000E+00 0.00000E+00 0.00000E+00
 -1        97 3.73253E-05 6.98693E-07-3.44698E-05
 -1        98 7.92971E-05 5.03918E-07-9.41082E-05
 -1        99 1.17038E-04 5.01789E-07-1.71960E-04
 -1       100 1.51965E-04 4.62837E-07-2.68414E-04
 -1       101 1.84299E-04 4.29643E-07-3.81857E-04
 -1       102 2.14130E-04 3.95063E-07-5.11048E-04
 -1       103 2.41547E-04 3.63106E-07-6.54745E-04
 -1       104 2.66658E-04 3.32560E-07-8.11696E-04
 -1       105 2.89561E-04 3.03393E-07-9.80689E-04
 -1       106 3.10354E-04 2.75551E-07-1.16057E-03
 -1       107 3.29138E-04 2.49055E-07-1.35024E-03
 -1       108 3.46014E-04 2.23916E-07-1.54867E-03
 -1       109 3.61083E-04 2.00136E-07-1.75486E-03
 -1       110 3.74445E-04 1.77716E-07-1.96788E-03
 -1       111 3.86201E-04 1.56655E-07-2.18684E-03
 -1       112 3.96452E-04 1.36951E-07-2.41093E-03
 -1       113 4.05300E-04 1.18607E-07-2.63936E-03
 -1       114 4.12844E-04 1.01620E-07-2.87142E-03
 -1       115 4.19187E-04 8.59922E-08-3.10644E-03
 -1       116 4.24429E-04 7.17227E-08-3.34379E-03
 -1       117 4.28670E-04 5.88115E-08-3.58294E-03
 -1       118 4.32012E-04 4.72587E-08-3.82336E-03
 -1       119 4.34555E-04 3.70658E-08-4.06460E-03
 -1       120 4.36400E-04 2.82356E-08-4.30626E-03
 -1       121 4.37647E-04 2.07708E-08-4.54800E-03
 -1       122 4.38396E-04 1.46367E-08-4.78952E-03
 -1       123 4.38748E-04 9.76373E-09-5.03058E-03
 -1       124 4.38802E-04 6.13492E-09-5.27100E-03
 -1       125 4.38661E-04 4.74182E-09-5.51068E-03
 -1       126-2.28347E-04 6.03757E-09-5.74850E-03
 -1       127-6.09134E-06 1.82337E-12-5.74864E-03
 -1       128 2.16164E-04-6.03404E-09-5.74903E-03
 -1       129 3.73253E-05-6.98693E-07-3.44698E-05
 -1       130 7.92971E-05-5.03918E-07-9.41082E-05
 -1       131 1.17038E-04-5.01789E-07-1.71960E-04
 -1       132 1.51965E-04-4.62837E-07-2.68414E-04
 -1       133 1.84299E-04-4.29642E-07-3.81857E-04
 -1       134 2.14130E-04-3.95063E-07-5.11048E-04
 -1       135 2.41547E-04-3.63106E-07-6.54745E-04
 -1       136 2.66658E-04-3.32560E-07-8.11696E-04
 -1       137 2.89561E-04-3.03393E-07-9.80689E-04
 -1       138 3.10354E-04-2.75550E-07-1.16057E-03
 -1       139 3.29138E-04-2.49054E-07-1.35024E-03
 -1       140 3.46014E-04-2.23916E-07-1.54867E-03
 -1       141 3.61083E-04-2.00136E-07-1.75486E-03
 -1       142 3.74445E-04-1.77716E-07-1.96788E-03
 -1       143 3.86201E-04-1.56655E-07-2.18684E-03
 -1       144 3.96452E-04-1.36951E-07-2.41093E-03
 -1       145 4.05300E-04-1.18606E-07-2.63936E-03
 -1       146 4.12844E-04-1.01620E-07-2.87142E-03
 -1       147 4.19187E-04-8.59921E-08-3.10644E-03
 -1       148 4.24429E-04-7.17225E-08-3.34379E-03
 -1       149 4.28670E-04-5.88113E-08-3.58294E-03
 -1       150 4.32012E-04-4.72585E-08-3.82336E-03
 -1       151 4.34555E-04-3.70656E-08-4.06460E-03
 -1       152 4.36400E-04-2.82353E-08-4.30626E-03
 -1       153 4.37647E-04-2.07705E-08-4.54800E-03
 -1       154 4.38396E-04-1.46364E-08-4.78952E-03
 -1       155 4.38748E-04-9.76343E-09-5.03058E-03
 -1       156 4.38802E-04-6.13460E-09-5.27100E-03
 -1       157 4.38661E-04-4.74148E-09-5.51068E-03
 -1       158 2.16164E-04 6.03424E-09-5.74903E-03
 -1       159-6.09134E-06-1.77162E-12-5.74864E-03
 -1       160-2.28347E-04-6.03767E-09-5.74850E-03
 -1       161-4.41187E-05-8.50206E-07-3.65622E-05
 -1       162-8.82687E-05-6.41815E-07-9.55039E-05
 -1       163-1.28703E-04-4.55304E-07-1.73369E-04
 -1       164-1.66129E-04-3.95542E-07-2.69638E-04
 -1       165-2.00827E-04-3.73082E-07-3.82928E-04
 -1       166-2.32890E-04-3.46221E-07-5.11954E-04
 -1       167-2.62408E-04-3.15791E-07-6.55490E-04
 -1       168-2.89487E-04-2.84812E-07-8.12282E-04
 -1       169-3.14235E-04-2.55190E-07-9.81119E-04
 -1       170-3.36759E-04-2.27214E-07-1.16085E-03
 -1       171-3.57163E-04-2.00737E-07-1.35038E-03
 -1       172-3.75556E-04-1.75642E-07-1.54867E-03
 -1       173-3.92041E-04-1.51904E-07-1.75472E-03
 -1       174-4.06725E-04-1.29524E-07-1.96762E-03
 -1       175-4.19713E-04-1.08508E-07-2.18647E-03
 -1       176-4.31111E-04-8.88547E-08-2.41046E-03
 -1       177-4.41023E-04-7.05640E-08-2.63879E-03
 -1       178-4.49556E-04-5.36338E-08-2.87076E-03
 -1       179-4.56814E-04-3.80630E-08-3.10570E-03
 -1       180-4.62903E-04-2.38512E-08-3.34299E-03
 -1       181-4.67929E-04-1.09987E-08-3.58207E-03
 -1       182-4.71997E-04 4.97352E-10-3.82244E-03
 -1       183-4.75214E-04 1.06524E-08-4.06364E-03
 -1       184-4.77684E-04 1.94967E-08-4.30527E-03
 -1       185-4.79513E-04 2.70156E-08-4.54698E-03
 -1       186-4.80809E-04 3.29935E-08-4.78847E-03
 -1       187-4.81677E-04 3.67562E-08-5.02952E-03
 -1       188-4.82224E-04 3.84069E-08-5.26993E-03
 -1       189-4.82565E-04 3.85079E-08-5.50959E-03
 -1       190 0.00000E+00 0.00000E+00 0.00000E+00
 -1       191 0.00000E+00 0.00000E+00 0.00000E+00
 -1       192-4.82802E-04 2.39462E-07-5.74934E-03
 -1       193-4.35490E-05-1.35657E-05-2.60404E-05
 -1       194-8.59897E-05-1.18954E-05-9.06703E-05
 -1       195-1.25908E-04-1.00554E-05-1.74185E-04
 -1       196-1.63388E-04-9.25122E-06-2.71312E-04
 -1       197-1.98173E-04-8.58958E-06-3.84230E-04
 -1       198-2.30356E-04-7.92957E-06-5.13027E-04
 -1       199-2.59988E-04-7.27290E-06-6.56557E-04
 -1       200-2.87174E-04-6.63509E-06-8.13420E-04
 -1       201-3.12027E-04-6.02545E-06-9.82325E-04
 -1       202-3.34655E-04-5.44553E-06-1.16211E-03
 -1       203-3.55165E-04-4.89459E-06-1.35168E-03
 -1       204-3.73663E-04-4.37205E-06-1.55001E-03
 -1       205-3.90254E-04-3.87776E-06-1.75611E-03
 -1       206-4.05044E-04-3.41174E-06-1.96905E-03
 -1       207-4.18137E-04-2.97400E-06-2.18793E-03
 -1       208-4.29640E-04-2.56456E-06-2.41195E-03
 -1       209-4.39658E-04-2.18340E-06-2.64031E-03
 -1       210-4.48296E-04-1.83051E-06-2.87231E-03
 -1       211-4.55660E-04-1.50588E-06-3.10728E-03
 -1       212-4.61854E-04-1.20952E-06-3.34459E-03
 -1       213-4.66986E-04-9.41424E-07-3.58369E-03
 -1       214-4.71159E-04-7.01573E-07-3.82408E-03
 -1       215-4.74481E-04-4.89891E-07-4.06529E-03
 -1       216-4.77056E-04-3.06228E-07-4.30693E-03
 -1       217-4.78991E-04-1.50659E-07-4.54866E-03
 -1       218-4.80391E-04-2.43023E-08-4.79016E-03
 -1       219-4.81361E-04 7.01946E-08-5.03117E-03
 -1       220-4.82014E-04 1.28655E-07-5.27150E-03
 -1       221-4.82458E-04 1.72387E-07-5.51121E-03
 -1       222-3.70806E-05-1.14893E-05-2.39231E-05
 -1       223-7.57153E-05-1.07187E-05-8.92109E-05
 -1       224-1.13789E-04-1.01496E-05-1.72617E-04
 -1       225-1.49266E-04-9.51942E-06-2.69910E-04
 -1       226-1.81863E-04-8.78153E-06-3.82928E-04
 -1       227-2.11967E-04-8.08047E-06-5.11832E-04
 -1       228-2.39703E-04-7.42765E-06-6.55463E-04
 -1       229-2.65179E-04-6.80997E-06-8.12422E-04
 -1       230-2.88485E-04-6.21954E-06-9.81420E-04
 -1       231-3.09719E-04-5.65556E-06-1.16129E-03
 -1       232-3.28977E-04-5.11863E-06-1.35095E-03
 -1       233-3.46360E-04-4.60918E-06-1.54936E-03
 -1       234-3.61966E-04-4.12730E-06-1.75553E-03
 -1       235-3.75892E-04-3.67297E-06-1.96854E-03
 -1       236-3.88238E-04-3.24617E-06-2.18749E-03
 -1       237-3.99102E-04-2.84689E-06-2.41157E-03
 -1       238-4.08581E-04-2.47515E-06-2.63999E-03
 -1       239-4.16774E-04-2.13094E-06-2.87204E-03
 -1       240-4.23780E-04-1.81426E-06-3.10706E-03
 -1       241-4.29695E-04-1.52512E-06-3.34441E-03
 -1       242-4.34619E-04-1.26351E-06-3.58356E-03
 -1       243-4.38651E-04-1.02944E-06-3.82398E-03
 -1       244-4.41888E-04-8.22964E-07-4.06522E-03
 -1       245-4.44429E-04-6.44199E-07-4.30689E-03
 -1       246-4.46373E-04-4.93139E-07-4.54864E-03
 -1       247-4.47821E-04-3.68948E-07-4.79016E-03
 -1       248-4.48871E-04-2.68588E-07-5.03119E-03
 -1       249-4.49619E-04-1.93467E-07-5.27153E-03
 -1       250-4.50127E-04-1.63982E-07-5.51124E-03
 -1       251-4.50528E-04-1.27259E-07-5.74938E-03
 -1       252 4.70950E-04-3.84978E-08-5.51073E-03
 -1       253 4.71183E-04-3.83873E-08-5.27106E-03
 -1       254 4.71212E-04-3.67264E-08-5.03065E-03
 -1       255 4.70923E-04-3.29544E-08-4.78961E-03
 -1       256 4.70207E-04-2.69683E-08-4.54811E-03
 -1       257 4.68958E-04-1.94432E-08-4.30639E-03
 -1       258 4.67067E-04-1.05957E-08-4.06475E-03
 -1       259 4.64428E-04-4.41813E-10-3.82354E-03
 -1       260 4.60932E-04 1.10474E-08-3.58316E-03
 -1       261 4.56471E-04 2.38855E-08-3.34405E-03
 -1       262 4.50939E-04 3.80736E-08-3.10674E-03
 -1       263 4.44226E-04 5.36095E-08-2.87177E-03
 -1       264 4.36224E-04 7.04911E-08-2.63976E-03
 -1       265 4.26826E-04 8.87171E-08-2.41139E-03
 -1       266 4.15924E-04 1.08287E-07-2.18736E-03
 -1       267 4.03408E-04 1.29198E-07-1.96845E-03
 -1       268 3.89171E-04 1.51449E-07-1.75550E-03
 -1       269 3.73105E-04 1.75030E-07-1.54939E-03
 -1       270 3.55102E-04 1.99937E-07-1.35103E-03
 -1       271 3.35054E-04 2.26192E-07-1.16144E-03
 -1       272 3.12852E-04 2.53905E-07-9.81641E-04
 -1       273 2.88391E-04 2.83216E-07-8.12735E-04
 -1       274 2.61560E-04 3.13834E-07-6.55875E-04
 -1       275 2.32255E-04 3.43863E-07-5.12274E-04
 -1       276 2.00369E-04 3.70299E-07-3.83186E-04
 -1       277 1.65813E-04 3.92260E-07-2.69841E-04
 -1       278 1.28501E-04 4.51396E-07-1.73524E-04
 -1       279 8.81544E-05 6.37432E-07-9.56163E-05
 -1       280 4.40805E-05 8.47313E-07-3.66182E-05
 -1       281 0.00000E+00 0.00000E+00 0.00000E+00
 -1       282 0.00000E+00 0.00000E+00 0.00000E+00
 -1       283 3.70384E-05 1.14928E-05-2.40705E-05
 -1       284 7.56147E-05 1.07312E-05-8.94817E-05
 -1       285 1.13597E-04 1.01622E-05-1.72915E-04
 -1       286 1.48959E-04 9.53054E-06-2.70226E-04
 -1       287 1.81412E-04 8.79178E-06-3.83273E-04
 -1       288 2.11339E-04 8.08984E-06-5.12218E-04
 -1       289 2.38862E-04 7.43609E-06-6.55892E-04
 -1       290 2.64087E-04 6.81750E-06-8.12900E-04
 -1       291 2.87106E-04 6.22627E-06-9.81949E-04
 -1       292 3.08016E-04 5.66159E-06-1.16187E-03
 -1       293 3.26917E-04 5.12404E-06-1.35158E-03
 -1       294 3.43910E-04 4.61403E-06-1.55004E-03
 -1       295 3.59095E-04 4.13165E-06-1.75627E-03
 -1       296 3.72573E-04 3.67687E-06-1.96932E-03
 -1       297 3.84446E-04 3.24967E-06-2.18832E-03
 -1       298 3.94814E-04 2.85003E-06-2.41243E-03
 -1       299 4.03778E-04 2.47796E-06-2.64089E-03
 -1       300 4.11439E-04 2.13346E-06-2.87297E-03
 -1       301 4.17899E-04 1.81651E-06-3.10801E-03
 -1       302 4.23257E-04 1.52713E-06-3.34540E-03
 -1       303 4.27615E-04 1.26529E-06-3.58456E-03
 -1       304 4.31074E-04 1.03100E-06-3.82500E-03
 -1       305 4.33734E-04 8.24323E-07-4.06625E-03
 -1       306 4.35695E-04 6.45362E-07-4.30794E-03
 -1       307 4.37059E-04 4.94111E-07-4.54969E-03
 -1       308 4.37926E-04 3.69732E-07-4.79122E-03
 -1       309 4.38398E-04 2.69184E-07-5.03224E-03
 -1       310 4.38570E-04 1.93873E-07-5.27259E-03
 -1       311 4.38504E-04 1.64201E-07-5.51230E-03
 -1       312 4.38339E-04 1.27299E-07-5.75044E-03
 -1       313 4.35250E-05 1.35509E-05-2.61909E-05
 -1       314 8.58870E-05 1.18734E-05-9.09489E-05
 -1       315 1.25706E-04 1.00358E-05-1.74493E-04
 -1       316 1.63072E-04 9.23539E-06-2.71642E-04
 -1       317 1.97713E-04 8.57660E-06-3.84595E-04
 -1       318 2.29720E-04 7.91903E-06-5.13438E-04
 -1       319 2.59138E-04 7.26459E-06-6.57018E-04
 -1       320 2.86075E-04 6.62876E-06-8.13934E-04
 -1       321 3.10641E-04 6.02079E-06-9.82895E-04
 -1       322 3.32946E-04 5.44228E-06-1.16274E-03
 -1       323 3.53100E-04 4.89250E-06-1.35237E-03
 -1       324 3.71208E-04 4.37091E-06-1.55075E-03
 -1       325 3.87379E-04 3.87741E-06-1.75691E-03
 -1       326 4.01721E-04 3.41201E-06-1.96989E-03
 -1       327 4.14342E-04 2.97475E-06-2.18882E-03
 -1       328 4.25349E-04 2.56566E-06-2.41288E-03
 -1       329 4.34852E-04 2.18474E-06-2.64129E-03
 -1       330 4.42959E-04 1.83200E-06-2.87332E-03
 -1       331 4.49777E-04 1.50745E-06-3.10831E-03
 -1       332 4.55415E-04 1.21110E-06-3.34565E-03
 -1       333 4.59980E-04 9.42948E-07-3.58477E-03
 -1       334 4.63581E-04 7.03005E-07-3.82517E-03
 -1       335 4.66326E-04 4.91197E-07-4.06640E-03
 -1       336 4.68322E-04 3.07382E-07-4.30805E-03
 -1       337 4.69677E-04 1.51643E-07-4.54979E-03
 -1       338 4.70496E-04 2.51051E-08-4.79129E-03
 -1       339 4.70888E-04-6.95818E-08-5.03231E-03
 -1       340 4.70965E-04-1.28239E-07-5.27264E-03
 -1       341 4.70836E-04-1.72166E-07-5.51234E-03
 -1       342 4.70613E-04-2.39417E-07-5.75048E-03
 -1       343-4.35490E-05 1.35657E-05-2.60404E-05
 -1       344-8.59897E-05 1.18954E-05-9.06703E-05
 -1       345-1.25908E-04 1.00554E-05-1.74185E-04
 -1       346-1.63388E-04 9.25122E-06-2.71312E-04
 -1       347-1.98173E-04 8.58958E-06-3.84230E-04
 -1       348-2.30356E-04 7.92957E-06-5.13027E-04
 -1       349-2.59988E-04 7.27290E-06-6.56557E-04
 -1       350-2.87174E-04 6.63509E-06-8.13420E-04
 -1       351-3.12027E-04 6.02545E-06-9.82325E-04
 -1       352-3.34655E-04 5.44553E-06-1.16211E-03
 -1       353-3.55165E-04 4.89459E-06-1.35168E-03
 -1       354-3.73663E-04 4.37205E-06-1.55001E-03
 -1       355-3.90254E-04 3.87776E-06-1.75611E-03
 -1       356-4.05044E-04 3.41174E-06-1.96905E-03
 -1       357-4.18137E-04 2.97400E-06-2.18793E-03
 -1       358-4.29640E-04 2.56456E-06-2.41195E-03
 -1       359-4.39658E-04 2.18340E-06-2.64031E-03
 -1       360-4.48296E-04 1.83051E-06-2.87231E-03
 -1       361-4.55660E-04 1.50588E-06-3.10728E-03
 -1       362-4.61854E-04 1.20952E-06-3.34459E-03
 -1       363-4.66986E-04 9.41423E-07-3.58369E-03
 -1       364-4.71159E-04 7.01573E-07-3.82408E-03
 -1       365-4.74481E-04 4.89891E-07-4.06529E-03
 -1       366-4.77056E-04 3.06227E-07-4.30693E-03
 -1       367-4.78991E-04 1.50659E-07-4.54866E-03
 -1       368-4.80391E-04 2.43020E-08-4.79016E-03
 -1       369-4.81361E-04-7.01949E-08-5.03117E-03
 -1       370-4.82014E-04-1.28655E-07-5.27150E-03
 -1       371-4.82458E-04-1.72388E-07-5.51121E-03
 -1       372-3.70806E-05 1.14893E-05-2.39231E-05
 -1       373-7.57153E-05 1.07187E-05-8.92109E-05
 -1       374-1.13789E-04 1.01496E-05-1.72617E-04
 -1       375-1.49266E-04 9.51942E-06-2.69910E-04
 -1       376-1.81863E-04 8.78153E-06-3.82928E-04
 -1       377-2.11967E-04 8.08047E-06-5.11832E-04
 -1       378-2.39703E-04 7.42765E-06-6.55463E-04
 -1       379-2.65179E-04 6.80997E-06-8.12422E-04
 -1       380-2.88485E-04 6.21954E-06-9.81420E-04
 -1       381-3.09719E-04 5.65556E-06-1.16129E-03
 -1       382-3.28977E-04 5.11863E-06-1.35095E-03
 -1       383-3.46360E-04 4.60918E-06-1.54936E-03
 -1       384-3.61966E-04 4.12730E-06-1.75553E-03
 -1       385-3.75892E-04 3.67297E-06-1.96854E-03
 -1       386-3.88238E-04 3.24617E-06-2.18749E-03
 -1       387-3.99102E-04 2.84689E-06-2.41157E-03
 -1       388-4.08581E-04 2.47515E-06-2.63999E-03
 -1       389-4.16774E-04 2.13094E-06-2.87204E-03
 -1       390-4.23780E-04 1.81426E-06-3.10706E-03
 -1       391-4.29695E-04 1.52512E-06-3.34441E-03
 -1       392-4.34619E-04 1.26351E-06-3.58356E-03
 -1       393-4.38651E-04 1.02944E-06-3.82398E-03
 -1       394-4.41888E-04 8.22964E-07-4.06522E-03
 -1       395-4.44429E-04 6.44199E-07-4.30689E-03
 -1       396-4.46373E-04 4.93139E-07-4.54864E-03
 -1       397-4.47821E-04 3.68948E-07-4.79016E-03
 -1       398-4.48871E-04 2.68588E-07-5.03119E-03
 -1       399-4.49619E-04 1.93467E-07-5.27153E-03
 -1       400-4.50127E-04 1.63982E-07-5.51124E-03
 -1       401 0.00000E+00 0.00000E+00 0.00000E+00
 -1       402 0.00000E+00 0.00000E+00 0.00000E+00
 -1       403-4.82802E-04-2.39462E-07-5.74934E-03
 -1       404-4.41187E-05 8.50206E-07-3.65622E-05
 -1       405-8.82687E-05 6.41815E-07-9.55039E-05
 -1       406-1.28703E-04 4.55304E-07-1.73369E-04
 -1       407-1.66129E-04 3.95542E-07-2.69638E-04
 -1       408-2.00827E-04 3.73082E-07-3.82928E-04
 -1       409-2.32890E-04 3.46221E-07-5.11954E-04
 -1       410-2.62408E-04 3.15790E-07-6.55490E-04
 -1       411-2.89487E-04 2.84812E-07-8.12282E-04
 -1       412-3.14235E-04 2.55190E-07-9.81119E-04
 -1       413-3.36759E-04 2.27214E-07-1.16085E-03
 -1       414-3.57163E-04 2.00737E-07-1.35038E-03
 -1       415-3.75556E-04 1.75642E-07-1.54867E-03
 -1       416-3.92041E-04 1.51904E-07-1.75472E-03
 -1       417-4.06725E-04 1.29524E-07-1.96762E-03
 -1       418-4.19713E-04 1.08507E-07-2.18647E-03
 -1       419-4.31111E-04 8.88546E-08-2.41046E-03
 -1       420-4.41023E-04 7.05639E-08-2.63879E-03
 -1       421-4.49556E-04 5.36337E-08-2.87076E-03
 -1       422-4.56814E-04 3.80628E-08-3.10570E-03
 -1       423-4.62903E-04 2.38510E-08-3.34299E-03
 -1       424-4.67929E-04 1.09986E-08-3.58207E-03
 -1       425-4.71997E-04-4.97533E-10-3.82244E-03
 -1       426-4.75214E-04-1.06526E-08-4.06364E-03
 -1       427-4.77684E-04-1.94969E-08-4.30527E-03
 -1       428-4.79513E-04-2.70158E-08-4.54698E-03
 -1       429-4.80809E-04-3.29937E-08-4.78847E-03
 -1       430-4.81677E-04-3.67564E-08-5.02952E-03
 -1       431-4.82224E-04-3.84072E-08-5.26993E-03
 -1       432-4.82565E-04-3.85081E-08-5.50959E-03
 -1       433-4.50528E-04 1.27258E-07-5.74938E-03
 -1       434 0.00000E+00 0.00000E+00 0.00000E+00
 -1       435 0.00000E+00 0.00000E+00 0.00000E+00
 -1       436 4.70950E-04 3.84982E-08-5.51073E-03
 -1       437 4.71183E-04 3.83876E-08-5.27106E-03
 -1       438 4.71212E-04 3.67267E-08-5.03065E-03
 -1       439 4.70923E-04 3.29547E-08-4.78961E-03
 -1       440 4.70207E-04 2.69686E-08-4.54811E-03
 -1       441 4.68958E-04 1.94435E-08-4.30639E-03
 -1       442 4.67067E-04 1.05960E-08-4.06475E-03
 -1       443 4.64428E-04 4.42056E-10-3.82354E-03
 -1       444 4.60932E-04-1.10472E-08-3.58316E-03
 -1       445 4.56471E-04-2.38853E-08-3.34405E-03
 -1       446 4.50939E-04-3.80734E-08-3.10674E-03
 -1       447 4.44226E-04-5.36093E-08-2.87177E-03
 -1       448 4.36224E-04-7.04909E-08-2.63976E-03
 -1       449 4.26826E-04-8.87169E-08-2.41139E-03
 -1       450 4.15924E-04-1.08286E-07-2.18736E-03
 -1       451 4.03408E-04-1.29198E-07-1.96845E-03
 -1       452 3.89171E-04-1.51448E-07-1.75550E-03
 -1       453 3.73105E-04-1.75030E-07-1.54939E-03
 -1       454 3.55102E-04-1.99936E-07-1.35103E-03
 -1       455 3.35054E-04-2.26192E-07-1.16144E-03
 -1       456 3.12852E-04-2.53905E-07-9.81641E-04
 -1       457 2.88391E-04-2.83216E-07-8.12735E-04
 -1       458 2.61560E-04-3.13834E-07-6.55875E-04
 -1       459 2.32255E-04-3.43863E-07-5.12274E-04
 -1       460 2.00369E-04-3.70299E-07-3.83186E-04
 -1       461 1.65813E-04-3.92260E-07-2.69841E-04
 -1       462 1.28501E-04-4.51396E-07-1.73524E-04
 -1       463 8.81544E-05-6.37432E-07-9.56163E-05
 -1       464 4.40805E-05-8.47313E-07-3.66182E-05
 -1       465 4.70613E-04 2.39418E-07-5.75048E-03
 -1       466 4.35250E-05-1.35509E-05-2.61909E-05
 -1       467 8.58870E-05-1.18734E-05-9.09489E-05
 -1       468 1.25706E-04-1.00358E-05-1.74493E-04
 -1       469 1.63072E-04-9.23539E-06-2.71642E-04
 -1       470 1.97713E-04-8.57660E-06-3.84595E-04
 -1       471 2.29720E-04-7.91903E-06-5.13438E-04
 -1       472 2.59138E-04-7.26459E-06-6.57018E-04
 -1       473 2.86075E-04-6.62876E-06-8.13934E-04
 -1       474 3.10641E-04-6.02079E-06-9.82895E-04
 -1       475 3.32946E-04-5.44228E-06-1.16274E-03
 -1       476 3.53100E-04-4.89250E-06-1.35237E-03
 -1       477 3.71208E-04-4.37091E-06-1.55075E-03
 -1       478 3.87379E-04-3.87741E-06-1.75691E-03
 -1       479 4.01721E-04-3.41201E-06-1.96989E-03
 -1       480 4.14342E-04-2.97475E-06-2.18882E-03
 -1       481 4.25349E-04-2.56566E-06-2.41288E-03
 -1       482 4.34852E-04-2.18474E-06-2.64129E-03
 -1       483 4.42959E-04-1.83200E-06-2.87332E-03
 -1       484 4.49777E-04-1.50745E-06-3.10831E-03
 -1       485 4.55415E-04-1.21109E-06-3.34565E-03
 -1       486 4.59980E-04-9.42948E-07-3.58477E-03
 -1       487 4.63581E-04-7.03004E-07-3.82517E-03
 -1       488 4.66326E-04-4.91197E-07-4.06640E-03
 -1       489 4.68322E-04-3.07381E-07-4.30805E-03
 -1       490 4.69677E-04-1.51643E-07-4.54979E-03
 -1       491 4.70496E-04-2.51048E-08-4.79129E-03
 -1       492 4.70888E-04 6.95821E-08-5.03231E-03
 -1       493 4.70965E-04 1.28240E-07-5.27264E-03
 -1       494 4.70836E-04 1.72166E-07-5.51234E-03
 -1       495 3.70384E-05-1.14928E-05-2.40705E-05
 -1       496 7.56147E-05-1.07312E-05-8.94817E-05
 -1       497 1.13597E-04-1.01622E-05-1.72915E-04
 -1       498 1.48959E-04-9.53054E-06-2.70226E-04
 -1       499 1.81412E-04-8.79178E-06-3.83273E-04
 -1       500 2.11339E-04-8.08984E-06-5.12218E-04
 -1       501 2.38862E-04-7.43609E-06-6.55892E-04
 -1       502 2.64087E-04-6.81750E-06-8.12900E-04
 -1       503 2.87106E-04-6.22627E-06-9.81949E-04
 -1       504 3.08016E-04-5.66159E-06-1.16187E-03
 -1       505 3.26917E-04-5.12404E-06-1.35158E-03
 -1       506 3.43910E-04-4.61403E-06-1.55004E-03
 -1       507 3.59095E-04-4.13165E-06-1.75627E-03
 -1       508 3.72573E-04-3.67687E-06-1.96932E-03
 -1       509 3.84446E-04-3.24967E-06-2.18832E-03
 -1       510 3.94814E-04-2.85003E-06-2.41243E-03
 -1       511 4.03778E-04-2.47796E-06-2.64089E-03
 -1       512 4.11439E-04-2.13346E-06-2.87297E-03
 -1       513 4.17899E-04-1.81651E-06-3.10801E-03
 -1       514 4.23257E-04-1.52713E-06-3.34540E-03
 -1       515 4.27615E-04-1.26529E-06-3.58456E-03
 -1       516 4.31074E-04-1.03100E-06-3.82500E-03
 -1       517 4.33734E-04-8.24323E-07-4.06625E-03
 -1       518 4.35695E-04-6.45361E-07-4.30794E-03
 -1       519 4.37059E-04-4.94110E-07-4.54969E-03
 -1       520 4.37926E-04-3.69731E-07-4.79122E-03
 -1       521 4.38398E-04-2.69184E-07-5.03224E-03
 -1       522 4.38570E-04-1.93873E-07-5.27259E-03
 -1       523 4.38504E-04-1.64201E-07-5.51230E-03
 -1       524 4.38339E-04-1.27299E-07-5.75044E-03
 -1       525-1.74538E-05-3.84041E-07-2.88541E-05
 -1       526-3.75982E-05-2.35422E-07-8.55388E-05
 -1       527-5.69948E-05-2.33807E-07-1.64011E-04
 -1       528-7.48495E-05-2.05946E-07-2.60966E-04
 -1       529-9.12311E-05-1.91131E-07-3.74963E-04
 -1       530-1.06337E-04-1.75948E-07-5.04652E-04
 -1       531-1.20252E-04-1.61378E-07-6.48797E-04
 -1       532-1.33042E-04-1.47202E-07-8.06163E-04
 -1       533-1.44757E-04-1.33655E-07-9.75550E-04
 -1       534-1.55446E-04-1.20752E-07-1.15581E-03
 -1       535-1.65156E-04-1.08493E-07-1.34584E-03
 -1       536-1.73937E-04-9.68688E-08-1.54460E-03
 -1       537-1.81836E-04-8.58768E-08-1.75111E-03
 -1       538-1.88903E-04-7.55157E-08-1.96443E-03
 -1       539-1.95186E-04-6.57855E-08-2.18368E-03
 -1       540-2.00734E-04-5.66858E-08-2.40803E-03
 -1       541-2.05594E-04-4.82162E-08-2.63671E-03
 -1       542-2.09816E-04-4.03761E-08-2.86900E-03
 -1       543-2.13447E-04-3.31651E-08-3.10424E-03
 -1       544-2.16536E-04-2.65830E-08-3.34179E-03
 -1       545-2.19131E-04-2.06293E-08-3.58112E-03
 -1       546-2.21282E-04-1.53036E-08-3.82170E-03
 -1       547-2.23036E-04-1.06043E-08-4.06309E-03
 -1       548-2.24443E-04-6.52994E-09-4.30488E-03
 -1       549-2.25553E-04-3.08350E-09-4.54672E-03
 -1       550-2.26414E-04-2.88101E-10-4.78833E-03
 -1       551-2.27074E-04 1.80595E-09-5.02947E-03
 -1       552-2.27582E-04 3.25337E-09-5.26995E-03
 -1       553-2.27983E-04 4.10051E-09-5.50966E-03
 -1       554-2.49327E-08-6.75672E-10-2.74864E-05
 -1       555-5.45066E-08-5.03229E-10-8.28469E-05
 -1       556-9.30322E-08-4.86132E-10-1.61238E-04
 -1       557-1.45635E-07-4.13513E-10-2.58467E-04
 -1       558-2.14974E-07-3.49839E-10-3.72690E-04
 -1       559-3.02321E-07-2.86674E-10-5.02587E-04
 -1       560-4.08309E-07-2.30233E-10-6.46917E-04
 -1       561-5.33145E-07-1.80097E-10-8.04455E-04
 -1       562-6.76645E-07-1.36606E-10-9.74008E-04
 -1       563-8.38296E-07-9.94668E-11-1.15442E-03
 -1       564-1.01732E-06-6.82065E-11-1.34461E-03
 -1       565-1.21274E-06-4.22543E-11-1.54351E-03
 -1       566-1.42340E-06-2.10476E-11-1.75016E-03
 -1       567-1.64803E-06-4.05998E-12-1.96361E-03
 -1       568-1.88526E-06 9.19680E-12-2.18298E-03
 -1       569-2.13368E-06 1.91781E-11-2.40745E-03
 -1       570-2.39186E-06 2.63095E-11-2.63623E-03
 -1       571-2.65839E-06 3.09874E-11-2.86862E-03
 -1       572-2.93188E-06 3.35789E-11-3.10394E-03
 -1       573-3.21102E-06 3.44219E-11-3.34158E-03
 -1       574-3.49456E-06 3.38250E-11-3.58097E-03
 -1       575-3.78134E-06 3.20673E-11-3.82162E-03
 -1       576-4.07032E-06 2.93985E-11-4.06306E-03
 -1       577-4.36055E-06 2.60390E-11-4.30490E-03
 -1       578-4.65122E-06 2.21763E-11-4.54679E-03
 -1       579-4.94162E-06 1.79779E-11-4.78843E-03
 -1       580-5.23120E-06 1.35337E-11-5.02959E-03
 -1       581-5.51954E-06 9.11498E-12-5.27009E-03
 -1       582-5.80634E-06 3.95857E-12-5.50981E-03
 -1       583 1.74050E-05 3.82650E-07-2.88817E-05
 -1       584 3.74888E-05 2.34171E-07-8.55922E-05
 -1       585 5.68062E-05 2.32636E-07-1.64085E-04
 -1       586 7.45537E-05 2.04950E-07-2.61061E-04
 -1       587 9.07954E-05 1.90294E-07-3.75082E-04
 -1       588 1.05726E-04 1.75257E-07-5.04799E-04
 -1       589 1.19429E-04 1.60821E-07-6.48973E-04
 -1       590 1.31969E-04 1.46763E-07-8.06370E-04
 -1       591 1.43397E-04 1.33317E-07-9.75788E-04
 -1       592 1.53763E-04 1.20500E-07-1.15608E-03
 -1       593 1.63115E-04 1.08314E-07-1.34614E-03
 -1       594 1.71506E-04 9.67511E-08-1.54493E-03
 -1       595 1.78984E-04 8.58088E-08-1.75147E-03
 -1       596 1.85603E-04 7.54879E-08-1.96481E-03
 -1       597 1.91412E-04 6.57893E-08-2.18408E-03
 -1       598 1.96463E-04 5.67136E-08-2.40846E-03
 -1       599 2.00807E-04 4.82614E-08-2.63716E-03
 -1       600 2.04496E-04 4.04331E-08-2.86947E-03
 -1       601 2.07580E-04 3.32292E-08-3.10471E-03
 -1       602 2.10111E-04 2.66501E-08-3.34228E-03
 -1       603 2.12140E-04 2.06962E-08-3.58162E-03
 -1       604 2.13717E-04 1.53675E-08-3.82221E-03
 -1       605 2.14894E-04 1.06632E-08-4.06360E-03
 -1       606 2.15721E-04 6.58228E-09-4.30540E-03
 -1       607 2.16249E-04 3.12815E-09-4.54725E-03
 -1       608 2.16529E-04 3.24318E-10-4.78886E-03
 -1       609 2.16611E-04-1.77870E-09-5.03000E-03
 -1       610 2.16542E-04-3.23501E-09-5.27048E-03
 -1       611 2.16370E-04-4.09256E-09-5.51019E-03
 -1       612 1.74050E-05-3.82650E-07-2.88817E-05
 -1       613 3.74888E-05-2.34171E-07-8.55922E-05
 -1       614 5.68062E-05-2.32636E-07-1.64085E-04
 -1       615 7.45537E-05-2.04950E-07-2.61061E-04
 -1       616 9.07954E-05-1.90294E-07-3.75082E-04
 -1       617 1.05726E-04-1.75257E-07-5.04799E-04
 -1       618 1.19429E-04-1.60821E-07-6.48973E-04
 -1       619 1.31969E-04-1.46763E-07-8.06370E-04
 -1       620 1.43397E-04-1.33317E-07-9.75788E-04
 -1       621 1.53763E-04-1.20500E-07-1.15608E-03
 -1       622 1.63115E-04-1.08314E-07-1.34614E-03
 -1       623 1.71506E-04-9.67510E-08-1.54493E-03
 -1       624 1.78984E-04-8.58088E-08-1.75147E-03
 -1       625 1.85603E-04-7.54879E-08-1.96481E-03
 -1       626 1.91412E-04-6.57892E-08-2.18408E-03
 -1       627 1.96463E-04-5.67135E-08-2.40846E-03
 -1       628 2.00807E-04-4.82613E-08-2.63716E-03
 -1       629 2.04496E-04-4.04330E-08-2.86947E-03
 -1       630 2.07580E-04-3.32291E-08-3.10471E-03
 -1       631 2.10111E-04-2.66500E-08-3.34228E-03
 -1       632 2.12140E-04-2.06961E-08-3.58162E-03
 -1       633 2.13717E-04-1.53674E-08-3.82221E-03
 -1       634 2.14894E-04-1.06631E-08-4.06360E-03
 -1       635 2.15721E-04-6.58213E-09-4.30540E-03
 -1       636 2.16249E-04-3.12800E-09-4.54725E-03
 -1       637 2.16529E-04-3.24154E-10-4.78886E-03
 -1       638 2.16611E-04 1.77888E-09-5.03000E-03
 -1       639 2.16542E-04 3.23519E-09-5.27048E-03
 -1       640 2.16370E-04 4.09275E-09-5.51019E-03
 -1       641-2.49327E-08 6.75672E-10-2.74864E-05
 -1       642-5.45066E-08 5.03229E-10-8.28469E-05
 -1       643-9.30322E-08 4.86133E-10-1.61238E-04
 -1       644-1.45635E-07 4.13514E-10-2.58467E-04
 -1       645-2.14974E-07 3.49841E-10-3.72690E-04
 -1       646-3.02321E-07 2.86677E-10-5.02587E-04
 -1       647-4.08309E-07 2.30236E-10-6.46917E-04
 -1       648-5.33145E-07 1.80101E-10-8.04455E-04
 -1       649-6.76645E-07 1.36612E-10-9.74008E-04
 -1       650-8.38296E-07 9.94734E-11-1.15442E-03
 -1       651-1.01732E-06 6.82145E-11-1.34461E-03
 -1       652-1.21274E-06 4.22639E-11-1.54351E-03
 -1       653-1.42340E-06 2.10589E-11-1.75016E-03
 -1       654-1.64803E-06 4.07300E-12-1.96361E-03
 -1       655-1.88526E-06-9.18189E-12-2.18298E-03
 -1       656-2.13368E-06-1.91612E-11-2.40745E-03
 -1       657-2.39186E-06-2.62905E-11-2.63623E-03
 -1       658-2.65839E-06-3.09662E-11-2.86862E-03
 -1       659-2.93188E-06-3.35554E-11-3.10394E-03
 -1       660-3.21102E-06-3.43961E-11-3.34158E-03
 -1       661-3.49456E-06-3.37967E-11-3.58097E-03
 -1       662-3.78134E-06-3.20365E-11-3.82162E-03
 -1       663-4.07032E-06-2.93652E-11-4.06306E-03
 -1       664-4.36055E-06-2.60031E-11-4.30490E-03
 -1       665-4.65122E-06-2.21378E-11-4.54679E-03
 -1       666-4.94162E-06-1.79369E-11-4.78843E-03
 -1       667-5.23120E-06-1.34900E-11-5.02959E-03
 -1       668-5.51954E-06-9.06859E-12-5.27009E-03
 -1       669-5.80634E-06-3.90951E-12-5.50981E-03
 -1       670-1.74538E-05 3.84041E-07-2.88541E-05
 -1       671-3.75982E-05 2.35422E-07-8.55388E-05
 -1       672-5.69948E-05 2.33807E-07-1.64011E-04
 -1       673-7.48495E-05 2.05946E-07-2.60966E-04
 -1       674-9.12311E-05 1.91131E-07-3.74963E-04
 -1       675-1.06337E-04 1.75948E-07-5.04652E-04
 -1       676-1.20252E-04 1.61378E-07-6.48797E-04
 -1       677-1.33042E-04 1.47202E-07-8.06163E-04
 -1       678-1.44757E-04 1.33655E-07-9.75550E-04
 -1       679-1.55446E-04 1.20752E-07-1.15581E-03
 -1       680-1.65156E-04 1.08493E-07-1.34584E-03
 -1       681-1.73937E-04 9.68688E-08-1.54460E-03
 -1       682-1.81836E-04 8.58767E-08-1.75111E-03
 -1       683-1.88903E-04 7.55157E-08-1.96443E-03
 -1       684-1.95186E-04 6.57855E-08-2.18368E-03
 -1       685-2.00734E-04 5.66858E-08-2.40803E-03
 -1       686-2.05594E-04 4.82161E-08-2.63671E-03
 -1       687-2.09816E-04 4.03760E-08-2.86900E-03
 -1       688-2.13447E-04 3.31651E-08-3.10424E-03
 -1       689-2.16536E-04 2.65829E-08-3.34179E-03
 -1       690-2.19131E-04 2.06293E-08-3.58112E-03
 -1       691-2.21282E-04 1.53035E-08-3.82170E-03
 -1       692-2.23036E-04 1.06042E-08-4.06309E-03
 -1       693-2.24443E-04 6.52987E-09-4.30488E-03
 -1       694-2.25553E-04 3.08342E-09-4.54672E-03
 -1       695-2.26414E-04 2.88019E-10-4.78833E-03
 -1       696-2.27074E-04-1.80604E-09-5.02947E-03
 -1       697-2.27582E-04-3.25346E-09-5.26995E-03
 -1       698-2.27983E-04-4.10060E-09-5.50966E-03
 -1       699-4.24318E-05-7.41309E-06-3.22785E-05
 -1       700-8.68672E-05-6.51296E-06-9.40536E-05
 -1       701-1.26840E-04-5.19030E-06-1.73739E-04
 -1       702-1.64326E-04-4.74469E-06-2.70359E-04
 -1       703-1.99088E-04-4.41557E-06-3.83506E-04
 -1       704-2.31226E-04-4.08016E-06-5.12440E-04
 -1       705-2.60817E-04-3.73833E-06-6.55969E-04
 -1       706-2.87966E-04-3.40326E-06-8.12781E-04
 -1       707-3.12783E-04-3.08287E-06-9.81637E-04
 -1       708-3.35375E-04-2.77854E-06-1.16138E-03
 -1       709-3.55849E-04-2.48965E-06-1.35092E-03
 -1       710-3.74311E-04-2.21568E-06-1.54922E-03
 -1       711-3.90866E-04-1.95653E-06-1.75529E-03
 -1       712-4.05619E-04-1.71220E-06-1.96819E-03
 -1       713-4.18676E-04-1.48271E-06-2.18706E-03
 -1       714-4.30143E-04-1.26807E-06-2.41105E-03
 -1       715-4.40125E-04-1.06826E-06-2.63939E-03
 -1       716-4.48727E-04-8.83280E-07-2.87137E-03
 -1       717-4.56054E-04-7.13124E-07-3.10631E-03
 -1       718-4.62213E-04-5.57790E-07-3.34361E-03
 -1       719-4.67308E-04-4.17278E-07-3.58270E-03
 -1       720-4.71445E-04-2.91576E-07-3.82307E-03
 -1       721-4.74731E-04-1.80616E-07-4.06427E-03
 -1       722-4.77270E-04-8.42696E-08-4.30590E-03
 -1       723-4.79169E-04-2.60962E-09-4.54762E-03
 -1       724-4.80533E-04 6.34062E-08-4.78911E-03
 -1       725-4.81469E-04 1.11352E-07-5.03014E-03
 -1       726-4.82084E-04 1.39254E-07-5.27052E-03
 -1       727-4.82494E-04 1.56947E-07-5.51019E-03
 -1       728-3.53059E-05-5.56540E-06-3.00380E-05
 -1       729-7.71420E-05-5.71909E-06-9.25279E-05
 -1       730-1.14831E-04-5.33077E-06-1.72205E-04
 -1       731-1.50052E-04-5.04481E-06-2.68957E-04
 -1       732-1.82631E-04-4.65156E-06-3.82209E-04
 -1       733-2.12713E-04-4.27563E-06-5.11249E-04
 -1       734-2.40425E-04-3.93174E-06-6.54878E-04
 -1       735-2.65870E-04-3.60804E-06-8.11787E-04
 -1       736-2.89145E-04-3.29875E-06-9.80736E-04
 -1       737-3.10346E-04-3.00305E-06-1.16057E-03
 -1       738-3.29573E-04-2.72141E-06-1.35019E-03
 -1       739-3.46924E-04-2.45415E-06-1.54857E-03
 -1       740-3.62498E-04-2.20135E-06-1.75471E-03
 -1       741-3.76393E-04-1.96301E-06-1.96769E-03
 -1       742-3.88708E-04-1.73910E-06-2.18662E-03
 -1       743-3.99540E-04-1.52962E-06-2.41067E-03
 -1       744-4.08987E-04-1.33458E-06-2.63907E-03
 -1       745-4.17149E-04-1.15398E-06-2.87110E-03
 -1       746-4.24123E-04-9.87828E-07-3.10610E-03
 -1       747-4.30007E-04-8.36115E-07-3.34344E-03
 -1       748-4.34900E-04-6.98842E-07-3.58257E-03
 -1       749-4.38899E-04-5.76018E-07-3.82297E-03
 -1       750-4.42105E-04-4.67685E-07-4.06421E-03
 -1       751-4.44615E-04-3.73931E-07-4.30587E-03
 -1       752-4.46528E-04-2.94756E-07-4.54760E-03
 -1       753-4.47943E-04-2.29423E-07-4.78912E-03
 -1       754-4.48960E-04-1.75798E-07-5.03016E-03
 -1       755-4.49674E-04-1.34665E-07-5.27055E-03
 -1       756-4.50178E-04-1.24346E-07-5.51023E-03
 -1       757 3.52660E-05 5.56907E-06-3.01273E-05
 -1       758 7.70355E-05 5.72956E-06-9.26961E-05
 -1       759 1.14638E-04 5.34155E-06-1.72407E-04
 -1       760 1.49745E-04 5.05416E-06-2.69191E-04
 -1       761 1.82180E-04 4.65998E-06-3.82486E-04
 -1       762 2.12085E-04 4.28316E-06-5.11576E-04
 -1       763 2.39584E-04 3.93836E-06-6.55259E-04
 -1       764 2.64779E-04 3.61381E-06-8.12225E-04
 -1       765 2.87766E-04 3.30378E-06-9.81233E-04
 -1       766 3.08645E-04 3.00744E-06-1.16112E-03
 -1       767 3.27515E-04 2.72524E-06-1.35081E-03
 -1       768 3.44476E-04 2.45749E-06-1.54924E-03
 -1       769 3.59630E-04 2.20426E-06-1.75544E-03
 -1       770 3.73077E-04 1.96554E-06-1.96846E-03
 -1       771 3.84919E-04 1.74130E-06-2.18744E-03
 -1       772 3.95255E-04 1.53154E-06-2.41153E-03
 -1       773 4.04188E-04 1.33626E-06-2.63997E-03
 -1       774 4.11818E-04 1.15545E-06-2.87203E-03
 -1       775 4.18246E-04 9.89103E-07-3.10706E-03
 -1       776 4.23573E-04 8.37226E-07-3.34442E-03
 -1       777 4.27900E-04 6.99808E-07-3.58357E-03
 -1       778 4.31327E-04 5.76853E-07-3.82399E-03
 -1       779 4.33956E-04 4.68401E-07-4.06524E-03
 -1       780 4.35886E-04 3.74536E-07-4.30691E-03
 -1       781 4.37218E-04 2.95257E-07-4.54865E-03
 -1       782 4.38054E-04 2.29823E-07-4.79017E-03
 -1       783 4.38492E-04 1.76100E-07-5.03122E-03
 -1       784 4.38630E-04 1.34868E-07-5.27161E-03
 -1       785 4.38560E-04 1.24453E-07-5.51129E-03
 -1       786 4.24005E-05 7.40005E-06-3.23709E-05
 -1       787 8.67569E-05 6.49408E-06-9.42282E-05
 -1       788 1.26639E-04 5.17359E-06-1.73951E-04
 -1       789 1.64011E-04 4.73089E-06-2.70609E-04
 -1       790 1.98630E-04 4.40407E-06-3.83803E-04
 -1       791 2.30592E-04 4.07062E-06-5.12792E-04
 -1       792 2.59969E-04 3.73059E-06-6.56380E-04
 -1       793 2.86868E-04 3.39714E-06-8.13255E-04
 -1       794 3.11399E-04 3.07813E-06-9.82175E-04
 -1       795 3.33669E-04 2.77496E-06-1.16198E-03
 -1       796 3.53787E-04 2.48704E-06-1.35159E-03
 -1       797 3.71859E-04 2.21388E-06-1.54995E-03
 -1       798 3.87994E-04 1.95540E-06-1.75607E-03
 -1       799 4.02300E-04 1.71161E-06-1.96903E-03
 -1       800 4.14885E-04 1.48255E-06-2.18794E-03
 -1       801 4.25856E-04 1.26824E-06-2.41198E-03
 -1       802 4.35323E-04 1.06867E-06-2.64036E-03
 -1       803 4.43394E-04 8.83858E-07-2.87237E-03
 -1       804 4.50176E-04 7.13807E-07-3.10735E-03
 -1       805 4.55778E-04 5.58526E-07-3.34467E-03
 -1       806 4.60307E-04 4.18023E-07-3.58378E-03
 -1       807 4.63873E-04 2.92296E-07-3.82417E-03
 -1       808 4.66581E-04 1.81284E-07-4.06538E-03
 -1       809 4.68541E-04 8.48664E-08-4.30702E-03
 -1       810 4.69860E-04 3.12084E-09-4.54874E-03
 -1       811 4.70644E-04-6.29897E-08-4.79025E-03
 -1       812 4.71001E-04-1.11035E-07-5.03128E-03
 -1       813 4.71040E-04-1.39043E-07-5.27166E-03
 -1       814 4.70876E-04-1.56839E-07-5.51133E-03
 -1       815-4.24318E-05 7.41309E-06-3.22785E-05
 -1       816-8.68672E-05 6.51296E-06-9.40536E-05
 -1       817-1.26840E-04 5.19030E-06-1.73739E-04
 -1       818-1.64326E-04 4.74469E-06-2.70359E-04
 -1       819-1.99088E-04 4.41557E-06-3.83506E-04
 -1       820-2.31226E-04 4.08016E-06-5.12440E-04
 -1       821-2.60817E-04 3.73833E-06-6.55969E-04
 -1       822-2.87966E-04 3.40326E-06-8.12781E-04
 -1       823-3.12783E-04 3.08287E-06-9.81637E-04
 -1       824-3.35375E-04 2.77854E-06-1.16138E-03
 -1       825-3.55849E-04 2.48965E-06-1.35092E-03
 -1       826-3.74311E-04 2.21568E-06-1.54922E-03
 -1       827-3.90866E-04 1.95653E-06-1.75529E-03
 -1       828-4.05619E-04 1.71220E-06-1.96819E-03
 -1       829-4.18676E-04 1.48271E-06-2.18706E-03
 -1       830-4.30143E-04 1.26807E-06-2.41105E-03
 -1       831-4.40125E-04 1.06826E-06-2.63939E-03
 -1       832-4.48727E-04 8.83280E-07-2.87137E-03
 -1       833-4.56054E-04 7.13124E-07-3.10631E-03
 -1       834-4.62213E-04 5.57789E-07-3.34361E-03
 -1       835-4.67308E-04 4.17278E-07-3.58270E-03
 -1       836-4.71445E-04 2.91576E-07-3.82307E-03
 -1       837-4.74731E-04 1.80615E-07-4.06427E-03
 -1       838-4.77270E-04 8.42694E-08-4.30590E-03
 -1       839-4.79169E-04 2.60941E-09-4.54762E-03
 -1       840-4.80533E-04-6.34064E-08-4.78911E-03
 -1       841-4.81469E-04-1.11352E-07-5.03014E-03
 -1       842-4.82084E-04-1.39255E-07-5.27052E-03
 -1       843-4.82494E-04-1.56948E-07-5.51019E-03
 -1       844-3.53059E-05 5.56540E-06-3.00380E-05
 -1       845-7.71420E-05 5.71909E-06-9.25279E-05
 -1       846-1.14831E-04 5.33077E-06-1.72205E-04
 -1       847-1.50052E-04 5.04481E-06-2.68957E-04
 -1       848-1.82631E-04 4.65156E-06-3.82209E-04
 -1       849-2.12713E-04 4.27563E-06-5.11249E-04
 -1       850-2.40425E-04 3.93174E-06-6.54878E-04
 -1       851-2.65870E-04 3.60804E-06-8.11787E-04
 -1       852-2.89145E-04 3.29875E-06-9.80736E-04
 -1       853-3.10346E-04 3.00305E-06-1.16057E-03
 -1       854-3.29573E-04 2.72141E-06-1.35019E-03
 -1       855-3.46924E-04 2.45415E-06-1.54857E-03
 -1       856-3.62498E-04 2.20135E-06-1.75471E-03
 -1       857-3.76393E-04 1.96301E-06-1.96769E-03
 -1       858-3.88708E-04 1.73910E-06-2.18662E-03
 -1       859-3.99540E-04 1.52962E-06-2.41067E-03
 -1       860-4.08987E-04 1.33458E-06-2.63907E-03
 -1       861-4.17149E-04 1.15398E-06-2.87110E-03
 -1       862-4.24123E-04 9.87828E-07-3.10610E-03
 -1       863-4.30007E-04 8.36115E-07-3.34344E-03
 -1       864-4.34900E-04 6.98842E-07-3.58257E-03
 -1       865-4.38899E-04 5.76018E-07-3.82297E-03
 -1       866-4.42105E-04 4.67685E-07-4.06421E-03
 -1       867-4.44615E-04 3.73931E-07-4.30587E-03
 -1       868-4.46528E-04 2.94756E-07-4.54760E-03
 -1       869-4.47943E-04 2.29422E-07-4.78912E-03
 -1       870-4.48960E-04 1.75798E-07-5.03016E-03
 -1       871-4.49674E-04 1.34665E-07-5.27055E-03
 -1       872-4.50178E-04 1.24346E-07-5.51023E-03
 -1       873 4.70876E-04 1.56839E-07-5.51133E-03
 -1       874 4.71040E-04 1.39044E-07-5.27166E-03
 -1       875 4.71001E-04 1.11036E-07-5.03128E-03
 -1       876 4.70644E-04 6.29900E-08-4.79025E-03
 -1       877 4.69860E-04-3.12055E-09-4.54874E-03
 -1       878 4.68541E-04-8.48661E-08-4.30702E-03
 -1       879 4.66581E-04-1.81284E-07-4.06538E-03
 -1       880 4.63873E-04-2.92296E-07-3.82417E-03
 -1       881 4.60307E-04-4.18023E-07-3.58378E-03
 -1       882 4.55778E-04-5.58525E-07-3.34467E-03
 -1       883 4.50176E-04-7.13807E-07-3.10735E-03
 -1       884 4.43394E-04-8.83858E-07-2.87237E-03
 -1       885 4.35323E-04-1.06867E-06-2.64036E-03
 -1       886 4.25856E-04-1.26824E-06-2.41198E-03
 -1       887 4.14885E-04-1.48255E-06-2.18794E-03
 -1       888 4.02300E-04-1.71161E-06-1.96903E-03
 -1       889 3.87994E-04-1.95540E-06-1.75607E-03
 -1       890 3.71859E-04-2.21388E-06-1.54995E-03
 -1       891 3.53787E-04-2.48704E-06-1.35159E-03
 -1       892 3.33669E-04-2.77496E-06-1.16198E-03
 -1       893 3.11399E-04-3.07813E-06-9.82175E-04
 -1       894 2.86868E-04-3.39714E-06-8.13255E-04
 -1       895 2.59969E-04-3.73059E-06-6.56380E-04
 -1       896 2.30592E-04-4.07062E-06-5.12792E-04
 -1       897 1.98630E-04-4.40407E-06-3.83803E-04
 -1       898 1.64011E-04-4.73089E-06-2.70609E-04
 -1       899 1.26639E-04-5.17359E-06-1.73951E-04
 -1       900 8.67569E-05-6.49408E-06-9.42282E-05
 -1       901 4.24005E-05-7.40005E-06-3.23709E-05
 -1       902 3.52660E-05-5.56907E-06-3.01273E-05
 -1       903 7.70355E-05-5.72956E-06-9.26961E-05
 -1       904 1.14638E-04-5.34155E-06-1.72407E-04
 -1       905 1.49745E-04-5.05416E-06-2.69191E-04
 -1       906 1.82180E-04-4.65998E-06-3.82486E-04
 -1       907 2.12085E-04-4.28316E-06-5.11576E-04
 -1       908 2.39584E-04-3.93836E-06-6.55259E-04
 -1       909 2.64779E-04-3.61381E-06-8.12225E-04
 -1       910 2.87766E-04-3.30378E-06-9.81233E-04
 -1       911 3.08645E-04-3.00744E-06-1.16112E-03
 -1       912 3.27515E-04-2.72524E-06-1.35081E-03
 -1       913 3.44476E-04-2.45749E-06-1.54924E-03
 -1       914 3.59630E-04-2.20426E-06-1.75544E-03
 -1       915 3.73077E-04-1.96554E-06-1.96846E-03
 -1       916 3.84919E-04-1.74130E-06-2.18744E-03
 -1       917 3.95255E-04-1.53154E-06-2.41153E-03
 -1       918 4.04188E-04-1.33626E-06-2.63997E-03
 -1       919 4.11818E-04-1.15545E-06-2.87203E-03
 -1       920 4.18246E-04-9.89103E-07-3.10706E-03
 -1       921 4.23573E-04-8.37226E-07-3.34442E-03
 -1       922 4.27900E-04-6.99808E-07-3.58357E-03
 -1       923 4.31327E-04-5.76853E-07-3.82399E-03
 -1       924 4.33956E-04-4.68401E-07-4.06524E-03
 -1       925 4.35886E-04-3.74536E-07-4.30691E-03
 -1       926 4.37218E-04-2.95256E-07-4.54865E-03
 -1       927 4.38054E-04-2.29823E-07-4.79017E-03
 -1       928 4.38492E-04-1.76100E-07-5.03122E-03
 -1       929 4.38630E-04-1.34868E-07-5.27161E-03
 -1       930 4.38560E-04-1.24453E-07-5.51129E-03
 -3
    1PSTEP                         2           1           1          
  100CL  101 50.00000000         930                     0    1           1
 -4  STRESS      6    1
 -5  SXX         1    4    1    1
 -5  SYY         1    4    2    2
 -5  SZZ         1    4    3    3
 -5  SXY         1    4    1    2
 -5  SYZ         1    4    2    3
 -5  SZX         1    4    3    1
 -1         1-1.05558E+08-4.52735E+07-4.52566E+07-5.63397E+05 7.88049E+02-2.77652E+07
 -1         2-1.05558E+08-4.52735E+07-4.52566E+07 5.63397E+05-7.88049E+02-2.77652E+07
 -1         3 2.74700E+05 6.54617E+05 7.29835E+05-6.27778E+04 2.78048E+05-3.02348E+05
 -1         4 2.74700E+05 6.54617E+05 7.29835E+05 6.27778E+04-2.78048E+05-3.02348E+05
 -1         5 1.05581E+08 4.52164E+07 4.52333E+07 5.65243E+05-7.72027E+02-2.78735E+07
 -1         6 1.05581E+08 4.52164E+07 4.52333E+07-5.65243E+05 7.72027E+02-2.78735E+07
 -1         7-2.76705E+05-6.54454E+05-7.26730E+05 6.41159E+04 2.77732E+05-3.04490E+05
 -1         8-2.76705E+05-6.54454E+05-7.26730E+05-6.41159E+04-2.77732E+05-3.04490E+05
 -1         9-1.24623E+08-5.34581E+07-5.34395E+07-6.85182E+05 1.16465E+03-2.94895E+07
 -1        10-8.66102E+05-2.30617E+06-6.20976E+05-2.49235E+04 3.91358E+05-2.35349E+05
 -1        11-1.23021E+08-5.27675E+07-5.27629E+07-1.09413E+07 5.49983E+03-2.10043E+07
 -1        12-1.04760E+08-4.49294E+07-4.49258E+07-9.26904E+06 4.08723E+03-1.93012E+07
 -1        13-1.69819E+05-2.07863E+05-7.28794E+04 3.91037E+04-8.11875E+04-5.65340E+04
 -1        14-7.02978E+04 1.25255E+05 5.69247E+04-1.02198E+05-8.75740E+04-5.85868E+04
 -1        15 1.24701E+08 5.33968E+07 5.34155E+07 6.85719E+05-1.13752E+03-2.96170E+07
 -1        16 8.64725E+05 2.30637E+06 6.23411E+05 2.68129E+04 3.91242E+05-2.36499E+05
 -1        17 1.04761E+08 4.48669E+07 4.48707E+07 9.29292E+06-4.11570E+03-1.94627E+07
 -1        18 1.23122E+08 5.27242E+07 5.27290E+07 1.09600E+07-5.52779E+03-2.11822E+07
 -1        19 7.06726E+04-1.25053E+05-5.61929E+04 1.01751E+05-8.80677E+04-5.91974E+04
 -1        20 1.70212E+05 2.08064E+05 7.35909E+04-3.95118E+04-8.09903E+04-5.69939E+04
 -1        21-1.04760E+08-4.49294E+07-4.49258E+07 9.26904E+06-4.08723E+03-1.93012E+07
 -1        22-1.23021E+08-5.27675E+07-5.27629E+07 1.09413E+07-5.49983E+03-2.10043E+07
 -1        23-1.69819E+05-2.07863E+05-7.28794E+04-3.91037E+04 8.11875E+04-5.65340E+04
 -1        24-7.02978E+04 1.25255E+05 5.69247E+04 1.02198E+05 8.75740E+04-5.85868E+04
 -1        25-1.24623E+08-5.34581E+07-5.34395E+07 6.85182E+05-1.16465E+03-2.94895E+07
 -1        26-8.66102E+05-2.30617E+06-6.20976E+05 2.49235E+04-3.91358E+05-2.35349E+05
 -1        27 1.24701E+08 5.33968E+07 5.34155E+07-6.85719E+05 1.13752E+03-2.96170E+07
 -1        28 1.23122E+08 5.27242E+07 5.27290E+07-1.09600E+07 5.52779E+03-2.11822E+07
 -1        29 1.04761E+08 4.48669E+07 4.48707E+07-9.29292E+06 4.11570E+03-1.94627E+07
 -1        30 8.64725E+05 2.30637E+06 6.23411E+05-2.68129E+04-3.91242E+05-2.36499E+05
 -1        31 1.70212E+05 2.08064E+05 7.35909E+04 3.95118E+04 8.09903E+04-5.69939E+04
 -1        32 7.06726E+04-1.25053E+05-5.61929E+04-1.01751E+05 8.80677E+04-5.91974E+04
 -1        33-7.91663E+07 8.50944E+06 5.23404E+06 1.49672E+06 2.05790E+06-5.25599E+06
 -1        34-8.57048E+07-2.12115E+06-4.39039E+06 1.34298E+06 2.98952E+05-8.04085E+06
 -1        35-7.61425E+07 1.23628E+06-4.31919E+05 1.49314E+06-1.37693E+05-7.18715E+06
 -1        36-7.05732E+07 1.18099E+06-6.19382E+05 1.36695E+06-2.65459E+05-7.07604E+06
 -1        37-6.52376E+07 1.14668E+06-5.09897E+05 1.30492E+06-2.14873E+05-6.78092E+06
 -1        38-6.01800E+07 9.70677E+05-5.45977E+05 1.25842E+06-1.80358E+05-6.49112E+06
 -1        39-5.52559E+07 9.23632E+05-4.64083E+05 1.20873E+06-1.76791E+05-6.21334E+06
 -1        40-5.05384E+07 8.93606E+05-3.74092E+05 1.15684E+06-1.83104E+05-5.94211E+06
 -1        41-4.60270E+07 8.67334E+05-2.85730E+05 1.10407E+06-1.89288E+05-5.67126E+06
 -1        42-4.17272E+07 8.38191E+05-2.05549E+05 1.05126E+06-1.93634E+05-5.40069E+06
 -1        43-3.76378E+07 8.08733E+05-1.31115E+05 9.98586E+05-1.97035E+05-5.13070E+06
 -1        44-3.37582E+07 7.80415E+05-6.10887E+04 9.45969E+05-2.00103E+05-4.86138E+06
 -1        45-3.00880E+07 7.53645E+05 4.94547E+03 8.93365E+05-2.02996E+05-4.59260E+06
 -1        46-2.66275E+07 7.28381E+05 6.69716E+04 8.40760E+05-2.05694E+05-4.32415E+06
 -1        47-2.33765E+07 7.04561E+05 1.24958E+05 7.88156E+05-2.08177E+05-4.05589E+06
 -1        48-2.03352E+07 6.82177E+05 1.78921E+05 7.35556E+05-2.10442E+05-3.78768E+06
 -1        49-1.75035E+07 6.61250E+05 2.28900E+05 6.82959E+05-2.12501E+05-3.51940E+06
 -1        50-1.48814E+07 6.41802E+05 2.74936E+05 6.30367E+05-2.14363E+05-3.25097E+06
 -1        51-1.24691E+07 6.23849E+05 3.17060E+05 5.77778E+05-2.16036E+05-2.98230E+06
 -1        52-1.02664E+07 6.07395E+05 3.55294E+05 5.25191E+05-2.17523E+05-2.71333E+06
 -1        53-8.27350E+06 5.92434E+05 3.89648E+05 4.72608E+05-2.18824E+05-2.44401E+06
 -1        54-6.49024E+06 5.79010E+05 4.20176E+05 4.20034E+05-2.19954E+05-2.17429E+06
 -1        55-4.91658E+06 5.67335E+05 4.47085E+05 3.67481E+05-2.21001E+05-1.90411E+06
 -1        56-3.55239E+06 5.57779E+05 4.70736E+05 3.14938E+05-2.22124E+05-1.63332E+06
 -1        57-2.39777E+06 5.50393E+05 4.91089E+05 2.62325E+05-2.23305E+05-1.36197E+06
 -1        58-1.45434E+06 5.41509E+05 5.05117E+05 2.09334E+05-2.23202E+05-1.09059E+06
 -1        59-7.26356E+05 5.22143E+05 5.05912E+05 1.56045E+05-2.18502E+05-8.20714E+05
 -1        60-2.20748E+05 4.89369E+05 4.88161E+05 1.04430E+05-2.08243E+05-5.55957E+05
 -1        61 7.57411E+04 5.16875E+05 4.82125E+05 6.13331E+04-2.14374E+05-3.09586E+05
 -1        62-7.91663E+07 8.50944E+06 5.23404E+06-1.49672E+06-2.05790E+06-5.25599E+06
 -1        63-8.57048E+07-2.12115E+06-4.39039E+06-1.34298E+06-2.98952E+05-8.04085E+06
 -1        64-7.61425E+07 1.23628E+06-4.31919E+05-1.49314E+06 1.37693E+05-7.18715E+06
 -1        65-7.05732E+07 1.18099E+06-6.19382E+05-1.36695E+06 2.65459E+05-7.07604E+06
 -1        66-6.52376E+07 1.14668E+06-5.09897E+05-1.30492E+06 2.14873E+05-6.78092E+06
 -1        67-6.01800E+07 9.70677E+05-5.45977E+05-1.25842E+06 1.80358E+05-6.49112E+06
 -1        68-5.52559E+07 9.23632E+05-4.64083E+05-1.20873E+06 1.76791E+05-6.21334E+06
 -1        69-5.05384E+07 8.93606E+05-3.74092E+05-1.15684E+06 1.83104E+05-5.94211E+06
 -1        70-4.60270E+07 8.67334E+05-2.85730E+05-1.10407E+06 1.89288E+05-5.67126E+06
 -1        71-4.17272E+07 8.38191E+05-2.05549E+05-1.05126E+06 1.93634E+05-5.40069E+06
 -1        72-3.76378E+07 8.08733E+05-1.31115E+05-9.98586E+05 1.97035E+05-5.13070E+06
 -1        73-3.37582E+07 7.80415E+05-6.10887E+04-9.45969E+05 2.00103E+05-4.86138E+06
 -1        74-3.00880E+07 7.53645E+05 4.94547E+03-8.93365E+05 2.02996E+05-4.59260E+06
 -1        75-2.66275E+07 7.28381E+05 6.69716E+04-8.40760E+05 2.05694E+05-4.32415E+06
 -1        76-2.33765E+07 7.04561E+05 1.24958E+05-7.88156E+05 2.08177E+05-4.05589E+06
 -1        77-2.03352E+07 6.82177E+05 1.78921E+05-7.35556E+05 2.10442E+05-3.78768E+06
 -1        78-1.75035E+07 6.61250E+05 2.28900E+05-6.82959E+05 2.12501E+05-3.51940E+06
 -1        79-1.48814E+07 6.41802E+05 2.74936E+05-6.30367E+05 2.14363E+05-3.25097E+06
 -1        80-1.24691E+07 6.23849E+05 3.17060E+05-5.77778E+05 2.16036E+05-2.98230E+06
 -1        81-1.02664E+07 6.07395E+05 3.55294E+05-5.25191E+05 2.17523E+05-2.71333E+06
 -1        82-8.27350E+06 5.92434E+05 3.89648E+05-4.72608E+05 2.18824E+05-2.44401E+06
 -1        83-6.49024E+06 5.79010E+05 4.20176E+05-4.20034E+05 2.19954E+05-2.17429E+06
 -1        84-4.91658E+06 5.67335E+05 4.47085E+05-3.67481E+05 2.21001E+05-1.90411E+06
 -1        85-3.55239E+06 5.57779E+05 4.70736E+05-3.14938E+05 2.22124E+05-1.63332E+06
 -1        86-2.39777E+06 5.50393E+05 4.91089E+05-2.62325E+05 2.23305E+05-1.36197E+06
 -1        87-1.45434E+06 5.41509E+05 5.05117E+05-2.09334E+05 2.23202E+05-1.09059E+06
 -1        88-7.26356E+05 5.22143E+05 5.05912E+05-1.56045E+05 2.18502E+05-8.20714E+05
 -1        89-2.20748E+05 4.89369E+05 4.88161E+05-1.04430E+05 2.08243E+05-5.55957E+05
 -1        90 7.57411E+04 5.16875E+05 4.82125E+05-6.13331E+04 2.14374E+05-3.09586E+05
 -1        91-4.93179E+07-2.11428E+07-2.11294E+07-3.10046E+05 1.59575E+02-2.32911E+07
 -1        92-6.32578E+04-2.55823E+04-1.39775E+04-5.97897E+02 1.50553E+00-2.21999E+07
 -1        93 4.92217E+07 2.10892E+07 2.11024E+07 3.09199E+05-1.56909E+02-2.33402E+07
 -1        94 4.92217E+07 2.10892E+07 2.11024E+07-3.09199E+05 1.56909E+02-2.33402E+07
 -1        95-6.32578E+04-2.55823E+04-1.39775E+04 5.97897E+02-1.50553E+00-2.21999E+07
 -1        96-4.93179E+07-2.11428E+07-2.11294E+07 3.10046E+05-1.59575E+02-2.32911E+07
 -1        97 7.92086E+07-8.52990E+06-5.25622E+06 1.49846E+06-2.04339E+06-5.33333E+06
 -1        98 8.57228E+07 2.06055E+06 4.33914E+06 1.34234E+06-2.76663E+05-8.15761E+06
 -1        99 7.61524E+07-1.29109E+06 3.93574E+05 1.49199E+06 1.57301E+05-7.31788E+06
 -1       100 7.05794E+07-1.22713E+06 5.94199E+05 1.36623E+06 2.81243E+05-7.22136E+06
 -1       101 6.52403E+07-1.18642E+06 4.96093E+05 1.30444E+06 2.27791E+05-6.93668E+06
 -1       102 6.01794E+07-1.00485E+06 5.41674E+05 1.25809E+06 1.90707E+05-6.65304E+06
 -1       103 5.52525E+07-9.52325E+05 4.68278E+05 1.20857E+06 1.84727E+05-6.37753E+06
 -1       104 5.05325E+07-9.17354E+05 3.85501E+05 1.15684E+06 1.88902E+05-6.10521E+06
 -1       105 4.60192E+07-8.86825E+05 3.02992E+05 1.10422E+06 1.93283E+05-5.83050E+06
 -1       106 4.17177E+07-8.54068E+05 2.27407E+05 1.05155E+06 1.96136E+05-5.55383E+06
 -1       107 3.76270E+07-8.21538E+05 1.56481E+05 9.98983E+05 1.98306E+05-5.27598E+06
 -1       108 3.37464E+07-7.90611E+05 8.90130E+04 9.46463E+05 2.00369E+05-4.99745E+06
 -1       109 3.00757E+07-7.61643E+05 2.46960E+04 8.93946E+05 2.02455E+05-4.71848E+06
 -1       110 2.66148E+07-7.34547E+05-3.63610E+04 8.41421E+05 2.04528E+05-4.43921E+06
 -1       111 2.33637E+07-7.09222E+05-9.40395E+04 7.88888E+05 2.06543E+05-4.15976E+06
 -1       112 2.03225E+07-6.85620E+05-1.48273E+05 7.36350E+05 2.08481E+05-3.88027E+06
 -1       113 1.74911E+07-6.63724E+05-1.99023E+05 6.83809E+05 2.10332E+05-3.60083E+06
 -1       114 1.48696E+07-6.43520E+05-2.46257E+05 6.31264E+05 2.12090E+05-3.32154E+06
 -1       115 1.24579E+07-6.24992E+05-2.89941E+05 5.78716E+05 2.13747E+05-3.04250E+06
 -1       116 1.02559E+07-6.08113E+05-3.30032E+05 5.26164E+05 2.15290E+05-2.76376E+06
 -1       117 8.26383E+06-5.92851E+05-3.66486E+05 4.73609E+05 2.16706E+05-2.48539E+06
 -1       118 6.48150E+06-5.79223E+05-3.99306E+05 4.21058E+05 2.17999E+05-2.20742E+06
 -1       119 4.90882E+06-5.67421E+05-4.28650E+05 3.68523E+05 2.19244E+05-1.92987E+06
 -1       120 3.54567E+06-5.57794E+05-4.54844E+05 3.15996E+05 2.20591E+05-1.65265E+06
 -1       121 2.39214E+06-5.50377E+05-4.77809E+05 2.63394E+05 2.22014E+05-1.37583E+06
 -1       122 1.44980E+06-5.41487E+05-4.94486E+05 2.10407E+05 2.22167E+05-1.09996E+06
 -1       123 7.22920E+05-5.22126E+05-4.97926E+05 1.57097E+05 2.17730E+05-8.26576E+05
 -1       124 2.18355E+05-4.89375E+05-4.82781E+05 1.05432E+05 2.07726E+05-5.59310E+05
 -1       125-7.71895E+04-5.16833E+05-4.79077E+05 6.23646E+04 2.14076E+05-3.11501E+05
 -1       126-1.09818E+05-2.07539E+05 4.00880E+05 1.56937E+03 2.03275E+03-3.93764E+05
 -1       127-1.38954E+03 8.41400E+01 1.96784E+03-1.41590E+01-5.22797E+03-3.87055E+05
 -1       128 1.06955E+05 2.07705E+05-3.96887E+05-1.56326E+03 2.03988E+03-3.96188E+05
 -1       129 7.92086E+07-8.52990E+06-5.25622E+06-1.49846E+06 2.04339E+06-5.33333E+06
 -1       130 8.57228E+07 2.06055E+06 4.33914E+06-1.34234E+06 2.76663E+05-8.15761E+06
 -1       131 7.61524E+07-1.29109E+06 3.93574E+05-1.49199E+06-1.57301E+05-7.31788E+06
 -1       132 7.05794E+07-1.22713E+06 5.94199E+05-1.36623E+06-2.81243E+05-7.22136E+06
 -1       133 6.52403E+07-1.18642E+06 4.96093E+05-1.30444E+06-2.27791E+05-6.93668E+06
 -1       134 6.01794E+07-1.00485E+06 5.41674E+05-1.25809E+06-1.90707E+05-6.65304E+06
 -1       135 5.52525E+07-9.52325E+05 4.68278E+05-1.20857E+06-1.84727E+05-6.37753E+06
 -1       136 5.05325E+07-9.17354E+05 3.85501E+05-1.15684E+06-1.88902E+05-6.10521E+06
 -1       137 4.60192E+07-8.86825E+05 3.02992E+05-1.10422E+06-1.93283E+05-5.83050E+06
 -1       138 4.17177E+07-8.54068E+05 2.27407E+05-1.05155E+06-1.96136E+05-5.55383E+06
 -1       139 3.76270E+07-8.21538E+05 1.56481E+05-9.98983E+05-1.98306E+05-5.27598E+06
 -1       140 3.37464E+07-7.90611E+05 8.90130E+04-9.46463E+05-2.00369E+05-4.99745E+06
 -1       141 3.00757E+07-7.61643E+05 2.46960E+04-8.93946E+05-2.02455E+05-4.71848E+06
 -1       142 2.66148E+07-7.34547E+05-3.63610E+04-8.41421E+05-2.04528E+05-4.43921E+06
 -1       143 2.33637E+07-7.09222E+05-9.40395E+04-7.88888E+05-2.06543E+05-4.15976E+06
 -1       144 2.03225E+07-6.85620E+05-1.48273E+05-7.36350E+05-2.08481E+05-3.88027E+06
 -1       145 1.74911E+07-6.63724E+05-1.99023E+05-6.83809E+05-2.10332E+05-3.60083E+06
 -1       146 1.48696E+07-6.43520E+05-2.46257E+05-6.31264E+05-2.12090E+05-3.32154E+06
 -1       147 1.24579E+07-6.24992E+05-2.89941E+05-5.78716E+05-2.13747E+05-3.04250E+06
 -1       148 1.02559E+07-6.08113E+05-3.30032E+05-5.26164E+05-2.15290E+05-2.76376E+06
 -1       149 8.26383E+06-5.92851E+05-3.66486E+05-4.73609E+05-2.16706E+05-2.48539E+06
 -1       150 6.48150E+06-5.79223E+05-3.99306E+05-4.21058E+05-2.17999E+05-2.20742E+06
 -1       151 4.90882E+06-5.67421E+05-4.28650E+05-3.68523E+05-2.19244E+05-1.92987E+06
 -1       152 3.54567E+06-5.57794E+05-4.54844E+05-3.15996E+05-2.20591E+05-1.65265E+06
 -1       153 2.39214E+06-5.50377E+05-4.77809E+05-2.63394E+05-2.22014E+05-1.37583E+06
 -1       154 1.44980E+06-5.41487E+05-4.94486E+05-2.10407E+05-2.22167E+05-1.09996E+06
 -1       155 7.22920E+05-5.22126E+05-4.97926E+05-1.57097E+05-2.17730E+05-8.26576E+05
 -1       156 2.18355E+05-4.89375E+05-4.82781E+05-1.05432E+05-2.07726E+05-5.59310E+05
 -1       157-7.71895E+04-5.16833E+05-4.79077E+05-6.23646E+04-2.14076E+05-3.11501E+05
 -1       158 1.06955E+05 2.07705E+05-3.96887E+05 1.56326E+03-2.03988E+03-3.96188E+05
 -1       159-1.38954E+03 8.41400E+01 1.96784E+03 1.41590E+01 5.22797E+03-3.87055E+05
 -1       160-1.09818E+05-2.07539E+05 4.00880E+05-1.56937E+03-2.03275E+03-3.93764E+05
 -1       161-8.41148E+07 1.54260E+07 1.27661E+07-1.84745E+06-3.13329E+06 1.85234E+06
 -1       162-8.85620E+07 2.76866E+06-2.35297E+06-1.16037E+06-5.41806E+05-2.20420E+06
 -1       163-8.27748E+07-2.53511E+06-1.35772E+06-1.65582E+06 7.17471E+04-1.67289E+06
 -1       164-7.72706E+07-3.53178E+06-2.17449E+06-1.66548E+06 2.78065E+05-1.70260E+06
 -1       165-7.13008E+07-2.91387E+06-1.75858E+06-1.61835E+06 2.07638E+05-1.63676E+06
 -1       166-6.56971E+07-2.60501E+06-1.63208E+06-1.54466E+06 1.67243E+05-1.54985E+06
 -1       167-6.03517E+07-2.46895E+06-1.50853E+06-1.47455E+06 1.69251E+05-1.47368E+06
 -1       168-5.52689E+07-2.41979E+06-1.42646E+06-1.40944E+06 1.85437E+05-1.40670E+06
 -1       169-5.04114E+07-2.37308E+06-1.34620E+06-1.34572E+06 2.01066E+05-1.34188E+06
 -1       170-4.57765E+07-2.31821E+06-1.26718E+06-1.28193E+06 2.13759E+05-1.27764E+06
 -1       171-4.13657E+07-2.26059E+06-1.19032E+06-1.21787E+06 2.24786E+05-1.21396E+06
 -1       172-3.71805E+07-2.20493E+06-1.11716E+06-1.15370E+06 2.35027E+05-1.15090E+06
 -1       173-3.32215E+07-2.15233E+06-1.04800E+06-1.08954E+06 2.44704E+05-1.08839E+06
 -1       174-2.94885E+07-2.10268E+06-9.82814E+05-1.02538E+06 2.53793E+05-1.02626E+06
 -1       175-2.59816E+07-2.05580E+06-9.21544E+05-9.61237E+05 2.62260E+05-9.64314E+05
 -1       176-2.27008E+07-2.01165E+06-8.64179E+05-8.97093E+05 2.70103E+05-9.02426E+05
 -1       177-1.96460E+07-1.97030E+06-8.10734E+05-8.32949E+05 2.77336E+05-8.40471E+05
 -1       178-1.68175E+07-1.93181E+06-7.61225E+05-7.68807E+05 2.83974E+05-7.78347E+05
 -1       179-1.42151E+07-1.89623E+06-7.15660E+05-7.04667E+05 2.90028E+05-7.15969E+05
 -1       180-1.18389E+07-1.86356E+06-6.74042E+05-6.40530E+05 2.95501E+05-6.53265E+05
 -1       181-9.68898E+06-1.83380E+06-6.36364E+05-5.76397E+05 3.00392E+05-5.90178E+05
 -1       182-7.76532E+06-1.80705E+06-6.02660E+05-5.12255E+05 3.04725E+05-5.26648E+05
 -1       183-6.06816E+06-1.78395E+06-5.73117E+05-4.48075E+05 3.08621E+05-4.62596E+05
 -1       184-4.59790E+06-1.76568E+06-5.48089E+05-3.83850E+05 3.12313E+05-3.97916E+05
 -1       185-3.35435E+06-1.75162E+06-5.27336E+05-3.19769E+05 3.15768E+05-3.32851E+05
 -1       186-2.33418E+06-1.73289E+06-5.08200E+05-2.56500E+05 3.17095E+05-2.67984E+05
 -1       187-1.52801E+06-1.68335E+06-4.82142E+05-1.94118E+05 3.11454E+05-2.04125E+05
 -1       188-9.46679E+05-1.60532E+06-4.54605E+05-1.31856E+05 2.97598E+05-1.42950E+05
 -1       189-6.60756E+05-1.56837E+06-4.65494E+05-5.99235E+04 3.06860E+05-9.55681E+04
 -1       190-1.19865E+08-5.14143E+07-5.14026E+07-5.97944E+06 3.80309E+03-2.60368E+07
 -1       191-9.97471E+07-4.27787E+07-4.27693E+07-4.49050E+06 2.58999E+03-2.42358E+07
 -1       192-3.67514E+05-7.25379E+05-3.42927E+05 5.99880E+03-2.10037E+05-6.74925E+04
 -1       193-8.50030E+07 7.55324E+06 9.71430E+06-2.68834E+06 6.64390E+05 2.10117E+06
 -1       194-8.78944E+07-1.20179E+06-3.98634E+06-2.31480E+05 6.62138E+05 1.67329E+06
 -1       195-8.13322E+07-6.06772E+05-1.17109E+05-6.90703E+05 2.76692E+05-4.07145E+05
 -1       196-7.65370E+07-1.32529E+06-1.45559E+06-1.17613E+06 1.90248E+05-2.93399E+05
 -1       197-7.08165E+07-1.15828E+06-1.19331E+06-1.19361E+06 2.15388E+05 5.58723E+03
 -1       198-6.53430E+07-1.09508E+06-1.15897E+06-1.10965E+06 2.02942E+05 8.81612E+04
 -1       199-5.99971E+07-9.98631E+05-1.04504E+06-1.04075E+06 1.82560E+05 9.13287E+04
 -1       200-5.48931E+07-9.22360E+05-9.53507E+05-9.90299E+05 1.57569E+05 7.83571E+04
 -1       201-5.00255E+07-8.52939E+05-8.68171E+05-9.46711E+05 1.34429E+05 7.11544E+04
 -1       202-4.53882E+07-7.87603E+05-7.88999E+05-9.02994E+05 1.13087E+05 6.79784E+04
 -1       203-4.09768E+07-7.24856E+05-7.13414E+05-8.58301E+05 9.30779E+04 6.49964E+04
 -1       204-3.67909E+07-6.65004E+05-6.41439E+05-8.13167E+05 7.41049E+04 6.10470E+04
 -1       205-3.28310E+07-6.08295E+05-5.73228E+05-7.67987E+05 5.61222E+04 5.62855E+04
 -1       206-2.90972E+07-5.54815E+05-5.08896E+05-7.22846E+05 3.91505E+04 5.10872E+04
 -1       207-2.55898E+07-5.04566E+05-4.48462E+05-6.77726E+05 2.32052E+04 4.56993E+04
 -1       208-2.23086E+07-4.57541E+05-3.91922E+05-6.32604E+05 8.28899E+03 4.02703E+04
 -1       209-1.92536E+07-4.13738E+05-3.39272E+05-5.87474E+05-5.60007E+03 3.49116E+04
 -1       210-1.64250E+07-3.73162E+05-2.90512E+05-5.42336E+05-1.84641E+04 2.97220E+04
 -1       211-1.38226E+07-3.35814E+05-2.45643E+05-4.97194E+05-3.03042E+04 2.47877E+04
 -1       212-1.14465E+07-3.01697E+05-2.04668E+05-4.52054E+05-4.11189E+04 2.01716E+04
 -1       213-9.29682E+06-2.70821E+05-1.67601E+05-4.06909E+05-5.09049E+04 1.59030E+04
 -1       214-7.37354E+06-2.43227E+05-1.34478E+05-3.61710E+05-5.96647E+04 1.20077E+04
 -1       215-5.67670E+06-2.18968E+05-1.05301E+05-3.16349E+05-6.74330E+04 8.66904E+03
 -1       216-4.20586E+06-1.97978E+05-7.99098E+04-2.70858E+05-7.43052E+04 6.50248E+03
 -1       217-2.95950E+06-1.79531E+05-5.75211E+04-2.26019E+05-8.02876E+04 6.20224E+03
 -1       218-1.93703E+06-1.62752E+05-3.84073E+04-1.84037E+05-8.49757E+04 6.49014E+03
 -1       219-1.14713E+06-1.49306E+05-2.30607E+04-1.47203E+05-8.62956E+04-5.33313E+03
 -1       220-5.92708E+05-1.31563E+05-1.91577E+04-9.58559E+04-8.15602E+04-4.31855E+04
 -1       221-2.76846E+05-1.74934E+05-5.42457E+04-1.61771E+04-9.39091E+04-5.76610E+04
 -1       222-7.11472E+07 1.22666E+07 1.52910E+07-9.75550E+05 8.96886E+05 2.68906E+06
 -1       223-8.10004E+07-3.05465E+05-1.64587E+06-2.14185E+06 7.87907E+05 1.45048E+06
 -1       224-7.60309E+07 1.41860E+06 2.08300E+06-1.48086E+06 2.12677E+05-4.31997E+05
 -1       225-7.07108E+07 1.00271E+06 9.93030E+05-9.30606E+05 1.92317E+05-4.02505E+05
 -1       226-6.49160E+07 1.13609E+06 1.26736E+06-8.67186E+05 2.05329E+05-7.98202E+04
 -1       227-5.98565E+07 1.01858E+06 1.12303E+06-8.60634E+05 1.96413E+05 2.16511E+03
 -1       228-5.50147E+07 9.30480E+05 1.03013E+06-8.48501E+05 1.75510E+05 9.57884E+03
 -1       229-5.03779E+07 8.53365E+05 9.35247E+05-8.16668E+05 1.50403E+05-1.16630E+02
 -1       230-4.59331E+07 7.85065E+05 8.52251E+05-7.78245E+05 1.27008E+05-3.77946E+03
 -1       231-4.16908E+07 7.20225E+05 7.73703E+05-7.39801E+05 1.05516E+05-3.41164E+03
 -1       232-3.76551E+07 6.58103E+05 6.98929E+05-7.02343E+05 8.53845E+04-2.78371E+03
 -1       233-3.38271E+07 5.98830E+05 6.27685E+05-6.65335E+05 6.63033E+04-3.08591E+03
 -1       234-3.02063E+07 5.42663E+05 5.60191E+05-6.28388E+05 4.82204E+04-4.17348E+03
 -1       235-2.67924E+07 4.89684E+05 4.96537E+05-5.91412E+05 3.11575E+04-5.68160E+03
 -1       236-2.35853E+07 4.39898E+05 4.36741E+05-5.54421E+05 1.51303E+04-7.37075E+03
 -1       237-2.05852E+07 3.93300E+05 3.80796E+05-5.17436E+05 1.41546E+02-9.09944E+03
 -1       238-1.77920E+07 3.49891E+05 3.28699E+05-4.80464E+05-1.38114E+04-1.07625E+04
 -1       239-1.52057E+07 3.09675E+05 2.80451E+05-4.43501E+05-2.67312E+04-1.22662E+04
 -1       240-1.28264E+07 2.72654E+05 2.36051E+05-4.06542E+05-3.86194E+04-1.35290E+04
 -1       241-1.06540E+07 2.38834E+05 1.95503E+05-3.69583E+05-4.94748E+04-1.44918E+04
 -1       242-8.68852E+06 2.08225E+05 1.58818E+05-3.32627E+05-5.92942E+04-1.51283E+04
 -1       243-6.92988E+06 1.80865E+05 1.26029E+05-2.95725E+05-6.80801E+04-1.54151E+04
 -1       244-5.37813E+06 1.56803E+05 9.71545E+04-2.58979E+05-7.58701E+04-1.51702E+04
 -1       245-4.03382E+06 1.35978E+05 7.20179E+04-2.22360E+05-8.27628E+04-1.37754E+04
 -1       246-2.89821E+06 1.17846E+05 5.01832E+04-1.85042E+05-8.87895E+04-1.05527E+04
 -1       247-1.97258E+06 1.01104E+05 3.01675E+04-1.45027E+05-9.34088E+04-6.71643E+03
 -1       248-1.24880E+06 8.52100E+04 1.68546E+04-1.00900E+05-9.49599E+04-1.52131E+04
 -1       249-6.79621E+05 9.07957E+04 2.15200E+04-6.73097E+04-8.93061E+04-5.02751E+04
 -1       250-2.37430E+05 1.38578E+05 5.16569E+04-8.49490E+04-1.00572E+05-6.15995E+04
 -1       251 1.92474E+04 4.04356E+05 1.12036E+05-1.53193E+05-1.92129E+05-6.94107E+04
 -1       252 6.61343E+05 1.56839E+06 4.66491E+05 6.14050E+04 3.06583E+05-9.64910E+04
 -1       253 9.48196E+05 1.60526E+06 4.55978E+05 1.33294E+05 2.96959E+05-1.45296E+05
 -1       254 1.53039E+06 1.68325E+06 4.84118E+05 1.95627E+05 3.10507E+05-2.09138E+05
 -1       255 2.33741E+06 1.73276E+06 5.10804E+05 2.58040E+05 3.15840E+05-2.76770E+05
 -1       256 3.35844E+06 1.75150E+06 5.30595E+05 3.21305E+05 3.14208E+05-3.46481E+05
 -1       257 4.60291E+06 1.76564E+06 5.52030E+05 3.85372E+05 3.10459E+05-4.17454E+05
 -1       258 6.07419E+06 1.78409E+06 5.77769E+05 4.49580E+05 3.06498E+05-4.89086E+05
 -1       259 7.77249E+06 1.80754E+06 6.08061E+05 5.13741E+05 3.02369E+05-5.61092E+05
 -1       260 9.69746E+06 1.83484E+06 6.42564E+05 5.77862E+05 2.97854E+05-6.33523E+05
 -1       261 1.18489E+07 1.86544E+06 6.81108E+05 6.41971E+05 2.92845E+05-7.06384E+05
 -1       262 1.42269E+07 1.89929E+06 7.23675E+05 7.06080E+05 2.87336E+05-7.79639E+05
 -1       263 1.68314E+07 1.93648E+06 7.70289E+05 7.70189E+05 2.81346E+05-8.53226E+05
 -1       264 1.96625E+07 1.97709E+06 8.20968E+05 8.34297E+05 2.74893E+05-9.27069E+05
 -1       265 2.27202E+07 2.02116E+06 8.75724E+05 8.98404E+05 2.67987E+05-1.00108E+06
 -1       266 2.60046E+07 2.06873E+06 9.34563E+05 9.62510E+05 2.60638E+05-1.07516E+06
 -1       267 2.95156E+07 2.11986E+06 9.97499E+05 1.02662E+06 2.52859E+05-1.14918E+06
 -1       268 3.32534E+07 2.17467E+06 1.06456E+06 1.09073E+06 2.44676E+05-1.22302E+06
 -1       269 3.72181E+07 2.23347E+06 1.13585E+06 1.15485E+06 2.36152E+05-1.29653E+06
 -1       270 4.14098E+07 2.29649E+06 1.21140E+06 1.21897E+06 2.27342E+05-1.36954E+06
 -1       271 4.58282E+07 2.36277E+06 1.29095E+06 1.28299E+06 2.18057E+05-1.44173E+06
 -1       272 5.04717E+07 2.42783E+06 1.37302E+06 1.34673E+06 2.07469E+05-1.51261E+06
 -1       273 5.53393E+07 2.48655E+06 1.45676E+06 1.41039E+06 1.94372E+05-1.58169E+06
 -1       274 6.04333E+07 2.54963E+06 1.54277E+06 1.47542E+06 1.81177E+05-1.64999E+06
 -1       275 6.57910E+07 2.70099E+06 1.67055E+06 1.54542E+06 1.82517E+05-1.72389E+06
 -1       276 7.14077E+07 3.02575E+06 1.80133E+06 1.61907E+06 2.26457E+05-1.80450E+06
 -1       277 7.73912E+07 3.66154E+06 2.22134E+06 1.66625E+06 3.00937E+05-1.85953E+06
 -1       278 8.29110E+07 2.68888E+06 1.41143E+06 1.65603E+06 1.00308E+05-1.81428E+06
 -1       279 8.87044E+07-2.59688E+06 2.40594E+06 1.15811E+06-5.09089E+05-2.32683E+06
 -1       280 8.42615E+07-1.52938E+07-1.27171E+07 1.84221E+06-3.11188E+06 1.78087E+06
 -1       281 9.97465E+07 4.27201E+07 4.27297E+07 4.50231E+06-2.55222E+03-2.43587E+07
 -1       282 1.19941E+08 5.13614E+07 5.13733E+07 5.98456E+06-3.75949E+03-2.61795E+07
 -1       283 7.12165E+07-1.22553E+07-1.52739E+07 1.00053E+06 8.96006E+05 2.65507E+06
 -1       284 8.10878E+07 2.94205E+05 1.63826E+06 2.14704E+06 7.74979E+05 1.31915E+06
 -1       285 7.60958E+07-1.43327E+06-2.08573E+06 1.47639E+06 2.01660E+05-5.79911E+05
 -1       286 7.07634E+07-1.01766E+06-9.97799E+05 9.26211E+05 1.83805E+05-5.52336E+05
 -1       287 6.49656E+07-1.14898E+06-1.27190E+06 8.63691E+05 1.97466E+05-2.38326E+05
 -1       288 5.99036E+07-1.02963E+06-1.12714E+06 8.57573E+05 1.89101E+05-1.63094E+05
 -1       289 5.50586E+07-9.39815E+05-1.03359E+06 8.45773E+05 1.68800E+05-1.58160E+05
 -1       290 5.04186E+07-8.61166E+05-9.38034E+05 8.14311E+05 1.44317E+05-1.66663E+05
 -1       291 4.59707E+07-7.91513E+05-8.54436E+05 7.76246E+05 1.21494E+05-1.66335E+05
 -1       292 4.17256E+07-7.25507E+05-7.75389E+05 7.38101E+05 1.00507E+05-1.59764E+05
 -1       293 3.76873E+07-6.62394E+05-7.00205E+05 7.00884E+05 8.08292E+04-1.51156E+05
 -1       294 3.38568E+07-6.02281E+05-6.28621E+05 6.64076E+05 6.21602E+04-1.42098E+05
 -1       295 3.02337E+07-5.45405E+05-5.60845E+05 6.27297E+05 4.44539E+04-1.32821E+05
 -1       296 2.68176E+07-4.91830E+05-4.96958E+05 5.90463E+05 2.77354E+04-1.23296E+05
 -1       297 2.36086E+07-4.41551E+05-4.36973E+05 5.53590E+05 1.20236E+04-1.13583E+05
 -1       298 2.06065E+07-3.94549E+05-3.80880E+05 5.16702E+05-2.67542E+03-1.03802E+05
 -1       299 1.78115E+07-3.50814E+05-3.28670E+05 4.79805E+05-1.63609E+04-9.40731E+04
 -1       300 1.52235E+07-3.10338E+05-2.80338E+05 4.42902E+05-2.90324E+04-8.44980E+04
 -1       301 1.28425E+07-2.73117E+05-2.35880E+05 4.05988E+05-4.06886E+04-7.51606E+04
 -1       302 1.06686E+07-2.39143E+05-1.95295E+05 3.69059E+05-5.13257E+04-6.61408E+04
 -1       303 8.70155E+06-2.08420E+05-1.58592E+05 3.32125E+05-6.09379E+04-5.75262E+04
 -1       304 6.94141E+06-1.80979E+05-1.25799E+05 2.95235E+05-6.95260E+04-4.93846E+04
 -1       305 5.38819E+06-1.56860E+05-9.69324E+04 2.58493E+05-7.71261E+04-4.16058E+04
 -1       306 4.04243E+06-1.36000E+05-7.18200E+04 2.21871E+05-8.38349E+04-3.36265E+04
 -1       307 2.90541E+06-1.17845E+05-5.00291E+04 1.84547E+05-8.96782E+04-2.48098E+04
 -1       308 1.97837E+06-1.01092E+05-3.00647E+04 1.44526E+05-9.41036E+04-1.63931E+04
 -1       309 1.25307E+06-8.51905E+04-1.66764E+04 1.00403E+05-9.54423E+04-2.13203E+04
 -1       310 6.82098E+05-9.07870E+04-2.10349E+04 6.68480E+04-8.96295E+04-5.36538E+04
 -1       311 2.38411E+05-1.38507E+05-5.09996E+04 8.44399E+04-1.00982E+05-6.29907E+04
 -1       312-1.90073E+04-4.04145E+05-1.11193E+05 1.52277E+05-1.92861E+05-6.98479E+04
 -1       313 8.51141E+07-7.52868E+06-9.69261E+06 2.68481E+06 6.64070E+05 2.06109E+06
 -1       314 8.79777E+07 1.20923E+06 3.97636E+06 2.24955E+05 6.53342E+05 1.53680E+06
 -1       315 8.14139E+07 6.19079E+05 1.23286E+05 6.92349E+05 2.67604E+05-5.60755E+05
 -1       316 7.66161E+07 1.33621E+06 1.46181E+06 1.17848E+06 1.81769E+05-4.50307E+05
 -1       317 7.08898E+07 1.16784E+06 1.19821E+06 1.19556E+06 2.07219E+05-1.61141E+05
 -1       318 6.54100E+07 1.10314E+06 1.16266E+06 1.11167E+06 1.95376E+05-8.57093E+04
 -1       319 6.00582E+07 1.00549E+06 1.04818E+06 1.04274E+06 1.75624E+05-8.50369E+04
 -1       320 5.49484E+07 9.28085E+05 9.56242E+05 9.92098E+05 1.51203E+05-9.66518E+04
 -1       321 5.00755E+07 8.57642E+05 8.70487E+05 9.48267E+05 1.28557E+05-9.95891E+04
 -1       322 4.54333E+07 7.91422E+05 7.90909E+05 9.04324E+05 1.07661E+05-9.61835E+04
 -1       323 4.10174E+07 7.27926E+05 7.14971E+05 8.59429E+05 8.80658E+04-9.07136E+04
 -1       324 3.68276E+07 6.67442E+05 6.42700E+05 8.14107E+05 6.94803E+04-8.47574E+04
 -1       325 3.28640E+07 6.10202E+05 5.74241E+05 7.68749E+05 5.18608E+04-7.85548E+04
 -1       326 2.91271E+07 5.56281E+05 5.09701E+05 7.23441E+05 3.52294E+04-7.20880E+04
 -1       327 2.56166E+07 5.05670E+05 4.49094E+05 6.78165E+05 1.96038E+04-6.54246E+04
 -1       328 2.23328E+07 4.58353E+05 3.92412E+05 6.32900E+05 4.98899E+03-5.86910E+04
 -1       329 1.92754E+07 4.14318E+05 3.39647E+05 5.87639E+05-8.61450E+03-5.20146E+04
 -1       330 1.64445E+07 3.73562E+05 2.90796E+05 5.42384E+05-2.12067E+04-4.55019E+04
 -1       331 1.38401E+07 3.36078E+05 2.45855E+05 4.97138E+05-3.27867E+04-3.92414E+04
 -1       332 1.14621E+07 3.01861E+05 2.04824E+05 4.51906E+05-4.33513E+04-3.33165E+04
 -1       333 9.31061E+06 2.70916E+05 1.67716E+05 4.06682E+05-5.28954E+04-2.78181E+04
 -1       334 7.38563E+06 2.43275E+05 1.34562E+05 3.61416E+05-6.14200E+04-2.28169E+04
 -1       335 5.68716E+06 2.18988E+05 1.05363E+05 3.16000E+05-6.89578E+04-1.82050E+04
 -1       336 4.21477E+06 1.97984E+05 7.99489E+04 2.70463E+05-7.56030E+04-1.34211E+04
 -1       337 2.96692E+06 1.79532E+05 5.75293E+04 2.25588E+05-8.13646E+04-7.80652E+03
 -1       338 1.94298E+06 1.62752E+05 3.83862E+04 1.83580E+05-8.58483E+04-2.66021E+03
 -1       339 1.15151E+06 1.49312E+05 2.31413E+04 1.46740E+05-8.69903E+04-1.07347E+04
 -1       340 5.95257E+05 1.31566E+05 1.95725E+04 9.54194E+04-8.20107E+04-4.59268E+04
 -1       341 2.77863E+05 1.75000E+05 5.48624E+04 1.56976E+04-9.39766E+04-5.87177E+04
 -1       342 3.67773E+05 7.25584E+05 3.43745E+05-6.99089E+03-2.09991E+05-6.75974E+04
 -1       343-8.50030E+07 7.55324E+06 9.71430E+06 2.68834E+06-6.64390E+05 2.10117E+06
 -1       344-8.78944E+07-1.20179E+06-3.98634E+06 2.31480E+05-6.62138E+05 1.67329E+06
 -1       345-8.13322E+07-6.06772E+05-1.17109E+05 6.90703E+05-2.76692E+05-4.07145E+05
 -1       346-7.65370E+07-1.32529E+06-1.45559E+06 1.17613E+06-1.90248E+05-2.93399E+05
 -1       347-7.08165E+07-1.15828E+06-1.19331E+06 1.19361E+06-2.15388E+05 5.58723E+03
 -1       348-6.53430E+07-1.09508E+06-1.15897E+06 1.10965E+06-2.02942E+05 8.81612E+04
 -1       349-5.99971E+07-9.98631E+05-1.04504E+06 1.04075E+06-1.82560E+05 9.13287E+04
 -1       350-5.48931E+07-9.22360E+05-9.53507E+05 9.90299E+05-1.57569E+05 7.83571E+04
 -1       351-5.00255E+07-8.52939E+05-8.68171E+05 9.46711E+05-1.34429E+05 7.11544E+04
 -1       352-4.53882E+07-7.87603E+05-7.88999E+05 9.02994E+05-1.13087E+05 6.79784E+04
 -1       353-4.09768E+07-7.24856E+05-7.13414E+05 8.58301E+05-9.30779E+04 6.49964E+04
 -1       354-3.67909E+07-6.65004E+05-6.41439E+05 8.13167E+05-7.41049E+04 6.10470E+04
 -1       355-3.28310E+07-6.08295E+05-5.73228E+05 7.67987E+05-5.61222E+04 5.62855E+04
 -1       356-2.90972E+07-5.54815E+05-5.08896E+05 7.22846E+05-3.91505E+04 5.10872E+04
 -1       357-2.55898E+07-5.04566E+05-4.48462E+05 6.77726E+05-2.32052E+04 4.56993E+04
 -1       358-2.23086E+07-4.57541E+05-3.91922E+05 6.32604E+05-8.28899E+03 4.02703E+04
 -1       359-1.92536E+07-4.13738E+05-3.39272E+05 5.87474E+05 5.60007E+03 3.49116E+04
 -1       360-1.64250E+07-3.73162E+05-2.90512E+05 5.42336E+05 1.84641E+04 2.97220E+04
 -1       361-1.38226E+07-3.35814E+05-2.45643E+05 4.97194E+05 3.03042E+04 2.47877E+04
 -1       362-1.14465E+07-3.01697E+05-2.04668E+05 4.52054E+05 4.11189E+04 2.01716E+04
 -1       363-9.29682E+06-2.70821E+05-1.67601E+05 4.06909E+05 5.09049E+04 1.59030E+04
 -1       364-7.37354E+06-2.43227E+05-1.34478E+05 3.61710E+05 5.96647E+04 1.20077E+04
 -1       365-5.67670E+06-2.18968E+05-1.05301E+05 3.16349E+05 6.74330E+04 8.66904E+03
 -1       366-4.20586E+06-1.97978E+05-7.99098E+04 2.70858E+05 7.43052E+04 6.50248E+03
 -1       367-2.95950E+06-1.79531E+05-5.75211E+04 2.26019E+05 8.02876E+04 6.20224E+03
 -1       368-1.93703E+06-1.62752E+05-3.84073E+04 1.84037E+05 8.49757E+04 6.49014E+03
 -1       369-1.14713E+06-1.49306E+05-2.30607E+04 1.47203E+05 8.62956E+04-5.33313E+03
 -1       370-5.92708E+05-1.31563E+05-1.91577E+04 9.58559E+04 8.15602E+04-4.31855E+04
 -1       371-2.76846E+05-1.74934E+05-5.42457E+04 1.61771E+04 9.39091E+04-5.76610E+04
 -1       372-7.11472E+07 1.22666E+07 1.52910E+07 9.75550E+05-8.96886E+05 2.68906E+06
 -1       373-8.10004E+07-3.05465E+05-1.64587E+06 2.14185E+06-7.87907E+05 1.45048E+06
 -1       374-7.60309E+07 1.41860E+06 2.08300E+06 1.48086E+06-2.12677E+05-4.31997E+05
 -1       375-7.07108E+07 1.00271E+06 9.93030E+05 9.30606E+05-1.92317E+05-4.02505E+05
 -1       376-6.49160E+07 1.13609E+06 1.26736E+06 8.67186E+05-2.05329E+05-7.98202E+04
 -1       377-5.98565E+07 1.01858E+06 1.12303E+06 8.60634E+05-1.96413E+05 2.16511E+03
 -1       378-5.50147E+07 9.30480E+05 1.03013E+06 8.48501E+05-1.75510E+05 9.57884E+03
 -1       379-5.03779E+07 8.53365E+05 9.35247E+05 8.16668E+05-1.50403E+05-1.16630E+02
 -1       380-4.59331E+07 7.85065E+05 8.52251E+05 7.78245E+05-1.27008E+05-3.77946E+03
 -1       381-4.16908E+07 7.20225E+05 7.73703E+05 7.39801E+05-1.05516E+05-3.41164E+03
 -1       382-3.76551E+07 6.58103E+05 6.98929E+05 7.02343E+05-8.53845E+04-2.78371E+03
 -1       383-3.38271E+07 5.98830E+05 6.27685E+05 6.65335E+05-6.63033E+04-3.08591E+03
 -1       384-3.02063E+07 5.42663E+05 5.60191E+05 6.28388E+05-4.82204E+04-4.17348E+03
 -1       385-2.67924E+07 4.89684E+05 4.96537E+05 5.91412E+05-3.11575E+04-5.68160E+03
 -1       386-2.35853E+07 4.39898E+05 4.36741E+05 5.54421E+05-1.51303E+04-7.37075E+03
 -1       387-2.05852E+07 3.93300E+05 3.80796E+05 5.17436E+05-1.41546E+02-9.09944E+03
 -1       388-1.77920E+07 3.49891E+05 3.28699E+05 4.80464E+05 1.38114E+04-1.07625E+04
 -1       389-1.52057E+07 3.09675E+05 2.80451E+05 4.43501E+05 2.67312E+04-1.22662E+04
 -1       390-1.28264E+07 2.72654E+05 2.36051E+05 4.06542E+05 3.86194E+04-1.35290E+04
 -1       391-1.06540E+07 2.38834E+05 1.95503E+05 3.69583E+05 4.94748E+04-1.44918E+04
 -1       392-8.68852E+06 2.08225E+05 1.58818E+05 3.32627E+05 5.92942E+04-1.51283E+04
 -1       393-6.92988E+06 1.80865E+05 1.26029E+05 2.95725E+05 6.80801E+04-1.54151E+04
 -1       394-5.37813E+06 1.56803E+05 9.71545E+04 2.58979E+05 7.58701E+04-1.51702E+04
 -1       395-4.03382E+06 1.35978E+05 7.20179E+04 2.22360E+05 8.27628E+04-1.37754E+04
 -1       396-2.89821E+06 1.17846E+05 5.01832E+04 1.85042E+05 8.87895E+04-1.05527E+04
 -1       397-1.97258E+06 1.01104E+05 3.01675E+04 1.45027E+05 9.34088E+04-6.71643E+03
 -1       398-1.24880E+06 8.52100E+04 1.68546E+04 1.00900E+05 9.49599E+04-1.52131E+04
 -1       399-6.79621E+05 9.07957E+04 2.15200E+04 6.73097E+04 8.93061E+04-5.02751E+04
 -1       400-2.37430E+05 1.38578E+05 5.16569E+04 8.49490E+04 1.00572E+05-6.15995E+04
 -1       401-1.19865E+08-5.14143E+07-5.14026E+07 5.97944E+06-3.80309E+03-2.60368E+07
 -1       402-9.97471E+07-4.27787E+07-4.27693E+07 4.49050E+06-2.58999E+03-2.42358E+07
 -1       403-3.67514E+05-7.25379E+05-3.42927E+05-5.99880E+03 2.10037E+05-6.74925E+04
 -1       404-8.41148E+07 1.54260E+07 1.27661E+07 1.84745E+06 3.13329E+06 1.85234E+06
 -1       405-8.85620E+07 2.76866E+06-2.35297E+06 1.16037E+06 5.41806E+05-2.20420E+06
 -1       406-8.27748E+07-2.53511E+06-1.35772E+06 1.65582E+06-7.17471E+04-1.67289E+06
 -1       407-7.72706E+07-3.53178E+06-2.17449E+06 1.66548E+06-2.78065E+05-1.70260E+06
 -1       408-7.13008E+07-2.91387E+06-1.75858E+06 1.61835E+06-2.07638E+05-1.63676E+06
 -1       409-6.56971E+07-2.60501E+06-1.63208E+06 1.54466E+06-1.67243E+05-1.54985E+06
 -1       410-6.03517E+07-2.46895E+06-1.50853E+06 1.47455E+06-1.69251E+05-1.47368E+06
 -1       411-5.52689E+07-2.41979E+06-1.42646E+06 1.40944E+06-1.85437E+05-1.40670E+06
 -1       412-5.04114E+07-2.37308E+06-1.34620E+06 1.34572E+06-2.01066E+05-1.34188E+06
 -1       413-4.57765E+07-2.31821E+06-1.26718E+06 1.28193E+06-2.13759E+05-1.27764E+06
 -1       414-4.13657E+07-2.26059E+06-1.19032E+06 1.21787E+06-2.24786E+05-1.21396E+06
 -1       415-3.71805E+07-2.20493E+06-1.11716E+06 1.15370E+06-2.35027E+05-1.15090E+06
 -1       416-3.32215E+07-2.15233E+06-1.04800E+06 1.08954E+06-2.44704E+05-1.08839E+06
 -1       417-2.94885E+07-2.10268E+06-9.82814E+05 1.02538E+06-2.53793E+05-1.02626E+06
 -1       418-2.59816E+07-2.05580E+06-9.21544E+05 9.61237E+05-2.62260E+05-9.64314E+05
 -1       419-2.27008E+07-2.01165E+06-8.64179E+05 8.97093E+05-2.70103E+05-9.02426E+05
 -1       420-1.96460E+07-1.97030E+06-8.10734E+05 8.32949E+05-2.77336E+05-8.40471E+05
 -1       421-1.68175E+07-1.93181E+06-7.61225E+05 7.68807E+05-2.83974E+05-7.78347E+05
 -1       422-1.42151E+07-1.89623E+06-7.15660E+05 7.04667E+05-2.90028E+05-7.15969E+05
 -1       423-1.18389E+07-1.86356E+06-6.74042E+05 6.40530E+05-2.95501E+05-6.53265E+05
 -1       424-9.68898E+06-1.83380E+06-6.36364E+05 5.76397E+05-3.00392E+05-5.90178E+05
 -1       425-7.76532E+06-1.80705E+06-6.02660E+05 5.12255E+05-3.04725E+05-5.26648E+05
 -1       426-6.06816E+06-1.78395E+06-5.73117E+05 4.48075E+05-3.08621E+05-4.62596E+05
 -1       427-4.59790E+06-1.76568E+06-5.48089E+05 3.83850E+05-3.12313E+05-3.97916E+05
 -1       428-3.35435E+06-1.75162E+06-5.27336E+05 3.19769E+05-3.15768E+05-3.32851E+05
 -1       429-2.33418E+06-1.73289E+06-5.08200E+05 2.56500E+05-3.17095E+05-2.67984E+05
 -1       430-1.52801E+06-1.68335E+06-4.82142E+05 1.94118E+05-3.11454E+05-2.04125E+05
 -1       431-9.46679E+05-1.60532E+06-4.54605E+05 1.31856E+05-2.97598E+05-1.42950E+05
 -1       432-6.60756E+05-1.56837E+06-4.65494E+05 5.99235E+04-3.06860E+05-9.55681E+04
 -1       433 1.92474E+04 4.04356E+05 1.12036E+05 1.53193E+05 1.92129E+05-6.94107E+04
 -1       434 1.19941E+08 5.13614E+07 5.13733E+07-5.98456E+06 3.75949E+03-2.61795E+07
 -1       435 9.97465E+07 4.27201E+07 4.27297E+07-4.50231E+06 2.55222E+03-2.43587E+07
 -1       436 6.61343E+05 1.56839E+06 4.66491E+05-6.14050E+04-3.06583E+05-9.64910E+04
 -1       437 9.48196E+05 1.60526E+06 4.55978E+05-1.33294E+05-2.96959E+05-1.45296E+05
 -1       438 1.53039E+06 1.68325E+06 4.84118E+05-1.95627E+05-3.10507E+05-2.09138E+05
 -1       439 2.33741E+06 1.73276E+06 5.10804E+05-2.58040E+05-3.15840E+05-2.76770E+05
 -1       440 3.35844E+06 1.75150E+06 5.30595E+05-3.21305E+05-3.14208E+05-3.46481E+05
 -1       441 4.60291E+06 1.76564E+06 5.52030E+05-3.85372E+05-3.10459E+05-4.17454E+05
 -1       442 6.07419E+06 1.78409E+06 5.77769E+05-4.49580E+05-3.06498E+05-4.89086E+05
 -1       443 7.77249E+06 1.80754E+06 6.08061E+05-5.13741E+05-3.02369E+05-5.61092E+05
 -1       444 9.69746E+06 1.83484E+06 6.42564E+05-5.77862E+05-2.97854E+05-6.33523E+05
 -1       445 1.18489E+07 1.86544E+06 6.81108E+05-6.41971E+05-2.92845E+05-7.06384E+05
 -1       446 1.42269E+07 1.89929E+06 7.23675E+05-7.06080E+05-2.87336E+05-7.79639E+05
 -1       447 1.68314E+07 1.93648E+06 7.70289E+05-7.70189E+05-2.81346E+05-8.53226E+05
 -1       448 1.96625E+07 1.97709E+06 8.20968E+05-8.34297E+05-2.74893E+05-9.27069E+05
 -1       449 2.27202E+07 2.02116E+06 8.75724E+05-8.98404E+05-2.67987E+05-1.00108E+06
 -1       450 2.60046E+07 2.06873E+06 9.34563E+05-9.62510E+05-2.60638E+05-1.07516E+06
 -1       451 2.95156E+07 2.11986E+06 9.97499E+05-1.02662E+06-2.52859E+05-1.14918E+06
 -1       452 3.32534E+07 2.17467E+06 1.06456E+06-1.09073E+06-2.44676E+05-1.22302E+06
 -1       453 3.72181E+07 2.23347E+06 1.13585E+06-1.15485E+06-2.36152E+05-1.29653E+06
 -1       454 4.14098E+07 2.29649E+06 1.21140E+06-1.21897E+06-2.27342E+05-1.36954E+06
 -1       455 4.58282E+07 2.36277E+06 1.29095E+06-1.28299E+06-2.18057E+05-1.44173E+06
 -1       456 5.04717E+07 2.42783E+06 1.37302E+06-1.34673E+06-2.07469E+05-1.51261E+06
 -1       457 5.53393E+07 2.48655E+06 1.45676E+06-1.41039E+06-1.94372E+05-1.58169E+06
 -1       458 6.04333E+07 2.54963E+06 1.54277E+06-1.47542E+06-1.81177E+05-1.64999E+06
 -1       459 6.57910E+07 2.70099E+06 1.67055E+06-1.54542E+06-1.82517E+05-1.72389E+06
 -1       460 7.14077E+07 3.02575E+06 1.80133E+06-1.61907E+06-2.26457E+05-1.80450E+06
 -1       461 7.73912E+07 3.66154E+06 2.22134E+06-1.66625E+06-3.00937E+05-1.85953E+06
 -1       462 8.29110E+07 2.68888E+06 1.41143E+06-1.65603E+06-1.00308E+05-1.81428E+06
 -1       463 8.87044E+07-2.59688E+06 2.40594E+06-1.15811E+06 5.09089E+05-2.32683E+06
 -1       464 8.42615E+07-1.52938E+07-1.27171E+07-1.84221E+06 3.11188E+06 1.78087E+06
 -1       465 3.67773E+05 7.25584E+05 3.43745E+05 6.99089E+03 2.09991E+05-6.75974E+04
 -1       466 8.51141E+07-7.52868E+06-9.69261E+06-2.68481E+06-6.64070E+05 2.06109E+06
 -1       467 8.79777E+07 1.20923E+06 3.97636E+06-2.24955E+05-6.53342E+05 1.53680E+06
 -1       468 8.14139E+07 6.19079E+05 1.23286E+05-6.92349E+05-2.67604E+05-5.60755E+05
 -1       469 7.66161E+07 1.33621E+06 1.46181E+06-1.17848E+06-1.81769E+05-4.50307E+05
 -1       470 7.08898E+07 1.16784E+06 1.19821E+06-1.19556E+06-2.07219E+05-1.61141E+05
 -1       471 6.54100E+07 1.10314E+06 1.16266E+06-1.11167E+06-1.95376E+05-8.57093E+04
 -1       472 6.00582E+07 1.00549E+06 1.04818E+06-1.04274E+06-1.75624E+05-8.50369E+04
 -1       473 5.49484E+07 9.28085E+05 9.56242E+05-9.92098E+05-1.51203E+05-9.66518E+04
 -1       474 5.00755E+07 8.57642E+05 8.70487E+05-9.48267E+05-1.28557E+05-9.95891E+04
 -1       475 4.54333E+07 7.91422E+05 7.90909E+05-9.04324E+05-1.07661E+05-9.61835E+04
 -1       476 4.10174E+07 7.27926E+05 7.14971E+05-8.59429E+05-8.80658E+04-9.07136E+04
 -1       477 3.68276E+07 6.67442E+05 6.42700E+05-8.14107E+05-6.94803E+04-8.47574E+04
 -1       478 3.28640E+07 6.10202E+05 5.74241E+05-7.68749E+05-5.18608E+04-7.85548E+04
 -1       479 2.91271E+07 5.56281E+05 5.09701E+05-7.23441E+05-3.52294E+04-7.20880E+04
 -1       480 2.56166E+07 5.05670E+05 4.49094E+05-6.78165E+05-1.96038E+04-6.54246E+04
 -1       481 2.23328E+07 4.58353E+05 3.92412E+05-6.32900E+05-4.98899E+03-5.86910E+04
 -1       482 1.92754E+07 4.14318E+05 3.39647E+05-5.87639E+05 8.61450E+03-5.20146E+04
 -1       483 1.64445E+07 3.73562E+05 2.90796E+05-5.42384E+05 2.12067E+04-4.55019E+04
 -1       484 1.38401E+07 3.36078E+05 2.45855E+05-4.97138E+05 3.27867E+04-3.92414E+04
 -1       485 1.14621E+07 3.01861E+05 2.04824E+05-4.51906E+05 4.33513E+04-3.33165E+04
 -1       486 9.31061E+06 2.70916E+05 1.67716E+05-4.06682E+05 5.28954E+04-2.78181E+04
 -1       487 7.38563E+06 2.43275E+05 1.34562E+05-3.61416E+05 6.14200E+04-2.28169E+04
 -1       488 5.68716E+06 2.18988E+05 1.05363E+05-3.16000E+05 6.89578E+04-1.82050E+04
 -1       489 4.21477E+06 1.97984E+05 7.99489E+04-2.70463E+05 7.56030E+04-1.34211E+04
 -1       490 2.96692E+06 1.79532E+05 5.75293E+04-2.25588E+05 8.13646E+04-7.80652E+03
 -1       491 1.94298E+06 1.62752E+05 3.83862E+04-1.83580E+05 8.58483E+04-2.66021E+03
 -1       492 1.15151E+06 1.49312E+05 2.31413E+04-1.46740E+05 8.69903E+04-1.07347E+04
 -1       493 5.95257E+05 1.31566E+05 1.95725E+04-9.54194E+04 8.20107E+04-4.59268E+04
 -1       494 2.77863E+05 1.75000E+05 5.48624E+04-1.56976E+04 9.39766E+04-5.87177E+04
 -1       495 7.12165E+07-1.22553E+07-1.52739E+07-1.00053E+06-8.96006E+05 2.65507E+06
 -1       496 8.10878E+07 2.94205E+05 1.63826E+06-2.14704E+06-7.74979E+05 1.31915E+06
 -1       497 7.60958E+07-1.43327E+06-2.08573E+06-1.47639E+06-2.01660E+05-5.79911E+05
 -1       498 7.07634E+07-1.01766E+06-9.97799E+05-9.26211E+05-1.83805E+05-5.52336E+05
 -1       499 6.49656E+07-1.14898E+06-1.27190E+06-8.63691E+05-1.97466E+05-2.38326E+05
 -1       500 5.99036E+07-1.02963E+06-1.12714E+06-8.57573E+05-1.89101E+05-1.63094E+05
 -1       501 5.50586E+07-9.39815E+05-1.03359E+06-8.45773E+05-1.68800E+05-1.58160E+05
 -1       502 5.04186E+07-8.61166E+05-9.38034E+05-8.14311E+05-1.44317E+05-1.66663E+05
 -1       503 4.59707E+07-7.91513E+05-8.54436E+05-7.76246E+05-1.21494E+05-1.66335E+05
 -1       504 4.17256E+07-7.25507E+05-7.75389E+05-7.38101E+05-1.00507E+05-1.59764E+05
 -1       505 3.76873E+07-6.62394E+05-7.00205E+05-7.00884E+05-8.08292E+04-1.51156E+05
 -1       506 3.38568E+07-6.02281E+05-6.28621E+05-6.64076E+05-6.21602E+04-1.42098E+05
 -1       507 3.02337E+07-5.45405E+05-5.60845E+05-6.27297E+05-4.44539E+04-1.32821E+05
 -1       508 2.68176E+07-4.91830E+05-4.96958E+05-5.90463E+05-2.77354E+04-1.23296E+05
 -1       509 2.36086E+07-4.41551E+05-4.36973E+05-5.53590E+05-1.20236E+04-1.13583E+05
 -1       510 2.06065E+07-3.94549E+05-3.80880E+05-5.16702E+05 2.67542E+03-1.03802E+05
 -1       511 1.78115E+07-3.50814E+05-3.28670E+05-4.79805E+05 1.63609E+04-9.40731E+04
 -1       512 1.52235E+07-3.10338E+05-2.80338E+05-4.42902E+05 2.90324E+04-8.44980E+04
 -1       513 1.28425E+07-2.73117E+05-2.35880E+05-4.05988E+05 4.06886E+04-7.51606E+04
 -1       514 1.06686E+07-2.39143E+05-1.95295E+05-3.69059E+05 5.13257E+04-6.61408E+04
 -1       515 8.70155E+06-2.08420E+05-1.58592E+05-3.32125E+05 6.09379E+04-5.75262E+04
 -1       516 6.94141E+06-1.80979E+05-1.25799E+05-2.95235E+05 6.95260E+04-4.93846E+04
 -1       517 5.38819E+06-1.56860E+05-9.69324E+04-2.58493E+05 7.71261E+04-4.16058E+04
 -1       518 4.04243E+06-1.36000E+05-7.18200E+04-2.21871E+05 8.38349E+04-3.36265E+04
 -1       519 2.90541E+06-1.17845E+05-5.00291E+04-1.84547E+05 8.96782E+04-2.48098E+04
 -1       520 1.97837E+06-1.01092E+05-3.00647E+04-1.44526E+05 9.41036E+04-1.63931E+04
 -1       521 1.25307E+06-8.51905E+04-1.66764E+04-1.00403E+05 9.54423E+04-2.13203E+04
 -1       522 6.82098E+05-9.07870E+04-2.10349E+04-6.68480E+04 8.96295E+04-5.36538E+04
 -1       523 2.38411E+05-1.38507E+05-5.09996E+04-8.44399E+04 1.00982E+05-6.29907E+04
 -1       524-1.90073E+04-4.04145E+05-1.11193E+05-1.52277E+05 1.92861E+05-6.98479E+04
 -1       525-3.77825E+07 6.99304E+06-1.41088E+06-9.50673E+04 3.02415E+05-1.83589E+07
 -1       526-4.19337E+07-1.18715E+06-3.24557E+05 6.06842E+04 2.18002E+05-2.01963E+07
 -1       527-3.90714E+07-2.50406E+05 1.96246E+05 1.19823E+04 2.17081E+05-2.00909E+07
 -1       528-3.60698E+07-7.50211E+05 6.20840E+04 1.73449E+04 2.00231E+05-1.92843E+07
 -1       529-3.30768E+07-5.57520E+05 1.20880E+05 1.22529E+04 1.85873E+05-1.84683E+07
 -1       530-3.04433E+07-5.12419E+05 1.07397E+05 1.21719E+04 1.70913E+05-1.76854E+07
 -1       531-2.79573E+07-4.71806E+05 1.26915E+05 1.17774E+04 1.57091E+05-1.69423E+07
 -1       532-2.55951E+07-4.47605E+05 1.51678E+05 1.13710E+04 1.43880E+05-1.62077E+07
 -1       533-2.33377E+07-4.24807E+05 1.74264E+05 1.08594E+04 1.31264E+05-1.54723E+07
 -1       534-2.11830E+07-4.02474E+05 1.93353E+05 1.03374E+04 1.19221E+05-1.47355E+07
 -1       535-1.91321E+07-3.80521E+05 2.10089E+05 9.81569E+03 1.07758E+05-1.39986E+07
 -1       536-1.71859E+07-3.59537E+05 2.25109E+05 9.29670E+03 9.68827E+04-1.32620E+07
 -1       537-1.53448E+07-3.39672E+05 2.38645E+05 8.77732E+03 8.65945E+04-1.25258E+07
 -1       538-1.36086E+07-3.20940E+05 2.50754E+05 8.25683E+03 7.68938E+04-1.17898E+07
 -1       539-1.19774E+07-3.03322E+05 2.61489E+05 7.73551E+03 6.77804E+04-1.10539E+07
 -1       540-1.04511E+07-2.86812E+05 2.70923E+05 7.21387E+03 5.92544E+04-1.03180E+07
 -1       541-9.02982E+06-2.71417E+05 2.79134E+05 6.69231E+03 5.13160E+04-9.58210E+06
 -1       542-7.71353E+06-2.57141E+05 2.86192E+05 6.17112E+03 4.39652E+04-8.84612E+06
 -1       543-6.50225E+06-2.43989E+05 2.92163E+05 5.65051E+03 3.72021E+04-8.11002E+06
 -1       544-5.39601E+06-2.31961E+05 2.97103E+05 5.13066E+03 3.10270E+04-7.37377E+06
 -1       545-4.39479E+06-2.21059E+05 3.01060E+05 4.61187E+03 2.54396E+04-6.63736E+06
 -1       546-3.49863E+06-2.11303E+05 3.04090E+05 4.09476E+03 2.04403E+04-5.90076E+06
 -1       547-2.70766E+06-2.02768E+05 3.06305E+05 3.57983E+03 1.60296E+04-5.16388E+06
 -1       548-2.02214E+06-1.95541E+05 3.07918E+05 3.06540E+03 1.22089E+04-4.42649E+06
 -1       549-1.44212E+06-1.89505E+05 3.08882E+05 2.54162E+03 8.97946E+03-3.68844E+06
 -1       550-9.67005E+05-1.83740E+05 3.07897E+05 1.98939E+03 6.32627E+03-2.95079E+06
 -1       551-5.92980E+05-1.75002E+05 3.03775E+05 1.44014E+03 4.21918E+03-2.21702E+06
 -1       552-3.21477E+05-1.68444E+05 2.89679E+05 9.32919E+02 2.65074E+03-1.49494E+06
 -1       553-1.75199E+05-1.70140E+05 2.75609E+05 1.12925E+03 2.04895E+03-7.72314E+05
 -1       554-5.81181E+04 6.10315E+03-2.21669E+04-2.27541E+02 3.32035E+05-1.83600E+07
 -1       555-6.38914E+04-5.74757E+03-2.70325E+04 1.14701E+02 2.03370E+05-2.14954E+07
 -1       556-6.13139E+04-2.40995E+03-1.56665E+04 1.07156E+02 2.02005E+05-2.16376E+07
 -1       557-6.14812E+04-2.10161E+03-3.53404E+03 1.54535E+02 1.77949E+05-2.06901E+07
 -1       558-6.16509E+04-1.63808E+03 7.83142E+03 1.73645E+02 1.65186E+05-1.97545E+07
 -1       559-6.13333E+04-1.49280E+03 1.76312E+04 1.87111E+02 1.52099E+05-1.89047E+07
 -1       560-6.03985E+04-1.27939E+03 2.60022E+04 1.92382E+02 1.39536E+05-1.81070E+07
 -1       561-5.90307E+04-1.07648E+03 3.29011E+04 1.92554E+02 1.27309E+05-1.73235E+07
 -1       562-5.73424E+04-8.93974E+02 3.83449E+04 1.88525E+02 1.15619E+05-1.65391E+07
 -1       563-5.54133E+04-7.37257E+02 4.24442E+04 1.81333E+02 1.04480E+05-1.57523E+07
 -1       564-5.33003E+04-6.00590E+02 4.53544E+04 1.71719E+02 9.38938E+04-1.49646E+07
 -1       565-5.10445E+04-4.81751E+02 4.72183E+04 1.60272E+02 8.38520E+04-1.41768E+07
 -1       566-4.86712E+04-3.80084E+02 4.81565E+04 1.47482E+02 7.43528E+04-1.33891E+07
 -1       567-4.61966E+04-2.94791E+02 4.82742E+04 1.33776E+02 6.53959E+04-1.26015E+07
 -1       568-4.36326E+04-2.24431E+02 4.76684E+04 1.19536E+02 5.69818E+04-1.18139E+07
 -1       569-4.09895E+04-1.67253E+02 4.64305E+04 1.05099E+02 4.91104E+04-1.10263E+07
 -1       570-3.82772E+04-1.21511E+02 4.46461E+04 9.07609E+01 4.17820E+04-1.02387E+07
 -1       571-3.55049E+04-8.55792E+01 4.23951E+04 7.67762E+01 3.49964E+04-9.45112E+06
 -1       572-3.26813E+04-5.79722E+01 3.97516E+04 6.33626E+01 2.87537E+04-8.66352E+06
 -1       573-2.98142E+04-3.73315E+01 3.67837E+04 5.07025E+01 2.30539E+04-7.87593E+06
 -1       574-2.69109E+04-2.24206E+01 3.35535E+04 3.89467E+01 1.78970E+04-7.08836E+06
 -1       575-2.39779E+04-1.21195E+01 3.01173E+04 2.82162E+01 1.32828E+04-6.30080E+06
 -1       576-2.10207E+04-5.40548E+00 2.65250E+04 1.86042E+01 9.21039E+03-5.51314E+06
 -1       577-1.80431E+04-1.40545E+00 2.28196E+04 1.01791E+01 5.67854E+03-4.72511E+06
 -1       578-1.50494E+04 7.86185E-01 1.90393E+04 3.00149E+00 2.69007E+03-3.93662E+06
 -1       579-1.20501E+04 1.16587E+00 1.52226E+04-2.86263E+00 2.65180E+02-3.14899E+06
 -1       580-9.06772E+03 3.37743E+00 1.14191E+04-7.22367E+00-1.55247E+03-2.36676E+06
 -1       581-6.13192E+03-4.71284E+00 7.66226E+03-1.05022E+01-2.81000E+03-1.59442E+06
 -1       582-3.13721E+03 3.47025E+01 3.91392E+03-1.13625E+01-3.54827E+03-8.17165E+05
 -1       583 3.77057E+07-6.96495E+06 1.38107E+06 9.45743E+04 3.02811E+05-1.84029E+07
 -1       584 4.18513E+07 1.19903E+06 2.86224E+05-6.05687E+04 2.18440E+05-2.02543E+07
 -1       585 3.89897E+07 2.66400E+05-2.12632E+05-1.17217E+04 2.17484E+05-2.01567E+07
 -1       586 3.59821E+07 7.63297E+05-5.75282E+04-1.69891E+04 2.00598E+05-1.93568E+07
 -1       587 3.29852E+07 5.68985E+05-9.63630E+04-1.18524E+04 1.86197E+05-1.85466E+07
 -1       588 3.03493E+07 5.22202E+05-6.59168E+04-1.17458E+04 1.71202E+05-1.77673E+07
 -1       589 2.78622E+07 4.79999E+05-7.10628E+04-1.13386E+04 1.57344E+05-1.70257E+07
 -1       590 2.55000E+07 4.54373E+05-8.40877E+04-1.09315E+04 1.44099E+05-1.62908E+07
 -1       591 2.32434E+07 4.30349E+05-9.75144E+04-1.04283E+04 1.31452E+05-1.55536E+07
 -1       592 2.10902E+07 4.06975E+05-1.09808E+05-9.92141E+03 1.19382E+05-1.48139E+07
 -1       593 1.90414E+07 3.84141E+05-1.21840E+05-9.41991E+03 1.07896E+05-1.40730E+07
 -1       594 1.70978E+07 3.62411E+05-1.34003E+05-8.92510E+03 9.69998E+04-1.33319E+07
 -1       595 1.52598E+07 3.41919E+05-1.46318E+05-8.43285E+03 8.66940E+04-1.25905E+07
 -1       596 1.35271E+07 3.22665E+05-1.58655E+05-7.94155E+03 7.69781E+04-1.18491E+07
 -1       597 1.18997E+07 3.04620E+05-1.70897E+05-7.45062E+03 6.78518E+04-1.11076E+07
 -1       598 1.03776E+07 2.87765E+05-1.82954E+05-6.95984E+03 5.93148E+04-1.03660E+07
 -1       599 8.96072E+06 2.72096E+05-1.94751E+05-6.46898E+03 5.13670E+04-9.62448E+06
 -1       600 7.64910E+06 2.57607E+05-2.06219E+05-5.97775E+03 4.40083E+04-8.88302E+06
 -1       601 6.44268E+06 2.44293E+05-2.17293E+05-5.48588E+03 3.72386E+04-8.14168E+06
 -1       602 5.34147E+06 2.32147E+05-2.27908E+05-4.99318E+03 3.10577E+04-7.40050E+06
 -1       603 4.34542E+06 2.21162E+05-2.38001E+05-4.49961E+03 2.54656E+04-6.65952E+06
 -1       604 3.45454E+06 2.11351E+05-2.47529E+05-4.00552E+03 2.04621E+04-5.91876E+06
 -1       605 2.66895E+06 2.02782E+05-2.56517E+05-3.51119E+03 1.60480E+04-5.17816E+06
 -1       606 1.98887E+06 1.95537E+05-2.65099E+05-3.01480E+03 1.22241E+04-4.43752E+06
 -1       607 1.41435E+06 1.89494E+05-2.73163E+05-2.50634E+03 8.99174E+03-3.69670E+06
 -1       608 9.44756E+05 1.83727E+05-2.79342E+05-1.96678E+03 6.33572E+03-2.95678E+06
 -1       609 5.76243E+05 1.74998E+05-2.82365E+05-1.42747E+03 4.22597E+03-2.22122E+06
 -1       610 3.10139E+05 1.68427E+05-2.75296E+05-9.28160E+02 2.65511E+03-1.49779E+06
 -1       611 1.69342E+05 1.70212E+05-2.68186E+05-1.12549E+03 2.05448E+03-7.74436E+05
 -1       612 3.77057E+07-6.96495E+06 1.38107E+06-9.45743E+04-3.02811E+05-1.84029E+07
 -1       613 4.18513E+07 1.19903E+06 2.86224E+05 6.05687E+04-2.18440E+05-2.02543E+07
 -1       614 3.89897E+07 2.66400E+05-2.12632E+05 1.17217E+04-2.17484E+05-2.01567E+07
 -1       615 3.59821E+07 7.63297E+05-5.75282E+04 1.69891E+04-2.00598E+05-1.93568E+07
 -1       616 3.29852E+07 5.68985E+05-9.63630E+04 1.18524E+04-1.86197E+05-1.85466E+07
 -1       617 3.03493E+07 5.22202E+05-6.59168E+04 1.17458E+04-1.71202E+05-1.77673E+07
 -1       618 2.78622E+07 4.79999E+05-7.10628E+04 1.13386E+04-1.57344E+05-1.70257E+07
 -1       619 2.55000E+07 4.54373E+05-8.40877E+04 1.09315E+04-1.44099E+05-1.62908E+07
 -1       620 2.32434E+07 4.30349E+05-9.75144E+04 1.04283E+04-1.31452E+05-1.55536E+07
 -1       621 2.10902E+07 4.06975E+05-1.09808E+05 9.92141E+03-1.19382E+05-1.48139E+07
 -1       622 1.90414E+07 3.84141E+05-1.21840E+05 9.41991E+03-1.07896E+05-1.40730E+07
 -1       623 1.70978E+07 3.62411E+05-1.34003E+05 8.92510E+03-9.69998E+04-1.33319E+07
 -1       624 1.52598E+07 3.41919E+05-1.46318E+05 8.43285E+03-8.66940E+04-1.25905E+07
 -1       625 1.35271E+07 3.22665E+05-1.58655E+05 7.94155E+03-7.69781E+04-1.18491E+07
 -1       626 1.18997E+07 3.04620E+05-1.70897E+05 7.45062E+03-6.78518E+04-1.11076E+07
 -1       627 1.03776E+07 2.87765E+05-1.82954E+05 6.95984E+03-5.93148E+04-1.03660E+07
 -1       628 8.96072E+06 2.72096E+05-1.94751E+05 6.46898E+03-5.13670E+04-9.62448E+06
 -1       629 7.64910E+06 2.57607E+05-2.06219E+05 5.97775E+03-4.40083E+04-8.88302E+06
 -1       630 6.44268E+06 2.44293E+05-2.17293E+05 5.48588E+03-3.72386E+04-8.14168E+06
 -1       631 5.34147E+06 2.32147E+05-2.27908E+05 4.99318E+03-3.10577E+04-7.40050E+06
 -1       632 4.34542E+06 2.21162E+05-2.38001E+05 4.49961E+03-2.54656E+04-6.65952E+06
 -1       633 3.45454E+06 2.11351E+05-2.47529E+05 4.00552E+03-2.04621E+04-5.91876E+06
 -1       634 2.66895E+06 2.02782E+05-2.56517E+05 3.51119E+03-1.60480E+04-5.17816E+06
 -1       635 1.98887E+06 1.95537E+05-2.65099E+05 3.01480E+03-1.22241E+04-4.43752E+06
 -1       636 1.41435E+06 1.89494E+05-2.73163E+05 2.50634E+03-8.99174E+03-3.69670E+06
 -1       637 9.44756E+05 1.83727E+05-2.79342E+05 1.96678E+03-6.33572E+03-2.95678E+06
 -1       638 5.76243E+05 1.74998E+05-2.82365E+05 1.42747E+03-4.22597E+03-2.22122E+06
 -1       639 3.10139E+05 1.68427E+05-2.75296E+05 9.28160E+02-2.65511E+03-1.49779E+06
 -1       640 1.69342E+05 1.70212E+05-2.68186E+05 1.12549E+03-2.05448E+03-7.74436E+05
 -1       641-5.81181E+04 6.10315E+03-2.21669E+04 2.27541E+02-3.32035E+05-1.83600E+07
 -1       642-6.38914E+04-5.74757E+03-2.70325E+04-1.14701E+02-2.03370E+05-2.14954E+07
 -1       643-6.13139E+04-2.40995E+03-1.56665E+04-1.07156E+02-2.02005E+05-2.16376E+07
 -1       644-6.14812E+04-2.10161E+03-3.53404E+03-1.54535E+02-1.77949E+05-2.06901E+07
 -1       645-6.16509E+04-1.63808E+03 7.83142E+03-1.73645E+02-1.65186E+05-1.97545E+07
 -1       646-6.13333E+04-1.49280E+03 1.76312E+04-1.87111E+02-1.52099E+05-1.89047E+07
 -1       647-6.03985E+04-1.27939E+03 2.60022E+04-1.92382E+02-1.39536E+05-1.81070E+07
 -1       648-5.90307E+04-1.07648E+03 3.29011E+04-1.92554E+02-1.27309E+05-1.73235E+07
 -1       649-5.73424E+04-8.93974E+02 3.83449E+04-1.88525E+02-1.15619E+05-1.65391E+07
 -1       650-5.54133E+04-7.37257E+02 4.24442E+04-1.81333E+02-1.04480E+05-1.57523E+07
 -1       651-5.33003E+04-6.00590E+02 4.53544E+04-1.71719E+02-9.38938E+04-1.49646E+07
 -1       652-5.10445E+04-4.81751E+02 4.72183E+04-1.60272E+02-8.38520E+04-1.41768E+07
 -1       653-4.86712E+04-3.80084E+02 4.81565E+04-1.47482E+02-7.43528E+04-1.33891E+07
 -1       654-4.61966E+04-2.94791E+02 4.82742E+04-1.33776E+02-6.53959E+04-1.26015E+07
 -1       655-4.36326E+04-2.24431E+02 4.76684E+04-1.19536E+02-5.69818E+04-1.18139E+07
 -1       656-4.09895E+04-1.67253E+02 4.64305E+04-1.05099E+02-4.91104E+04-1.10263E+07
 -1       657-3.82772E+04-1.21511E+02 4.46461E+04-9.07609E+01-4.17820E+04-1.02387E+07
 -1       658-3.55049E+04-8.55792E+01 4.23951E+04-7.67763E+01-3.49964E+04-9.45112E+06
 -1       659-3.26813E+04-5.79722E+01 3.97516E+04-6.33626E+01-2.87537E+04-8.66352E+06
 -1       660-2.98142E+04-3.73315E+01 3.67837E+04-5.07025E+01-2.30539E+04-7.87593E+06
 -1       661-2.69109E+04-2.24206E+01 3.35535E+04-3.89467E+01-1.78970E+04-7.08836E+06
 -1       662-2.39779E+04-1.21195E+01 3.01173E+04-2.82162E+01-1.32828E+04-6.30080E+06
 -1       663-2.10207E+04-5.40549E+00 2.65250E+04-1.86042E+01-9.21039E+03-5.51314E+06
 -1       664-1.80431E+04-1.40545E+00 2.28196E+04-1.01791E+01-5.67854E+03-4.72511E+06
 -1       665-1.50494E+04 7.86184E-01 1.90393E+04-3.00150E+00-2.69007E+03-3.93662E+06
 -1       666-1.20501E+04 1.16587E+00 1.52226E+04 2.86262E+00-2.65180E+02-3.14899E+06
 -1       667-9.06772E+03 3.37743E+00 1.14191E+04 7.22366E+00 1.55247E+03-2.36676E+06
 -1       668-6.13192E+03-4.71283E+00 7.66226E+03 1.05022E+01 2.81000E+03-1.59442E+06
 -1       669-3.13721E+03 3.47025E+01 3.91392E+03 1.13625E+01 3.54827E+03-8.17165E+05
 -1       670-3.77825E+07 6.99304E+06-1.41088E+06 9.50673E+04-3.02415E+05-1.83589E+07
 -1       671-4.19337E+07-1.18715E+06-3.24557E+05-6.06842E+04-2.18002E+05-2.01963E+07
 -1       672-3.90714E+07-2.50406E+05 1.96246E+05-1.19823E+04-2.17081E+05-2.00909E+07
 -1       673-3.60698E+07-7.50211E+05 6.20840E+04-1.73449E+04-2.00231E+05-1.92843E+07
 -1       674-3.30768E+07-5.57520E+05 1.20880E+05-1.22529E+04-1.85873E+05-1.84683E+07
 -1       675-3.04433E+07-5.12419E+05 1.07397E+05-1.21719E+04-1.70913E+05-1.76854E+07
 -1       676-2.79573E+07-4.71806E+05 1.26915E+05-1.17774E+04-1.57091E+05-1.69423E+07
 -1       677-2.55951E+07-4.47605E+05 1.51678E+05-1.13710E+04-1.43880E+05-1.62077E+07
 -1       678-2.33377E+07-4.24807E+05 1.74264E+05-1.08594E+04-1.31264E+05-1.54723E+07
 -1       679-2.11830E+07-4.02474E+05 1.93353E+05-1.03374E+04-1.19221E+05-1.47355E+07
 -1       680-1.91321E+07-3.80521E+05 2.10089E+05-9.81569E+03-1.07758E+05-1.39986E+07
 -1       681-1.71859E+07-3.59537E+05 2.25109E+05-9.29670E+03-9.68827E+04-1.32620E+07
 -1       682-1.53448E+07-3.39672E+05 2.38645E+05-8.77732E+03-8.65945E+04-1.25258E+07
 -1       683-1.36086E+07-3.20940E+05 2.50754E+05-8.25683E+03-7.68938E+04-1.17898E+07
 -1       684-1.19774E+07-3.03322E+05 2.61489E+05-7.73551E+03-6.77804E+04-1.10539E+07
 -1       685-1.04511E+07-2.86812E+05 2.70923E+05-7.21387E+03-5.92544E+04-1.03180E+07
 -1       686-9.02982E+06-2.71417E+05 2.79134E+05-6.69231E+03-5.13160E+04-9.58210E+06
 -1       687-7.71353E+06-2.57141E+05 2.86192E+05-6.17112E+03-4.39652E+04-8.84612E+06
 -1       688-6.50225E+06-2.43989E+05 2.92163E+05-5.65051E+03-3.72021E+04-8.11002E+06
 -1       689-5.39601E+06-2.31961E+05 2.97103E+05-5.13066E+03-3.10270E+04-7.37377E+06
 -1       690-4.39479E+06-2.21059E+05 3.01060E+05-4.61187E+03-2.54396E+04-6.63736E+06
 -1       691-3.49863E+06-2.11303E+05 3.04090E+05-4.09476E+03-2.04403E+04-5.90076E+06
 -1       692-2.70766E+06-2.02768E+05 3.06305E+05-3.57983E+03-1.60296E+04-5.16388E+06
 -1       693-2.02214E+06-1.95541E+05 3.07918E+05-3.06540E+03-1.22089E+04-4.42649E+06
 -1       694-1.44212E+06-1.89505E+05 3.08882E+05-2.54162E+03-8.97946E+03-3.68844E+06
 -1       695-9.67005E+05-1.83740E+05 3.07897E+05-1.98939E+03-6.32627E+03-2.95079E+06
 -1       696-5.92980E+05-1.75002E+05 3.03775E+05-1.44014E+03-4.21918E+03-2.21702E+06
 -1       697-3.21477E+05-1.68444E+05 2.89679E+05-9.32919E+02-2.65074E+03-1.49494E+06
 -1       698-1.75199E+05-1.70140E+05 2.75609E+05-1.12925E+03-2.04895E+03-7.72314E+05
 -1       699-8.45511E+07 9.48254E+06 1.23443E+07-3.15870E+06 1.13917E+06 4.66955E+06
 -1       700-8.95127E+07-2.42341E+05-3.15863E+06-1.24645E+06 1.93535E+05 1.08616E+06
 -1       701-8.19116E+07-1.38237E+06-1.05944E+06-1.92074E+06-7.15946E+04 6.84224E+05
 -1       702-7.67228E+07-1.82341E+06-1.64414E+06-2.27048E+06-2.18591E+05 7.23293E+05
 -1       703-7.09513E+07-1.59739E+06-1.44762E+06-2.23419E+06-1.85119E+05 7.43977E+05
 -1       704-6.54107E+07-1.45275E+06-1.34016E+06-2.11557E+06-1.58306E+05 7.76312E+05
 -1       705-6.00749E+07-1.35298E+06-1.23311E+06-2.00837E+06-1.51768E+05 7.53309E+05
 -1       706-5.49815E+07-1.28526E+06-1.14844E+06-1.91693E+06-1.53273E+05 7.19970E+05
 -1       707-5.01187E+07-1.22261E+06-1.06864E+06-1.83099E+06-1.55370E+05 6.86387E+05
 -1       708-4.54825E+07-1.16019E+06-9.91876E+05-1.74499E+06-1.56466E+05 6.53812E+05
 -1       709-4.10717E+07-1.09908E+06-9.17979E+05-1.65813E+06-1.57003E+05 6.21091E+05
 -1       710-3.68867E+07-1.04068E+06-8.47590E+05-1.57091E+06-1.57419E+05 5.87652E+05
 -1       711-3.29278E+07-9.85405E+05-7.80927E+05-1.48364E+06-1.57839E+05 5.53581E+05
 -1       712-2.91950E+07-9.33268E+05-7.18028E+05-1.39641E+06-1.58257E+05 5.19114E+05
 -1       713-2.56884E+07-8.84217E+05-6.58878E+05-1.30919E+06-1.58654E+05 4.84451E+05
 -1       714-2.24080E+07-8.38242E+05-6.03476E+05-1.22197E+06-1.59024E+05 4.49741E+05
 -1       715-1.93538E+07-7.95359E+05-5.51833E+05-1.13474E+06-1.59369E+05 4.15101E+05
 -1       716-1.65258E+07-7.55587E+05-5.03960E+05-1.04751E+06-1.59694E+05 3.80633E+05
 -1       717-1.39240E+07-7.18941E+05-4.59867E+05-9.60267E+05-1.60000E+05 3.46420E+05
 -1       718-1.15485E+07-6.85423E+05-4.19559E+05-8.73030E+05-1.60286E+05 3.12531E+05
 -1       719-9.39929E+06-6.55035E+05-3.83043E+05-7.85790E+05-1.60551E+05 2.79014E+05
 -1       720-7.47639E+06-6.27827E+05-3.50351E+05-6.98506E+05-1.60807E+05 2.45920E+05
 -1       721-5.77990E+06-6.03998E+05-3.21576E+05-6.11088E+05-1.61117E+05 2.13380E+05
 -1       722-4.30973E+06-5.83843E+05-2.96798E+05-5.23558E+05-1.61571E+05 1.81650E+05
 -1       723-3.06529E+06-5.66951E+05-2.75778E+05-4.36578E+05-1.62108E+05 1.50936E+05
 -1       724-2.04505E+06-5.50074E+05-2.56577E+05-3.52080E+05-1.61608E+05 1.19389E+05
 -1       725-1.24906E+06-5.28168E+05-2.38481E+05-2.71188E+05-1.58059E+05 8.44666E+04
 -1       726-6.83781E+05-4.91778E+05-2.18452E+05-1.83695E+05-1.52013E+05 3.94735E+04
 -1       727-3.80018E+05-5.15182E+05-2.43867E+05-6.43837E+04-1.58109E+05-2.33488E+04
 -1       728-7.35453E+07 9.01982E+06 1.55123E+07-2.57090E+06 1.16526E+06 5.28490E+06
 -1       729-8.40883E+07-7.12065E+05-1.66918E+06-3.37998E+06 2.33650E+05 7.99911E+05
 -1       730-7.54227E+07 1.53095E+06 1.76374E+06-2.97519E+06-8.48227E+04 6.32920E+05
 -1       731-7.01576E+07 1.53516E+06 1.33547E+06-2.56204E+06-2.08660E+05 6.25809E+05
 -1       732-6.47727E+07 1.41861E+06 1.31296E+06-2.41266E+06-1.78750E+05 6.56782E+05
 -1       733-5.97114E+07 1.26764E+06 1.18769E+06-2.34161E+06-1.53131E+05 6.90993E+05
 -1       734-5.48643E+07 1.17208E+06 1.08928E+06-2.26286E+06-1.46668E+05 6.71452E+05
 -1       735-5.02162E+07 1.10169E+06 9.98719E+05-2.16885E+06-1.47852E+05 6.41444E+05
 -1       736-4.57687E+07 1.03653E+06 9.15372E+05-2.06937E+06-1.49663E+05 6.11391E+05
 -1       737-4.15270E+07 9.72170E+05 8.35589E+05-1.96974E+06-1.50538E+05 5.82386E+05
 -1       738-3.74924E+07 9.09627E+05 7.59390E+05-1.87087E+06-1.50894E+05 5.53282E+05
 -1       739-3.36651E+07 8.49927E+05 6.86922E+05-1.77236E+06-1.51149E+05 5.23492E+05
 -1       740-3.00447E+07 7.93428E+05 6.18356E+05-1.67391E+06-1.51420E+05 4.93097E+05
 -1       741-2.66313E+07 7.40132E+05 5.53720E+05-1.57543E+06-1.51704E+05 4.62322E+05
 -1       742-2.34248E+07 6.90004E+05 4.93008E+05-1.47695E+06-1.51979E+05 4.31361E+05
 -1       743-2.04251E+07 6.43036E+05 4.36214E+05-1.37847E+06-1.52240E+05 4.00354E+05
 -1       744-1.76324E+07 5.99242E+05 3.83337E+05-1.28000E+06-1.52490E+05 3.69413E+05
 -1       745-1.50467E+07 5.58638E+05 3.34378E+05-1.18153E+06-1.52730E+05 3.38632E+05
 -1       746-1.26678E+07 5.21236E+05 2.89339E+05-1.08308E+06-1.52963E+05 3.08094E+05
 -1       747-1.04959E+07 4.87038E+05 2.48218E+05-9.84619E+05-1.53187E+05 2.77861E+05
 -1       748-8.53087E+06 4.56046E+05 2.11020E+05-8.86168E+05-1.53400E+05 2.47978E+05
 -1       749-6.77275E+06 4.28303E+05 1.77764E+05-7.87763E+05-1.53613E+05 2.18496E+05
 -1       750-5.22148E+06 4.03958E+05 1.48489E+05-6.89482E+05-1.53886E+05 1.89540E+05
 -1       751-3.87722E+06 3.83267E+05 1.23218E+05-5.91289E+05-1.54302E+05 1.61367E+05
 -1       752-2.74072E+06 3.65850E+05 1.01538E+05-4.92533E+05-1.54810E+05 1.34196E+05
 -1       753-1.81201E+06 3.49718E+05 8.33559E+04-3.91542E+05-1.54318E+05 1.06156E+05
 -1       754-1.09096E+06 3.26671E+05 6.54609E+04-2.87863E+05-1.51098E+05 7.47379E+04
 -1       755-5.64176E+05 3.06996E+05 5.71048E+04-1.94666E+05-1.45182E+05 3.28208E+04
 -1       756-1.57516E+05 3.69502E+05 8.83116E+04-1.41397E+05-1.50546E+05-2.69799E+04
 -1       757 7.36159E+07-9.02602E+06-1.55033E+07 2.59168E+06 1.15238E+06 5.23174E+06
 -1       758 8.41587E+07 6.70065E+05 1.65553E+06 3.38370E+06 2.13760E+05 6.74400E+05
 -1       759 7.54782E+07-1.57192E+06-1.77549E+06 2.97044E+06-1.04870E+05 4.93574E+05
 -1       760 7.02084E+07-1.57031E+06-1.34719E+06 2.55692E+06-2.26464E+05 4.75310E+05
 -1       761 6.48211E+07-1.44922E+06-1.32390E+06 2.40838E+06-1.95275E+05 4.97041E+05
 -1       762 5.97579E+07-1.29390E+06-1.19799E+06 2.33784E+06-1.68664E+05 5.25122E+05
 -1       763 5.49087E+07-1.19415E+06-1.09874E+06 2.25946E+06-1.61159E+05 5.03381E+05
 -1       764 5.02582E+07-1.11998E+06-1.00731E+06 2.16580E+06-1.61284E+05 4.74675E+05
 -1       765 4.58084E+07-1.05156E+06-9.23162E+05 2.06666E+06-1.62101E+05 4.48698E+05
 -1       766 4.15644E+07-9.84424E+05-8.42668E+05 1.96731E+06-1.62064E+05 4.25988E+05
 -1       767 3.75276E+07-9.19522E+05-7.65834E+05 1.86868E+06-1.61576E+05 4.04950E+05
 -1       768 3.36981E+07-8.57821E+05-6.92788E+05 1.77038E+06-1.61040E+05 3.84595E+05
 -1       769 3.00756E+07-7.99634E+05-6.23694E+05 1.67211E+06-1.60568E+05 3.64629E+05
 -1       770 2.66601E+07-7.44932E+05-5.58571E+05 1.57380E+06-1.60148E+05 3.44943E+05
 -1       771 2.34516E+07-6.93645E+05-4.97411E+05 1.47547E+06-1.59758E+05 3.25434E+05
 -1       772 2.04500E+07-6.45738E+05-4.40204E+05 1.37712E+06-1.59388E+05 3.05981E+05
 -1       773 1.76554E+07-6.01193E+05-3.86943E+05 1.27876E+06-1.59035E+05 2.86469E+05
 -1       774 1.50678E+07-5.60002E+05-3.37627E+05 1.18039E+06-1.58698E+05 2.66800E+05
 -1       775 1.26871E+07-5.22150E+05-2.92253E+05 1.08202E+06-1.58375E+05 2.46889E+05
 -1       776 1.05133E+07-4.87617E+05-2.50817E+05 9.83632E+05-1.58062E+05 2.26661E+05
 -1       777 8.54652E+06-4.56386E+05-2.13319E+05 8.85239E+05-1.57753E+05 2.06047E+05
 -1       778 6.78661E+06-4.28479E+05-1.79777E+05 7.86882E+05-1.57457E+05 1.85006E+05
 -1       779 5.23359E+06-4.04029E+05-1.50228E+05 6.88639E+05-1.57232E+05 1.63594E+05
 -1       780 3.88757E+06-3.83276E+05-1.24694E+05 5.90474E+05-1.57160E+05 1.42014E+05
 -1       781 2.74935E+06-3.65829E+05-1.02764E+05 4.91740E+05-1.57182E+05 1.20444E+05
 -1       782 1.81891E+06-3.49688E+05-8.43245E+04 3.90770E+05-1.56198E+05 9.69940E+04
 -1       783 1.09609E+06-3.26641E+05-6.61353E+04 2.87120E+05-1.52478E+05 6.91545E+04
 -1       784 5.67421E+05-3.06984E+05-5.74064E+04 1.93963E+05-1.46113E+05 2.98212E+04
 -1       785 1.58784E+05-3.69451E+05-8.79698E+04 1.40676E+05-1.51227E+05-2.81637E+04
 -1       786 8.46762E+07-9.43135E+06-1.23119E+07 3.15426E+06 1.12621E+06 4.61220E+06
 -1       787 8.96212E+07 2.92285E+05 3.17794E+06 1.24135E+06 1.75776E+05 9.55954E+05
 -1       788 8.20170E+07 1.43133E+06 1.08461E+06 1.92149E+06-9.09954E+04 5.38403E+05
 -1       789 7.68215E+07 1.86503E+06 1.66489E+06 2.27147E+06-2.36758E+05 5.65360E+05
 -1       790 7.10418E+07 1.63335E+06 1.46488E+06 2.23490E+06-2.02018E+05 5.76060E+05
 -1       791 6.54932E+07 1.48355E+06 1.35390E+06 2.11638E+06-1.73909E+05 6.01911E+05
 -1       792 6.01498E+07 1.37891E+06 1.24383E+06 2.00918E+06-1.66073E+05 5.76664E+05
 -1       793 5.50491E+07 1.30674E+06 1.15652E+06 1.91758E+06-1.66368E+05 5.44764E+05
 -1       794 5.01796E+07 1.24024E+06 1.07447E+06 1.83144E+06-1.67377E+05 5.15526E+05
 -1       795 4.55373E+07 1.17454E+06 9.95812E+05 1.74525E+06-1.67489E+05 4.89627E+05
 -1       796 4.11211E+07 1.11065E+06 9.20341E+05 1.65823E+06-1.67124E+05 4.65448E+05
 -1       797 3.69312E+07 1.04988E+06 8.48659E+05 1.57087E+06-1.66708E+05 4.41990E+05
 -1       798 3.29679E+07 9.92611E+05 7.80956E+05 1.48348E+06-1.66356E+05 4.18948E+05
 -1       799 2.92311E+07 9.38816E+05 7.17238E+05 1.39613E+06-1.66058E+05 3.96203E+05
 -1       800 2.57209E+07 8.88402E+05 6.57467E+05 1.30881E+06-1.65788E+05 3.73642E+05
 -1       801 2.24372E+07 8.41325E+05 6.01618E+05 1.22150E+06-1.65535E+05 3.51139E+05
 -1       802 1.93800E+07 7.97566E+05 5.49677E+05 1.13420E+06-1.65296E+05 3.28573E+05
 -1       803 1.65493E+07 7.57112E+05 5.01634E+05 1.04690E+06-1.65070E+05 3.05840E+05
 -1       804 1.39450E+07 7.19947E+05 4.57480E+05 9.59610E+05-1.64853E+05 2.82849E+05
 -1       805 1.15672E+07 6.86047E+05 4.17202E+05 8.72331E+05-1.64640E+05 2.59524E+05
 -1       806 9.41580E+06 6.55389E+05 3.80789E+05 7.85058E+05-1.64426E+05 2.35792E+05
 -1       807 7.49085E+06 6.28000E+05 3.48258E+05 6.97749E+05-1.64219E+05 2.11609E+05
 -1       808 5.79240E+06 6.04059E+05 3.19689E+05 6.10313E+05-1.64079E+05 1.87030E+05
 -1       809 4.32035E+06 5.83842E+05 2.95145E+05 5.22770E+05-1.64093E+05 1.62259E+05
 -1       810 3.07410E+06 5.66924E+05 2.74379E+05 4.35782E+05-1.64199E+05 1.37462E+05
 -1       811 2.05207E+06 5.50042E+05 2.55458E+05 3.51285E+05-1.63286E+05 1.10765E+05
 -1       812 1.25427E+06 5.28147E+05 2.37690E+05 2.70413E+05-1.59347E+05 7.96077E+04
 -1       813 6.87088E+05 4.91766E+05 2.18073E+05 1.82954E+05-1.52881E+05 3.72464E+04
 -1       814 3.81329E+05 5.15234E+05 2.44174E+05 6.36268E+04-1.58410E+05-2.39906E+04
 -1       815-8.45511E+07 9.48254E+06 1.23443E+07 3.15870E+06-1.13917E+06 4.66955E+06
 -1       816-8.95127E+07-2.42341E+05-3.15863E+06 1.24645E+06-1.93535E+05 1.08616E+06
 -1       817-8.19116E+07-1.38237E+06-1.05944E+06 1.92074E+06 7.15946E+04 6.84224E+05
 -1       818-7.67228E+07-1.82341E+06-1.64414E+06 2.27048E+06 2.18591E+05 7.23293E+05
 -1       819-7.09513E+07-1.59739E+06-1.44762E+06 2.23419E+06 1.85119E+05 7.43977E+05
 -1       820-6.54107E+07-1.45275E+06-1.34016E+06 2.11557E+06 1.58306E+05 7.76312E+05
 -1       821-6.00749E+07-1.35298E+06-1.23311E+06 2.00837E+06 1.51768E+05 7.53309E+05
 -1       822-5.49815E+07-1.28526E+06-1.14844E+06 1.91693E+06 1.53273E+05 7.19970E+05
 -1       823-5.01187E+07-1.22261E+06-1.06864E+06 1.83099E+06 1.55370E+05 6.86387E+05
 -1       824-4.54825E+07-1.16019E+06-9.91876E+05 1.74499E+06 1.56466E+05 6.53812E+05
 -1       825-4.10717E+07-1.09908E+06-9.17979E+05 1.65813E+06 1.57003E+05 6.21091E+05
 -1       826-3.68867E+07-1.04068E+06-8.47590E+05 1.57091E+06 1.57419E+05 5.87652E+05
 -1       827-3.29278E+07-9.85405E+05-7.80927E+05 1.48364E+06 1.57839E+05 5.53581E+05
 -1       828-2.91950E+07-9.33268E+05-7.18028E+05 1.39641E+06 1.58257E+05 5.19114E+05
 -1       829-2.56884E+07-8.84217E+05-6.58878E+05 1.30919E+06 1.58654E+05 4.84451E+05
 -1       830-2.24080E+07-8.38242E+05-6.03476E+05 1.22197E+06 1.59024E+05 4.49741E+05
 -1       831-1.93538E+07-7.95359E+05-5.51833E+05 1.13474E+06 1.59369E+05 4.15101E+05
 -1       832-1.65258E+07-7.55587E+05-5.03960E+05 1.04751E+06 1.59694E+05 3.80633E+05
 -1       833-1.39240E+07-7.18941E+05-4.59867E+05 9.60267E+05 1.60000E+05 3.46420E+05
 -1       834-1.15485E+07-6.85423E+05-4.19559E+05 8.73030E+05 1.60286E+05 3.12531E+05
 -1       835-9.39929E+06-6.55035E+05-3.83043E+05 7.85790E+05 1.60551E+05 2.79014E+05
 -1       836-7.47639E+06-6.27827E+05-3.50351E+05 6.98506E+05 1.60807E+05 2.45920E+05
 -1       837-5.77990E+06-6.03998E+05-3.21576E+05 6.11088E+05 1.61117E+05 2.13380E+05
 -1       838-4.30973E+06-5.83843E+05-2.96798E+05 5.23558E+05 1.61571E+05 1.81650E+05
 -1       839-3.06529E+06-5.66951E+05-2.75778E+05 4.36578E+05 1.62108E+05 1.50936E+05
 -1       840-2.04505E+06-5.50074E+05-2.56577E+05 3.52080E+05 1.61608E+05 1.19389E+05
 -1       841-1.24906E+06-5.28168E+05-2.38481E+05 2.71188E+05 1.58059E+05 8.44666E+04
 -1       842-6.83781E+05-4.91778E+05-2.18452E+05 1.83695E+05 1.52013E+05 3.94735E+04
 -1       843-3.80018E+05-5.15182E+05-2.43867E+05 6.43837E+04 1.58109E+05-2.33488E+04
 -1       844-7.35453E+07 9.01982E+06 1.55123E+07 2.57090E+06-1.16526E+06 5.28490E+06
 -1       845-8.40883E+07-7.12065E+05-1.66918E+06 3.37998E+06-2.33650E+05 7.99911E+05
 -1       846-7.54227E+07 1.53095E+06 1.76374E+06 2.97519E+06 8.48227E+04 6.32920E+05
 -1       847-7.01576E+07 1.53516E+06 1.33547E+06 2.56204E+06 2.08660E+05 6.25809E+05
 -1       848-6.47727E+07 1.41861E+06 1.31296E+06 2.41266E+06 1.78750E+05 6.56782E+05
 -1       849-5.97114E+07 1.26764E+06 1.18769E+06 2.34161E+06 1.53131E+05 6.90993E+05
 -1       850-5.48643E+07 1.17208E+06 1.08928E+06 2.26286E+06 1.46668E+05 6.71452E+05
 -1       851-5.02162E+07 1.10169E+06 9.98719E+05 2.16885E+06 1.47852E+05 6.41444E+05
 -1       852-4.57687E+07 1.03653E+06 9.15372E+05 2.06937E+06 1.49663E+05 6.11391E+05
 -1       853-4.15270E+07 9.72170E+05 8.35589E+05 1.96974E+06 1.50538E+05 5.82386E+05
 -1       854-3.74924E+07 9.09627E+05 7.59390E+05 1.87087E+06 1.50894E+05 5.53282E+05
 -1       855-3.36651E+07 8.49927E+05 6.86922E+05 1.77236E+06 1.51149E+05 5.23492E+05
 -1       856-3.00447E+07 7.93428E+05 6.18356E+05 1.67391E+06 1.51420E+05 4.93097E+05
 -1       857-2.66313E+07 7.40132E+05 5.53720E+05 1.57543E+06 1.51704E+05 4.62322E+05
 -1       858-2.34248E+07 6.90004E+05 4.93008E+05 1.47695E+06 1.51979E+05 4.31361E+05
 -1       859-2.04251E+07 6.43036E+05 4.36214E+05 1.37847E+06 1.52240E+05 4.00354E+05
 -1       860-1.76324E+07 5.99242E+05 3.83337E+05 1.28000E+06 1.52490E+05 3.69413E+05
 -1       861-1.50467E+07 5.58638E+05 3.34378E+05 1.18153E+06 1.52730E+05 3.38632E+05
 -1       862-1.26678E+07 5.21236E+05 2.89339E+05 1.08308E+06 1.52963E+05 3.08094E+05
 -1       863-1.04959E+07 4.87038E+05 2.48218E+05 9.84619E+05 1.53187E+05 2.77861E+05
 -1       864-8.53087E+06 4.56046E+05 2.11020E+05 8.86168E+05 1.53400E+05 2.47978E+05
 -1       865-6.77275E+06 4.28303E+05 1.77764E+05 7.87764E+05 1.53613E+05 2.18496E+05
 -1       866-5.22148E+06 4.03958E+05 1.48489E+05 6.89482E+05 1.53886E+05 1.89540E+05
 -1       867-3.87722E+06 3.83267E+05 1.23218E+05 5.91289E+05 1.54302E+05 1.61367E+05
 -1       868-2.74072E+06 3.65850E+05 1.01538E+05 4.92533E+05 1.54810E+05 1.34196E+05
 -1       869-1.81201E+06 3.49718E+05 8.33559E+04 3.91542E+05 1.54318E+05 1.06156E+05
 -1       870-1.09096E+06 3.26671E+05 6.54609E+04 2.87863E+05 1.51098E+05 7.47379E+04
 -1       871-5.64176E+05 3.06996E+05 5.71048E+04 1.94666E+05 1.45182E+05 3.28208E+04
 -1       872-1.57516E+05 3.69502E+05 8.83116E+04 1.41397E+05 1.50546E+05-2.69799E+04
 -1       873 3.81329E+05 5.15234E+05 2.44174E+05-6.36268E+04 1.58410E+05-2.39906E+04
 -1       874 6.87088E+05 4.91766E+05 2.18073E+05-1.82954E+05 1.52881E+05 3.72464E+04
 -1       875 1.25427E+06 5.28147E+05 2.37690E+05-2.70413E+05 1.59347E+05 7.96077E+04
 -1       876 2.05207E+06 5.50042E+05 2.55458E+05-3.51285E+05 1.63286E+05 1.10765E+05
 -1       877 3.07410E+06 5.66924E+05 2.74379E+05-4.35782E+05 1.64199E+05 1.37462E+05
 -1       878 4.32035E+06 5.83842E+05 2.95145E+05-5.22770E+05 1.64093E+05 1.62259E+05
 -1       879 5.79240E+06 6.04059E+05 3.19689E+05-6.10313E+05 1.64079E+05 1.87030E+05
 -1       880 7.49085E+06 6.28000E+05 3.48258E+05-6.97749E+05 1.64219E+05 2.11609E+05
 -1       881 9.41580E+06 6.55389E+05 3.80789E+05-7.85058E+05 1.64426E+05 2.35792E+05
 -1       882 1.15672E+07 6.86047E+05 4.17202E+05-8.72331E+05 1.64640E+05 2.59524E+05
 -1       883 1.39450E+07 7.19947E+05 4.57480E+05-9.59610E+05 1.64853E+05 2.82849E+05
 -1       884 1.65493E+07 7.57112E+05 5.01634E+05-1.04690E+06 1.65070E+05 3.05840E+05
 -1       885 1.93800E+07 7.97566E+05 5.49677E+05-1.13420E+06 1.65296E+05 3.28573E+05
 -1       886 2.24372E+07 8.41325E+05 6.01618E+05-1.22150E+06 1.65535E+05 3.51139E+05
 -1       887 2.57209E+07 8.88402E+05 6.57467E+05-1.30881E+06 1.65788E+05 3.73642E+05
 -1       888 2.92311E+07 9.38816E+05 7.17238E+05-1.39613E+06 1.66058E+05 3.96203E+05
 -1       889 3.29679E+07 9.92611E+05 7.80956E+05-1.48348E+06 1.66356E+05 4.18948E+05
 -1       890 3.69312E+07 1.04988E+06 8.48659E+05-1.57087E+06 1.66708E+05 4.41990E+05
 -1       891 4.11211E+07 1.11065E+06 9.20341E+05-1.65823E+06 1.67124E+05 4.65448E+05
 -1       892 4.55373E+07 1.17454E+06 9.95812E+05-1.74525E+06 1.67489E+05 4.89627E+05
 -1       893 5.01796E+07 1.24024E+06 1.07447E+06-1.83144E+06 1.67377E+05 5.15526E+05
 -1       894 5.50491E+07 1.30674E+06 1.15652E+06-1.91758E+06 1.66368E+05 5.44764E+05
 -1       895 6.01498E+07 1.37891E+06 1.24383E+06-2.00918E+06 1.66073E+05 5.76664E+05
 -1       896 6.54932E+07 1.48355E+06 1.35390E+06-2.11638E+06 1.73909E+05 6.01911E+05
 -1       897 7.10418E+07 1.63335E+06 1.46488E+06-2.23490E+06 2.02018E+05 5.76060E+05
 -1       898 7.68215E+07 1.86503E+06 1.66489E+06-2.27147E+06 2.36758E+05 5.65360E+05
 -1       899 8.20170E+07 1.43133E+06 1.08461E+06-1.92149E+06 9.09954E+04 5.38403E+05
 -1       900 8.96212E+07 2.92285E+05 3.17794E+06-1.24135E+06-1.75776E+05 9.55954E+05
 -1       901 8.46762E+07-9.43135E+06-1.23119E+07-3.15426E+06-1.12621E+06 4.61220E+06
 -1       902 7.36159E+07-9.02602E+06-1.55033E+07-2.59168E+06-1.15238E+06 5.23174E+06
 -1       903 8.41587E+07 6.70065E+05 1.65553E+06-3.38370E+06-2.13760E+05 6.74400E+05
 -1       904 7.54782E+07-1.57192E+06-1.77549E+06-2.97044E+06 1.04870E+05 4.93574E+05
 -1       905 7.02084E+07-1.57031E+06-1.34719E+06-2.55692E+06 2.26464E+05 4.75310E+05
 -1       906 6.48211E+07-1.44922E+06-1.32390E+06-2.40838E+06 1.95275E+05 4.97041E+05
 -1       907 5.97579E+07-1.29390E+06-1.19799E+06-2.33784E+06 1.68664E+05 5.25122E+05
 -1       908 5.49087E+07-1.19415E+06-1.09874E+06-2.25946E+06 1.61159E+05 5.03381E+05
 -1       909 5.02582E+07-1.11998E+06-1.00731E+06-2.16580E+06 1.61284E+05 4.74675E+05
 -1       910 4.58084E+07-1.05156E+06-9.23162E+05-2.06666E+06 1.62101E+05 4.48698E+05
 -1       911 4.15644E+07-9.84424E+05-8.42668E+05-1.96731E+06 1.62064E+05 4.25988E+05
 -1       912 3.75276E+07-9.19522E+05-7.65834E+05-1.86868E+06 1.61576E+05 4.04950E+05
 -1       913 3.36981E+07-8.57821E+05-6.92788E+05-1.77038E+06 1.61040E+05 3.84595E+05
 -1       914 3.00756E+07-7.99634E+05-6.23694E+05-1.67211E+06 1.60568E+05 3.64629E+05
 -1       915 2.66601E+07-7.44932E+05-5.58571E+05-1.57380E+06 1.60148E+05 3.44943E+05
 -1       916 2.34516E+07-6.93645E+05-4.97411E+05-1.47547E+06 1.59758E+05 3.25434E+05
 -1       917 2.04500E+07-6.45738E+05-4.40204E+05-1.37712E+06 1.59388E+05 3.05981E+05
 -1       918 1.76554E+07-6.01193E+05-3.86943E+05-1.27876E+06 1.59035E+05 2.86469E+05
 -1       919 1.50678E+07-5.60002E+05-3.37627E+05-1.18039E+06 1.58698E+05 2.66800E+05
 -1       920 1.26871E+07-5.22150E+05-2.92253E+05-1.08202E+06 1.58375E+05 2.46889E+05
 -1       921 1.05133E+07-4.87617E+05-2.50817E+05-9.83632E+05 1.58062E+05 2.26661E+05
 -1       922 8.54652E+06-4.56386E+05-2.13319E+05-8.85239E+05 1.57753E+05 2.06047E+05
 -1       923 6.78661E+06-4.28479E+05-1.79777E+05-7.86882E+05 1.57457E+05 1.85006E+05
 -1       924 5.23359E+06-4.04029E+05-1.50228E+05-6.88639E+05 1.57232E+05 1.63594E+05
 -1       925 3.88757E+06-3.83276E+05-1.24694E+05-5.90474E+05 1.57160E+05 1.42014E+05
 -1       926 2.74935E+06-3.65829E+05-1.02764E+05-4.91740E+05 1.57182E+05 1.20444E+05
 -1       927 1.81891E+06-3.49688E+05-8.43245E+04-3.90770E+05 1.56198E+05 9.69940E+04
 -1       928 1.09609E+06-3.26641E+05-6.61353E+04-2.87120E+05 1.52478E+05 6.91545E+04
 -1       929 5.67421E+05-3.06984E+05-5.74064E+04-1.93963E+05 1.46113E+05 2.98212E+04
 -1       930 1.58784E+05-3.69451E+05-8.79698E+04-1.40676E+05 1.51227E+05-2.81637E+04
 -3
    1PSTEP                         3           1           1          
  100CL  101 50.00000000         930                     0    1           1
 -4  FORC        4    1
 -5  F1          1    2    1    0
 -5  F2          1    2    2    0
 -5  F3          1    2    3    0
 -5  ALL         1    2    0    0    1ALL
 -1         1 1.59281E+04 4.89679E+04-2.64980E+04
 -1         2 1.59281E+04-4.89679E+04-2.64980E+04
 -1         3 1.83426E-03-2.29123E-03-5.76173E+01
 -1         4 1.83426E-03 2.29123E-03-5.76173E+01
 -1         5-1.58907E+04-4.89237E+04-2.64635E+04
 -1         6-1.58907E+04 4.89237E+04-2.64635E+04
 -1         7 1.81032E-03-2.29112E-03-5.76279E+01
 -1         8 1.81032E-03 2.29112E-03-5.76279E+01
 -1         9 3.36651E+04 8.97008E+02 3.68683E+04
 -1        10 8.34360E-04 6.32570E-07-2.67504E+01
 -1        11 2.55981E+04 1.09033E+04 2.97345E+04
 -1        12 6.24663E+03 1.01583E+04-2.92321E+04
 -1        13 7.35727E-04-3.36981E-04-2.22791E+01
 -1        14 7.53084E-04-3.38136E-04-2.22684E+01
 -1        15-3.37218E+04-8.97611E+02 3.68704E+04
 -1        16 8.63076E-04 5.09510E-07-2.67377E+01
 -1        17-6.18631E+03-1.01560E+04-2.92019E+04
 -1        18-2.56733E+04-1.09019E+04 2.97338E+04
 -1        19 7.28988E-04-3.37853E-04-2.22791E+01
 -1        20 7.59815E-04-3.37268E-04-2.22684E+01
 -1        21 6.24663E+03-1.01583E+04-2.92321E+04
 -1        22 2.55981E+04-1.09033E+04 2.97345E+04
 -1        23 7.35729E-04 3.36977E-04-2.22791E+01
 -1        24 7.53083E-04 3.38141E-04-2.22684E+01
 -1        25 3.36651E+04-8.97008E+02 3.68683E+04
 -1        26 8.34361E-04-6.35080E-07-2.67504E+01
 -1        27-3.37218E+04 8.97611E+02 3.68704E+04
 -1        28-2.56733E+04 1.09019E+04 2.97338E+04
 -1        29-6.18631E+03 1.01560E+04-2.92019E+04
 -1        30 8.63077E-04-5.05389E-07-2.67377E+01
 -1        31 7.59815E-04 3.37272E-04-2.22684E+01
 -1        32 7.28989E-04 3.37850E-04-2.22791E+01
 -1        33-2.79364E-05 4.24239E-05-1.15245E+02
 -1        34-9.91564E-05 8.67806E-05-1.15245E+02
 -1        35-1.94605E-04 1.61146E-04-1.15245E+02
 -1        36-2.89289E-04 2.70371E-04-1.15244E+02
 -1        37-3.81953E-04 4.11368E-04-1.15244E+02
 -1        38-4.73360E-04 5.86127E-04-1.15244E+02
 -1        39-5.58475E-04 7.93236E-04-1.15243E+02
 -1        40-6.30818E-04 1.03140E-03-1.15243E+02
 -1        41-6.86979E-04 1.29818E-03-1.15242E+02
 -1        42-7.25533E-04 1.58876E-03-1.15241E+02
 -1        43-7.45874E-04 1.89636E-03-1.15240E+02
 -1        44-7.48116E-04 2.21334E-03-1.15239E+02
 -1        45-7.33256E-04 2.53185E-03-1.15239E+02
 -1        46-7.03114E-04 2.84431E-03-1.15238E+02
 -1        47-6.60087E-04 3.14374E-03-1.15237E+02
 -1        48-6.06894E-04 3.42403E-03-1.15236E+02
 -1        49-5.46368E-04 3.68018E-03-1.15236E+02
 -1        50-4.81300E-04 3.90843E-03-1.15235E+02
 -1        51-4.14309E-04 4.10625E-03-1.15235E+02
 -1        52-3.47761E-04 4.27238E-03-1.15235E+02
 -1        53-2.83707E-04 4.40668E-03-1.15234E+02
 -1        54-2.23850E-04 4.51006E-03-1.15234E+02
 -1        55-1.69540E-04 4.58431E-03-1.15234E+02
 -1        56-1.21759E-04 4.63195E-03-1.15234E+02
 -1        57-8.11262E-05 4.65607E-03-1.15234E+02
 -1        58-4.78765E-05 4.66030E-03-1.15234E+02
 -1        59-2.19630E-05 4.64868E-03-1.15234E+02
 -1        60-4.01464E-06 4.62560E-03-1.15234E+02
 -1        61 1.92111E-06 4.59571E-03-1.15234E+02
 -1        62-2.79364E-05-4.24239E-05-1.15245E+02
 -1        63-9.91561E-05-8.67806E-05-1.15245E+02
 -1        64-1.94605E-04-1.61146E-04-1.15245E+02
 -1        65-2.89288E-04-2.70371E-04-1.15244E+02
 -1        66-3.81952E-04-4.11368E-04-1.15244E+02
 -1        67-4.73360E-04-5.86127E-04-1.15244E+02
 -1        68-5.58475E-04-7.93236E-04-1.15243E+02
 -1        69-6.30819E-04-1.03140E-03-1.15243E+02
 -1        70-6.86980E-04-1.29818E-03-1.15242E+02
 -1        71-7.25535E-04-1.58876E-03-1.15241E+02
 -1        72-7.45877E-04-1.89636E-03-1.15240E+02
 -1        73-7.48118E-04-2.21334E-03-1.15239E+02
 -1        74-7.33258E-04-2.53185E-03-1.15239E+02
 -1        75-7.03115E-04-2.84431E-03-1.15238E+02
 -1        76-6.60087E-04-3.14373E-03-1.15237E+02
 -1        77-6.06893E-04-3.42402E-03-1.15236E+02
 -1        78-5.46369E-04-3.68018E-03-1.15236E+02
 -1        79-4.81300E-04-3.90843E-03-1.15235E+02
 -1        80-4.14309E-04-4.10625E-03-1.15235E+02
 -1        81-3.47760E-04-4.27237E-03-1.15235E+02
 -1        82-2.83706E-04-4.40667E-03-1.15234E+02
 -1        83-2.23850E-04-4.51006E-03-1.15234E+02
 -1        84-1.69538E-04-4.58430E-03-1.15234E+02
 -1        85-1.21761E-04-4.63195E-03-1.15234E+02
 -1        86-8.11283E-05-4.65607E-03-1.15234E+02
 -1        87-4.78748E-05-4.66030E-03-1.15234E+02
 -1        88-2.19651E-05-4.64868E-03-1.15234E+02
 -1        89-4.01770E-06-4.62560E-03-1.15234E+02
 -1        90 1.92027E-06-4.59570E-03-1.15234E+02
 -1        91 1.67881E+04 5.58637E+04 3.07931E+03
 -1        92 2.53912E+01 7.29753E+01 2.85863E+03
 -1        93-1.67503E+04-5.57360E+04 3.09243E+03
 -1        94-1.67503E+04 5.57360E+04 3.09243E+03
 -1        95 2.53912E+01-7.29753E+01 2.85863E+03
 -1        96 1.67881E+04-5.58637E+04 3.07931E+03
 -1        97-2.83200E-05-4.24162E-05-1.15245E+02
 -1        98-9.97827E-05-8.68146E-05-1.15245E+02
 -1        99-1.95504E-04-1.61159E-04-1.15246E+02
 -1       100-2.90820E-04-2.70399E-04-1.15246E+02
 -1       101-3.84637E-04-4.11420E-04-1.15246E+02
 -1       102-4.77703E-04-5.86142E-04-1.15247E+02
 -1       103-5.64958E-04-7.93174E-04-1.15247E+02
 -1       104-6.39927E-04-1.03125E-03-1.15248E+02
 -1       105-6.99164E-04-1.29794E-03-1.15248E+02
 -1       106-7.41166E-04-1.58843E-03-1.15249E+02
 -1       107-7.65226E-04-1.89596E-03-1.15250E+02
 -1       108-7.71340E-04-2.21289E-03-1.15251E+02
 -1       109-7.60389E-04-2.53135E-03-1.15252E+02
 -1       110-7.34081E-04-2.84378E-03-1.15252E+02
 -1       111-6.94708E-04-3.14319E-03-1.15253E+02
 -1       112-6.44898E-04-3.42347E-03-1.15254E+02
 -1       113-5.87414E-04-3.67965E-03-1.15254E+02
 -1       114-5.24992E-04-3.90792E-03-1.15255E+02
 -1       115-4.60217E-04-4.10577E-03-1.15255E+02
 -1       116-3.95445E-04-4.27192E-03-1.15256E+02
 -1       117-3.32730E-04-4.40625E-03-1.15256E+02
 -1       118-2.73790E-04-4.50966E-03-1.15256E+02
 -1       119-2.20012E-04-4.58395E-03-1.15256E+02
 -1       120-1.72417E-04-4.63163E-03-1.15256E+02
 -1       121-1.31662E-04-4.65578E-03-1.15256E+02
 -1       122-9.80396E-05-4.66005E-03-1.15256E+02
 -1       123-7.15626E-05-4.64845E-03-1.15256E+02
 -1       124-5.29307E-05-4.62540E-03-1.15256E+02
 -1       125-4.63197E-05-4.59552E-03-1.15256E+02
 -1       126 1.96967E-03-4.57672E-03-6.17570E+01
 -1       127 1.96779E-03-4.57461E-03-6.17570E+01
 -1       128 1.96968E-03-4.57673E-03-6.17570E+01
 -1       129-2.83202E-05 4.24162E-05-1.15245E+02
 -1       130-9.97829E-05 8.68146E-05-1.15245E+02
 -1       131-1.95503E-04 1.61159E-04-1.15246E+02
 -1       132-2.90819E-04 2.70399E-04-1.15246E+02
 -1       133-3.84637E-04 4.11419E-04-1.15246E+02
 -1       134-4.77703E-04 5.86142E-04-1.15247E+02
 -1       135-5.64963E-04 7.93174E-04-1.15247E+02
 -1       136-6.39930E-04 1.03125E-03-1.15248E+02
 -1       137-6.99166E-04 1.29794E-03-1.15248E+02
 -1       138-7.41170E-04 1.58843E-03-1.15249E+02
 -1       139-7.65226E-04 1.89596E-03-1.15250E+02
 -1       140-7.71340E-04 2.21289E-03-1.15251E+02
 -1       141-7.60394E-04 2.53135E-03-1.15252E+02
 -1       142-7.34085E-04 2.84378E-03-1.15252E+02
 -1       143-6.94709E-04 3.14318E-03-1.15253E+02
 -1       144-6.44899E-04 3.42347E-03-1.15254E+02
 -1       145-5.87415E-04 3.67964E-03-1.15254E+02
 -1       146-5.24993E-04 3.90791E-03-1.15255E+02
 -1       147-4.60220E-04 4.10576E-03-1.15255E+02
 -1       148-3.95446E-04 4.27191E-03-1.15256E+02
 -1       149-3.32729E-04 4.40625E-03-1.15256E+02
 -1       150-2.73791E-04 4.50966E-03-1.15256E+02
 -1       151-2.20011E-04 4.58395E-03-1.15256E+02
 -1       152-1.72417E-04 4.63163E-03-1.15256E+02
 -1       153-1.31665E-04 4.65578E-03-1.15256E+02
 -1       154-9.80396E-05 4.66005E-03-1.15256E+02
 -1       155-7.15625E-05 4.64844E-03-1.15256E+02
 -1       156-5.29328E-05 4.62540E-03-1.15256E+02
 -1       157-4.63179E-05 4.59551E-03-1.15256E+02
 -1       158 1.96968E-03 4.57673E-03-6.17570E+01
 -1       159 1.96779E-03 4.57461E-03-6.17570E+01
 -1       160 1.96968E-03 4.57672E-03-6.17570E+01
 -1       161-1.26406E-05 4.94509E-05-5.34883E+01
 -1       162 6.77418E-05 1.23819E-04-5.34885E+01
 -1       163 1.56481E-04 1.63255E-04-5.34886E+01
 -1       164 2.35784E-04 1.79075E-04-5.34888E+01
 -1       165 3.10593E-04 1.92018E-04-5.34891E+01
 -1       166 3.84775E-04 2.01469E-04-5.34896E+01
 -1       167 4.53196E-04 2.03353E-04-5.34902E+01
 -1       168 5.09855E-04 1.98328E-04-5.34910E+01
 -1       169 5.52240E-04 1.88600E-04-5.34918E+01
 -1       170 5.79781E-04 1.75704E-04-5.34927E+01
 -1       171 5.92351E-04 1.60563E-04-5.34937E+01
 -1       172 5.90235E-04 1.44003E-04-5.34947E+01
 -1       173 5.74394E-04 1.26888E-04-5.34957E+01
 -1       174 5.46449E-04 1.10012E-04-5.34966E+01
 -1       175 5.08477E-04 9.40015E-05-5.34975E+01
 -1       176 4.62784E-04 7.92894E-05-5.34983E+01
 -1       177 4.11721E-04 6.61322E-05-5.34991E+01
 -1       178 3.57566E-04 5.46474E-05-5.34997E+01
 -1       179 3.02423E-04 4.48375E-05-5.35003E+01
 -1       180 2.48174E-04 3.66103E-05-5.35007E+01
 -1       181 1.96409E-04 2.98091E-05-5.35010E+01
 -1       182 1.48430E-04 2.42339E-05-5.35012E+01
 -1       183 1.05231E-04 1.96761E-05-5.35014E+01
 -1       184 6.75170E-05 1.59046E-05-5.35014E+01
 -1       185 3.57730E-05 1.26930E-05-5.35014E+01
 -1       186 1.03278E-05 9.82390E-06-5.35014E+01
 -1       187-8.67961E-06 7.17632E-06-5.35012E+01
 -1       188-2.20363E-05 4.91008E-06-5.35011E+01
 -1       189-3.28008E-05 3.91350E-06-5.35010E+01
 -1       190 5.05346E+04 2.01833E+03 5.89673E+04
 -1       191 1.56308E+03 1.77810E+03-5.60836E+04
 -1       192 1.40546E-03-6.44372E-08-4.45581E+01
 -1       193-4.34256E-05-2.35793E-06-4.45479E+01
 -1       194 6.19771E-05 5.80014E-05-4.45483E+01
 -1       195 1.88793E-04 1.52206E-04-4.45484E+01
 -1       196 2.62040E-04 2.31618E-04-4.45485E+01
 -1       197 3.23253E-04 2.89620E-04-4.45487E+01
 -1       198 3.91758E-04 3.18712E-04-4.45491E+01
 -1       199 4.55712E-04 3.12557E-04-4.45495E+01
 -1       200 5.06231E-04 2.74835E-04-4.45501E+01
 -1       201 5.42185E-04 2.13822E-04-4.45508E+01
 -1       202 5.64850E-04 1.36665E-04-4.45515E+01
 -1       203 5.74820E-04 4.87757E-05-4.45523E+01
 -1       204 5.72349E-04-4.50892E-05-4.45531E+01
 -1       205 5.58189E-04-1.40465E-04-4.45539E+01
 -1       206 5.33760E-04-2.33428E-04-4.45547E+01
 -1       207 5.00908E-04-3.20845E-04-4.45554E+01
 -1       208 4.61644E-04-4.00427E-04-4.45561E+01
 -1       209 4.17988E-04-4.70660E-04-4.45567E+01
 -1       210 3.71864E-04-5.30717E-04-4.45572E+01
 -1       211 3.25041E-04-5.80350E-04-4.45576E+01
 -1       212 2.79080E-04-6.19791E-04-4.45580E+01
 -1       213 2.35302E-04-6.49640E-04-4.45582E+01
 -1       214 1.94779E-04-6.70779E-04-4.45584E+01
 -1       215 1.58346E-04-6.84283E-04-4.45585E+01
 -1       216 1.26622E-04-6.91307E-04-4.45586E+01
 -1       217 9.99710E-05-6.93014E-04-4.45586E+01
 -1       218 7.82642E-05-6.90469E-04-4.45585E+01
 -1       219 6.04603E-05-6.84789E-04-4.45584E+01
 -1       220 4.51264E-05-6.77576E-04-4.45583E+01
 -1       221 3.53638E-05-6.71399E-04-4.45582E+01
 -1       222 4.04262E-05-1.68507E-04-4.45472E+01
 -1       223-5.62766E-05-4.32177E-04-4.45469E+01
 -1       224-1.86609E-04-5.26986E-04-4.45468E+01
 -1       225-2.65506E-04-5.42584E-04-4.45467E+01
 -1       226-3.42854E-04-5.74530E-04-4.45465E+01
 -1       227-4.26936E-04-6.09970E-04-4.45462E+01
 -1       228-5.03989E-04-6.33398E-04-4.45457E+01
 -1       229-5.64611E-04-6.46236E-04-4.45451E+01
 -1       230-6.07605E-04-6.53841E-04-4.45444E+01
 -1       231-6.33947E-04-6.59030E-04-4.45437E+01
 -1       232-6.43942E-04-6.62673E-04-4.45429E+01
 -1       233-6.37817E-04-6.65349E-04-4.45420E+01
 -1       234-6.16591E-04-6.67799E-04-4.45412E+01
 -1       235-5.82148E-04-6.70678E-04-4.45404E+01
 -1       236-5.36908E-04-6.74354E-04-4.45397E+01
 -1       237-4.83506E-04-6.78878E-04-4.45390E+01
 -1       238-4.24589E-04-6.84058E-04-4.45383E+01
 -1       239-3.62689E-04-6.89547E-04-4.45378E+01
 -1       240-3.00133E-04-6.94906E-04-4.45374E+01
 -1       241-2.38975E-04-6.99672E-04-4.45370E+01
 -1       242-1.80954E-04-7.03400E-04-4.45367E+01
 -1       243-1.27470E-04-7.05703E-04-4.45366E+01
 -1       244-7.95651E-05-7.06279E-04-4.45364E+01
 -1       245-3.79174E-05-7.04919E-04-4.45364E+01
 -1       246-2.92633E-06-7.01495E-04-4.45364E+01
 -1       247 2.49688E-05-6.95977E-04-4.45365E+01
 -1       248 4.47919E-05-6.88610E-04-4.45366E+01
 -1       249 5.62104E-05-6.80491E-04-4.45367E+01
 -1       250 6.37782E-05-6.74034E-04-4.45368E+01
 -1       251 1.43905E-03-3.32236E-06-4.45369E+01
 -1       252 2.50221E-05 3.70315E-06-5.34754E+01
 -1       253 3.65285E-05 4.70589E-06-5.34753E+01
 -1       254 5.06240E-05 6.96117E-06-5.34751E+01
 -1       255 7.02237E-05 9.59898E-06-5.34750E+01
 -1       256 9.60290E-05 1.24661E-05-5.34749E+01
 -1       257 1.27831E-04 1.56805E-05-5.34749E+01
 -1       258 1.65240E-04 1.94591E-05-5.34750E+01
 -1       259 2.07716E-04 2.40253E-05-5.34751E+01
 -1       260 2.54507E-04 2.96111E-05-5.34753E+01
 -1       261 3.04581E-04 3.64269E-05-5.34757E+01
 -1       262 3.56616E-04 4.46735E-05-5.34761E+01
 -1       263 4.09015E-04 5.45046E-05-5.34766E+01
 -1       264 4.59920E-04 6.60123E-05-5.34773E+01
 -1       265 5.07264E-04 7.91955E-05-5.34780E+01
 -1       266 5.48836E-04 9.39419E-05-5.34788E+01
 -1       267 5.82374E-04 1.09988E-04-5.34797E+01
 -1       268 6.05685E-04 1.26901E-04-5.34807E+01
 -1       269 6.16821E-04 1.44054E-04-5.34817E+01
 -1       270 6.14301E-04 1.60656E-04-5.34827E+01
 -1       271 5.97306E-04 1.75836E-04-5.34836E+01
 -1       272 5.65692E-04 1.88768E-04-5.34846E+01
 -1       273 5.19707E-04 1.98528E-04-5.34854E+01
 -1       274 4.60015E-04 2.03584E-04-5.34861E+01
 -1       275 3.89163E-04 2.01725E-04-5.34868E+01
 -1       276 3.13144E-04 1.92250E-04-5.34872E+01
 -1       277 2.37100E-04 1.79173E-04-5.34876E+01
 -1       278 1.57185E-04 1.63149E-04-5.34878E+01
 -1       279 6.83029E-05 1.23664E-04-5.34879E+01
 -1       280-1.22829E-05 4.94104E-05-5.34881E+01
 -1       281-1.47238E+03-1.78199E+03-5.60341E+04
 -1       282-5.06542E+04-2.02002E+03 5.89646E+04
 -1       283 3.98147E-05-1.68389E-04-4.45478E+01
 -1       284-5.74549E-05-4.31599E-04-4.45481E+01
 -1       285-1.87692E-04-5.26608E-04-4.45482E+01
 -1       286-2.66941E-04-5.42913E-04-4.45482E+01
 -1       287-3.45333E-04-5.75251E-04-4.45484E+01
 -1       288-4.30940E-04-6.10723E-04-4.45488E+01
 -1       289-5.09952E-04-6.34051E-04-4.45493E+01
 -1       290-5.73034E-04-6.46782E-04-4.45499E+01
 -1       291-6.18992E-04-6.54287E-04-4.45505E+01
 -1       292-6.48719E-04-6.59372E-04-4.45513E+01
 -1       293-6.62408E-04-6.62908E-04-4.45521E+01
 -1       294-6.60167E-04-6.65477E-04-4.45529E+01
 -1       295-6.42889E-04-6.67824E-04-4.45538E+01
 -1       296-6.12336E-04-6.70607E-04-4.45546E+01
 -1       297-5.70816E-04-6.74193E-04-4.45553E+01
 -1       298-5.20867E-04-6.78640E-04-4.45560E+01
 -1       299-4.65063E-04-6.83752E-04-4.45566E+01
 -1       300-4.05876E-04-6.89183E-04-4.45572E+01
 -1       301-3.45602E-04-6.94493E-04-4.45576E+01
 -1       302-2.86278E-04-6.99220E-04-4.45580E+01
 -1       303-2.29646E-04-7.02919E-04-4.45582E+01
 -1       304-1.77126E-04-7.05201E-04-4.45584E+01
 -1       305-1.29794E-04-7.05763E-04-4.45585E+01
 -1       306-8.83695E-05-7.04393E-04-4.45586E+01
 -1       307-5.32934E-05-7.00969E-04-4.45586E+01
 -1       308-2.50497E-05-6.95457E-04-4.45585E+01
 -1       309-4.67095E-06-6.88102E-04-4.45584E+01
 -1       310 7.37374E-06-6.80006E-04-4.45583E+01
 -1       311 1.54175E-05-6.73530E-04-4.45582E+01
 -1       312 1.39102E-03-2.86308E-06-4.45581E+01
 -1       313-4.28370E-05-2.13529E-06-4.45471E+01
 -1       314 6.32403E-05 5.82932E-05-4.45467E+01
 -1       315 1.90184E-04 1.52280E-04-4.45466E+01
 -1       316 2.63925E-04 2.31730E-04-4.45465E+01
 -1       317 3.26330E-04 2.89951E-04-4.45463E+01
 -1       318 3.96476E-04 3.19185E-04-4.45459E+01
 -1       319 4.62461E-04 3.13072E-04-4.45455E+01
 -1       320 5.15472E-04 2.75350E-04-4.45449E+01
 -1       321 5.54384E-04 2.14313E-04-4.45442E+01
 -1       322 5.80398E-04 1.37109E-04-4.45435E+01
 -1       323 5.94001E-04 4.91518E-05-4.45427E+01
 -1       324 5.95330E-04-4.47932E-05-4.45419E+01
 -1       325 5.85023E-04-1.40256E-04-4.45411E+01
 -1       326 5.64383E-04-2.33310E-04-4.45403E+01
 -1       327 5.35151E-04-3.20819E-04-4.45396E+01
 -1       328 4.99250E-04-4.00487E-04-4.45389E+01
 -1       329 4.58623E-04-4.70802E-04-4.45383E+01
 -1       330 4.15146E-04-5.30935E-04-4.45378E+01
 -1       331 3.70550E-04-5.80635E-04-4.45374E+01
 -1       332 3.26382E-04-6.20133E-04-4.45370E+01
 -1       333 2.83965E-04-6.50031E-04-4.45367E+01
 -1       334 2.44390E-04-6.71210E-04-4.45366E+01
 -1       335 2.08522E-04-6.84739E-04-4.45365E+01
 -1       336 1.77020E-04-6.91792E-04-4.45364E+01
 -1       337 1.50290E-04-6.93513E-04-4.45364E+01
 -1       338 1.28242E-04-6.90974E-04-4.45365E+01
 -1       339 1.09894E-04-6.85288E-04-4.45366E+01
 -1       340 9.39430E-05-6.78053E-04-4.45367E+01
 -1       341 8.37094E-05-6.71905E-04-4.45368E+01
 -1       342 1.45348E-03-5.22508E-07-4.45369E+01
 -1       343-4.34257E-05 2.35796E-06-4.45479E+01
 -1       344 6.19769E-05-5.80014E-05-4.45483E+01
 -1       345 1.88793E-04-1.52206E-04-4.45484E+01
 -1       346 2.62040E-04-2.31618E-04-4.45485E+01
 -1       347 3.23253E-04-2.89620E-04-4.45487E+01
 -1       348 3.91758E-04-3.18713E-04-4.45491E+01
 -1       349 4.55712E-04-3.12558E-04-4.45495E+01
 -1       350 5.06231E-04-2.74836E-04-4.45501E+01
 -1       351 5.42185E-04-2.13822E-04-4.45508E+01
 -1       352 5.64850E-04-1.36665E-04-4.45515E+01
 -1       353 5.74819E-04-4.87766E-05-4.45523E+01
 -1       354 5.72349E-04 4.50878E-05-4.45531E+01
 -1       355 5.58189E-04 1.40462E-04-4.45539E+01
 -1       356 5.33761E-04 2.33426E-04-4.45547E+01
 -1       357 5.00908E-04 3.20842E-04-4.45554E+01
 -1       358 4.61644E-04 4.00422E-04-4.45561E+01
 -1       359 4.17987E-04 4.70656E-04-4.45567E+01
 -1       360 3.71864E-04 5.30711E-04-4.45572E+01
 -1       361 3.25042E-04 5.80344E-04-4.45576E+01
 -1       362 2.79080E-04 6.19787E-04-4.45580E+01
 -1       363 2.35302E-04 6.49636E-04-4.45582E+01
 -1       364 1.94779E-04 6.70775E-04-4.45584E+01
 -1       365 1.58345E-04 6.84277E-04-4.45585E+01
 -1       366 1.26622E-04 6.91303E-04-4.45586E+01
 -1       367 9.99719E-05 6.93009E-04-4.45586E+01
 -1       368 7.82642E-05 6.90461E-04-4.45585E+01
 -1       369 6.04600E-05 6.84783E-04-4.45584E+01
 -1       370 4.51246E-05 6.77570E-04-4.45583E+01
 -1       371 3.53650E-05 6.71394E-04-4.45582E+01
 -1       372 4.04262E-05 1.68507E-04-4.45472E+01
 -1       373-5.62763E-05 4.32177E-04-4.45469E+01
 -1       374-1.86609E-04 5.26986E-04-4.45468E+01
 -1       375-2.65506E-04 5.42585E-04-4.45467E+01
 -1       376-3.42854E-04 5.74530E-04-4.45465E+01
 -1       377-4.26936E-04 6.09970E-04-4.45462E+01
 -1       378-5.03989E-04 6.33398E-04-4.45457E+01
 -1       379-5.64611E-04 6.46236E-04-4.45451E+01
 -1       380-6.07606E-04 6.53841E-04-4.45444E+01
 -1       381-6.33947E-04 6.59031E-04-4.45437E+01
 -1       382-6.43941E-04 6.62675E-04-4.45429E+01
 -1       383-6.37816E-04 6.65351E-04-4.45420E+01
 -1       384-6.16591E-04 6.67801E-04-4.45412E+01
 -1       385-5.82148E-04 6.70681E-04-4.45404E+01
 -1       386-5.36908E-04 6.74355E-04-4.45397E+01
 -1       387-4.83506E-04 6.78881E-04-4.45390E+01
 -1       388-4.24588E-04 6.84061E-04-4.45383E+01
 -1       389-3.62688E-04 6.89549E-04-4.45378E+01
 -1       390-3.00134E-04 6.94909E-04-4.45374E+01
 -1       391-2.38976E-04 6.99676E-04-4.45370E+01
 -1       392-1.80954E-04 7.03405E-04-4.45367E+01
 -1       393-1.27469E-04 7.05707E-04-4.45366E+01
 -1       394-7.95645E-05 7.06285E-04-4.45364E+01
 -1       395-3.79179E-05 7.04928E-04-4.45364E+01
 -1       396-2.92576E-06 7.01505E-04-4.45364E+01
 -1       397 2.49697E-05 6.95988E-04-4.45365E+01
 -1       398 4.47919E-05 6.88620E-04-4.45366E+01
 -1       399 5.62125E-05 6.80500E-04-4.45367E+01
 -1       400 6.37777E-05 6.74042E-04-4.45368E+01
 -1       401 5.05346E+04-2.01833E+03 5.89673E+04
 -1       402 1.56308E+03-1.77810E+03-5.60836E+04
 -1       403 1.40546E-03 5.77921E-08-4.45581E+01
 -1       404-1.26406E-05-4.94509E-05-5.34883E+01
 -1       405 6.77417E-05-1.23819E-04-5.34885E+01
 -1       406 1.56481E-04-1.63255E-04-5.34886E+01
 -1       407 2.35784E-04-1.79076E-04-5.34888E+01
 -1       408 3.10593E-04-1.92018E-04-5.34891E+01
 -1       409 3.84775E-04-2.01469E-04-5.34896E+01
 -1       410 4.53196E-04-2.03353E-04-5.34902E+01
 -1       411 5.09855E-04-1.98329E-04-5.34910E+01
 -1       412 5.52240E-04-1.88602E-04-5.34918E+01
 -1       413 5.79781E-04-1.75706E-04-5.34927E+01
 -1       414 5.92350E-04-1.60564E-04-5.34937E+01
 -1       415 5.90235E-04-1.44005E-04-5.34947E+01
 -1       416 5.74393E-04-1.26891E-04-5.34957E+01
 -1       417 5.46448E-04-1.10016E-04-5.34966E+01
 -1       418 5.08477E-04-9.40045E-05-5.34975E+01
 -1       419 4.62784E-04-7.92917E-05-5.34983E+01
 -1       420 4.11720E-04-6.61359E-05-5.34991E+01
 -1       421 3.57564E-04-5.46542E-05-5.34997E+01
 -1       422 3.02424E-04-4.48445E-05-5.35003E+01
 -1       423 2.48174E-04-3.66153E-05-5.35007E+01
 -1       424 1.96410E-04-2.98155E-05-5.35010E+01
 -1       425 1.48431E-04-2.42417E-05-5.35012E+01
 -1       426 1.05231E-04-1.96817E-05-5.35014E+01
 -1       427 6.75182E-05-1.59072E-05-5.35014E+01
 -1       428 3.57722E-05-1.26959E-05-5.35014E+01
 -1       429 1.03276E-05-9.82856E-06-5.35014E+01
 -1       430-8.68037E-06-7.18434E-06-5.35012E+01
 -1       431-2.20372E-05-4.92092E-06-5.35011E+01
 -1       432-3.28006E-05-3.92440E-06-5.35010E+01
 -1       433 1.43905E-03 3.32721E-06-4.45369E+01
 -1       434-5.06542E+04 2.02002E+03 5.89646E+04
 -1       435-1.47238E+03 1.78199E+03-5.60341E+04
 -1       436 2.50215E-05-3.69630E-06-5.34754E+01
 -1       437 3.65276E-05-4.70197E-06-5.34753E+01
 -1       438 5.06234E-05-6.95167E-06-5.34751E+01
 -1       439 7.02234E-05-9.59107E-06-5.34750E+01
 -1       440 9.60280E-05-1.24589E-05-5.34749E+01
 -1       441 1.27832E-04-1.56733E-05-5.34749E+01
 -1       442 1.65241E-04-1.94545E-05-5.34750E+01
 -1       443 2.07717E-04-2.40225E-05-5.34751E+01
 -1       444 2.54507E-04-2.96041E-05-5.34753E+01
 -1       445 3.04580E-04-3.64210E-05-5.34757E+01
 -1       446 3.56617E-04-4.46677E-05-5.34761E+01
 -1       447 4.09016E-04-5.45004E-05-5.34766E+01
 -1       448 4.59919E-04-6.60081E-05-5.34773E+01
 -1       449 5.07264E-04-7.91927E-05-5.34780E+01
 -1       450 5.48836E-04-9.39384E-05-5.34788E+01
 -1       451 5.82375E-04-1.09985E-04-5.34797E+01
 -1       452 6.05686E-04-1.26898E-04-5.34807E+01
 -1       453 6.16821E-04-1.44053E-04-5.34817E+01
 -1       454 6.14300E-04-1.60654E-04-5.34827E+01
 -1       455 5.97307E-04-1.75835E-04-5.34836E+01
 -1       456 5.65692E-04-1.88768E-04-5.34846E+01
 -1       457 5.19707E-04-1.98527E-04-5.34854E+01
 -1       458 4.60015E-04-2.03583E-04-5.34861E+01
 -1       459 3.89164E-04-2.01724E-04-5.34868E+01
 -1       460 3.13144E-04-1.92251E-04-5.34872E+01
 -1       461 2.37100E-04-1.79173E-04-5.34876E+01
 -1       462 1.57185E-04-1.63149E-04-5.34878E+01
 -1       463 6.83029E-05-1.23664E-04-5.34879E+01
 -1       464-1.22829E-05-4.94104E-05-5.34881E+01
 -1       465 1.45348E-03 5.29910E-07-4.45369E+01
 -1       466-4.28370E-05 2.13527E-06-4.45471E+01
 -1       467 6.32403E-05-5.82932E-05-4.45467E+01
 -1       468 1.90185E-04-1.52280E-04-4.45466E+01
 -1       469 2.63925E-04-2.31730E-04-4.45465E+01
 -1       470 3.26329E-04-2.89951E-04-4.45463E+01
 -1       471 3.96476E-04-3.19185E-04-4.45459E+01
 -1       472 4.62461E-04-3.13072E-04-4.45455E+01
 -1       473 5.15472E-04-2.75350E-04-4.45449E+01
 -1       474 5.54384E-04-2.14312E-04-4.45442E+01
 -1       475 5.80398E-04-1.37108E-04-4.45435E+01
 -1       476 5.94001E-04-4.91504E-05-4.45427E+01
 -1       477 5.95330E-04 4.47945E-05-4.45419E+01
 -1       478 5.85022E-04 1.40257E-04-4.45411E+01
 -1       479 5.64383E-04 2.33313E-04-4.45403E+01
 -1       480 5.35152E-04 3.20820E-04-4.45396E+01
 -1       481 4.99250E-04 4.00488E-04-4.45389E+01
 -1       482 4.58624E-04 4.70805E-04-4.45383E+01
 -1       483 4.15145E-04 5.30939E-04-4.45378E+01
 -1       484 3.70551E-04 5.80639E-04-4.45374E+01
 -1       485 3.26381E-04 6.20139E-04-4.45370E+01
 -1       486 2.83965E-04 6.50036E-04-4.45367E+01
 -1       487 2.44390E-04 6.71213E-04-4.45366E+01
 -1       488 2.08523E-04 6.84746E-04-4.45365E+01
 -1       489 1.77021E-04 6.91795E-04-4.45364E+01
 -1       490 1.50290E-04 6.93517E-04-4.45364E+01
 -1       491 1.28241E-04 6.90978E-04-4.45365E+01
 -1       492 1.09894E-04 6.85293E-04-4.45366E+01
 -1       493 9.39421E-05 6.78065E-04-4.45367E+01
 -1       494 8.37085E-05 6.71913E-04-4.45368E+01
 -1       495 3.98147E-05 1.68389E-04-4.45478E+01
 -1       496-5.74549E-05 4.31599E-04-4.45481E+01
 -1       497-1.87692E-04 5.26608E-04-4.45482E+01
 -1       498-2.66941E-04 5.42913E-04-4.45482E+01
 -1       499-3.45333E-04 5.75250E-04-4.45484E+01
 -1       500-4.30940E-04 6.10721E-04-4.45488E+01
 -1       501-5.09952E-04 6.34050E-04-4.45493E+01
 -1       502-5.73035E-04 6.46781E-04-4.45499E+01
 -1       503-6.18992E-04 6.54286E-04-4.45505E+01
 -1       504-6.48720E-04 6.59371E-04-4.45513E+01
 -1       505-6.62409E-04 6.62906E-04-4.45521E+01
 -1       506-6.60167E-04 6.65476E-04-4.45529E+01
 -1       507-6.42889E-04 6.67822E-04-4.45538E+01
 -1       508-6.12336E-04 6.70604E-04-4.45546E+01
 -1       509-5.70816E-04 6.74193E-04-4.45553E+01
 -1       510-5.20869E-04 6.78637E-04-4.45560E+01
 -1       511-4.65063E-04 6.83751E-04-4.45566E+01
 -1       512-4.05877E-04 6.89180E-04-4.45572E+01
 -1       513-3.45603E-04 6.94489E-04-4.45576E+01
 -1       514-2.86278E-04 6.99213E-04-4.45580E+01
 -1       515-2.29646E-04 7.02912E-04-4.45582E+01
 -1       516-1.77128E-04 7.05195E-04-4.45584E+01
 -1       517-1.29795E-04 7.05759E-04-4.45585E+01
 -1       518-8.83692E-05 7.04387E-04-4.45586E+01
 -1       519-5.32937E-05 7.00957E-04-4.45586E+01
 -1       520-2.50497E-05 6.95446E-04-4.45585E+01
 -1       521-4.67230E-06 6.88094E-04-4.45584E+01
 -1       522 7.37358E-06 6.80001E-04-4.45583E+01
 -1       523 1.54184E-05 6.73523E-04-4.45582E+01
 -1       524 1.39102E-03 2.85698E-06-4.45581E+01
 -1       525-9.87973E-06-6.91254E-05-1.23514E+02
 -1       526-1.80812E-05-1.02408E-04-1.23514E+02
 -1       527-3.55378E-05-1.68711E-04-1.23514E+02
 -1       528-5.63008E-05-2.99052E-04-1.23514E+02
 -1       529-7.96667E-05-5.07546E-04-1.23514E+02
 -1       530-1.03953E-04-8.02779E-04-1.23514E+02
 -1       531-1.27426E-04-1.18622E-03-1.23514E+02
 -1       532-1.48501E-04-1.65312E-03-1.23514E+02
 -1       533-1.65990E-04-2.19334E-03-1.23514E+02
 -1       534-1.79106E-04-2.79274E-03-1.23514E+02
 -1       535-1.87370E-04-3.43456E-03-1.23514E+02
 -1       536-1.90611E-04-4.10069E-03-1.23514E+02
 -1       537-1.88955E-04-4.77282E-03-1.23514E+02
 -1       538-1.82777E-04-5.43355E-03-1.23514E+02
 -1       539-1.72648E-04-6.06714E-03-1.23514E+02
 -1       540-1.59261E-04-6.66019E-03-1.23514E+02
 -1       541-1.43382E-04-7.20190E-03-1.23514E+02
 -1       542-1.25793E-04-7.68434E-03-1.23514E+02
 -1       543-1.07259E-04-8.10240E-03-1.23514E+02
 -1       544-8.84929E-05-8.45364E-03-1.23514E+02
 -1       545-7.01282E-05-8.73815E-03-1.23514E+02
 -1       546-5.27128E-05-8.95814E-03-1.23514E+02
 -1       547-3.66861E-05-9.11770E-03-1.23514E+02
 -1       548-2.24019E-05-9.22234E-03-1.23514E+02
 -1       549-1.01203E-05-9.27875E-03-1.23514E+02
 -1       550-7.20212E-08-9.29454E-03-1.23514E+02
 -1       551 7.56811E-06-9.27806E-03-1.23514E+02
 -1       552 1.26128E-05-9.23830E-03-1.23514E+02
 -1       553 1.59061E-05-9.18343E-03-1.23514E+02
 -1       554-8.77284E-06-6.39896E-05-1.23514E+02
 -1       555-1.81622E-05-9.20224E-05-1.23514E+02
 -1       556-3.47146E-05-1.55630E-04-1.23514E+02
 -1       557-5.58123E-05-2.80179E-04-1.23514E+02
 -1       558-7.96357E-05-4.81503E-04-1.23514E+02
 -1       559-1.04296E-04-7.69820E-04-1.23514E+02
 -1       560-1.28122E-04-1.14731E-03-1.23514E+02
 -1       561-1.49540E-04-1.60950E-03-1.23514E+02
 -1       562-1.67345E-04-2.14626E-03-1.23514E+02
 -1       563-1.80721E-04-2.74337E-03-1.23514E+02
 -1       564-1.89198E-04-3.38394E-03-1.23514E+02
 -1       565-1.92616E-04-4.04972E-03-1.23514E+02
 -1       566-1.91105E-04-4.72228E-03-1.23514E+02
 -1       567-1.85042E-04-5.38409E-03-1.23514E+02
 -1       568-1.74997E-04-6.01931E-03-1.23514E+02
 -1       569-1.61666E-04-6.61441E-03-1.23514E+02
 -1       570-1.45820E-04-7.15854E-03-1.23514E+02
 -1       571-1.28243E-04-7.64368E-03-1.23514E+02
 -1       572-1.09706E-04-8.06465E-03-1.23514E+02
 -1       573-9.09209E-05-8.41899E-03-1.23514E+02
 -1       574-7.25276E-05-8.70671E-03-1.23514E+02
 -1       575-5.50737E-05-8.93003E-03-1.23514E+02
 -1       576-3.90092E-05-9.09298E-03-1.23514E+02
 -1       577-2.46874E-05-9.20109E-03-1.23514E+02
 -1       578-1.23834E-05-9.26105E-03-1.23514E+02
 -1       579-2.31618E-06-9.28049E-03-1.23514E+02
 -1       580 5.37848E-06-9.26774E-03-1.23514E+02
 -1       581 1.07468E-05-9.23128E-03-1.23514E+02
 -1       582 1.45291E-05-9.17816E-03-1.23514E+02
 -1       583-9.90725E-06-6.90840E-05-1.23514E+02
 -1       584-1.81127E-05-1.02382E-04-1.23514E+02
 -1       585-3.55665E-05-1.68724E-04-1.23514E+02
 -1       586-5.63370E-05-2.99060E-04-1.23514E+02
 -1       587-7.97193E-05-5.07496E-04-1.23514E+02
 -1       588-1.04024E-04-8.02641E-04-1.23514E+02
 -1       589-1.27512E-04-1.18599E-03-1.23514E+02
 -1       590-1.48600E-04-1.65279E-03-1.23514E+02
 -1       591-1.66101E-04-2.19292E-03-1.23514E+02
 -1       592-1.79226E-04-2.79226E-03-1.23514E+02
 -1       593-1.87496E-04-3.43403E-03-1.23514E+02
 -1       594-1.90742E-04-4.10013E-03-1.23514E+02
 -1       595-1.89086E-04-4.77225E-03-1.23514E+02
 -1       596-1.82910E-04-5.43297E-03-1.23514E+02
 -1       597-1.72778E-04-6.06659E-03-1.23514E+02
 -1       598-1.59387E-04-6.65967E-03-1.23514E+02
 -1       599-1.43502E-04-7.20143E-03-1.23514E+02
 -1       600-1.25908E-04-7.68392E-03-1.23514E+02
 -1       601-1.07367E-04-8.10203E-03-1.23514E+02
 -1       602-8.85948E-05-8.45333E-03-1.23514E+02
 -1       603-7.02210E-05-8.73789E-03-1.23514E+02
 -1       604-5.27932E-05-8.95793E-03-1.23514E+02
 -1       605-3.67596E-05-9.11754E-03-1.23514E+02
 -1       606-2.24629E-05-9.22223E-03-1.23514E+02
 -1       607-1.01703E-05-9.27868E-03-1.23514E+02
 -1       608-1.13542E-07-9.29451E-03-1.23514E+02
 -1       609 7.53795E-06-9.27804E-03-1.23514E+02
 -1       610 1.25947E-05-9.23831E-03-1.23514E+02
 -1       611 1.58930E-05-9.18346E-03-1.23514E+02
 -1       612-9.90737E-06 6.90840E-05-1.23514E+02
 -1       613-1.81127E-05 1.02382E-04-1.23514E+02
 -1       614-3.55658E-05 1.68724E-04-1.23514E+02
 -1       615-5.63375E-05 2.99060E-04-1.23514E+02
 -1       616-7.97197E-05 5.07496E-04-1.23514E+02
 -1       617-1.04024E-04 8.02641E-04-1.23514E+02
 -1       618-1.27514E-04 1.18599E-03-1.23514E+02
 -1       619-1.48601E-04 1.65279E-03-1.23514E+02
 -1       620-1.66103E-04 2.19292E-03-1.23514E+02
 -1       621-1.79226E-04 2.79226E-03-1.23514E+02
 -1       622-1.87497E-04 3.43403E-03-1.23514E+02
 -1       623-1.90744E-04 4.10013E-03-1.23514E+02
 -1       624-1.89091E-04 4.77225E-03-1.23514E+02
 -1       625-1.82913E-04 5.43297E-03-1.23514E+02
 -1       626-1.72781E-04 6.06659E-03-1.23514E+02
 -1       627-1.59390E-04 6.65967E-03-1.23514E+02
 -1       628-1.43504E-04 7.20143E-03-1.23514E+02
 -1       629-1.25911E-04 7.68392E-03-1.23514E+02
 -1       630-1.07370E-04 8.10203E-03-1.23514E+02
 -1       631-8.85939E-05 8.45333E-03-1.23514E+02
 -1       632-7.02220E-05 8.73789E-03-1.23514E+02
 -1       633-5.27971E-05 8.95793E-03-1.23514E+02
 -1       634-3.67610E-05 9.11754E-03-1.23514E+02
 -1       635-2.24644E-05 9.22223E-03-1.23514E+02
 -1       636-1.01722E-05 9.27868E-03-1.23514E+02
 -1       637-1.13677E-07 9.29450E-03-1.23514E+02
 -1       638 7.53873E-06 9.27804E-03-1.23514E+02
 -1       639 1.25921E-05 9.23831E-03-1.23514E+02
 -1       640 1.58914E-05 9.18346E-03-1.23514E+02
 -1       641-8.77291E-06 6.39896E-05-1.23514E+02
 -1       642-1.81624E-05 9.20224E-05-1.23514E+02
 -1       643-3.47144E-05 1.55630E-04-1.23514E+02
 -1       644-5.58124E-05 2.80179E-04-1.23514E+02
 -1       645-7.96358E-05 4.81503E-04-1.23514E+02
 -1       646-1.04296E-04 7.69820E-04-1.23514E+02
 -1       647-1.28121E-04 1.14731E-03-1.23514E+02
 -1       648-1.49540E-04 1.60950E-03-1.23514E+02
 -1       649-1.67345E-04 2.14626E-03-1.23514E+02
 -1       650-1.80720E-04 2.74337E-03-1.23514E+02
 -1       651-1.89198E-04 3.38394E-03-1.23514E+02
 -1       652-1.92616E-04 4.04972E-03-1.23514E+02
 -1       653-1.91105E-04 4.72228E-03-1.23514E+02
 -1       654-1.85043E-04 5.38409E-03-1.23514E+02
 -1       655-1.74997E-04 6.01930E-03-1.23514E+02
 -1       656-1.61667E-04 6.61441E-03-1.23514E+02
 -1       657-1.45820E-04 7.15854E-03-1.23514E+02
 -1       658-1.28244E-04 7.64368E-03-1.23514E+02
 -1       659-1.09706E-04 8.06465E-03-1.23514E+02
 -1       660-9.09207E-05 8.41899E-03-1.23514E+02
 -1       661-7.25276E-05 8.70671E-03-1.23514E+02
 -1       662-5.50741E-05 8.93004E-03-1.23514E+02
 -1       663-3.90089E-05 9.09298E-03-1.23514E+02
 -1       664-2.46876E-05 9.20109E-03-1.23514E+02
 -1       665-1.23840E-05 9.26105E-03-1.23514E+02
 -1       666-2.31577E-06 9.28049E-03-1.23514E+02
 -1       667 5.37924E-06 9.26774E-03-1.23514E+02
 -1       668 1.07463E-05 9.23128E-03-1.23514E+02
 -1       669 1.45302E-05 9.17816E-03-1.23514E+02
 -1       670-9.87982E-06 6.91254E-05-1.23514E+02
 -1       671-1.80815E-05 1.02408E-04-1.23514E+02
 -1       672-3.55375E-05 1.68711E-04-1.23514E+02
 -1       673-5.63008E-05 2.99053E-04-1.23514E+02
 -1       674-7.96662E-05 5.07546E-04-1.23514E+02
 -1       675-1.03953E-04 8.02779E-04-1.23514E+02
 -1       676-1.27426E-04 1.18622E-03-1.23514E+02
 -1       677-1.48499E-04 1.65312E-03-1.23514E+02
 -1       678-1.65990E-04 2.19334E-03-1.23514E+02
 -1       679-1.79105E-04 2.79274E-03-1.23514E+02
 -1       680-1.87368E-04 3.43456E-03-1.23514E+02
 -1       681-1.90611E-04 4.10069E-03-1.23514E+02
 -1       682-1.88954E-04 4.77283E-03-1.23514E+02
 -1       683-1.82777E-04 5.43355E-03-1.23514E+02
 -1       684-1.72647E-04 6.06715E-03-1.23514E+02
 -1       685-1.59258E-04 6.66019E-03-1.23514E+02
 -1       686-1.43378E-04 7.20190E-03-1.23514E+02
 -1       687-1.25791E-04 7.68435E-03-1.23514E+02
 -1       688-1.07259E-04 8.10240E-03-1.23514E+02
 -1       689-8.84929E-05 8.45364E-03-1.23514E+02
 -1       690-7.01295E-05 8.73814E-03-1.23514E+02
 -1       691-5.27112E-05 8.95814E-03-1.23514E+02
 -1       692-3.66879E-05 9.11769E-03-1.23514E+02
 -1       693-2.23985E-05 9.22234E-03-1.23514E+02
 -1       694-1.01175E-05 9.27875E-03-1.23514E+02
 -1       695-7.18864E-08 9.29455E-03-1.23514E+02
 -1       696 7.57073E-06 9.27805E-03-1.23514E+02
 -1       697 1.26158E-05 9.23830E-03-1.23514E+02
 -1       698 1.59080E-05 9.18343E-03-1.23514E+02
 -1       699-7.40662E-05 1.85672E-04-8.90955E+01
 -1       700 1.08189E-04 4.77010E-04-8.90960E+01
 -1       701 3.15093E-04 6.35992E-04-8.90962E+01
 -1       702 4.53283E-04 6.99963E-04-8.90964E+01
 -1       703 5.75266E-04 7.54083E-04-8.90969E+01
 -1       704 7.04478E-04 7.91697E-04-8.90976E+01
 -1       705 8.24294E-04 7.95352E-04-8.90986E+01
 -1       706 9.20491E-04 7.68559E-04-8.90998E+01
 -1       707 9.90072E-04 7.21499E-04-8.91012E+01
 -1       708 1.03382E-03 6.61383E-04-8.91027E+01
 -1       709 1.05217E-03 5.92619E-04-8.91043E+01
 -1       710 1.04557E-03 5.19022E-04-8.91060E+01
 -1       711 1.01564E-03 4.44413E-04-8.91076E+01
 -1       712 9.65196E-04 3.72209E-04-8.91092E+01
 -1       713 8.97915E-04 3.05040E-04-8.91107E+01
 -1       714 8.17804E-04 2.44668E-04-8.91121E+01
 -1       715 7.28925E-04 1.92084E-04-8.91133E+01
 -1       716 6.35166E-04 1.47648E-04-8.91143E+01
 -1       717 5.40104E-04 1.11198E-04-8.91152E+01
 -1       718 4.46912E-04 8.21993E-05-8.91159E+01
 -1       719 3.58266E-04 5.98466E-05-8.91165E+01
 -1       720 2.76334E-04 4.31555E-05-8.91168E+01
 -1       721 2.02763E-04 3.10713E-05-8.91171E+01
 -1       722 1.38727E-04 2.25325E-05-8.91171E+01
 -1       723 8.50236E-05 1.65102E-05-8.91171E+01
 -1       724 4.20750E-05 1.20471E-05-8.91170E+01
 -1       725 9.55894E-06 8.48604E-06-8.91168E+01
 -1       726-1.50399E-05 6.17871E-06-8.91165E+01
 -1       727-3.72157E-05 6.50486E-06-8.91163E+01
 -1       728-1.05330E-05-8.22961E-05-8.90945E+01
 -1       729-1.63025E-04-2.72069E-04-8.90939E+01
 -1       730-3.54011E-04-4.22832E-04-8.90937E+01
 -1       731-5.17785E-04-5.38630E-04-8.90934E+01
 -1       732-6.76233E-04-6.35825E-04-8.90929E+01
 -1       733-8.37290E-04-7.03761E-04-8.90922E+01
 -1       734-9.85658E-04-7.31127E-04-8.90912E+01
 -1       735-1.10737E-03-7.22503E-04-8.90900E+01
 -1       736-1.19808E-03-6.88550E-04-8.90886E+01
 -1       737-1.25744E-03-6.37519E-04-8.90871E+01
 -1       738-1.28535E-03-5.74941E-04-8.90855E+01
 -1       739-1.28227E-03-5.05503E-04-8.90839E+01
 -1       740-1.25012E-03-4.33646E-04-8.90823E+01
 -1       741-1.19228E-03-3.63237E-04-8.90807E+01
 -1       742-1.11314E-03-2.97230E-04-8.90792E+01
 -1       743-1.01754E-03-2.37623E-04-8.90779E+01
 -1       744-9.10410E-04-1.85575E-04-8.90766E+01
 -1       745-7.96548E-04-1.41551E-04-8.90756E+01
 -1       746-6.80396E-04-1.05471E-04-8.90747E+01
 -1       747-5.65910E-04-7.68444E-05-8.90740E+01
 -1       748-4.56485E-04-5.48763E-05-8.90735E+01
 -1       749-3.54899E-04-3.85988E-05-8.90731E+01
 -1       750-2.63299E-04-2.69453E-05-8.90729E+01
 -1       751-1.83185E-04-1.88538E-05-8.90728E+01
 -1       752-1.15418E-04-1.33710E-05-8.90728E+01
 -1       753-6.03249E-05-9.73883E-06-8.90730E+01
 -1       754-1.81793E-05-7.29805E-06-8.90732E+01
 -1       755 9.71247E-06-4.92972E-06-8.90734E+01
 -1       756 2.00936E-05-1.34423E-06-8.90737E+01
 -1       757-1.15018E-05-8.24397E-05-8.90955E+01
 -1       758-1.64866E-04-2.72057E-04-8.90960E+01
 -1       759-3.56227E-04-4.22735E-04-8.90963E+01
 -1       760-5.21000E-04-5.38904E-04-8.90965E+01
 -1       761-6.81604E-04-6.36498E-04-8.90970E+01
 -1       762-8.45824E-04-7.04587E-04-8.90978E+01
 -1       763-9.98278E-04-7.31940E-04-8.90988E+01
 -1       764-1.12504E-03-7.23254E-04-8.91000E+01
 -1       765-1.22175E-03-6.89218E-04-8.91013E+01
 -1       766-1.28789E-03-6.38077E-04-8.91029E+01
 -1       767-1.32314E-03-5.75368E-04-8.91045E+01
 -1       768-1.32775E-03-5.05787E-04-8.91061E+01
 -1       769-1.30339E-03-4.33786E-04-8.91077E+01
 -1       770-1.25322E-03-3.63234E-04-8.91093E+01
 -1       771-1.18140E-03-2.97087E-04-8.91108E+01
 -1       772-1.09259E-03-2.37355E-04-8.91121E+01
 -1       773-9.91587E-04-1.85192E-04-8.91133E+01
 -1       774-8.83064E-04-1.41066E-04-8.91144E+01
 -1       775-7.71402E-04-1.04901E-04-8.91152E+01
 -1       776-6.60531E-04-7.61978E-05-8.91160E+01
 -1       777-5.53847E-04-5.41726E-05-8.91165E+01
 -1       778-4.54168E-04-3.78469E-05-8.91169E+01
 -1       779-3.63700E-04-2.61620E-05-8.91171E+01
 -1       780-2.84030E-04-1.80464E-05-8.91172E+01
 -1       781-2.16097E-04-1.25509E-05-8.91171E+01
 -1       782-1.60327E-04-8.92154E-06-8.91170E+01
 -1       783-1.17111E-04-6.50471E-06-8.91168E+01
 -1       784-8.79482E-05-4.16846E-06-8.91165E+01
 -1       785-7.64420E-05-5.40521E-07-8.91163E+01
 -1       786-7.31675E-05 1.85602E-04-8.90945E+01
 -1       787 1.09903E-04 4.76516E-04-8.90940E+01
 -1       788 3.16929E-04 6.35606E-04-8.90938E+01
 -1       789 4.56069E-04 7.00351E-04-8.90936E+01
 -1       790 5.80221E-04 7.55027E-04-8.90931E+01
 -1       791 7.12550E-04 7.92759E-04-8.90923E+01
 -1       792 8.36386E-04 7.96334E-04-8.90914E+01
 -1       793 9.37596E-04 7.69428E-04-8.90901E+01
 -1       794 1.01315E-03 7.22251E-04-8.90888E+01
 -1       795 1.06369E-03 6.62000E-04-8.90872E+01
 -1       796 1.08940E-03 5.93087E-04-8.90856E+01
 -1       797 1.09054E-03 5.19333E-04-8.90840E+01
 -1       798 1.06844E-03 4.44568E-04-8.90824E+01
 -1       799 1.02572E-03 3.72213E-04-8.90808E+01
 -1       800 9.65816E-04 3.04901E-04-8.90793E+01
 -1       801 8.92558E-04 2.44398E-04-8.90779E+01
 -1       802 8.09851E-04 1.91699E-04-8.90767E+01
 -1       803 7.21477E-04 1.47157E-04-8.90756E+01
 -1       804 6.30950E-04 1.10619E-04-8.90748E+01
 -1       805 5.41404E-04 8.15476E-05-8.90740E+01
 -1       806 4.55529E-04 5.91349E-05-8.90735E+01
 -1       807 3.75525E-04 4.24012E-05-8.90731E+01
 -1       808 3.03106E-04 3.02854E-05-8.90729E+01
 -1       809 2.39523E-04 2.17244E-05-8.90728E+01
 -1       810 1.85668E-04 1.56867E-05-8.90728E+01
 -1       811 1.42050E-04 1.12246E-05-8.90730E+01
 -1       812 1.08472E-04 7.68571E-06-8.90732E+01
 -1       813 8.26063E-05 5.40903E-06-8.90734E+01
 -1       814 5.93128E-05 5.70124E-06-8.90737E+01
 -1       815-7.40661E-05-1.85672E-04-8.90955E+01
 -1       816 1.08189E-04-4.77010E-04-8.90960E+01
 -1       817 3.15093E-04-6.35992E-04-8.90962E+01
 -1       818 4.53283E-04-6.99963E-04-8.90964E+01
 -1       819 5.75266E-04-7.54083E-04-8.90969E+01
 -1       820 7.04478E-04-7.91697E-04-8.90976E+01
 -1       821 8.24294E-04-7.95352E-04-8.90986E+01
 -1       822 9.20491E-04-7.68559E-04-8.90998E+01
 -1       823 9.90072E-04-7.21501E-04-8.91012E+01
 -1       824 1.03382E-03-6.61385E-04-8.91027E+01
 -1       825 1.05216E-03-5.92623E-04-8.91043E+01
 -1       826 1.04557E-03-5.19025E-04-8.91060E+01
 -1       827 1.01563E-03-4.44416E-04-8.91076E+01
 -1       828 9.65195E-04-3.72213E-04-8.91092E+01
 -1       829 8.97914E-04-3.05044E-04-8.91107E+01
 -1       830 8.17804E-04-2.44674E-04-8.91121E+01
 -1       831 7.28925E-04-1.92090E-04-8.91133E+01
 -1       832 6.35165E-04-1.47650E-04-8.91143E+01
 -1       833 5.40106E-04-1.11202E-04-8.91152E+01
 -1       834 4.46912E-04-8.22091E-05-8.91159E+01
 -1       835 3.58268E-04-5.98525E-05-8.91165E+01
 -1       836 2.76335E-04-4.31617E-05-8.91168E+01
 -1       837 2.02764E-04-3.10825E-05-8.91171E+01
 -1       838 1.38728E-04-2.25479E-05-8.91171E+01
 -1       839 8.50241E-05-1.65242E-05-8.91171E+01
 -1       840 4.20744E-05-1.20648E-05-8.91170E+01
 -1       841 9.55717E-06-8.50140E-06-8.91168E+01
 -1       842-1.50436E-05-6.19223E-06-8.91165E+01
 -1       843-3.72140E-05-6.51824E-06-8.91163E+01
 -1       844-1.05330E-05 8.22961E-05-8.90945E+01
 -1       845-1.63025E-04 2.72069E-04-8.90939E+01
 -1       846-3.54011E-04 4.22833E-04-8.90937E+01
 -1       847-5.17785E-04 5.38631E-04-8.90934E+01
 -1       848-6.76233E-04 6.35825E-04-8.90929E+01
 -1       849-8.37290E-04 7.03762E-04-8.90922E+01
 -1       850-9.85658E-04 7.31128E-04-8.90912E+01
 -1       851-1.10737E-03 7.22504E-04-8.90900E+01
 -1       852-1.19808E-03 6.88552E-04-8.90886E+01
 -1       853-1.25744E-03 6.37520E-04-8.90871E+01
 -1       854-1.28535E-03 5.74943E-04-8.90855E+01
 -1       855-1.28227E-03 5.05506E-04-8.90839E+01
 -1       856-1.25012E-03 4.33651E-04-8.90823E+01
 -1       857-1.19228E-03 3.63240E-04-8.90807E+01
 -1       858-1.11314E-03 2.97234E-04-8.90792E+01
 -1       859-1.01754E-03 2.37630E-04-8.90779E+01
 -1       860-9.10410E-04 1.85581E-04-8.90766E+01
 -1       861-7.96548E-04 1.41561E-04-8.90756E+01
 -1       862-6.80396E-04 1.05483E-04-8.90747E+01
 -1       863-5.65911E-04 7.68547E-05-8.90740E+01
 -1       864-4.56487E-04 5.48851E-05-8.90735E+01
 -1       865-3.54900E-04 3.86105E-05-8.90731E+01
 -1       866-2.63299E-04 2.69559E-05-8.90729E+01
 -1       867-1.83187E-04 1.88605E-05-8.90728E+01
 -1       868-1.15418E-04 1.33765E-05-8.90728E+01
 -1       869-6.03243E-05 9.75475E-06-8.90730E+01
 -1       870-1.81784E-05 7.31261E-06-8.90732E+01
 -1       871 9.71570E-06 4.94441E-06-8.90734E+01
 -1       872 2.00932E-05 1.35934E-06-8.90737E+01
 -1       873 5.93128E-05-5.68682E-06-8.90737E+01
 -1       874 8.26042E-05-5.39748E-06-8.90734E+01
 -1       875 1.08469E-04-7.67293E-06-8.90732E+01
 -1       876 1.42051E-04-1.12130E-05-8.90730E+01
 -1       877 1.85667E-04-1.56736E-05-8.90728E+01
 -1       878 2.39525E-04-2.17119E-05-8.90728E+01
 -1       879 3.03106E-04-3.02749E-05-8.90729E+01
 -1       880 3.75524E-04-4.23875E-05-8.90731E+01
 -1       881 4.55530E-04-5.91240E-05-8.90735E+01
 -1       882 5.41404E-04-8.15386E-05-8.90740E+01
 -1       883 6.30950E-04-1.10612E-04-8.90748E+01
 -1       884 7.21477E-04-1.47150E-04-8.90756E+01
 -1       885 8.09850E-04-1.91693E-04-8.90767E+01
 -1       886 8.92558E-04-2.44393E-04-8.90779E+01
 -1       887 9.65816E-04-3.04895E-04-8.90793E+01
 -1       888 1.02572E-03-3.72208E-04-8.90808E+01
 -1       889 1.06844E-03-4.44564E-04-8.90824E+01
 -1       890 1.09054E-03-5.19330E-04-8.90840E+01
 -1       891 1.08940E-03-5.93085E-04-8.90856E+01
 -1       892 1.06369E-03-6.61999E-04-8.90872E+01
 -1       893 1.01315E-03-7.22250E-04-8.90888E+01
 -1       894 9.37596E-04-7.69427E-04-8.90901E+01
 -1       895 8.36386E-04-7.96333E-04-8.90914E+01
 -1       896 7.12550E-04-7.92759E-04-8.90923E+01
 -1       897 5.80222E-04-7.55027E-04-8.90931E+01
 -1       898 4.56068E-04-7.00351E-04-8.90936E+01
 -1       899 3.16929E-04-6.35605E-04-8.90938E+01
 -1       900 1.09903E-04-4.76516E-04-8.90940E+01
 -1       901-7.31675E-05-1.85602E-04-8.90945E+01
 -1       902-1.15018E-05 8.24397E-05-8.90955E+01
 -1       903-1.64866E-04 2.72057E-04-8.90960E+01
 -1       904-3.56227E-04 4.22735E-04-8.90963E+01
 -1       905-5.21000E-04 5.38904E-04-8.90965E+01
 -1       906-6.81604E-04 6.36499E-04-8.90970E+01
 -1       907-8.45824E-04 7.04587E-04-8.90978E+01
 -1       908-9.98278E-04 7.31940E-04-8.90988E+01
 -1       909-1.12504E-03 7.23253E-04-8.91000E+01
 -1       910-1.22175E-03 6.89217E-04-8.91013E+01
 -1       911-1.28789E-03 6.38076E-04-8.91029E+01
 -1       912-1.32314E-03 5.75366E-04-8.91045E+01
 -1       913-1.32775E-03 5.05785E-04-8.91061E+01
 -1       914-1.30339E-03 4.33783E-04-8.91077E+01
 -1       915-1.25322E-03 3.63228E-04-8.91093E+01
 -1       916-1.18140E-03 2.97084E-04-8.91108E+01
 -1       917-1.09259E-03 2.37350E-04-8.91121E+01
 -1       918-9.91587E-04 1.85183E-04-8.91133E+01
 -1       919-8.83064E-04 1.41058E-04-8.91144E+01
 -1       920-7.71402E-04 1.04892E-04-8.91152E+01
 -1       921-6.60531E-04 7.61905E-05-8.91160E+01
 -1       922-5.53849E-04 5.41626E-05-8.91165E+01
 -1       923-4.54168E-04 3.78404E-05-8.91169E+01
 -1       924-3.63701E-04 2.61509E-05-8.91171E+01
 -1       925-2.84029E-04 1.80333E-05-8.91172E+01
 -1       926-2.16097E-04 1.25399E-05-8.91171E+01
 -1       927-1.60329E-04 8.91275E-06-8.91170E+01
 -1       928-1.17112E-04 6.49303E-06-8.91168E+01
 -1       929-8.79478E-05 4.15366E-06-8.91165E+01
 -1       930-7.64387E-05 5.24530E-07-8.91163E+01
 -3
    1PSTEP                         4           1           1          
  100CL  101 50.00000000         930                     0    1           1
 -4  ERROR       1    1
 -5  STR(%)      1    1    0    0
 -1         1 3.46084E+01
 -1         2 3.46084E+01
 -1         3 8.60372E+01
 -1         4 8.60372E+01
 -1         5 3.46740E+01
 -1         6 3.46740E+01
 -1         7 8.60428E+01
 -1         8 8.60428E+01
 -1         9 1.98088E+01
 -1        10 8.60372E+01
 -1        11 1.92238E+01
 -1        12 1.92238E+01
 -1        13 5.01734E+01
 -1        14 5.01734E+01
 -1        15 1.98184E+01
 -1        16 8.60428E+01
 -1        17 1.92468E+01
 -1        18 1.92468E+01
 -1        19 5.00062E+01
 -1        20 5.00062E+01
 -1        21 1.92238E+01
 -1        22 1.92238E+01
 -1        23 5.01734E+01
 -1        24 5.01734E+01
 -1        25 1.98088E+01
 -1        26 8.60372E+01
 -1        27 1.98184E+01
 -1        28 1.92468E+01
 -1        29 1.92468E+01
 -1        30 8.60428E+01
 -1        31 5.00062E+01
 -1        32 5.00062E+01
 -1        33 3.46084E+01
 -1        34 2.54769E+01
 -1        35 2.22153E+01
 -1        36 2.20529E+01
 -1        37 2.20529E+01
 -1        38 2.19723E+01
 -1        39 2.18208E+01
 -1        40 2.15793E+01
 -1        41 2.12854E+01
 -1        42 2.09538E+01
 -1        43 2.05810E+01
 -1        44 2.01581E+01
 -1        45 1.96760E+01
 -1        46 1.91253E+01
 -1        47 1.84956E+01
 -1        48 1.77747E+01
 -1        49 1.69481E+01
 -1        50 1.59984E+01
 -1        51 1.49050E+01
 -1        52 1.36426E+01
 -1        53 1.21796E+01
 -1        54 1.04760E+01
 -1        55 8.49853E+00
 -1        56 1.22317E+01
 -1        57 1.78285E+01
 -1        58 2.66049E+01
 -1        59 4.82071E+01
 -1        60 8.37661E+01
 -1        61 8.60372E+01
 -1        62 3.46084E+01
 -1        63 2.54769E+01
 -1        64 2.22153E+01
 -1        65 2.20529E+01
 -1        66 2.20529E+01
 -1        67 2.19723E+01
 -1        68 2.18208E+01
 -1        69 2.15793E+01
 -1        70 2.12854E+01
 -1        71 2.09538E+01
 -1        72 2.05810E+01
 -1        73 2.01581E+01
 -1        74 1.96760E+01
 -1        75 1.91253E+01
 -1        76 1.84956E+01
 -1        77 1.77747E+01
 -1        78 1.69481E+01
 -1        79 1.59984E+01
 -1        80 1.49050E+01
 -1        81 1.36426E+01
 -1        82 1.21796E+01
 -1        83 1.04760E+01
 -1        84 8.49853E+00
 -1        85 1.22317E+01
 -1        86 1.78285E+01
 -1        87 2.66049E+01
 -1        88 4.82071E+01
 -1        89 8.37661E+01
 -1        90 8.60372E+01
 -1        91 5.11801E+01
 -1        92 5.13215E+01
 -1        93 5.13215E+01
 -1        94 5.13215E+01
 -1        95 5.13215E+01
 -1        96 5.11801E+01
 -1        97 3.46740E+01
 -1        98 2.55370E+01
 -1        99 2.22466E+01
 -1       100 2.20784E+01
 -1       101 2.20784E+01
 -1       102 2.19955E+01
 -1       103 2.18409E+01
 -1       104 2.15963E+01
 -1       105 2.12992E+01
 -1       106 2.09645E+01
 -1       107 2.05885E+01
 -1       108 2.01626E+01
 -1       109 1.96776E+01
 -1       110 1.91243E+01
 -1       111 1.84921E+01
 -1       112 1.77690E+01
 -1       113 1.69405E+01
 -1       114 1.59891E+01
 -1       115 1.48943E+01
 -1       116 1.36308E+01
 -1       117 1.21670E+01
 -1       118 1.04628E+01
 -1       119 8.47414E+00
 -1       120 1.21967E+01
 -1       121 1.77767E+01
 -1       122 2.65041E+01
 -1       123 4.80631E+01
 -1       124 8.37918E+01
 -1       125 8.60428E+01
 -1       126 1.66245E+01
 -1       127 1.46793E+01
 -1       128 1.66023E+01
 -1       129 3.46740E+01
 -1       130 2.55370E+01
 -1       131 2.22466E+01
 -1       132 2.20784E+01
 -1       133 2.20784E+01
 -1       134 2.19955E+01
 -1       135 2.18409E+01
 -1       136 2.15963E+01
 -1       137 2.12992E+01
 -1       138 2.09645E+01
 -1       139 2.05885E+01
 -1       140 2.01626E+01
 -1       141 1.96776E+01
 -1       142 1.91243E+01
 -1       143 1.84921E+01
 -1       144 1.77690E+01
 -1       145 1.69405E+01
 -1       146 1.59891E+01
 -1       147 1.48943E+01
 -1       148 1.36308E+01
 -1       149 1.21670E+01
 -1       150 1.04628E+01
 -1       151 8.47414E+00
 -1       152 1.21967E+01
 -1       153 1.77767E+01
 -1       154 2.65041E+01
 -1       155 4.80631E+01
 -1       156 8.37918E+01
 -1       157 8.60428E+01
 -1       158 1.66023E+01
 -1       159 1.46793E+01
 -1       160 1.66245E+01
 -1       161 1.98088E+01
 -1       162 2.64595E+00
 -1       163 2.36024E+00
 -1       164 2.36024E+00
 -1       165 2.26326E+00
 -1       166 2.27185E+00
 -1       167 2.31405E+00
 -1       168 2.36193E+00
 -1       169 2.41509E+00
 -1       170 2.47387E+00
 -1       171 2.54084E+00
 -1       172 2.61820E+00
 -1       173 2.70843E+00
 -1       174 2.81462E+00
 -1       175 2.94093E+00
 -1       176 3.09305E+00
 -1       177 3.27884E+00
 -1       178 3.50940E+00
 -1       179 3.80076E+00
 -1       180 4.17674E+00
 -1       181 4.67397E+00
 -1       182 5.94076E+00
 -1       183 8.49853E+00
 -1       184 1.22317E+01
 -1       185 1.78285E+01
 -1       186 2.66049E+01
 -1       187 4.82071E+01
 -1       188 8.37661E+01
 -1       189 8.60372E+01
 -1       190 1.92238E+01
 -1       191 1.92238E+01
 -1       192 8.60372E+01
 -1       193 1.92238E+01
 -1       194 4.42120E+00
 -1       195 1.97315E+00
 -1       196 2.02546E+00
 -1       197 2.07769E+00
 -1       198 2.08279E+00
 -1       199 2.09340E+00
 -1       200 2.11073E+00
 -1       201 2.13241E+00
 -1       202 2.15602E+00
 -1       203 2.18117E+00
 -1       204 2.20896E+00
 -1       205 2.24015E+00
 -1       206 2.27454E+00
 -1       207 2.31260E+00
 -1       208 2.35486E+00
 -1       209 2.40194E+00
 -1       210 2.45452E+00
 -1       211 2.51330E+00
 -1       212 2.57890E+00
 -1       213 2.65160E+00
 -1       214 2.73056E+00
 -1       215 2.81069E+00
 -1       216 2.87129E+00
 -1       217 2.87129E+00
 -1       218 4.03517E+00
 -1       219 6.60102E+00
 -1       220 6.60102E+00
 -1       221 5.01734E+01
 -1       222 1.92238E+01
 -1       223 4.42120E+00
 -1       224 1.97315E+00
 -1       225 2.02546E+00
 -1       226 2.07769E+00
 -1       227 2.08279E+00
 -1       228 2.09340E+00
 -1       229 2.11073E+00
 -1       230 2.13241E+00
 -1       231 2.15602E+00
 -1       232 2.18117E+00
 -1       233 2.20896E+00
 -1       234 2.24015E+00
 -1       235 2.27454E+00
 -1       236 2.31260E+00
 -1       237 2.35486E+00
 -1       238 2.40194E+00
 -1       239 2.45452E+00
 -1       240 2.51330E+00
 -1       241 2.57890E+00
 -1       242 2.65160E+00
 -1       243 2.73056E+00
 -1       244 2.81069E+00
 -1       245 2.87129E+00
 -1       246 2.87129E+00
 -1       247 4.03517E+00
 -1       248 6.60102E+00
 -1       249 6.60102E+00
 -1       250 5.01734E+01
 -1       251 8.60372E+01
 -1       252 8.60428E+01
 -1       253 8.37918E+01
 -1       254 4.80631E+01
 -1       255 2.65041E+01
 -1       256 1.77767E+01
 -1       257 1.21967E+01
 -1       258 8.47414E+00
 -1       259 5.92342E+00
 -1       260 4.66942E+00
 -1       261 4.17372E+00
 -1       262 3.79906E+00
 -1       263 3.50891E+00
 -1       264 3.27952E+00
 -1       265 3.09489E+00
 -1       266 2.94396E+00
 -1       267 2.81886E+00
 -1       268 2.71394E+00
 -1       269 2.62503E+00
 -1       270 2.54904E+00
 -1       271 2.48351E+00
 -1       272 2.42622E+00
 -1       273 2.37466E+00
 -1       274 2.32848E+00
 -1       275 2.28804E+00
 -1       276 2.28106E+00
 -1       277 2.38075E+00
 -1       278 2.38075E+00
 -1       279 2.66397E+00
 -1       280 1.98184E+01
 -1       281 1.92468E+01
 -1       282 1.92468E+01
 -1       283 1.92468E+01
 -1       284 4.41454E+00
 -1       285 1.97681E+00
 -1       286 2.02905E+00
 -1       287 2.08077E+00
 -1       288 2.08552E+00
 -1       289 2.09583E+00
 -1       290 2.11279E+00
 -1       291 2.13410E+00
 -1       292 2.15733E+00
 -1       293 2.18213E+00
 -1       294 2.20915E+00
 -1       295 2.24004E+00
 -1       296 2.27414E+00
 -1       297 2.31191E+00
 -1       298 2.35388E+00
 -1       299 2.40065E+00
 -1       300 2.45292E+00
 -1       301 2.51138E+00
 -1       302 2.57663E+00
 -1       303 2.64895E+00
 -1       304 2.72752E+00
 -1       305 2.80724E+00
 -1       306 2.86752E+00
 -1       307 2.86752E+00
 -1       308 4.03000E+00
 -1       309 6.57396E+00
 -1       310 6.57396E+00
 -1       311 5.00062E+01
 -1       312 8.60428E+01
 -1       313 1.92468E+01
 -1       314 4.41454E+00
 -1       315 1.97681E+00
 -1       316 2.02905E+00
 -1       317 2.08077E+00
 -1       318 2.08552E+00
 -1       319 2.09583E+00
 -1       320 2.11279E+00
 -1       321 2.13410E+00
 -1       322 2.15733E+00
 -1       323 2.18213E+00
 -1       324 2.20915E+00
 -1       325 2.24004E+00
 -1       326 2.27414E+00
 -1       327 2.31191E+00
 -1       328 2.35388E+00
 -1       329 2.40065E+00
 -1       330 2.45292E+00
 -1       331 2.51138E+00
 -1       332 2.57663E+00
 -1       333 2.64895E+00
 -1       334 2.72752E+00
 -1       335 2.80724E+00
 -1       336 2.86752E+00
 -1       337 2.86752E+00
 -1       338 4.03000E+00
 -1       339 6.57396E+00
 -1       340 6.57396E+00
 -1       341 5.00062E+01
 -1       342 8.60428E+01
 -1       343 1.92238E+01
 -1       344 4.42120E+00
 -1       345 1.97315E+00
 -1       346 2.02546E+00
 -1       347 2.07769E+00
 -1       348 2.08279E+00
 -1       349 2.09340E+00
 -1       350 2.11073E+00
 -1       351 2.13241E+00
 -1       352 2.15602E+00
 -1       353 2.18117E+00
 -1       354 2.20896E+00
 -1       355 2.24015E+00
 -1       356 2.27454E+00
 -1       357 2.31260E+00
 -1       358 2.35486E+00
 -1       359 2.40194E+00
 -1       360 2.45452E+00
 -1       361 2.51330E+00
 -1       362 2.57890E+00
 -1       363 2.65160E+00
 -1       364 2.73056E+00
 -1       365 2.81069E+00
 -1       366 2.87129E+00
 -1       367 2.87129E+00
 -1       368 4.03517E+00
 -1       369 6.60102E+00
 -1       370 6.60102E+00
 -1       371 5.01734E+01
 -1       372 1.92238E+01
 -1       373 4.42120E+00
 -1       374 1.97315E+00
 -1       375 2.02546E+00
 -1       376 2.07769E+00
 -1       377 2.08279E+00
 -1       378 2.09340E+00
 -1       379 2.11073E+00
 -1       380 2.13241E+00
 -1       381 2.15602E+00
 -1       382 2.18117E+00
 -1       383 2.20896E+00
 -1       384 2.24015E+00
 -1       385 2.27454E+00
 -1       386 2.31260E+00
 -1       387 2.35486E+00
 -1       388 2.40194E+00
 -1       389 2.45452E+00
 -1       390 2.51330E+00
 -1       391 2.57890E+00
 -1       392 2.65160E+00
 -1       393 2.73056E+00
 -1       394 2.81069E+00
 -1       395 2.87129E+00
 -1       396 2.87129E+00
 -1       397 4.03517E+00
 -1       398 6.60102E+00
 -1       399 6.60102E+00
 -1       400 5.01734E+01
 -1       401 1.92238E+01
 -1       402 1.92238E+01
 -1       403 8.60372E+01
 -1       404 1.98088E+01
 -1       405 2.64595E+00
 -1       406 2.36024E+00
 -1       407 2.36024E+00
 -1       408 2.26326E+00
 -1       409 2.27185E+00
 -1       410 2.31405E+00
 -1       411 2.36193E+00
 -1       412 2.41509E+00
 -1       413 2.47387E+00
 -1       414 2.54084E+00
 -1       415 2.61820E+00
 -1       416 2.70843E+00
 -1       417 2.81462E+00
 -1       418 2.94093E+00
 -1       419 3.09305E+00
 -1       420 3.27884E+00
 -1       421 3.50940E+00
 -1       422 3.80076E+00
 -1       423 4.17674E+00
 -1       424 4.67397E+00
 -1       425 5.94076E+00
 -1       426 8.49853E+00
 -1       427 1.22317E+01
 -1       428 1.78285E+01
 -1       429 2.66049E+01
 -1       430 4.82071E+01
 -1       431 8.37661E+01
 -1       432 8.60372E+01
 -1       433 8.60372E+01
 -1       434 1.92468E+01
 -1       435 1.92468E+01
 -1       436 8.60428E+01
 -1       437 8.37918E+01
 -1       438 4.80631E+01
 -1       439 2.65041E+01
 -1       440 1.77767E+01
 -1       441 1.21967E+01
 -1       442 8.47414E+00
 -1       443 5.92342E+00
 -1       444 4.66942E+00
 -1       445 4.17372E+00
 -1       446 3.79906E+00
 -1       447 3.50891E+00
 -1       448 3.27952E+00
 -1       449 3.09489E+00
 -1       450 2.94396E+00
 -1       451 2.81886E+00
 -1       452 2.71394E+00
 -1       453 2.62503E+00
 -1       454 2.54904E+00
 -1       455 2.48351E+00
 -1       456 2.42622E+00
 -1       457 2.37466E+00
 -1       458 2.32848E+00
 -1       459 2.28804E+00
 -1       460 2.28106E+00
 -1       461 2.38075E+00
 -1       462 2.38075E+00
 -1       463 2.66397E+00
 -1       464 1.98184E+01
 -1       465 8.60428E+01
 -1       466 1.92468E+01
 -1       467 4.41454E+00
 -1       468 1.97681E+00
 -1       469 2.02905E+00
 -1       470 2.08077E+00
 -1       471 2.08552E+00
 -1       472 2.09583E+00
 -1       473 2.11279E+00
 -1       474 2.13410E+00
 -1       475 2.15733E+00
 -1       476 2.18213E+00
 -1       477 2.20915E+00
 -1       478 2.24004E+00
 -1       479 2.27414E+00
 -1       480 2.31191E+00
 -1       481 2.35388E+00
 -1       482 2.40065E+00
 -1       483 2.45292E+00
 -1       484 2.51138E+00
 -1       485 2.57663E+00
 -1       486 2.64895E+00
 -1       487 2.72752E+00
 -1       488 2.80724E+00
 -1       489 2.86752E+00
 -1       490 2.86752E+00
 -1       491 4.03000E+00
 -1       492 6.57396E+00
 -1       493 6.57396E+00
 -1       494 5.00062E+01
 -1       495 1.92468E+01
 -1       496 4.41454E+00
 -1       497 1.97681E+00
 -1       498 2.02905E+00
 -1       499 2.08077E+00
 -1       500 2.08552E+00
 -1       501 2.09583E+00
 -1       502 2.11279E+00
 -1       503 2.13410E+00
 -1       504 2.15733E+00
 -1       505 2.18213E+00
 -1       506 2.20915E+00
 -1       507 2.24004E+00
 -1       508 2.27414E+00
 -1       509 2.31191E+00
 -1       510 2.35388E+00
 -1       511 2.40065E+00
 -1       512 2.45292E+00
 -1       513 2.51138E+00
 -1       514 2.57663E+00
 -1       515 2.64895E+00
 -1       516 2.72752E+00
 -1       517 2.80724E+00
 -1       518 2.86752E+00
 -1       519 2.86752E+00
 -1       520 4.03000E+00
 -1       521 6.57396E+00
 -1       522 6.57396E+00
 -1       523 5.00062E+01
 -1       524 8.60428E+01
 -1       525 5.11801E+01
 -1       526 4.54479E+01
 -1       527 4.43586E+01
 -1       528 4.29026E+01
 -1       529 4.21282E+01
 -1       530 4.11975E+01
 -1       531 4.02213E+01
 -1       532 3.91852E+01
 -1       533 3.80975E+01
 -1       534 3.69548E+01
 -1       535 3.57553E+01
 -1       536 3.44956E+01
 -1       537 3.31722E+01
 -1       538 3.17818E+01
 -1       539 3.03208E+01
 -1       540 2.87858E+01
 -1       541 2.71732E+01
 -1       542 2.54799E+01
 -1       543 2.37034E+01
 -1       544 2.18421E+01
 -1       545 1.98959E+01
 -1       546 1.78684E+01
 -1       547 1.57698E+01
 -1       548 1.36244E+01
 -1       549 1.14795E+01
 -1       550 9.40930E+00
 -1       551 8.58630E+00
 -1       552 8.58630E+00
 -1       553 1.66245E+01
 -1       554 5.13215E+01
 -1       555 4.55901E+01
 -1       556 4.44683E+01
 -1       557 4.29974E+01
 -1       558 4.22119E+01
 -1       559 4.12713E+01
 -1       560 4.02852E+01
 -1       561 3.92394E+01
 -1       562 3.81424E+01
 -1       563 3.69912E+01
 -1       564 3.57838E+01
 -1       565 3.45169E+01
 -1       566 3.31871E+01
 -1       567 3.17909E+01
 -1       568 3.03248E+01
 -1       569 2.87858E+01
 -1       570 2.71732E+01
 -1       571 2.54799E+01
 -1       572 2.37034E+01
 -1       573 2.18421E+01
 -1       574 1.98959E+01
 -1       575 1.78684E+01
 -1       576 1.57698E+01
 -1       577 1.36244E+01
 -1       578 1.14795E+01
 -1       579 9.40930E+00
 -1       580 8.61162E+00
 -1       581 8.61162E+00
 -1       582 1.46793E+01
 -1       583 5.13215E+01
 -1       584 4.55901E+01
 -1       585 4.44683E+01
 -1       586 4.29974E+01
 -1       587 4.22119E+01
 -1       588 4.12713E+01
 -1       589 4.02852E+01
 -1       590 3.92394E+01
 -1       591 3.81424E+01
 -1       592 3.69912E+01
 -1       593 3.57838E+01
 -1       594 3.45169E+01
 -1       595 3.31871E+01
 -1       596 3.17909E+01
 -1       597 3.03248E+01
 -1       598 2.87853E+01
 -1       599 2.71690E+01
 -1       600 2.54725E+01
 -1       601 2.36934E+01
 -1       602 2.18300E+01
 -1       603 1.98822E+01
 -1       604 1.78534E+01
 -1       605 1.57538E+01
 -1       606 1.36076E+01
 -1       607 1.14618E+01
 -1       608 9.39022E+00
 -1       609 8.61162E+00
 -1       610 8.61162E+00
 -1       611 1.66023E+01
 -1       612 5.13215E+01
 -1       613 4.55901E+01
 -1       614 4.44683E+01
 -1       615 4.29974E+01
 -1       616 4.22119E+01
 -1       617 4.12713E+01
 -1       618 4.02852E+01
 -1       619 3.92394E+01
 -1       620 3.81424E+01
 -1       621 3.69912E+01
 -1       622 3.57838E+01
 -1       623 3.45169E+01
 -1       624 3.31871E+01
 -1       625 3.17909E+01
 -1       626 3.03248E+01
 -1       627 2.87853E+01
 -1       628 2.71690E+01
 -1       629 2.54725E+01
 -1       630 2.36934E+01
 -1       631 2.18300E+01
 -1       632 1.98822E+01
 -1       633 1.78534E+01
 -1       634 1.57538E+01
 -1       635 1.36076E+01
 -1       636 1.14618E+01
 -1       637 9.39022E+00
 -1       638 8.61162E+00
 -1       639 8.61162E+00
 -1       640 1.66023E+01
 -1       641 5.13215E+01
 -1       642 4.55901E+01
 -1       643 4.44683E+01
 -1       644 4.29974E+01
 -1       645 4.22119E+01
 -1       646 4.12713E+01
 -1       647 4.02852E+01
 -1       648 3.92394E+01
 -1       649 3.81424E+01
 -1       650 3.69912E+01
 -1       651 3.57838E+01
 -1       652 3.45169E+01
 -1       653 3.31871E+01
 -1       654 3.17909E+01
 -1       655 3.03248E+01
 -1       656 2.87858E+01
 -1       657 2.71732E+01
 -1       658 2.54799E+01
 -1       659 2.37034E+01
 -1       660 2.18421E+01
 -1       661 1.98959E+01
 -1       662 1.78684E+01
 -1       663 1.57698E+01
 -1       664 1.36244E+01
 -1       665 1.14795E+01
 -1       666 9.40930E+00
 -1       667 8.61162E+00
 -1       668 8.61162E+00
 -1       669 1.46793E+01
 -1       670 5.11801E+01
 -1       671 4.54479E+01
 -1       672 4.43586E+01
 -1       673 4.29026E+01
 -1       674 4.21282E+01
 -1       675 4.11975E+01
 -1       676 4.02213E+01
 -1       677 3.91852E+01
 -1       678 3.80975E+01
 -1       679 3.69548E+01
 -1       680 3.57553E+01
 -1       681 3.44956E+01
 -1       682 3.31722E+01
 -1       683 3.17818E+01
 -1       684 3.03208E+01
 -1       685 2.87858E+01
 -1       686 2.71732E+01
 -1       687 2.54799E+01
 -1       688 2.37034E+01
 -1       689 2.18421E+01
 -1       690 1.98959E+01
 -1       691 1.78684E+01
 -1       692 1.57698E+01
 -1       693 1.36244E+01
 -1       694 1.14795E+01
 -1       695 9.40930E+00
 -1       696 8.58630E+00
 -1       697 8.58630E+00
 -1       698 1.66245E+01
 -1       699 1.92238E+01
 -1       700 4.42120E+00
 -1       701 2.10826E+00
 -1       702 2.13406E+00
 -1       703 2.16488E+00
 -1       704 2.16488E+00
 -1       705 2.18539E+00
 -1       706 2.22031E+00
 -1       707 2.26314E+00
 -1       708 2.30992E+00
 -1       709 2.36214E+00
 -1       710 2.42163E+00
 -1       711 2.49025E+00
 -1       712 2.57018E+00
 -1       713 2.66428E+00
 -1       714 2.77646E+00
 -1       715 2.91219E+00
 -1       716 3.07926E+00
 -1       717 3.28909E+00
 -1       718 3.55900E+00
 -1       719 3.91636E+00
 -1       720 4.40668E+00
 -1       721 5.29362E+00
 -1       722 8.13356E+00
 -1       723 1.26438E+01
 -1       724 2.00553E+01
 -1       725 3.09230E+01
 -1       726 8.37661E+01
 -1       727 8.60372E+01
 -1       728 1.92238E+01
 -1       729 4.42120E+00
 -1       730 2.10826E+00
 -1       731 2.13406E+00
 -1       732 2.16488E+00
 -1       733 2.16488E+00
 -1       734 2.18539E+00
 -1       735 2.22031E+00
 -1       736 2.26314E+00
 -1       737 2.30992E+00
 -1       738 2.36214E+00
 -1       739 2.42163E+00
 -1       740 2.49025E+00
 -1       741 2.57018E+00
 -1       742 2.66428E+00
 -1       743 2.77646E+00
 -1       744 2.91219E+00
 -1       745 3.07926E+00
 -1       746 3.28909E+00
 -1       747 3.55900E+00
 -1       748 3.91636E+00
 -1       749 4.40668E+00
 -1       750 5.29362E+00
 -1       751 8.13356E+00
 -1       752 1.26438E+01
 -1       753 2.00553E+01
 -1       754 3.09230E+01
 -1       755 8.37661E+01
 -1       756 8.60372E+01
 -1       757 1.92468E+01
 -1       758 4.41454E+00
 -1       759 2.12530E+00
 -1       760 2.14846E+00
 -1       761 2.17703E+00
 -1       762 2.17703E+00
 -1       763 2.19538E+00
 -1       764 2.23093E+00
 -1       765 2.27248E+00
 -1       766 2.31806E+00
 -1       767 2.36914E+00
 -1       768 2.42753E+00
 -1       769 2.49510E+00
 -1       770 2.57402E+00
 -1       771 2.66713E+00
 -1       772 2.77836E+00
 -1       773 2.91315E+00
 -1       774 3.07929E+00
 -1       775 3.28815E+00
 -1       776 3.55701E+00
 -1       777 3.91317E+00
 -1       778 4.40199E+00
 -1       779 5.27549E+00
 -1       780 8.10672E+00
 -1       781 1.26020E+01
 -1       782 1.99884E+01
 -1       783 3.08385E+01
 -1       784 8.37918E+01
 -1       785 8.60428E+01
 -1       786 1.92468E+01
 -1       787 4.41454E+00
 -1       788 2.12530E+00
 -1       789 2.14846E+00
 -1       790 2.17703E+00
 -1       791 2.17703E+00
 -1       792 2.19538E+00
 -1       793 2.23093E+00
 -1       794 2.27248E+00
 -1       795 2.31806E+00
 -1       796 2.36914E+00
 -1       797 2.42753E+00
 -1       798 2.49510E+00
 -1       799 2.57402E+00
 -1       800 2.66713E+00
 -1       801 2.77836E+00
 -1       802 2.91315E+00
 -1       803 3.07929E+00
 -1       804 3.28815E+00
 -1       805 3.55701E+00
 -1       806 3.91317E+00
 -1       807 4.40199E+00
 -1       808 5.27549E+00
 -1       809 8.10672E+00
 -1       810 1.26020E+01
 -1       811 1.99884E+01
 -1       812 3.08385E+01
 -1       813 8.37918E+01
 -1       814 8.60428E+01
 -1       815 1.92238E+01
 -1       816 4.42120E+00
 -1       817 2.10826E+00
 -1       818 2.13406E+00
 -1       819 2.16488E+00
 -1       820 2.16488E+00
 -1       821 2.18539E+00
 -1       822 2.22031E+00
 -1       823 2.26314E+00
 -1       824 2.30992E+00
 -1       825 2.36214E+00
 -1       826 2.42163E+00
 -1       827 2.49025E+00
 -1       828 2.57018E+00
 -1       829 2.66428E+00
 -1       830 2.77646E+00
 -1       831 2.91219E+00
 -1       832 3.07926E+00
 -1       833 3.28909E+00
 -1       834 3.55900E+00
 -1       835 3.91636E+00
 -1       836 4.40668E+00
 -1       837 5.29362E+00
 -1       838 8.13356E+00
 -1       839 1.26438E+01
 -1       840 2.00553E+01
 -1       841 3.09230E+01
 -1       842 8.37661E+01
 -1       843 8.60372E+01
 -1       844 1.92238E+01
 -1       845 4.42120E+00
 -1       846 2.10826E+00
 -1       847 2.13406E+00
 -1       848 2.16488E+00
 -1       849 2.16488E+00
 -1       850 2.18539E+00
 -1       851 2.22031E+00
 -1       852 2.26314E+00
 -1       853 2.30992E+00
 -1       854 2.36214E+00
 -1       855 2.42163E+00
 -1       856 2.49025E+00
 -1       857 2.57018E+00
 -1       858 2.66428E+00
 -1       859 2.77646E+00
 -1       860 2.91219E+00
 -1       861 3.07926E+00
 -1       862 3.28909E+00
 -1       863 3.55900E+00
 -1       864 3.91636E+00
 -1       865 4.40668E+00
 -1       866 5.29362E+00
 -1       867 8.13356E+00
 -1       868 1.26438E+01
 -1       869 2.00553E+01
 -1       870 3.09230E+01
 -1       871 8.37661E+01
 -1       872 8.60372E+01
 -1       873 8.60428E+01
 -1       874 8.37918E+01
 -1       875 3.08385E+01
 -1       876 1.99884E+01
 -1       877 1.26020E+01
 -1       878 8.10672E+00
 -1       879 5.27549E+00
 -1       880 4.40199E+00
 -1       881 3.91317E+00
 -1       882 3.55701E+00
 -1       883 3.28815E+00
 -1       884 3.07929E+00
 -1       885 2.91315E+00
 -1       886 2.77836E+00
 -1       887 2.66713E+00
 -1       888 2.57402E+00
 -1       889 2.49510E+00
 -1       890 2.42753E+00
 -1       891 2.36914E+00
 -1       892 2.31806E+00
 -1       893 2.27248E+00
 -1       894 2.23093E+00
 -1       895 2.19538E+00
 -1       896 2.17703E+00
 -1       897 2.17703E+00
 -1       898 2.14846E+00
 -1       899 2.12530E+00
 -1       900 4.41454E+00
 -1       901 1.92468E+01
 -1       902 1.92468E+01
 -1       903 4.41454E+00
 -1       904 2.12530E+00
 -1       905 2.14846E+00
 -1       906 2.17703E+00
 -1       907 2.17703E+00
 -1       908 2.19538E+00
 -1       909 2.23093E+00
 -1       910 2.27248E+00
 -1       911 2.31806E+00
 -1       912 2.36914E+00
 -1       913 2.42753E+00
 -1       914 2.49510E+00
 -1       915 2.57402E+00
 -1       916 2.66713E+00
 -1       917 2.77836E+00
 -1       918 2.91315E+00
 -1       919 3.07929E+00
 -1       920 3.28815E+00
 -1       921 3.55701E+00
 -1       922 3.91317E+00
 -1       923 4.40199E+00
 -1       924 5.27549E+00
 -1       925 8.10672E+00
 -1       926 1.26020E+01
 -1       927 1.99884E+01
 -1       928 3.08385E+01
 -1       929 8.37918E+01
 -1       930 8.60428E+01
 -3
    1PSTEP                         5           2           1          
  100CL  102 100.0000000         930                     0    2           1
 -4  DISP        4    1
 -5  D1          1    2    1    0
 -5  D2          1    2    2    0
 -5  D3          1    2    3    0
 -5  ALL         1    2    0    0    1ALL
 -1         1 0.00000E+00 0.00000E+00 0.00000E+00
 -1         2 0.00000E+00 0.00000E+00 0.00000E+00
 -1         3-9.13432E-04-9.39828E-09-1.14960E-02
 -1         4-9.13432E-04 9.39828E-09-1.14960E-02
 -1         5 0.00000E+00 0.00000E+00 0.00000E+00
 -1         6 0.00000E+00 0.00000E+00 0.00000E+00
 -1         7 8.64692E-04 9.40949E-09-1.15002E-02
 -1         8 8.64692E-04-9.40949E-09-1.15002E-02
 -1         9 0.00000E+00 0.00000E+00 0.00000E+00
 -1        10-9.77866E-04 1.15927E-07-1.14958E-02
 -1        11 0.00000E+00 0.00000E+00 0.00000E+00
 -1        12 0.00000E+00 0.00000E+00 0.00000E+00
 -1        13-9.77759E-04 5.34184E-07-1.15001E-02
 -1        14-9.13133E-04-3.07123E-07-1.15002E-02
 -1        15 0.00000E+00 0.00000E+00 0.00000E+00
 -1        16 9.29125E-04-1.15913E-07-1.15004E-02
 -1        17 0.00000E+00 0.00000E+00 0.00000E+00
 -1        18 0.00000E+00 0.00000E+00 0.00000E+00
 -1        19 8.64352E-04 3.07548E-07-1.15044E-02
 -1        20 9.28977E-04-5.33742E-07-1.15046E-02
 -1        21 0.00000E+00 0.00000E+00 0.00000E+00
 -1        22 0.00000E+00 0.00000E+00 0.00000E+00
 -1        23-9.77759E-04-5.34184E-07-1.15001E-02
 -1        24-9.13133E-04 3.07123E-07-1.15002E-02
 -1        25 0.00000E+00 0.00000E+00 0.00000E+00
 -1        26-9.77866E-04-1.15927E-07-1.14958E-02
 -1        27 0.00000E+00 0.00000E+00 0.00000E+00
 -1        28 0.00000E+00 0.00000E+00 0.00000E+00
 -1        29 0.00000E+00 0.00000E+00 0.00000E+00
 -1        30 9.29125E-04 1.15913E-07-1.15004E-02
 -1        31 9.28977E-04 5.33742E-07-1.15046E-02
 -1        32 8.64352E-04-3.07548E-07-1.15044E-02
 -1        33-7.47725E-05 1.39774E-06-6.87822E-05
 -1        34-1.58926E-04 1.00764E-06-1.87899E-04
 -1        35-2.34667E-04 1.00316E-06-3.43484E-04
 -1        36-3.04858E-04 9.25266E-07-5.36263E-04
 -1        37-3.69954E-04 8.58833E-07-7.62998E-04
 -1        38-4.30145E-04 7.89644E-07-1.02121E-03
 -1        39-4.85619E-04 7.25726E-07-1.30842E-03
 -1        40-5.36589E-04 6.64639E-07-1.62213E-03
 -1        41-5.83252E-04 6.06313E-07-1.95993E-03
 -1        42-6.25805E-04 5.50638E-07-2.31950E-03
 -1        43-6.64444E-04 4.97659E-07-2.69866E-03
 -1        44-6.99364E-04 4.47397E-07-3.09533E-03
 -1        45-7.30760E-04 3.99855E-07-3.50754E-03
 -1        46-7.58827E-04 3.55034E-07-3.93342E-03
 -1        47-7.83757E-04 3.12930E-07-4.37121E-03
 -1        48-8.05745E-04 2.73545E-07-4.81925E-03
 -1        49-8.24984E-04 2.36878E-07-5.27600E-03
 -1        50-8.41668E-04 2.02928E-07-5.74001E-03
 -1        51-8.55989E-04 1.71696E-07-6.20995E-03
 -1        52-8.68143E-04 1.43182E-07-6.68459E-03
 -1        53-8.78324E-04 1.17384E-07-7.16282E-03
 -1        54-8.86725E-04 9.43043E-08-7.64360E-03
 -1        55-8.93542E-04 7.39446E-08-8.12604E-03
 -1        56-8.98970E-04 5.63104E-08-8.60934E-03
 -1        57-9.03205E-04 4.14074E-08-9.09280E-03
 -1        58-9.06445E-04 2.91658E-08-9.57582E-03
 -1        59-9.08884E-04 1.94468E-08-1.00579E-02
 -1        60-9.10720E-04 1.22156E-08-1.05388E-02
 -1        61-9.12159E-04 9.45866E-09-1.10181E-02
 -1        62-7.47725E-05-1.39774E-06-6.87822E-05
 -1        63-1.58926E-04-1.00764E-06-1.87899E-04
 -1        64-2.34667E-04-1.00316E-06-3.43484E-04
 -1        65-3.04858E-04-9.25266E-07-5.36263E-04
 -1        66-3.69954E-04-8.58833E-07-7.62998E-04
 -1        67-4.30145E-04-7.89644E-07-1.02121E-03
 -1        68-4.85619E-04-7.25726E-07-1.30842E-03
 -1        69-5.36589E-04-6.64639E-07-1.62213E-03
 -1        70-5.83252E-04-6.06313E-07-1.95993E-03
 -1        71-6.25805E-04-5.50638E-07-2.31950E-03
 -1        72-6.64444E-04-4.97659E-07-2.69866E-03
 -1        73-6.99364E-04-4.47397E-07-3.09533E-03
 -1        74-7.30760E-04-3.99855E-07-3.50754E-03
 -1        75-7.58827E-04-3.55034E-07-3.93342E-03
 -1        76-7.83757E-04-3.12930E-07-4.37121E-03
 -1        77-8.05745E-04-2.73545E-07-4.81925E-03
 -1        78-8.24984E-04-2.36878E-07-5.27600E-03
 -1        79-8.41668E-04-2.02928E-07-5.74001E-03
 -1        80-8.55989E-04-1.71696E-07-6.20995E-03
 -1        81-8.68143E-04-1.43182E-07-6.68459E-03
 -1        82-8.78324E-04-1.17384E-07-7.16282E-03
 -1        83-8.86725E-04-9.43043E-08-7.64360E-03
 -1        84-8.93542E-04-7.39446E-08-8.12604E-03
 -1        85-8.98970E-04-5.63104E-08-8.60934E-03
 -1        86-9.03205E-04-4.14074E-08-9.09280E-03
 -1        87-9.06445E-04-2.91658E-08-9.57582E-03
 -1        88-9.08884E-04-1.94468E-08-1.00579E-02
 -1        89-9.10720E-04-1.22156E-08-1.05388E-02
 -1        90-9.12159E-04-9.45866E-09-1.10181E-02
 -1        91 0.00000E+00 0.00000E+00 0.00000E+00
 -1        92 0.00000E+00 0.00000E+00 0.00000E+00
 -1        93 0.00000E+00 0.00000E+00 0.00000E+00
 -1        94 0.00000E+00 0.00000E+00 0.00000E+00
 -1        95 0.00000E+00 0.00000E+00 0.00000E+00
 -1        96 0.00000E+00 0.00000E+00 0.00000E+00
 -1        97 7.46096E-05 1.39726E-06-6.89916E-05
 -1        98 1.58483E-04 1.00790E-06-1.88321E-04
 -1        99 2.33878E-04 1.00371E-06-3.44064E-04
 -1       100 3.03620E-04 9.25805E-07-5.37015E-04
 -1       101 3.68144E-04 8.59431E-07-7.63949E-04
 -1       102 4.27628E-04 7.90281E-07-1.02239E-03
 -1       103 4.82251E-04 7.26370E-07-1.30984E-03
 -1       104 5.32222E-04 6.65276E-07-1.62381E-03
 -1       105 5.77740E-04 6.06939E-07-1.96185E-03
 -1       106 6.19004E-04 5.51250E-07-2.32168E-03
 -1       107 6.56216E-04 4.98254E-07-2.70108E-03
 -1       108 6.89578E-04 4.47972E-07-3.09799E-03
 -1       109 7.19295E-04 4.00408E-07-3.51042E-03
 -1       110 7.45571E-04 3.55562E-07-3.93651E-03
 -1       111 7.68610E-04 3.13432E-07-4.37448E-03
 -1       112 7.88617E-04 2.74019E-07-4.82270E-03
 -1       113 8.05797E-04 2.37322E-07-5.27960E-03
 -1       114 8.20355E-04 2.03342E-07-5.74374E-03
 -1       115 8.32494E-04 1.72078E-07-6.21380E-03
 -1       116 8.42421E-04 1.43531E-07-6.68854E-03
 -1       117 8.50337E-04 1.17701E-07-7.16684E-03
 -1       118 8.56449E-04 9.45869E-08-7.64769E-03
 -1       119 8.60958E-04 7.41927E-08-8.13018E-03
 -1       120 8.64068E-04 5.65236E-08-8.61352E-03
 -1       121 8.65981E-04 4.15853E-08-9.09700E-03
 -1       122 8.66900E-04 2.93083E-08-9.58004E-03
 -1       123 8.67025E-04 1.95536E-08-1.00622E-02
 -1       124 8.66555E-04 1.22872E-08-1.05430E-02
 -1       125 8.65701E-04 9.49130E-09-1.10223E-02
 -1       126-4.68874E-04 1.20784E-08-1.14964E-02
 -1       127-2.43652E-05 7.02978E-12-1.14972E-02
 -1       128 4.20140E-04-1.20649E-08-1.14985E-02
 -1       129 7.46096E-05-1.39726E-06-6.89916E-05
 -1       130 1.58483E-04-1.00790E-06-1.88321E-04
 -1       131 2.33878E-04-1.00371E-06-3.44064E-04
 -1       132 3.03620E-04-9.25805E-07-5.37015E-04
 -1       133 3.68144E-04-8.59431E-07-7.63949E-04
 -1       134 4.27628E-04-7.90281E-07-1.02239E-03
 -1       135 4.82251E-04-7.26370E-07-1.30984E-03
 -1       136 5.32222E-04-6.65276E-07-1.62381E-03
 -1       137 5.77740E-04-6.06939E-07-1.96185E-03
 -1       138 6.19004E-04-5.51250E-07-2.32168E-03
 -1       139 6.56216E-04-4.98254E-07-2.70108E-03
 -1       140 6.89578E-04-4.47972E-07-3.09799E-03
 -1       141 7.19295E-04-4.00408E-07-3.51042E-03
 -1       142 7.45571E-04-3.55562E-07-3.93651E-03
 -1       143 7.68610E-04-3.13432E-07-4.37448E-03
 -1       144 7.88617E-04-2.74019E-07-4.82270E-03
 -1       145 8.05797E-04-2.37322E-07-5.27960E-03
 -1       146 8.20355E-04-2.03342E-07-5.74374E-03
 -1       147 8.32494E-04-1.72078E-07-6.21380E-03
 -1       148 8.42421E-04-1.43531E-07-6.68854E-03
 -1       149 8.50337E-04-1.17701E-07-7.16684E-03
 -1       150 8.56449E-04-9.45869E-08-7.64769E-03
 -1       151 8.60958E-04-7.41927E-08-8.13018E-03
 -1       152 8.64068E-04-5.65236E-08-8.61352E-03
 -1       153 8.65981E-04-4.15853E-08-9.09700E-03
 -1       154 8.66900E-04-2.93083E-08-9.58004E-03
 -1       155 8.67025E-04-1.95536E-08-1.00622E-02
 -1       156 8.66555E-04-1.22872E-08-1.05430E-02
 -1       157 8.65701E-04-9.49130E-09-1.10223E-02
 -1       158 4.20140E-04 1.20649E-08-1.14985E-02
 -1       159-2.43652E-05-7.02977E-12-1.14972E-02
 -1       160-4.68874E-04-1.20784E-08-1.14964E-02
 -1       161-8.82753E-05-1.70330E-06-7.30680E-05
 -1       162-1.76651E-04-1.28802E-06-1.90895E-04
 -1       163-2.57609E-04-9.14515E-07-3.46580E-04
 -1       164-3.32572E-04-7.94358E-07-5.39072E-04
 -1       165-4.02111E-04-7.48937E-07-7.65595E-04
 -1       166-4.66414E-04-6.94792E-07-1.02359E-03
 -1       167-5.25661E-04-6.33530E-07-1.31059E-03
 -1       168-5.80069E-04-5.71212E-07-1.62411E-03
 -1       169-6.29851E-04-5.11660E-07-1.96171E-03
 -1       170-6.75219E-04-4.55445E-07-2.32110E-03
 -1       171-7.16384E-04-4.02269E-07-2.70009E-03
 -1       172-7.53557E-04-3.51893E-07-3.09660E-03
 -1       173-7.86947E-04-3.04260E-07-3.50865E-03
 -1       174-8.16762E-04-2.59371E-07-3.93439E-03
 -1       175-8.43210E-04-2.17234E-07-4.37204E-03
 -1       176-8.66500E-04-1.77845E-07-4.81996E-03
 -1       177-8.86839E-04-1.41199E-07-5.27659E-03
 -1       178-9.04435E-04-1.07291E-07-5.74049E-03
 -1       179-9.19497E-04-7.61144E-08-6.21033E-03
 -1       180-9.32232E-04-4.76675E-08-6.68488E-03
 -1       181-9.42849E-04-2.19485E-08-7.16302E-03
 -1       182-9.51557E-04 1.05030E-09-7.64374E-03
 -1       183-9.58566E-04 2.13613E-08-8.12612E-03
 -1       184-9.64086E-04 3.90466E-08-8.60936E-03
 -1       185-9.68326E-04 5.40780E-08-9.09277E-03
 -1       186-9.71497E-04 6.60256E-08-9.57575E-03
 -1       187-9.73811E-04 7.35416E-08-1.00578E-02
 -1       188-9.75482E-04 7.68329E-08-1.05386E-02
 -1       189-9.76737E-04 7.70252E-08-1.10180E-02
 -1       190 0.00000E+00 0.00000E+00 0.00000E+00
 -1       191 0.00000E+00 0.00000E+00 0.00000E+00
 -1       192-9.77786E-04 4.78963E-07-1.14975E-02
 -1       193-8.71215E-05-2.71460E-05-5.19299E-05
 -1       194-1.72081E-04-2.38127E-05-1.81061E-04
 -1       195-2.52016E-04-2.01303E-05-3.48061E-04
 -1       196-3.27092E-04-1.85182E-05-5.42293E-04
 -1       197-3.96802E-04-1.71920E-05-7.68092E-04
 -1       198-4.61346E-04-1.58696E-05-1.02564E-03
 -1       199-5.20822E-04-1.45540E-05-1.31265E-03
 -1       200-5.75444E-04-1.32764E-05-1.62632E-03
 -1       201-6.25436E-04-1.20555E-05-1.96407E-03
 -1       202-6.71015E-04-1.08942E-05-2.32358E-03
 -1       203-7.12392E-04-9.79121E-06-2.70267E-03
 -1       204-7.49777E-04-8.74517E-06-3.09927E-03
 -1       205-7.83378E-04-7.75581E-06-3.51141E-03
 -1       206-8.13405E-04-6.82315E-06-3.93723E-03
 -1       207-8.40064E-04-5.94721E-06-4.37495E-03
 -1       208-8.63565E-04-5.12798E-06-4.82294E-03
 -1       209-8.84115E-04-4.36542E-06-5.27963E-03
 -1       210-9.01923E-04-3.65949E-06-5.74359E-03
 -1       211-9.17195E-04-3.01018E-06-6.21348E-03
 -1       212-9.30141E-04-2.41745E-06-6.68808E-03
 -1       213-9.40969E-04-1.88131E-06-7.16626E-03
 -1       214-9.49889E-04-1.40170E-06-7.64701E-03
 -1       215-9.57109E-04-9.78472E-07-8.12942E-03
 -1       216-9.62839E-04-6.11299E-07-8.61270E-03
 -1       217-9.67290E-04-3.00334E-07-9.09614E-03
 -1       218-9.70669E-04-4.78045E-08-9.57913E-03
 -1       219-9.73187E-04 1.40998E-07-1.00611E-02
 -1       220-9.75069E-04 2.57720E-07-1.05418E-02
 -1       221-9.76531E-04 3.44990E-07-1.10212E-02
 -1       222-7.42031E-05-2.29751E-05-4.76984E-05
 -1       223-1.51530E-04-2.14247E-05-1.78150E-04
 -1       224-2.27767E-04-2.02864E-05-3.44935E-04
 -1       225-2.98838E-04-1.90277E-05-5.39505E-04
 -1       226-3.64175E-04-1.75528E-05-7.65508E-04
 -1       227-4.24559E-04-1.61515E-05-1.02328E-03
 -1       228-4.80246E-04-1.48468E-05-1.31049E-03
 -1       229-5.31447E-04-1.36123E-05-1.62436E-03
 -1       230-5.78347E-04-1.24323E-05-1.96230E-03
 -1       231-6.21137E-04-1.13050E-05-2.32199E-03
 -1       232-6.60011E-04-1.02318E-05-2.70126E-03
 -1       233-6.95166E-04-9.21345E-06-3.09802E-03
 -1       234-7.26798E-04-8.25020E-06-3.51032E-03
 -1       235-7.55099E-04-7.34199E-06-3.93627E-03
 -1       236-7.80264E-04-6.48879E-06-4.37414E-03
 -1       237-8.02486E-04-5.69061E-06-4.82225E-03
 -1       238-8.21960E-04-4.94745E-06-5.27906E-03
 -1       239-8.38878E-04-4.25932E-06-5.74313E-03
 -1       240-8.53434E-04-3.62624E-06-6.21312E-03
 -1       241-8.65822E-04-3.04821E-06-6.68781E-03
 -1       242-8.76236E-04-2.52523E-06-7.16607E-03
 -1       243-8.84871E-04-2.05730E-06-7.64689E-03
 -1       244-8.91922E-04-1.64456E-06-8.12937E-03
 -1       245-8.97584E-04-1.28723E-06-8.61270E-03
 -1       246-9.02054E-04-9.85302E-07-9.09618E-03
 -1       247-9.05529E-04-7.37110E-07-9.57921E-03
 -1       248-9.08209E-04-5.36580E-07-1.00613E-02
 -1       249-9.10279E-04-3.86528E-07-1.05419E-02
 -1       250-9.11869E-04-3.27744E-07-1.10214E-02
 -1       251-9.13238E-04-2.54477E-07-1.14976E-02
 -1       252 9.30279E-04-7.69854E-08-1.10225E-02
 -1       253 9.31316E-04-7.67547E-08-1.05432E-02
 -1       254 9.31951E-04-7.34229E-08-1.00624E-02
 -1       255 9.31951E-04-6.58695E-08-9.58029E-03
 -1       256 9.31100E-04-5.38894E-08-9.09729E-03
 -1       257 9.29182E-04-3.88331E-08-8.61385E-03
 -1       258 9.25980E-04-2.11351E-08-8.13057E-03
 -1       259 9.21278E-04-8.28575E-10-7.64814E-03
 -1       260 9.14859E-04 2.21427E-08-7.16735E-03
 -1       261 9.06504E-04 4.78043E-08-6.68913E-03
 -1       262 8.95995E-04 7.61566E-08-6.21448E-03
 -1       263 8.83115E-04 1.07193E-07-5.74451E-03
 -1       264 8.67644E-04 1.40907E-07-5.28047E-03
 -1       265 8.49363E-04 1.77294E-07-4.82368E-03
 -1       266 8.28052E-04 2.16349E-07-4.37558E-03
 -1       267 8.03494E-04 2.58067E-07-3.93772E-03
 -1       268 7.75468E-04 3.02438E-07-3.51177E-03
 -1       269 7.43756E-04 3.49443E-07-3.09948E-03
 -1       270 7.08139E-04 3.99068E-07-2.70271E-03
 -1       271 6.68399E-04 4.51355E-07-2.32346E-03
 -1       272 6.24319E-04 5.06519E-07-1.96380E-03
 -1       273 5.75681E-04 5.64830E-07-1.62592E-03
 -1       274 5.22271E-04 6.25703E-07-1.31213E-03
 -1       275 4.63874E-04 6.85359E-07-1.02486E-03
 -1       276 4.00278E-04 7.37805E-07-7.66628E-04
 -1       277 3.31310E-04 7.81231E-07-5.39884E-04
 -1       278 2.56798E-04 8.98883E-07-3.47204E-04
 -1       279 1.76194E-04 1.27048E-06-1.91344E-04
 -1       280 8.81224E-05 1.69173E-06-7.32921E-05
 -1       281 0.00000E+00 0.00000E+00 0.00000E+00
 -1       282 0.00000E+00 0.00000E+00 0.00000E+00
 -1       283 7.40343E-05 2.29889E-05-4.82882E-05
 -1       284 1.51128E-04 2.14747E-05-1.79233E-04
 -1       285 2.27001E-04 2.03369E-05-3.46126E-04
 -1       286 2.97609E-04 1.90721E-05-5.40765E-04
 -1       287 3.62372E-04 1.75937E-05-7.66891E-04
 -1       288 4.22047E-04 1.61890E-05-1.02482E-03
 -1       289 4.76880E-04 1.48805E-05-1.31221E-03
 -1       290 5.27078E-04 1.36425E-05-1.62627E-03
 -1       291 5.72829E-04 1.24592E-05-1.96442E-03
 -1       292 6.14326E-04 1.13291E-05-2.32432E-03
 -1       293 6.51770E-04 1.02534E-05-2.70379E-03
 -1       294 6.85365E-04 9.23284E-06-3.10076E-03
 -1       295 7.15314E-04 8.26758E-06-3.51325E-03
 -1       296 7.41823E-04 7.35758E-06-3.93940E-03
 -1       297 7.65094E-04 6.50278E-06-4.37743E-03
 -1       298 7.85334E-04 5.70315E-06-4.82570E-03
 -1       299 8.02747E-04 4.95870E-06-5.28265E-03
 -1       300 8.17537E-04 4.26940E-06-5.74685E-03
 -1       301 8.29910E-04 3.63525E-06-6.21695E-03
 -1       302 8.40069E-04 3.05623E-06-6.69173E-03
 -1       303 8.48220E-04 2.53233E-06-7.17008E-03
 -1       304 8.54564E-04 2.06355E-06-7.65096E-03
 -1       305 8.59307E-04 1.64999E-06-8.13349E-03
 -1       306 8.62650E-04 1.29187E-06-8.61686E-03
 -1       307 8.64797E-04 9.89180E-07-9.10037E-03
 -1       308 8.65951E-04 7.40237E-07-9.58342E-03
 -1       309 8.66317E-04 5.38955E-07-1.00655E-02
 -1       310 8.66084E-04 3.88146E-07-1.05462E-02
 -1       311 8.65379E-04 3.28616E-07-1.10256E-02
 -1       312 8.64482E-04 2.54634E-07-1.15019E-02
 -1       313 8.70256E-05 2.70868E-05-5.25320E-05
 -1       314 1.71671E-04 2.37248E-05-1.82175E-04
 -1       315 2.51210E-04 2.00520E-05-3.49294E-04
 -1       316 3.25826E-04 1.84548E-05-5.43612E-04
 -1       317 3.94966E-04 1.71401E-05-7.69555E-04
 -1       318 4.58802E-04 1.58274E-05-1.02728E-03
 -1       319 5.17425E-04 1.45208E-05-1.31449E-03
 -1       320 5.71047E-04 1.32511E-05-1.62838E-03
 -1       321 6.19892E-04 1.20368E-05-1.96635E-03
 -1       322 6.64180E-04 1.08812E-05-2.32609E-03
 -1       323 7.04129E-04 9.78282E-06-2.70541E-03
 -1       324 7.39956E-04 8.74062E-06-3.10224E-03
 -1       325 7.71878E-04 7.75439E-06-3.51459E-03
 -1       326 8.00114E-04 6.82422E-06-3.94061E-03
 -1       327 8.24882E-04 5.95019E-06-4.37852E-03
 -1       328 8.46402E-04 5.13237E-06-4.82667E-03
 -1       329 8.64893E-04 4.37079E-06-5.28351E-03
 -1       330 8.80574E-04 3.66547E-06-5.74761E-03
 -1       331 8.93665E-04 3.01644E-06-6.21762E-03
 -1       332 9.04383E-04 2.42374E-06-6.69232E-03
 -1       333 9.12948E-04 1.88740E-06-7.17058E-03
 -1       334 9.19578E-04 1.40742E-06-7.65140E-03
 -1       335 9.24491E-04 9.83687E-07-8.13386E-03
 -1       336 9.27903E-04 6.15908E-07-8.61718E-03
 -1       337 9.30032E-04 3.04265E-07-9.10064E-03
 -1       338 9.31091E-04 5.10090E-08-9.58366E-03
 -1       339 9.31295E-04-1.38553E-07-1.00657E-02
 -1       340 9.30873E-04-2.56065E-07-1.05463E-02
 -1       341 9.30041E-04-3.44111E-07-1.10258E-02
 -1       342 9.29029E-04-4.78788E-07-1.15020E-02
 -1       343-8.71215E-05 2.71460E-05-5.19299E-05
 -1       344-1.72081E-04 2.38127E-05-1.81061E-04
 -1       345-2.52016E-04 2.01303E-05-3.48061E-04
 -1       346-3.27092E-04 1.85182E-05-5.42293E-04
 -1       347-3.96802E-04 1.71920E-05-7.68092E-04
 -1       348-4.61346E-04 1.58696E-05-1.02564E-03
 -1       349-5.20822E-04 1.45540E-05-1.31265E-03
 -1       350-5.75444E-04 1.32764E-05-1.62632E-03
 -1       351-6.25436E-04 1.20555E-05-1.96407E-03
 -1       352-6.71015E-04 1.08942E-05-2.32358E-03
 -1       353-7.12392E-04 9.79121E-06-2.70267E-03
 -1       354-7.49777E-04 8.74517E-06-3.09927E-03
 -1       355-7.83378E-04 7.75581E-06-3.51141E-03
 -1       356-8.13405E-04 6.82315E-06-3.93723E-03
 -1       357-8.40064E-04 5.94721E-06-4.37495E-03
 -1       358-8.63565E-04 5.12798E-06-4.82294E-03
 -1       359-8.84115E-04 4.36542E-06-5.27963E-03
 -1       360-9.01923E-04 3.65949E-06-5.74359E-03
 -1       361-9.17195E-04 3.01018E-06-6.21348E-03
 -1       362-9.30141E-04 2.41745E-06-6.68808E-03
 -1       363-9.40969E-04 1.88131E-06-7.16626E-03
 -1       364-9.49889E-04 1.40170E-06-7.64701E-03
 -1       365-9.57109E-04 9.78472E-07-8.12942E-03
 -1       366-9.62839E-04 6.11299E-07-8.61270E-03
 -1       367-9.67290E-04 3.00334E-07-9.09614E-03
 -1       368-9.70669E-04 4.78045E-08-9.57913E-03
 -1       369-9.73187E-04-1.40998E-07-1.00611E-02
 -1       370-9.75069E-04-2.57720E-07-1.05418E-02
 -1       371-9.76531E-04-3.44990E-07-1.10212E-02
 -1       372-7.42031E-05 2.29751E-05-4.76984E-05
 -1       373-1.51530E-04 2.14247E-05-1.78150E-04
 -1       374-2.27767E-04 2.02864E-05-3.44935E-04
 -1       375-2.98838E-04 1.90277E-05-5.39505E-04
 -1       376-3.64175E-04 1.75528E-05-7.65508E-04
 -1       377-4.24559E-04 1.61515E-05-1.02328E-03
 -1       378-4.80246E-04 1.48468E-05-1.31049E-03
 -1       379-5.31447E-04 1.36123E-05-1.62436E-03
 -1       380-5.78347E-04 1.24323E-05-1.96230E-03
 -1       381-6.21137E-04 1.13050E-05-2.32199E-03
 -1       382-6.60011E-04 1.02318E-05-2.70126E-03
 -1       383-6.95166E-04 9.21345E-06-3.09802E-03
 -1       384-7.26798E-04 8.25020E-06-3.51032E-03
 -1       385-7.55099E-04 7.34199E-06-3.93627E-03
 -1       386-7.80264E-04 6.48879E-06-4.37414E-03
 -1       387-8.02486E-04 5.69061E-06-4.82225E-03
 -1       388-8.21960E-04 4.94745E-06-5.27906E-03
 -1       389-8.38878E-04 4.25932E-06-5.74313E-03
 -1       390-8.53434E-04 3.62624E-06-6.21312E-03
 -1       391-8.65822E-04 3.04821E-06-6.68781E-03
 -1       392-8.76236E-04 2.52523E-06-7.16607E-03
 -1       393-8.84871E-04 2.05730E-06-7.64689E-03
 -1       394-8.91922E-04 1.64456E-06-8.12937E-03
 -1       395-8.97584E-04 1.28723E-06-8.61270E-03
 -1       396-9.02054E-04 9.85302E-07-9.09618E-03
 -1       397-9.05529E-04 7.37110E-07-9.57921E-03
 -1       398-9.08209E-04 5.36580E-07-1.00613E-02
 -1       399-9.10279E-04 3.86528E-07-1.05419E-02
 -1       400-9.11869E-04 3.27744E-07-1.10214E-02
 -1       401 0.00000E+00 0.00000E+00 0.00000E+00
 -1       402 0.00000E+00 0.00000E+00 0.00000E+00
 -1       403-9.77786E-04-4.78963E-07-1.14975E-02
 -1       404-8.82753E-05 1.70330E-06-7.30680E-05
 -1       405-1.76651E-04 1.28802E-06-1.90895E-04
 -1       406-2.57609E-04 9.14515E-07-3.46580E-04
 -1       407-3.32572E-04 7.94358E-07-5.39072E-04
 -1       408-4.02111E-04 7.48937E-07-7.65595E-04
 -1       409-4.66414E-04 6.94792E-07-1.02359E-03
 -1       410-5.25661E-04 6.33530E-07-1.31059E-03
 -1       411-5.80069E-04 5.71212E-07-1.62411E-03
 -1       412-6.29851E-04 5.11660E-07-1.96171E-03
 -1       413-6.75219E-04 4.55445E-07-2.32110E-03
 -1       414-7.16384E-04 4.02269E-07-2.70009E-03
 -1       415-7.53557E-04 3.51893E-07-3.09660E-03
 -1       416-7.86947E-04 3.04260E-07-3.50865E-03
 -1       417-8.16762E-04 2.59371E-07-3.93439E-03
 -1       418-8.43210E-04 2.17234E-07-4.37204E-03
 -1       419-8.66500E-04 1.77845E-07-4.81996E-03
 -1       420-8.86839E-04 1.41199E-07-5.27659E-03
 -1       421-9.04435E-04 1.07291E-07-5.74049E-03
 -1       422-9.19497E-04 7.61144E-08-6.21033E-03
 -1       423-9.32232E-04 4.76675E-08-6.68488E-03
 -1       424-9.42849E-04 2.19485E-08-7.16302E-03
 -1       425-9.51557E-04-1.05030E-09-7.64374E-03
 -1       426-9.58566E-04-2.13613E-08-8.12612E-03
 -1       427-9.64086E-04-3.90466E-08-8.60936E-03
 -1       428-9.68326E-04-5.40780E-08-9.09277E-03
 -1       429-9.71497E-04-6.60256E-08-9.57575E-03
 -1       430-9.73811E-04-7.35416E-08-1.00578E-02
 -1       431-9.75482E-04-7.68329E-08-1.05386E-02
 -1       432-9.76737E-04-7.70252E-08-1.10180E-02
 -1       433-9.13238E-04 2.54477E-07-1.14976E-02
 -1       434 0.00000E+00 0.00000E+00 0.00000E+00
 -1       435 0.00000E+00 0.00000E+00 0.00000E+00
 -1       436 9.30279E-04 7.69854E-08-1.10225E-02
 -1       437 9.31316E-04 7.67547E-08-1.05432E-02
 -1       438 9.31951E-04 7.34229E-08-1.00624E-02
 -1       439 9.31951E-04 6.58695E-08-9.58029E-03
 -1       440 9.31100E-04 5.38894E-08-9.09729E-03
 -1       441 9.29182E-04 3.88331E-08-8.61385E-03
 -1       442 9.25980E-04 2.11351E-08-8.13057E-03
 -1       443 9.21278E-04 8.28575E-10-7.64814E-03
 -1       444 9.14859E-04-2.21427E-08-7.16735E-03
 -1       445 9.06504E-04-4.78043E-08-6.68913E-03
 -1       446 8.95995E-04-7.61566E-08-6.21448E-03
 -1       447 8.83115E-04-1.07193E-07-5.74451E-03
 -1       448 8.67644E-04-1.40907E-07-5.28047E-03
 -1       449 8.49363E-04-1.77294E-07-4.82368E-03
 -1       450 8.28052E-04-2.16349E-07-4.37558E-03
 -1       451 8.03494E-04-2.58067E-07-3.93772E-03
 -1       452 7.75468E-04-3.02438E-07-3.51177E-03
 -1       453 7.43756E-04-3.49443E-07-3.09948E-03
 -1       454 7.08139E-04-3.99068E-07-2.70271E-03
 -1       455 6.68399E-04-4.51355E-07-2.32346E-03
 -1       456 6.24319E-04-5.06519E-07-1.96380E-03
 -1       457 5.75681E-04-5.64830E-07-1.62592E-03
 -1       458 5.22271E-04-6.25703E-07-1.31213E-03
 -1       459 4.63874E-04-6.85359E-07-1.02486E-03
 -1       460 4.00278E-04-7.37805E-07-7.66628E-04
 -1       461 3.31310E-04-7.81231E-07-5.39884E-04
 -1       462 2.56798E-04-8.98883E-07-3.47204E-04
 -1       463 1.76194E-04-1.27048E-06-1.91344E-04
 -1       464 8.81224E-05-1.69173E-06-7.32921E-05
 -1       465 9.29029E-04 4.78788E-07-1.15020E-02
 -1       466 8.70256E-05-2.70868E-05-5.25320E-05
 -1       467 1.71671E-04-2.37248E-05-1.82175E-04
 -1       468 2.51210E-04-2.00520E-05-3.49294E-04
 -1       469 3.25826E-04-1.84548E-05-5.43612E-04
 -1       470 3.94966E-04-1.71401E-05-7.69555E-04
 -1       471 4.58802E-04-1.58274E-05-1.02728E-03
 -1       472 5.17425E-04-1.45208E-05-1.31449E-03
 -1       473 5.71047E-04-1.32511E-05-1.62838E-03
 -1       474 6.19892E-04-1.20368E-05-1.96635E-03
 -1       475 6.64180E-04-1.08812E-05-2.32609E-03
 -1       476 7.04129E-04-9.78282E-06-2.70541E-03
 -1       477 7.39956E-04-8.74062E-06-3.10224E-03
 -1       478 7.71878E-04-7.75439E-06-3.51459E-03
 -1       479 8.00114E-04-6.82422E-06-3.94061E-03
 -1       480 8.24882E-04-5.95019E-06-4.37852E-03
 -1       481 8.46402E-04-5.13237E-06-4.82667E-03
 -1       482 8.64893E-04-4.37079E-06-5.28351E-03
 -1       483 8.80574E-04-3.66547E-06-5.74761E-03
 -1       484 8.93665E-04-3.01644E-06-6.21762E-03
 -1       485 9.04383E-04-2.42374E-06-6.69232E-03
 -1       486 9.12948E-04-1.88740E-06-7.17058E-03
 -1       487 9.19578E-04-1.40742E-06-7.65140E-03
 -1       488 9.24491E-04-9.83687E-07-8.13386E-03
 -1       489 9.27903E-04-6.15908E-07-8.61718E-03
 -1       490 9.30032E-04-3.04265E-07-9.10064E-03
 -1       491 9.31091E-04-5.10090E-08-9.58366E-03
 -1       492 9.31295E-04 1.38553E-07-1.00657E-02
 -1       493 9.30873E-04 2.56065E-07-1.05463E-02
 -1       494 9.30041E-04 3.44111E-07-1.10258E-02
 -1       495 7.40343E-05-2.29889E-05-4.82882E-05
 -1       496 1.51128E-04-2.14747E-05-1.79233E-04
 -1       497 2.27001E-04-2.03369E-05-3.46126E-04
 -1       498 2.97609E-04-1.90721E-05-5.40765E-04
 -1       499 3.62372E-04-1.75937E-05-7.66891E-04
 -1       500 4.22047E-04-1.61890E-05-1.02482E-03
 -1       501 4.76880E-04-1.48805E-05-1.31221E-03
 -1       502 5.27078E-04-1.36425E-05-1.62627E-03
 -1       503 5.72829E-04-1.24592E-05-1.96442E-03
 -1       504 6.14326E-04-1.13291E-05-2.32432E-03
 -1       505 6.51770E-04-1.02534E-05-2.70379E-03
 -1       506 6.85365E-04-9.23284E-06-3.10076E-03
 -1       507 7.15314E-04-8.26758E-06-3.51325E-03
 -1       508 7.41823E-04-7.35758E-06-3.93940E-03
 -1       509 7.65094E-04-6.50278E-06-4.37743E-03
 -1       510 7.85334E-04-5.70315E-06-4.82570E-03
 -1       511 8.02747E-04-4.95870E-06-5.28265E-03
 -1       512 8.17537E-04-4.26940E-06-5.74685E-03
 -1       513 8.29910E-04-3.63525E-06-6.21695E-03
 -1       514 8.40069E-04-3.05623E-06-6.69173E-03
 -1       515 8.48220E-04-2.53233E-06-7.17008E-03
 -1       516 8.54564E-04-2.06355E-06-7.65096E-03
 -1       517 8.59307E-04-1.64999E-06-8.13349E-03
 -1       518 8.62650E-04-1.29187E-06-8.61686E-03
 -1       519 8.64797E-04-9.89180E-07-9.10037E-03
 -1       520 8.65951E-04-7.40237E-07-9.58342E-03
 -1       521 8.66317E-04-5.38955E-07-1.00655E-02
 -1       522 8.66084E-04-3.88146E-07-1.05462E-02
 -1       523 8.65379E-04-3.28616E-07-1.10256E-02
 -1       524 8.64482E-04-2.54634E-07-1.15019E-02
 -1       525-3.49563E-05-7.69472E-07-5.76802E-05
 -1       526-7.53056E-05-4.72095E-07-1.71024E-04
 -1       527-1.14178E-04-4.68784E-07-3.27946E-04
 -1       528-1.49994E-04-4.12884E-07-5.21835E-04
 -1       529-1.82897E-04-3.83096E-07-7.49804E-04
 -1       530-2.13283E-04-3.52585E-07-1.00916E-03
 -1       531-2.41326E-04-3.23312E-07-1.29741E-03
 -1       532-2.67155E-04-2.94842E-07-1.61211E-03
 -1       533-2.90872E-04-2.67646E-07-1.95085E-03
 -1       534-3.12573E-04-2.41753E-07-2.31133E-03
 -1       535-3.32351E-04-2.17162E-07-2.69136E-03
 -1       536-3.50302E-04-1.93854E-07-3.08886E-03
 -1       537-3.66522E-04-1.71820E-07-3.50184E-03
 -1       538-3.81105E-04-1.51058E-07-3.92845E-03
 -1       539-3.94145E-04-1.31566E-07-4.36693E-03
 -1       540-4.05737E-04-1.13343E-07-4.81561E-03
 -1       541-4.15973E-04-9.63863E-08-5.27295E-03
 -1       542-4.24948E-04-8.06944E-08-5.73751E-03
 -1       543-4.32756E-04-6.62656E-08-6.20796E-03
 -1       544-4.39492E-04-5.30985E-08-6.68306E-03
 -1       545-4.45250E-04-4.11916E-08-7.16169E-03
 -1       546-4.50124E-04-3.05431E-08-7.64284E-03
 -1       547-4.54211E-04-2.11496E-08-8.12561E-03
 -1       548-4.57606E-04-1.30076E-08-8.60918E-03
 -1       549-4.60406E-04-6.12243E-09-9.09287E-03
 -1       550-4.62708E-04-5.40103E-10-9.57608E-03
 -1       551-4.64609E-04 3.63900E-09-1.00583E-02
 -1       552-4.66200E-04 6.52492E-09-1.05393E-02
 -1       553-4.67576E-04 8.20878E-09-1.10187E-02
 -1       554-9.97302E-08-2.70268E-09-5.49725E-05
 -1       555-2.18025E-07-2.01290E-09-1.65693E-04
 -1       556-3.72127E-07-1.94451E-09-3.22474E-04
 -1       557-5.82538E-07-1.65404E-09-5.16932E-04
 -1       558-8.59891E-07-1.39935E-09-7.45379E-04
 -1       559-1.20928E-06-1.14669E-09-1.00517E-03
 -1       560-1.63323E-06-9.20936E-10-1.29383E-03
 -1       561-2.13257E-06-7.20405E-10-1.60891E-03
 -1       562-2.70657E-06-5.46457E-10-1.94801E-03
 -1       563-3.35317E-06-3.97913E-10-2.30884E-03
 -1       564-4.06927E-06-2.72889E-10-2.68920E-03
 -1       565-4.85095E-06-1.69097E-10-3.08702E-03
 -1       566-5.69358E-06-8.42874E-11-3.50030E-03
 -1       567-6.59209E-06-1.63538E-11-3.92720E-03
 -1       568-7.54100E-06 3.66567E-11-4.36594E-03
 -1       569-8.53468E-06 7.65661E-11-4.81487E-03
 -1       570-9.56740E-06 1.05077E-10-5.27244E-03
 -1       571-1.06335E-05 1.23774E-10-5.73721E-03
 -1       572-1.17275E-05 1.34128E-10-6.20784E-03
 -1       573-1.28440E-05 1.37488E-10-6.68311E-03
 -1       574-1.39782E-05 1.35090E-10-7.16190E-03
 -1       575-1.51253E-05 1.28050E-10-7.64319E-03
 -1       576-1.62812E-05 1.17367E-10-8.12607E-03
 -1       577-1.74421E-05 1.03922E-10-8.60975E-03
 -1       578-1.86048E-05 8.84649E-11-9.09352E-03
 -1       579-1.97664E-05 7.16661E-11-9.57680E-03
 -1       580-2.09247E-05 5.38843E-11-1.00591E-02
 -1       581-2.20780E-05 3.62048E-11-1.05401E-02
 -1       582-2.32252E-05 1.55752E-11-1.10196E-02
 -1       583 3.47611E-05 7.63906E-07-5.77908E-05
 -1       584 7.48678E-05 4.67089E-07-1.71237E-04
 -1       585 1.13423E-04 4.64100E-07-3.28244E-04
 -1       586 1.48811E-04 4.08903E-07-5.22217E-04
 -1       587 1.81154E-04 3.79749E-07-7.50283E-04
 -1       588 2.10839E-04 3.49821E-07-1.00974E-03
 -1       589 2.38033E-04 3.21081E-07-1.29812E-03
 -1       590 2.62863E-04 2.93083E-07-1.61294E-03
 -1       591 2.85433E-04 2.66294E-07-1.95181E-03
 -1       592 3.05841E-04 2.40747E-07-2.31241E-03
 -1       593 3.24189E-04 2.16448E-07-2.69256E-03
 -1       594 3.40578E-04 1.93383E-07-3.09017E-03
 -1       595 3.55114E-04 1.71548E-07-3.50327E-03
 -1       596 3.67902E-04 1.50947E-07-3.92999E-03
 -1       597 3.79046E-04 1.31581E-07-4.36855E-03
 -1       598 3.88652E-04 1.13454E-07-4.81732E-03
 -1       599 3.96824E-04 9.65669E-08-5.27474E-03
 -1       600 4.03669E-04 8.09223E-08-5.73937E-03
 -1       601 4.09291E-04 6.65216E-08-6.20987E-03
 -1       602 4.13795E-04 5.33665E-08-6.68502E-03
 -1       603 4.17285E-04 4.14585E-08-7.16369E-03
 -1       604 4.19867E-04 3.07983E-08-7.64488E-03
 -1       605 4.21643E-04 2.13848E-08-8.12767E-03
 -1       606 4.22716E-04 1.32164E-08-8.61126E-03
 -1       607 4.23192E-04 6.30054E-09-9.09496E-03
 -1       608 4.23171E-04 6.84481E-10-9.57819E-03
 -1       609 4.22756E-04-3.53050E-09-1.00605E-02
 -1       610 4.22041E-04-6.45200E-09-1.05414E-02
 -1       611 4.21123E-04-8.17750E-09-1.10208E-02
 -1       612 3.47611E-05-7.63906E-07-5.77908E-05
 -1       613 7.48678E-05-4.67089E-07-1.71237E-04
 -1       614 1.13423E-04-4.64100E-07-3.28244E-04
 -1       615 1.48811E-04-4.08903E-07-5.22217E-04
 -1       616 1.81154E-04-3.79749E-07-7.50283E-04
 -1       617 2.10839E-04-3.49821E-07-1.00974E-03
 -1       618 2.38033E-04-3.21081E-07-1.29812E-03
 -1       619 2.62863E-04-2.93083E-07-1.61294E-03
 -1       620 2.85433E-04-2.66294E-07-1.95181E-03
 -1       621 3.05841E-04-2.40747E-07-2.31241E-03
 -1       622 3.24189E-04-2.16448E-07-2.69256E-03
 -1       623 3.40578E-04-1.93383E-07-3.09017E-03
 -1       624 3.55114E-04-1.71548E-07-3.50327E-03
 -1       625 3.67902E-04-1.50947E-07-3.92999E-03
 -1       626 3.79046E-04-1.31581E-07-4.36855E-03
 -1       627 3.88652E-04-1.13454E-07-4.81732E-03
 -1       628 3.96824E-04-9.65669E-08-5.27474E-03
 -1       629 4.03669E-04-8.09223E-08-5.73937E-03
 -1       630 4.09291E-04-6.65216E-08-6.20987E-03
 -1       631 4.13795E-04-5.33665E-08-6.68502E-03
 -1       632 4.17285E-04-4.14585E-08-7.16369E-03
 -1       633 4.19867E-04-3.07983E-08-7.64488E-03
 -1       634 4.21643E-04-2.13848E-08-8.12767E-03
 -1       635 4.22716E-04-1.32164E-08-8.61126E-03
 -1       636 4.23192E-04-6.30054E-09-9.09496E-03
 -1       637 4.23171E-04-6.84481E-10-9.57819E-03
 -1       638 4.22756E-04 3.53050E-09-1.00605E-02
 -1       639 4.22041E-04 6.45200E-09-1.05414E-02
 -1       640 4.21123E-04 8.17750E-09-1.10208E-02
 -1       641-9.97302E-08 2.70268E-09-5.49725E-05
 -1       642-2.18025E-07 2.01290E-09-1.65693E-04
 -1       643-3.72127E-07 1.94451E-09-3.22474E-04
 -1       644-5.82538E-07 1.65404E-09-5.16932E-04
 -1       645-8.59891E-07 1.39935E-09-7.45379E-04
 -1       646-1.20928E-06 1.14669E-09-1.00517E-03
 -1       647-1.63323E-06 9.20936E-10-1.29383E-03
 -1       648-2.13257E-06 7.20405E-10-1.60891E-03
 -1       649-2.70657E-06 5.46457E-10-1.94801E-03
 -1       650-3.35317E-06 3.97913E-10-2.30884E-03
 -1       651-4.06927E-06 2.72889E-10-2.68920E-03
 -1       652-4.85095E-06 1.69097E-10-3.08702E-03
 -1       653-5.69358E-06 8.42874E-11-3.50030E-03
 -1       654-6.59209E-06 1.63538E-11-3.92720E-03
 -1       655-7.54100E-06-3.66567E-11-4.36594E-03
 -1       656-8.53468E-06-7.65661E-11-4.81487E-03
 -1       657-9.56740E-06-1.05077E-10-5.27244E-03
 -1       658-1.06335E-05-1.23774E-10-5.73721E-03
 -1       659-1.17275E-05-1.34128E-10-6.20784E-03
 -1       660-1.28440E-05-1.37488E-10-6.68311E-03
 -1       661-1.39782E-05-1.35090E-10-7.16190E-03
 -1       662-1.51253E-05-1.28050E-10-7.64319E-03
 -1       663-1.62812E-05-1.17367E-10-8.12607E-03
 -1       664-1.74421E-05-1.03922E-10-8.60975E-03
 -1       665-1.86048E-05-8.84649E-11-9.09352E-03
 -1       666-1.97664E-05-7.16660E-11-9.57680E-03
 -1       667-2.09247E-05-5.38842E-11-1.00591E-02
 -1       668-2.20780E-05-3.62048E-11-1.05401E-02
 -1       669-2.32252E-05-1.55751E-11-1.10196E-02
 -1       670-3.49563E-05 7.69472E-07-5.76802E-05
 -1       671-7.53056E-05 4.72095E-07-1.71024E-04
 -1       672-1.14178E-04 4.68784E-07-3.27946E-04
 -1       673-1.49994E-04 4.12884E-07-5.21835E-04
 -1       674-1.82897E-04 3.83096E-07-7.49804E-04
 -1       675-2.13283E-04 3.52585E-07-1.00916E-03
 -1       676-2.41326E-04 3.23312E-07-1.29741E-03
 -1       677-2.67155E-04 2.94842E-07-1.61211E-03
 -1       678-2.90872E-04 2.67646E-07-1.95085E-03
 -1       679-3.12573E-04 2.41753E-07-2.31133E-03
 -1       680-3.32351E-04 2.17162E-07-2.69136E-03
 -1       681-3.50302E-04 1.93854E-07-3.08886E-03
 -1       682-3.66522E-04 1.71820E-07-3.50184E-03
 -1       683-3.81105E-04 1.51058E-07-3.92845E-03
 -1       684-3.94145E-04 1.31566E-07-4.36693E-03
 -1       685-4.05737E-04 1.13343E-07-4.81561E-03
 -1       686-4.15973E-04 9.63863E-08-5.27295E-03
 -1       687-4.24948E-04 8.06944E-08-5.73751E-03
 -1       688-4.32756E-04 6.62656E-08-6.20796E-03
 -1       689-4.39492E-04 5.30985E-08-6.68306E-03
 -1       690-4.45250E-04 4.11916E-08-7.16169E-03
 -1       691-4.50124E-04 3.05431E-08-7.64284E-03
 -1       692-4.54211E-04 2.11496E-08-8.12561E-03
 -1       693-4.57606E-04 1.30076E-08-8.60918E-03
 -1       694-4.60406E-04 6.12243E-09-9.09287E-03
 -1       695-4.62708E-04 5.40103E-10-9.57608E-03
 -1       696-4.64609E-04-3.63900E-09-1.00583E-02
 -1       697-4.66200E-04-6.52492E-09-1.05393E-02
 -1       698-4.67576E-04-8.20878E-09-1.10187E-02
 -1       699-8.48945E-05-1.48392E-05-6.44642E-05
 -1       700-1.73844E-04-1.30448E-05-1.87932E-04
 -1       701-2.53881E-04-1.03973E-05-3.47265E-04
 -1       702-3.28965E-04-9.50312E-06-5.40468E-04
 -1       703-3.98633E-04-8.84256E-06-7.66713E-04
 -1       704-4.63086E-04-8.16980E-06-1.02453E-03
 -1       705-5.22479E-04-7.48433E-06-1.31152E-03
 -1       706-5.77027E-04-6.81257E-06-1.62508E-03
 -1       707-6.26946E-04-6.17043E-06-1.96273E-03
 -1       708-6.72453E-04-5.56062E-06-2.32215E-03
 -1       709-7.13757E-04-4.98186E-06-2.70117E-03
 -1       710-7.51070E-04-4.43313E-06-3.09770E-03
 -1       711-7.84598E-04-3.91416E-06-3.50978E-03
 -1       712-8.14552E-04-3.42496E-06-3.93553E-03
 -1       713-8.41139E-04-2.96556E-06-4.37321E-03
 -1       714-8.64567E-04-2.53594E-06-4.82114E-03
 -1       715-8.85045E-04-2.13609E-06-5.27778E-03
 -1       716-9.02780E-04-1.76597E-06-5.74170E-03
 -1       717-9.17980E-04-1.42555E-06-6.21156E-03
 -1       718-9.30853E-04-1.11483E-06-6.68612E-03
 -1       719-9.41609E-04-8.33805E-07-7.16427E-03
 -1       720-9.50456E-04-5.82427E-07-7.64499E-03
 -1       721-9.57604E-04-3.60561E-07-8.12738E-03
 -1       722-9.63262E-04-1.67942E-07-8.61063E-03
 -1       723-9.67640E-04-4.70960E-09-9.09405E-03
 -1       724-9.70949E-04 1.27226E-07-9.57703E-03
 -1       725-9.73399E-04 2.23016E-07-1.00591E-02
 -1       726-9.75205E-04 2.78716E-07-1.05398E-02
 -1       727-9.76598E-04 3.14000E-07-1.10192E-02
 -1       728-7.06513E-05-1.11271E-05-5.99864E-05
 -1       729-1.54390E-04-1.14277E-05-1.84887E-04
 -1       730-2.29855E-04-1.06507E-05-3.44207E-04
 -1       731-3.00410E-04-1.00802E-05-5.37678E-04
 -1       732-3.65710E-04-9.29468E-06-7.64140E-04
 -1       733-4.26051E-04-8.54370E-06-1.02217E-03
 -1       734-4.81689E-04-7.85684E-06-1.30937E-03
 -1       735-5.32829E-04-7.21027E-06-1.62313E-03
 -1       736-5.79664E-04-6.59243E-06-1.96097E-03
 -1       737-6.22390E-04-6.00167E-06-2.32057E-03
 -1       738-6.61200E-04-5.43895E-06-2.69976E-03
 -1       739-6.96292E-04-4.90493E-06-3.09646E-03
 -1       740-7.27859E-04-4.39977E-06-3.50869E-03
 -1       741-7.56097E-04-3.92345E-06-3.93459E-03
 -1       742-7.81199E-04-3.47597E-06-4.37240E-03
 -1       743-8.03358E-04-3.05730E-06-4.82046E-03
 -1       744-8.22768E-04-2.66747E-06-5.27722E-03
 -1       745-8.39623E-04-2.30649E-06-5.74125E-03
 -1       746-8.54116E-04-1.97437E-06-6.21120E-03
 -1       747-8.66441E-04-1.67111E-06-6.68586E-03
 -1       748-8.76792E-04-1.39671E-06-7.16409E-03
 -1       749-8.85364E-04-1.15119E-06-7.64488E-03
 -1       750-8.92352E-04-9.34648E-07-8.12733E-03
 -1       751-8.97951E-04-7.47252E-07-8.61064E-03
 -1       752-9.02358E-04-5.89007E-07-9.09410E-03
 -1       753-9.05769E-04-4.58443E-07-9.57712E-03
 -1       754-9.08381E-04-3.51293E-07-1.00592E-02
 -1       755-9.10386E-04-2.69127E-07-1.05400E-02
 -1       756-9.11966E-04-2.48583E-07-1.10193E-02
 -1       757 7.04918E-05 1.11417E-05-6.03435E-05
 -1       758 1.53964E-04 1.14695E-05-1.85560E-04
 -1       759 2.29081E-04 1.06938E-05-3.45014E-04
 -1       760 2.99181E-04 1.01176E-05-5.38616E-04
 -1       761 3.63907E-04 9.32836E-06-7.65247E-04
 -1       762 4.23540E-04 8.57381E-06-1.02348E-03
 -1       763 4.78324E-04 7.88330E-06-1.31089E-03
 -1       764 5.28464E-04 7.23336E-06-1.62488E-03
 -1       765 5.74152E-04 6.61256E-06-1.96296E-03
 -1       766 6.15586E-04 6.01923E-06-2.32280E-03
 -1       767 6.52968E-04 5.45427E-06-2.70222E-03
 -1       768 6.86501E-04 4.91827E-06-3.09914E-03
 -1       769 7.16388E-04 4.41139E-06-3.51158E-03
 -1       770 7.42834E-04 3.93358E-06-3.93768E-03
 -1       771 7.66043E-04 3.48478E-06-4.37567E-03
 -1       772 7.86221E-04 3.06498E-06-4.82390E-03
 -1       773 8.03571E-04 2.67417E-06-5.28081E-03
 -1       774 8.18299E-04 2.31233E-06-5.74497E-03
 -1       775 8.30610E-04 1.97946E-06-6.21503E-03
 -1       776 8.40707E-04 1.67555E-06-6.68978E-03
 -1       777 8.48794E-04 1.40057E-06-7.16810E-03
 -1       778 8.55076E-04 1.15453E-06-7.64896E-03
 -1       779 8.59756E-04 9.37508E-07-8.13146E-03
 -1       780 8.63037E-04 7.49669E-07-8.61480E-03
 -1       781 8.65121E-04 5.91007E-07-9.09829E-03
 -1       782 8.66211E-04 4.60040E-07-9.58134E-03
 -1       783 8.66509E-04 3.52498E-07-1.00634E-02
 -1       784 8.66209E-04 2.69935E-07-1.05442E-02
 -1       785 8.65496E-04 2.49010E-07-1.10236E-02
 -1       786 8.47693E-05 1.47870E-05-6.48339E-05
 -1       787 1.73403E-04 1.29692E-05-1.88630E-04
 -1       788 2.53076E-04 1.03304E-05-3.48112E-04
 -1       789 3.27705E-04 9.44793E-06-5.41466E-04
 -1       790 3.96801E-04 8.79658E-06-7.67901E-04
 -1       791 4.60546E-04 8.13162E-06-1.02593E-03
 -1       792 5.19087E-04 7.45339E-06-1.31317E-03
 -1       793 5.72636E-04 6.78810E-06-1.62698E-03
 -1       794 6.21411E-04 6.15147E-06-1.96488E-03
 -1       795 6.65628E-04 5.54629E-06-2.32456E-03
 -1       796 7.05506E-04 4.97141E-06-2.70383E-03
 -1       797 7.41261E-04 4.42593E-06-3.10060E-03
 -1       798 7.73111E-04 3.90963E-06-3.51291E-03
 -1       799 8.01275E-04 3.42260E-06-3.93888E-03
 -1       800 8.25972E-04 2.96491E-06-4.37675E-03
 -1       801 8.47420E-04 2.53661E-06-4.82486E-03
 -1       802 8.65839E-04 2.13773E-06-5.28166E-03
 -1       803 8.81449E-04 1.76828E-06-5.74572E-03
 -1       804 8.94467E-04 1.42828E-06-6.21569E-03
 -1       805 9.05114E-04 1.11777E-06-6.69036E-03
 -1       806 9.13607E-04 8.36782E-07-7.16859E-03
 -1       807 9.20165E-04 5.85305E-07-7.64938E-03
 -1       808 9.25006E-04 3.63231E-07-8.13182E-03
 -1       809 9.28346E-04 1.70326E-07-8.61511E-03
 -1       810 9.30402E-04 6.75075E-09-9.09856E-03
 -1       811 9.31391E-04-1.25564E-07-9.58156E-03
 -1       812 9.31526E-04-2.21755E-07-1.00636E-02
 -1       813 9.31028E-04-2.77875E-07-1.05444E-02
 -1       814 9.30128E-04-3.13568E-07-1.10237E-02
 -1       815-8.48945E-05 1.48392E-05-6.44642E-05
 -1       816-1.73844E-04 1.30448E-05-1.87932E-04
 -1       817-2.53881E-04 1.03973E-05-3.47265E-04
 -1       818-3.28965E-04 9.50312E-06-5.40468E-04
 -1       819-3.98633E-04 8.84256E-06-7.66713E-04
 -1       820-4.63086E-04 8.16980E-06-1.02453E-03
 -1       821-5.22479E-04 7.48433E-06-1.31152E-03
 -1       822-5.77027E-04 6.81257E-06-1.62508E-03
 -1       823-6.26946E-04 6.17043E-06-1.96273E-03
 -1       824-6.72453E-04 5.56062E-06-2.32215E-03
 -1       825-7.13757E-04 4.98186E-06-2.70117E-03
 -1       826-7.51070E-04 4.43313E-06-3.09770E-03
 -1       827-7.84598E-04 3.91416E-06-3.50978E-03
 -1       828-8.14552E-04 3.42496E-06-3.93553E-03
 -1       829-8.41139E-04 2.96556E-06-4.37321E-03
 -1       830-8.64567E-04 2.53594E-06-4.82114E-03
 -1       831-8.85045E-04 2.13609E-06-5.27778E-03
 -1       832-9.02780E-04 1.76597E-06-5.74170E-03
 -1       833-9.17980E-04 1.42555E-06-6.21156E-03
 -1       834-9.30853E-04 1.11483E-06-6.68612E-03
 -1       835-9.41609E-04 8.33805E-07-7.16427E-03
 -1       836-9.50456E-04 5.82427E-07-7.64499E-03
 -1       837-9.57604E-04 3.60561E-07-8.12738E-03
 -1       838-9.63262E-04 1.67942E-07-8.61063E-03
 -1       839-9.67640E-04 4.70960E-09-9.09405E-03
 -1       840-9.70949E-04-1.27226E-07-9.57703E-03
 -1       841-9.73399E-04-2.23016E-07-1.00591E-02
 -1       842-9.75205E-04-2.78716E-07-1.05398E-02
 -1       843-9.76598E-04-3.14000E-07-1.10192E-02
 -1       844-7.06513E-05 1.11271E-05-5.99864E-05
 -1       845-1.54390E-04 1.14277E-05-1.84887E-04
 -1       846-2.29855E-04 1.06507E-05-3.44207E-04
 -1       847-3.00410E-04 1.00802E-05-5.37678E-04
 -1       848-3.65710E-04 9.29468E-06-7.64140E-04
 -1       849-4.26051E-04 8.54370E-06-1.02217E-03
 -1       850-4.81689E-04 7.85684E-06-1.30937E-03
 -1       851-5.32829E-04 7.21027E-06-1.62313E-03
 -1       852-5.79664E-04 6.59243E-06-1.96097E-03
 -1       853-6.22390E-04 6.00167E-06-2.32057E-03
 -1       854-6.61200E-04 5.43895E-06-2.69976E-03
 -1       855-6.96292E-04 4.90493E-06-3.09646E-03
 -1       856-7.27859E-04 4.39977E-06-3.50869E-03
 -1       857-7.56097E-04 3.92345E-06-3.93459E-03
 -1       858-7.81199E-04 3.47597E-06-4.37240E-03
 -1       859-8.03358E-04 3.05730E-06-4.82046E-03
 -1       860-8.22768E-04 2.66747E-06-5.27722E-03
 -1       861-8.39623E-04 2.30649E-06-5.74125E-03
 -1       862-8.54116E-04 1.97437E-06-6.21120E-03
 -1       863-8.66441E-04 1.67111E-06-6.68586E-03
 -1       864-8.76792E-04 1.39671E-06-7.16409E-03
 -1       865-8.85364E-04 1.15119E-06-7.64488E-03
 -1       866-8.92352E-04 9.34648E-07-8.12733E-03
 -1       867-8.97951E-04 7.47252E-07-8.61064E-03
 -1       868-9.02358E-04 5.89007E-07-9.09410E-03
 -1       869-9.05769E-04 4.58443E-07-9.57712E-03
 -1       870-9.08381E-04 3.51293E-07-1.00592E-02
 -1       871-9.10386E-04 2.69127E-07-1.05400E-02
 -1       872-9.11966E-04 2.48583E-07-1.10193E-02
 -1       873 9.30128E-04 3.13568E-07-1.10237E-02
 -1       874 9.31028E-04 2.77875E-07-1.05444E-02
 -1       875 9.31526E-04 2.21755E-07-1.00636E-02
 -1       876 9.31391E-04 1.25564E-07-9.58156E-03
 -1       877 9.30402E-04-6.75075E-09-9.09856E-03
 -1       878 9.28346E-04-1.70326E-07-8.61511E-03
 -1       879 9.25006E-04-3.63231E-07-8.13182E-03
 -1       880 9.20165E-04-5.85305E-07-7.64938E-03
 -1       881 9.13607E-04-8.36782E-07-7.16859E-03
 -1       882 9.05114E-04-1.11777E-06-6.69036E-03
 -1       883 8.94467E-04-1.42828E-06-6.21569E-03
 -1       884 8.81449E-04-1.76828E-06-5.74572E-03
 -1       885 8.65839E-04-2.13773E-06-5.28166E-03
 -1       886 8.47420E-04-2.53661E-06-4.82486E-03
 -1       887 8.25972E-04-2.96491E-06-4.37675E-03
 -1       888 8.01275E-04-3.42260E-06-3.93888E-03
 -1       889 7.73111E-04-3.90963E-06-3.51291E-03
 -1       890 7.41261E-04-4.42593E-06-3.10060E-03
 -1       891 7.05506E-04-4.97141E-06-2.70383E-03
 -1       892 6.65628E-04-5.54629E-06-2.32456E-03
 -1       893 6.21411E-04-6.15147E-06-1.96488E-03
 -1       894 5.72636E-04-6.78810E-06-1.62698E-03
 -1       895 5.19087E-04-7.45339E-06-1.31317E-03
 -1       896 4.60546E-04-8.13162E-06-1.02593E-03
 -1       897 3.96801E-04-8.79658E-06-7.67901E-04
 -1       898 3.27705E-04-9.44793E-06-5.41466E-04
 -1       899 2.53076E-04-1.03304E-05-3.48112E-04
 -1       900 1.73403E-04-1.29692E-05-1.88630E-04
 -1       901 8.47693E-05-1.47870E-05-6.48339E-05
 -1       902 7.04918E-05-1.11417E-05-6.03435E-05
 -1       903 1.53964E-04-1.14695E-05-1.85560E-04
 -1       904 2.29081E-04-1.06938E-05-3.45014E-04
 -1       905 2.99181E-04-1.01176E-05-5.38616E-04
 -1       906 3.63907E-04-9.32836E-06-7.65247E-04
 -1       907 4.23540E-04-8.57381E-06-1.02348E-03
 -1       908 4.78324E-04-7.88330E-06-1.31089E-03
 -1       909 5.28464E-04-7.23336E-06-1.62488E-03
 -1       910 5.74152E-04-6.61256E-06-1.96296E-03
 -1       911 6.15586E-04-6.01923E-06-2.32280E-03
 -1       912 6.52968E-04-5.45427E-06-2.70222E-03
 -1       913 6.86501E-04-4.91827E-06-3.09914E-03
 -1       914 7.16388E-04-4.41139E-06-3.51158E-03
 -1       915 7.42834E-04-3.93358E-06-3.93768E-03
 -1       916 7.66043E-04-3.48478E-06-4.37567E-03
 -1       917 7.86221E-04-3.06498E-06-4.82390E-03
 -1       918 8.03571E-04-2.67417E-06-5.28081E-03
 -1       919 8.18299E-04-2.31233E-06-5.74497E-03
 -1       920 8.30610E-04-1.97946E-06-6.21503E-03
 -1       921 8.40707E-04-1.67555E-06-6.68978E-03
 -1       922 8.48794E-04-1.40057E-06-7.16810E-03
 -1       923 8.55076E-04-1.15453E-06-7.64896E-03
 -1       924 8.59756E-04-9.37508E-07-8.13146E-03
 -1       925 8.63037E-04-7.49669E-07-8.61480E-03
 -1       926 8.65121E-04-5.91007E-07-9.09829E-03
 -1       927 8.66211E-04-4.60040E-07-9.58134E-03
 -1       928 8.66509E-04-3.52498E-07-1.00634E-02
 -1       929 8.66209E-04-2.69935E-07-1.05442E-02
 -1       930 8.65496E-04-2.49010E-07-1.10236E-02
 -3
    1PSTEP                         6           2           1          
  100CL  102 100.0000000         930                     0    2           1
 -4  STRESS      6    1
 -5  SXX         1    4    1    1
 -5  SYY         1    4    2    2
 -5  SZZ         1    4    3    3
 -5  SXY         1    4    1    2
 -5  SYZ         1    4    2    3
 -5  SZX         1    4    3    1
 -1         1-2.11093E+08-9.06039E+07-9.05365E+07-1.12494E+06 3.13883E+03-5.54220E+07
 -1         2-2.11093E+08-9.06039E+07-9.05365E+07 1.12494E+06-3.13883E+03-5.54220E+07
 -1         3 5.47385E+05 1.30938E+06 1.46273E+06-1.24215E+05 5.56403E+05-6.02532E+05
 -1         4 5.47385E+05 1.30938E+06 1.46273E+06 1.24215E+05-5.56403E+05-6.02532E+05
 -1         5 2.11184E+08 9.03754E+07 9.04432E+07 1.13233E+06-3.10143E+03-5.58551E+07
 -1         6 2.11184E+08 9.03754E+07 9.04432E+07-1.13233E+06 3.10143E+03-5.58551E+07
 -1         7-5.55446E+05-1.30874E+06-1.45035E+06 1.29568E+05 5.55139E+05-6.11101E+05
 -1         8-5.55446E+05-1.30874E+06-1.45035E+06-1.29568E+05-5.55139E+05-6.11101E+05
 -1         9-2.49166E+08-1.06977E+08-1.06903E+08-1.36981E+06 4.64577E+03-5.88513E+07
 -1        10-1.73358E+06-4.61210E+06-1.23953E+06-4.79566E+04 7.82819E+05-4.69533E+05
 -1        11-2.45940E+08-1.05578E+08-1.05560E+08-2.18637E+07 2.19411E+04-4.18311E+07
 -1        12-2.09518E+08-8.99211E+07-8.99068E+07-1.85141E+07 1.62849E+04-3.84409E+07
 -1        13-3.39258E+05-4.15526E+05-1.45069E+05 7.77982E+04-1.62569E+05-1.12609E+05
 -1        14-1.40235E+05 2.50705E+05 1.14556E+05-2.04839E+05-1.74651E+05-1.16563E+05
 -1        15 2.49481E+08 1.06732E+08 1.06807E+08 1.37196E+06-4.56287E+03-5.93614E+07
 -1        16 1.72803E+06 4.61289E+06 1.24924E+06 5.55145E+04 7.82353E+05-4.74133E+05
 -1        17 2.09522E+08 8.96712E+07 8.96864E+07 1.86096E+07-1.65266E+04-3.90869E+07
 -1        18 2.46345E+08 1.05405E+08 1.05424E+08 2.19386E+07-2.21688E+04-4.25426E+07
 -1        19 1.41694E+05-2.49906E+05-1.11669E+05 2.03053E+05-1.76626E+05-1.19006E+05
 -1        20 3.40790E+05 4.16321E+05 1.47875E+05-7.94300E+04-1.61781E+05-1.14448E+05
 -1        21-2.09518E+08-8.99211E+07-8.99068E+07 1.85141E+07-1.62849E+04-3.84409E+07
 -1        22-2.45940E+08-1.05578E+08-1.05560E+08 2.18637E+07-2.19411E+04-4.18311E+07
 -1        23-3.39258E+05-4.15526E+05-1.45069E+05-7.77982E+04 1.62569E+05-1.12609E+05
 -1        24-1.40235E+05 2.50705E+05 1.14556E+05 2.04839E+05 1.74651E+05-1.16563E+05
 -1        25-2.49166E+08-1.06977E+08-1.06903E+08 1.36981E+06-4.64577E+03-5.88513E+07
 -1        26-1.73358E+06-4.61210E+06-1.23953E+06 4.79566E+04-7.82819E+05-4.69533E+05
 -1        27 2.49481E+08 1.06732E+08 1.06807E+08-1.37196E+06 4.56287E+03-5.93614E+07
 -1        28 2.46345E+08 1.05405E+08 1.05424E+08-2.19386E+07 2.21688E+04-4.25426E+07
 -1        29 2.09522E+08 8.96712E+07 8.96864E+07-1.86096E+07 1.65266E+04-3.90869E+07
 -1        30 1.72803E+06 4.61289E+06 1.24924E+06-5.55145E+04-7.82353E+05-4.74133E+05
 -1        31 3.40790E+05 4.16321E+05 1.47875E+05 7.94300E+04 1.61781E+05-1.14448E+05
 -1        32 1.41694E+05-2.49906E+05-1.11669E+05-2.03053E+05 1.76626E+05-1.19006E+05
 -1        33-1.58290E+08 1.69983E+07 1.04457E+07 2.99171E+06 4.13033E+06-1.04348E+07
 -1        34-1.71391E+08-4.30310E+06-8.83243E+06 2.68663E+06 6.20270E+05-1.59651E+07
 -1        35-1.52274E+08 2.41762E+06-9.02624E+05 2.98748E+06-2.55732E+05-1.42437E+07
 -1        36-1.41139E+08 2.31582E+06-1.26440E+06 2.73469E+06-5.15132E+05-1.40069E+07
 -1        37-1.30471E+08 2.25362E+06-1.03413E+06 2.61037E+06-4.16840E+05-1.34062E+07
 -1        38-1.20359E+08 1.90719E+06-1.09688E+06 2.51722E+06-3.50378E+05-1.28204E+07
 -1        39-1.10514E+08 1.81858E+06-9.24682E+05 2.41768E+06-3.45656E+05-1.22626E+07
 -1        40-1.01081E+08 1.76347E+06-7.37547E+05 2.31370E+06-3.60418E+05-1.17212E+07
 -1        41-9.20604E+07 1.71518E+06-5.55012E+05 2.20800E+06-3.74586E+05-1.11833E+07
 -1        42-8.34625E+07 1.66051E+06-3.90072E+05 2.10226E+06-3.84769E+05-1.06482E+07
 -1        43-7.52850E+07 1.60466E+06-2.37699E+05 1.99678E+06-3.92801E+05-1.01161E+07
 -1        44-6.75267E+07 1.55063E+06-9.50734E+04 1.89145E+06-3.99943E+05-9.58664E+06
 -1        45-6.01872E+07 1.49929E+06 3.87418E+04 1.78615E+06-4.06531E+05-9.05923E+06
 -1        46-5.32665E+07 1.45059E+06 1.63805E+05 1.68085E+06-4.12554E+05-8.53316E+06
 -1        47-4.67647E+07 1.40445E+06 2.80137E+05 1.57557E+06-4.17985E+05-8.00780E+06
 -1        48-4.06820E+07 1.36090E+06 3.87851E+05 1.47030E+06-4.22843E+05-7.48265E+06
 -1        49-3.50185E+07 1.32001E+06 4.87100E+05 1.36505E+06-4.27166E+05-6.95726E+06
 -1        50-2.97740E+07 1.28187E+06 5.78038E+05 1.25982E+06-4.30993E+05-6.43124E+06
 -1        51-2.49488E+07 1.24654E+06 6.60793E+05 1.15460E+06-4.34355E+05-5.90429E+06
 -1        52-2.05429E+07 1.21406E+06 7.35466E+05 1.04939E+06-4.37272E+05-5.37613E+06
 -1        53-1.65562E+07 1.18444E+06 8.02136E+05 9.44199E+05-4.39758E+05-4.84654E+06
 -1        54-1.29889E+07 1.15779E+06 8.60958E+05 8.39029E+05-4.41857E+05-4.31536E+06
 -1        55-9.84066E+06 1.13457E+06 9.12390E+05 7.33907E+05-4.43752E+05-3.78237E+06
 -1        56-7.11131E+06 1.11553E+06 9.57196E+05 6.28808E+05-4.45774E+05-3.24724E+06
 -1        57-4.80106E+06 1.10079E+06 9.95330E+05 5.23571E+05-4.47892E+05-2.71002E+06
 -1        58-2.91314E+06 1.08303E+06 1.02077E+06 4.17589E+05-4.47431E+05-2.17176E+06
 -1        59-1.45611E+06 1.04429E+06 1.01974E+06 3.11033E+05-4.37767E+05-1.63553E+06
 -1        60-4.43882E+05 9.78719E+05 9.81649E+05 2.07855E+05-4.16994E+05-1.10853E+06
 -1        61 1.50026E+05 1.03378E+06 9.67255E+05 1.21633E+05-4.29039E+05-6.17240E+05
 -1        62-1.58290E+08 1.69983E+07 1.04457E+07-2.99171E+06-4.13033E+06-1.04348E+07
 -1        63-1.71391E+08-4.30310E+06-8.83243E+06-2.68663E+06-6.20270E+05-1.59651E+07
 -1        64-1.52274E+08 2.41762E+06-9.02624E+05-2.98748E+06 2.55732E+05-1.42437E+07
 -1        65-1.41139E+08 2.31582E+06-1.26440E+06-2.73469E+06 5.15132E+05-1.40069E+07
 -1        66-1.30471E+08 2.25362E+06-1.03413E+06-2.61037E+06 4.16840E+05-1.34062E+07
 -1        67-1.20359E+08 1.90719E+06-1.09688E+06-2.51722E+06 3.50378E+05-1.28204E+07
 -1        68-1.10514E+08 1.81858E+06-9.24682E+05-2.41768E+06 3.45656E+05-1.22626E+07
 -1        69-1.01081E+08 1.76347E+06-7.37547E+05-2.31370E+06 3.60418E+05-1.17212E+07
 -1        70-9.20604E+07 1.71518E+06-5.55012E+05-2.20800E+06 3.74586E+05-1.11833E+07
 -1        71-8.34625E+07 1.66051E+06-3.90072E+05-2.10226E+06 3.84769E+05-1.06482E+07
 -1        72-7.52850E+07 1.60466E+06-2.37699E+05-1.99678E+06 3.92801E+05-1.01161E+07
 -1        73-6.75267E+07 1.55063E+06-9.50734E+04-1.89145E+06 3.99943E+05-9.58664E+06
 -1        74-6.01872E+07 1.49929E+06 3.87418E+04-1.78615E+06 4.06531E+05-9.05923E+06
 -1        75-5.32665E+07 1.45059E+06 1.63805E+05-1.68085E+06 4.12554E+05-8.53316E+06
 -1        76-4.67647E+07 1.40445E+06 2.80137E+05-1.57557E+06 4.17985E+05-8.00780E+06
 -1        77-4.06820E+07 1.36090E+06 3.87851E+05-1.47030E+06 4.22843E+05-7.48265E+06
 -1        78-3.50185E+07 1.32001E+06 4.87100E+05-1.36505E+06 4.27166E+05-6.95726E+06
 -1        79-2.97740E+07 1.28187E+06 5.78038E+05-1.25982E+06 4.30993E+05-6.43124E+06
 -1        80-2.49488E+07 1.24654E+06 6.60793E+05-1.15460E+06 4.34355E+05-5.90429E+06
 -1        81-2.05429E+07 1.21406E+06 7.35466E+05-1.04939E+06 4.37272E+05-5.37613E+06
 -1        82-1.65562E+07 1.18444E+06 8.02136E+05-9.44199E+05 4.39758E+05-4.84654E+06
 -1        83-1.29889E+07 1.15779E+06 8.60958E+05-8.39029E+05 4.41857E+05-4.31536E+06
 -1        84-9.84066E+06 1.13457E+06 9.12390E+05-7.33907E+05 4.43752E+05-3.78237E+06
 -1        85-7.11131E+06 1.11553E+06 9.57196E+05-6.28808E+05 4.45774E+05-3.24724E+06
 -1        86-4.80106E+06 1.10079E+06 9.95330E+05-5.23571E+05 4.47892E+05-2.71002E+06
 -1        87-2.91314E+06 1.08303E+06 1.02077E+06-4.17589E+05 4.47431E+05-2.17176E+06
 -1        88-1.45611E+06 1.04429E+06 1.01974E+06-3.11033E+05 4.37767E+05-1.63553E+06
 -1        89-4.43882E+05 9.78719E+05 9.81649E+05-2.07855E+05 4.16994E+05-1.10853E+06
 -1        90 1.50026E+05 1.03378E+06 9.67255E+05-1.21633E+05 4.29039E+05-6.17240E+05
 -1        91-9.87315E+07-4.23392E+07-4.22859E+07-6.20934E+05 6.37186E+02-4.65327E+07
 -1        92-2.53030E+05-1.02329E+05-5.59101E+04-2.39157E+03 4.97819E+00-4.43994E+07
 -1        93 9.83467E+07 4.21248E+07 4.21777E+07 6.17545E+05-6.28734E+02-4.67294E+07
 -1        94 9.83467E+07 4.21248E+07 4.21777E+07-6.17545E+05 6.28734E+02-4.67294E+07
 -1        95-2.53030E+05-1.02329E+05-5.59101E+04 2.39157E+03-4.97819E+00-4.43994E+07
 -1        96-9.87315E+07-4.23392E+07-4.22859E+07 6.20934E+05-6.37186E+02-4.65327E+07
 -1        97 1.58459E+08-1.70801E+07-1.05344E+07 2.99864E+06-4.07228E+06-1.07441E+07
 -1        98 1.71463E+08 4.06068E+06 8.62742E+06 2.68409E+06-5.31110E+05-1.64321E+07
 -1        99 1.52314E+08-2.63687E+06 7.49238E+05 2.98291E+06 3.34169E+05-1.47666E+07
 -1       100 1.41164E+08-2.50040E+06 1.16366E+06 2.73178E+06 5.78270E+05-1.45882E+07
 -1       101 1.30482E+08-2.41262E+06 9.78904E+05 2.60846E+06 4.68518E+05-1.40293E+07
 -1       102 1.20357E+08-2.04390E+06 1.07966E+06 2.51589E+06 3.91779E+05-1.34681E+07
 -1       103 1.10500E+08-1.93337E+06 9.41450E+05 2.41700E+06 3.77402E+05-1.29193E+07
 -1       104 1.01058E+08-1.85848E+06 7.83171E+05 2.31372E+06 3.83612E+05-1.23736E+07
 -1       105 9.20291E+07-1.79316E+06 6.24045E+05 2.20863E+06 3.90572E+05-1.18203E+07
 -1       106 8.34245E+07-1.72403E+06 4.77489E+05 2.10341E+06 3.94782E+05-1.12608E+07
 -1       107 7.52419E+07-1.65589E+06 3.39143E+05 1.99837E+06 3.97888E+05-1.06972E+07
 -1       108 6.74798E+07-1.59143E+06 2.06747E+05 1.89342E+06 4.01006E+05-1.01309E+07
 -1       109 6.01378E+07-1.53129E+06 7.97980E+04 1.78847E+06 4.04373E+05-9.56276E+06
 -1       110 5.32156E+07-1.47526E+06-4.13909E+04 1.68349E+06 4.07890E+05-8.99338E+06
 -1       111 4.67135E+07-1.42311E+06-1.56493E+05 1.57850E+06 4.11452E+05-8.42329E+06
 -1       112 4.06313E+07-1.37468E+06-2.65291E+05 1.47348E+06 4.14998E+05-7.85300E+06
 -1       113 3.49690E+07-1.32992E+06-3.67626E+05 1.36845E+06 4.18492E+05-7.28296E+06
 -1       114 2.97265E+07-1.28876E+06-4.63360E+05 1.26341E+06 4.21904E+05-6.71354E+06
 -1       115 2.49038E+07-1.25112E+06-5.52354E+05 1.15835E+06 4.25200E+05-6.14507E+06
 -1       116 2.05008E+07-1.21694E+06-6.34459E+05 1.05328E+06 4.28342E+05-5.57783E+06
 -1       117 1.65175E+07-1.18611E+06-7.09529E+05 9.48204E+05 4.31288E+05-5.01204E+06
 -1       118 1.29539E+07-1.15865E+06-7.77515E+05 8.43126E+05 4.34036E+05-4.44788E+06
 -1       119 9.80960E+06-1.13492E+06-8.38693E+05 7.38077E+05 4.36723E+05-3.88542E+06
 -1       120 7.08441E+06-1.11560E+06-8.93668E+05 6.33037E+05 4.39642E+05-3.32455E+06
 -1       121 4.77847E+06-1.10073E+06-9.42250E+05 5.27849E+05 4.42731E+05-2.76544E+06
 -1       122 2.89496E+06-1.08295E+06-9.78284E+05 4.21879E+05 4.43292E+05-2.20924E+06
 -1       123 1.44233E+06-1.04423E+06-9.87834E+05 3.15240E+05 4.34680E+05-1.65897E+06
 -1       124 4.34269E+05-9.78753E+05-9.60169E+05 2.11861E+05 4.14929E+05-1.12194E+06
 -1       125-1.55859E+05-1.03362E+06-9.55103E+05 1.25759E+05 4.27847E+05-6.24900E+05
 -1       126-2.22499E+05-4.14911E+05 8.05710E+05 3.14480E+03 4.05834E+03-7.85074E+05
 -1       127-5.57765E+03 3.32641E+02 7.85171E+03-5.66347E+01-1.04557E+04-7.74082E+05
 -1       128 2.11007E+05 4.15569E+05-7.89775E+05-3.12037E+03 4.08684E+03-7.94772E+05
 -1       129 1.58459E+08-1.70801E+07-1.05344E+07-2.99864E+06 4.07228E+06-1.07441E+07
 -1       130 1.71463E+08 4.06068E+06 8.62742E+06-2.68409E+06 5.31110E+05-1.64321E+07
 -1       131 1.52314E+08-2.63687E+06 7.49238E+05-2.98291E+06-3.34169E+05-1.47666E+07
 -1       132 1.41164E+08-2.50040E+06 1.16366E+06-2.73178E+06-5.78270E+05-1.45882E+07
 -1       133 1.30482E+08-2.41262E+06 9.78904E+05-2.60846E+06-4.68518E+05-1.40293E+07
 -1       134 1.20357E+08-2.04390E+06 1.07966E+06-2.51589E+06-3.91779E+05-1.34681E+07
 -1       135 1.10500E+08-1.93337E+06 9.41450E+05-2.41700E+06-3.77402E+05-1.29193E+07
 -1       136 1.01058E+08-1.85848E+06 7.83171E+05-2.31372E+06-3.83612E+05-1.23736E+07
 -1       137 9.20291E+07-1.79316E+06 6.24045E+05-2.20863E+06-3.90572E+05-1.18203E+07
 -1       138 8.34245E+07-1.72403E+06 4.77489E+05-2.10341E+06-3.94782E+05-1.12608E+07
 -1       139 7.52419E+07-1.65589E+06 3.39143E+05-1.99837E+06-3.97888E+05-1.06972E+07
 -1       140 6.74798E+07-1.59143E+06 2.06747E+05-1.89342E+06-4.01006E+05-1.01309E+07
 -1       141 6.01378E+07-1.53129E+06 7.97980E+04-1.78847E+06-4.04373E+05-9.56276E+06
 -1       142 5.32156E+07-1.47526E+06-4.13909E+04-1.68349E+06-4.07890E+05-8.99338E+06
 -1       143 4.67135E+07-1.42311E+06-1.56493E+05-1.57850E+06-4.11452E+05-8.42329E+06
 -1       144 4.06313E+07-1.37468E+06-2.65291E+05-1.47348E+06-4.14998E+05-7.85300E+06
 -1       145 3.49690E+07-1.32992E+06-3.67626E+05-1.36845E+06-4.18492E+05-7.28296E+06
 -1       146 2.97265E+07-1.28876E+06-4.63360E+05-1.26341E+06-4.21904E+05-6.71354E+06
 -1       147 2.49038E+07-1.25112E+06-5.52354E+05-1.15835E+06-4.25200E+05-6.14507E+06
 -1       148 2.05008E+07-1.21694E+06-6.34459E+05-1.05328E+06-4.28342E+05-5.57783E+06
 -1       149 1.65175E+07-1.18611E+06-7.09529E+05-9.48204E+05-4.31288E+05-5.01204E+06
 -1       150 1.29539E+07-1.15865E+06-7.77515E+05-8.43126E+05-4.34036E+05-4.44788E+06
 -1       151 9.80960E+06-1.13492E+06-8.38693E+05-7.38077E+05-4.36723E+05-3.88542E+06
 -1       152 7.08441E+06-1.11560E+06-8.93668E+05-6.33037E+05-4.39642E+05-3.32455E+06
 -1       153 4.77847E+06-1.10073E+06-9.42250E+05-5.27849E+05-4.42731E+05-2.76544E+06
 -1       154 2.89496E+06-1.08295E+06-9.78284E+05-4.21879E+05-4.43292E+05-2.20924E+06
 -1       155 1.44233E+06-1.04423E+06-9.87834E+05-3.15240E+05-4.34680E+05-1.65897E+06
 -1       156 4.34269E+05-9.78753E+05-9.60169E+05-2.11861E+05-4.14929E+05-1.12194E+06
 -1       157-1.55859E+05-1.03362E+06-9.55103E+05-1.25759E+05-4.27847E+05-6.24900E+05
 -1       158 2.11007E+05 4.15569E+05-7.89775E+05 3.12037E+03-4.08684E+03-7.94772E+05
 -1       159-5.57765E+03 3.32641E+02 7.85171E+03 5.66347E+01 1.04557E+04-7.74082E+05
 -1       160-2.22499E+05-4.14911E+05 8.05710E+05-3.14480E+03-4.05834E+03-7.85074E+05
 -1       161-1.68082E+08 3.09845E+07 2.55810E+07-3.70014E+06-6.28804E+06 3.77594E+06
 -1       162-1.76981E+08 5.70968E+06-4.65304E+06-2.32307E+06-1.11645E+06-4.28592E+06
 -1       163-1.65412E+08-4.91612E+06-2.66199E+06-3.31150E+06 1.14866E+05-3.20454E+06
 -1       164-1.54420E+08-6.93375E+06-4.30258E+06-3.33026E+06 5.33254E+05-3.24845E+06
 -1       165-1.42493E+08-5.71593E+06-3.47501E+06-3.23607E+06 3.96474E+05-3.10599E+06
 -1       166-1.31299E+08-5.11409E+06-3.22642E+06-3.08862E+06 3.19227E+05-2.92588E+06
 -1       167-1.20620E+08-4.85726E+06-2.98361E+06-2.94830E+06 3.26586E+05-2.77128E+06
 -1       168-1.10466E+08-4.77286E+06-2.82348E+06-2.81797E+06 3.61944E+05-2.63864E+06
 -1       169-1.00761E+08-4.69143E+06-2.66647E+06-2.69047E+06 3.95735E+05-2.51324E+06
 -1       170-9.14998E+07-4.59187E+06-2.51151E+06-2.56283E+06 4.23224E+05-2.39136E+06
 -1       171-8.26857E+07-4.48530E+06-2.36047E+06-2.43465E+06 4.47019E+05-2.27251E+06
 -1       172-7.43220E+07-4.38133E+06-2.21652E+06-2.30627E+06 4.68929E+05-2.15634E+06
 -1       173-6.64096E+07-4.28233E+06-2.08028E+06-2.17789E+06 4.89435E+05-2.04231E+06
 -1       174-5.89486E+07-4.18819E+06-1.95174E+06-2.04953E+06 5.08517E+05-1.92972E+06
 -1       175-5.19391E+07-4.09864E+06-1.83081E+06-1.92119E+06 5.26136E+05-1.81790E+06
 -1       176-4.53810E+07-4.01377E+06-1.71749E+06-1.79286E+06 5.42315E+05-1.70630E+06
 -1       177-3.92747E+07-3.93379E+06-1.61184E+06-1.66453E+06 5.57109E+05-1.59443E+06
 -1       178-3.36202E+07-3.85893E+06-1.51392E+06-1.53621E+06 5.70569E+05-1.48189E+06
 -1       179-2.84177E+07-3.78937E+06-1.42376E+06-1.40790E+06 5.82740E+05-1.36833E+06
 -1       180-2.36673E+07-3.72522E+06-1.34141E+06-1.27960E+06 5.93649E+05-1.25347E+06
 -1       181-1.93690E+07-3.66652E+06-1.26685E+06-1.15131E+06 6.03313E+05-1.13706E+06
 -1       182-1.55231E+07-3.61360E+06-1.20018E+06-1.02301E+06 6.11795E+05-1.01890E+06
 -1       183-1.21300E+07-3.56773E+06-1.14178E+06-8.94630E+05 6.19355E+05-8.98740E+05
 -1       184-9.19059E+06-3.53139E+06-1.09239E+06-7.66165E+05 6.26469E+05-7.76324E+05
 -1       185-6.70448E+06-3.50335E+06-1.05152E+06-6.37990E+05 6.33086E+05-6.52097E+05
 -1       186-4.66506E+06-3.46590E+06-1.01387E+06-5.11452E+05 6.35435E+05-5.27203E+05
 -1       187-3.05360E+06-3.36678E+06-9.62354E+05-3.86719E+05 6.23844E+05-4.03250E+05
 -1       188-1.89183E+06-3.21066E+06-9.07865E+05-2.62270E+05 5.95824E+05-2.83561E+05
 -1       189-1.32093E+06-3.13671E+06-9.30011E+05-1.18363E+05 6.13986E+05-1.90215E+05
 -1       190-2.39654E+08-1.02881E+08-1.02834E+08-1.19537E+07 1.51478E+04-5.19309E+07
 -1       191-1.99494E+08-8.56159E+07-8.55785E+07-8.96918E+06 1.02833E+04-4.83487E+07
 -1       192-7.34783E+05-1.45055E+06-6.85051E+05 1.10055E+04-4.20112E+05-1.34879E+05
 -1       193-1.69894E+08 1.51310E+07 1.94502E+07-5.38023E+06 1.32908E+06 4.24195E+06
 -1       194-1.75704E+08-2.39606E+06-7.98293E+06-4.69463E+05 1.33311E+06 3.48280E+06
 -1       195-1.62581E+08-1.20119E+06-2.28482E+05-1.37970E+06 5.62493E+05-6.60697E+05
 -1       196-1.52994E+08-2.63962E+06-2.90542E+06-2.34985E+06 3.88966E+05-4.30004E+05
 -1       197-1.41558E+08-2.30696E+06-2.38230E+06-2.38524E+06 4.38932E+05 1.77724E+05
 -1       198-1.30617E+08-2.18207E+06-2.31496E+06-2.21727E+06 4.13437E+05 3.49998E+05
 -1       199-1.19932E+08-1.99039E+06-2.08772E+06-2.07948E+06 3.72045E+05 3.58821E+05
 -1       200-1.09729E+08-1.83898E+06-1.90512E+06-1.97878E+06 3.21494E+05 3.31513E+05
 -1       201-9.99996E+07-1.70116E+06-1.73491E+06-1.89184E+06 2.74719E+05 3.12838E+05
 -1       202-9.07299E+07-1.57138E+06-1.57699E+06-1.80463E+06 2.31591E+05 2.99905E+05
 -1       203-8.19115E+07-1.44663E+06-1.42617E+06-1.71545E+06 1.91160E+05 2.85494E+05
 -1       204-7.35438E+07-1.32756E+06-1.28250E+06-1.62537E+06 1.52828E+05 2.67697E+05
 -1       205-6.56276E+07-1.21468E+06-1.14629E+06-1.53519E+06 1.16500E+05 2.47219E+05
 -1       206-5.81635E+07-1.10816E+06-1.01779E+06-1.44508E+06 8.22178E+04 2.25167E+05
 -1       207-5.11516E+07-1.00802E+06-8.97035E+05-1.35499E+06 5.00085E+04 2.02351E+05
 -1       208-4.45919E+07-9.14266E+05-7.84032E+05-1.26489E+06 1.98756E+04 1.79342E+05
 -1       209-3.84846E+07-8.26894E+05-6.78778E+05-1.17476E+06-8.18717E+03 1.56601E+05
 -1       210-3.28296E+07-7.45921E+05-5.81279E+05-1.08460E+06-3.41863E+04 1.34532E+05
 -1       211-2.76270E+07-6.71362E+05-4.91541E+05-9.94427E+05-5.81258E+04 1.13481E+05
 -1       212-2.28769E+07-6.03228E+05-4.09577E+05-9.04239E+05-8.00047E+04 9.37194E+04
 -1       213-1.85794E+07-5.41548E+05-3.35419E+05-8.14030E+05-9.98178E+04 7.54272E+04
 -1       214-1.47346E+07-4.86406E+05-2.69140E+05-7.23700E+05-1.17572E+05 5.87521E+04
 -1       215-1.13427E+07-4.37915E+05-2.10753E+05-6.33037E+05-1.33339E+05 4.41355E+04
 -1       216-8.40261E+06-3.95951E+05-1.59944E+05-5.42101E+05-1.47310E+05 3.28633E+04
 -1       217-5.91146E+06-3.59063E+05-1.15155E+05-4.52460E+05-1.59495E+05 2.63590E+04
 -1       218-3.86804E+06-3.25505E+05-7.69215E+04-3.68524E+05-1.69076E+05 2.20872E+04
 -1       219-2.28986E+06-2.98608E+05-4.60995E+04-2.94862E+05-1.71893E+05-5.29624E+03
 -1       220-1.18286E+06-2.63125E+05-3.79398E+04-1.92145E+05-1.62667E+05-8.36475E+04
 -1       221-5.52682E+05-3.49803E+05-1.07901E+05-3.28327E+04-1.87747E+05-1.14271E+05
 -1       222-1.42224E+08 2.45446E+07 3.05990E+07-1.92612E+06 1.79461E+06 5.41166E+06
 -1       223-1.61912E+08-6.22175E+05-3.29960E+06-4.27847E+06 1.58878E+06 3.03206E+06
 -1       224-1.51996E+08 2.82250E+06 4.16283E+06-2.96620E+06 4.36416E+05-7.16071E+05
 -1       225-1.41368E+08 1.99046E+06 1.98079E+06-1.86561E+06 3.93162E+05-6.55251E+05
 -1       226-1.29781E+08 2.25928E+06 2.52960E+06-1.73784E+06 4.18532E+05-1.26949E+03
 -1       227-1.19665E+08 2.02611E+06 2.24127E+06-1.72429E+06 4.00147E+05 1.69438E+05
 -1       228-1.09984E+08 1.85162E+06 2.05601E+06-1.69969E+06 3.57740E+05 1.86736E+05
 -1       229-1.00714E+08 1.69892E+06 1.86688E+06-1.63566E+06 3.06902E+05 1.66143E+05
 -1       230-9.18271E+07 1.56368E+06 1.70145E+06-1.55846E+06 2.59541E+05 1.54820E+05
 -1       231-8.33453E+07 1.43516E+06 1.54484E+06-1.48127E+06 2.16048E+05 1.49349E+05
 -1       232-7.52767E+07 1.31190E+06 1.39570E+06-1.40612E+06 1.75332E+05 1.42625E+05
 -1       233-6.76232E+07 1.19420E+06 1.25357E+06-1.33190E+06 1.36756E+05 1.32664E+05
 -1       234-6.03839E+07 1.08257E+06 1.11890E+06-1.25784E+06 1.00214E+05 1.20129E+05
 -1       235-5.35583E+07 9.77210E+05 9.91872E+05-1.18375E+06 6.57426E+04 1.06087E+05
 -1       236-4.71464E+07 8.78133E+05 8.72523E+05-1.10965E+06 3.33723E+04 9.13153E+04
 -1       237-4.11481E+07 7.85342E+05 7.60845E+05-1.03559E+06 3.10453E+03 7.63569E+04
 -1       238-3.55636E+07 6.98850E+05 6.56832E+05-9.61567E+05-2.50692E+04 6.16486E+04
 -1       239-3.03929E+07 6.18676E+05 5.60488E+05-8.87583E+05-5.11575E+04 4.75722E+04
 -1       240-2.56360E+07 5.44838E+05 4.71815E+05-8.13624E+05-7.51660E+04 3.44570E+04
 -1       241-2.12929E+07 4.77351E+05 3.90821E+05-7.39675E+05-9.70954E+04 2.25596E+04
 -1       242-1.73636E+07 4.16247E+05 3.17536E+05-6.65745E+05-1.16941E+05 1.20461E+04
 -1       243-1.38479E+07 3.61609E+05 2.52021E+05-5.91930E+05-1.34711E+05 3.05499E+03
 -1       244-1.07459E+07 3.13540E+05 1.94318E+05-5.18435E+05-1.50481E+05-3.97844E+03
 -1       245-8.05883E+06 2.71929E+05 1.44068E+05-4.45199E+05-1.64450E+05-7.76274E+03
 -1       246-5.78910E+06 2.35687E+05 1.00396E+05-3.70572E+05-1.76687E+05-6.90093E+03
 -1       247-3.93928E+06 2.02214E+05 6.03470E+04-2.90551E+05-1.86119E+05-3.79838E+03
 -1       248-2.49329E+06 1.70434E+05 3.38227E+04-2.02293E+05-1.89434E+05-2.43496E+04
 -1       249-1.35675E+06 1.81595E+05 4.34805E+04-1.35078E+05-1.78285E+05-9.71888E+04
 -1       250-4.73885E+05 2.77220E+05 1.03940E+05-1.70404E+05-2.00730E+05-1.21813E+05
 -1       251 3.87179E+04 8.08912E+05 2.24890E+05-3.07297E+05-3.83520E+05-1.38384E+05
 -1       252 1.32323E+06 3.13677E+06 9.33957E+05 1.24290E+05 6.12879E+05-1.93907E+05
 -1       253 1.89785E+06 3.21044E+06 9.13318E+05 2.68022E+05 5.93267E+05-2.92948E+05
 -1       254 3.06307E+06 3.36635E+06 9.70220E+05 3.92757E+05 6.20056E+05-4.23303E+05
 -1       255 4.67791E+06 3.46535E+06 1.02424E+06 5.17611E+05 6.30412E+05-5.62343E+05
 -1       256 6.72079E+06 3.50284E+06 1.06452E+06 6.44135E+05 6.26844E+05-7.06615E+05
 -1       257 9.21060E+06 3.53119E+06 1.10811E+06 7.72251E+05 6.19053E+05-8.54475E+05
 -1       258 1.21541E+07 3.56828E+06 1.16035E+06 9.00649E+05 6.10862E+05-1.00469E+06
 -1       259 1.55517E+07 3.61553E+06 1.22174E+06 1.02895E+06 6.02371E+05-1.15667E+06
 -1       260 1.94029E+07 3.67069E+06 1.29161E+06 1.15717E+06 5.93159E+05-1.31044E+06
 -1       261 2.37073E+07 3.73273E+06 1.36963E+06 1.28536E+06 5.83024E+05-1.46594E+06
 -1       262 2.84649E+07 3.80162E+06 1.45579E+06 1.41355E+06 5.71971E+05-1.62301E+06
 -1       263 3.36759E+07 3.87761E+06 1.55014E+06 1.54174E+06 5.60057E+05-1.78140E+06
 -1       264 3.93405E+07 3.96095E+06 1.65274E+06 1.66993E+06 5.47337E+05-1.94082E+06
 -1       265 4.54588E+07 4.05182E+06 1.76364E+06 1.79811E+06 5.33854E+05-2.10090E+06
 -1       266 5.20309E+07 4.15039E+06 1.88286E+06 1.92628E+06 5.19653E+05-2.26126E+06
 -1       267 5.90571E+07 4.25689E+06 2.01046E+06 2.05446E+06 5.04782E+05-2.42139E+06
 -1       268 6.65375E+07 4.37168E+06 2.14653E+06 2.18265E+06 4.89325E+05-2.58078E+06
 -1       269 7.44725E+07 4.49549E+06 2.29126E+06 2.31086E+06 4.73434E+05-2.73883E+06
 -1       270 8.28623E+07 4.62890E+06 2.44478E+06 2.43906E+06 4.57245E+05-2.89483E+06
 -1       271 9.17066E+07 4.77013E+06 2.60659E+06 2.56707E+06 4.40420E+05-3.04774E+06
 -1       272 1.01002E+08 4.91046E+06 2.77375E+06 2.69452E+06 4.21353E+05-3.19614E+06
 -1       273 1.10747E+08 5.03991E+06 2.94467E+06 2.82178E+06 3.97693E+05-3.33857E+06
 -1       274 1.20947E+08 5.18002E+06 3.12058E+06 2.95178E+06 3.74296E+05-3.47649E+06
 -1       275 1.31675E+08 5.49806E+06 3.38029E+06 3.09169E+06 3.80327E+05-3.62204E+06
 -1       276 1.42921E+08 6.16346E+06 3.64605E+06 3.23895E+06 4.71754E+05-3.77696E+06
 -1       277 1.54902E+08 7.45282E+06 4.49001E+06 3.33336E+06 6.24745E+05-3.87618E+06
 -1       278 1.65957E+08 5.53119E+06 2.87684E+06 3.31234E+06 2.29113E+05-3.77010E+06
 -1       279 1.77550E+08-5.02254E+06 4.86490E+06 2.31405E+06-9.85577E+05-4.77643E+06
 -1       280 1.68669E+08-3.04555E+07-2.53853E+07 3.67921E+06-6.20239E+06 3.49002E+06
 -1       281 1.99491E+08 8.53813E+07 8.54197E+07 9.01641E+06-1.02854E+04-4.88402E+07
 -1       282 2.39957E+08 1.02670E+08 1.02717E+08 1.19742E+07-1.51022E+04-5.25018E+07
 -1       283 1.42502E+08-2.44992E+07-3.05307E+07 2.02605E+06 1.79109E+06 5.27570E+06
 -1       284 1.62262E+08 5.77128E+05 3.26916E+06 4.29922E+06 1.53706E+06 2.50672E+06
 -1       285 1.52255E+08-2.88119E+06-4.17374E+06 2.94832E+06 3.92343E+05-1.30773E+06
 -1       286 1.41578E+08-2.05027E+06-1.99988E+06 1.84803E+06 3.59110E+05-1.25457E+06
 -1       287 1.29980E+08-2.31086E+06-2.54774E+06 1.72386E+06 3.87072E+05-6.35289E+05
 -1       288 1.19853E+08-2.07031E+06-2.25771E+06 1.71205E+06 3.70896E+05-4.91593E+05
 -1       289 1.10160E+08-1.88897E+06-2.06989E+06 1.68878E+06 3.30896E+05-4.84212E+05
 -1       290 1.00876E+08-1.73014E+06-1.87804E+06 1.62623E+06 2.82553E+05-5.00035E+05
 -1       291 9.19774E+07-1.58948E+06-1.71020E+06 1.55046E+06 2.37477E+05-4.95396E+05
 -1       292 8.34845E+07-1.45630E+06-1.55160E+06 1.47447E+06 1.96008E+05-4.76052E+05
 -1       293 7.54054E+07-1.32908E+06-1.40082E+06 1.40028E+06 1.57107E+05-4.50855E+05
 -1       294 6.77420E+07-1.20801E+06-1.25734E+06 1.32686E+06 1.20181E+05-4.23377E+05
 -1       295 6.04935E+07-1.09355E+06-1.12154E+06 1.25348E+06 8.51447E+04-3.94450E+05
 -1       296 5.36593E+07-9.85806E+05-9.93582E+05 1.17995E+06 5.20518E+04-3.64362E+05
 -1       297 4.72393E+07-8.84754E+05-8.73483E+05 1.10633E+06 2.09436E+04-3.33528E+05
 -1       298 4.12334E+07-7.90346E+05-7.61212E+05 1.03265E+06-8.16464E+03-3.02446E+05
 -1       299 3.56417E+07-7.02549E+05-6.56747E+05 9.58934E+05-3.52681E+04-2.71588E+05
 -1       300 3.04641E+07-6.21340E+05-5.60070E+05 8.85187E+05-6.03629E+04-2.41349E+05
 -1       301 2.57006E+07-5.46696E+05-4.71167E+05 8.11405E+05-8.34431E+04-2.12065E+05
 -1       302 2.13511E+07-4.78595E+05-3.90030E+05 7.37582E+05-1.04499E+05-1.84032E+05
 -1       303 1.74157E+07-4.17037E+05-3.16671E+05 6.63735E+05-1.23516E+05-1.57542E+05
 -1       304 1.38940E+07-3.62073E+05-2.51140E+05 5.89968E+05-1.40495E+05-1.32820E+05
 -1       305 1.07861E+07-3.13780E+05-1.93470E+05 5.16491E+05-1.55505E+05-1.09719E+05
 -1       306 8.09325E+06-2.72023E+05-1.43317E+05 4.43247E+05-1.68738E+05-8.71655E+04
 -1       307 5.81785E+06-2.35691E+05-9.98204E+04 3.68593E+05-1.80241E+05-6.39281E+04
 -1       308 3.96241E+06-2.02173E+05-5.99763E+04 2.88546E+05-1.88898E+05-4.25042E+04
 -1       309 2.51032E+06-1.70364E+05-3.31504E+04 2.00305E+05-1.91363E+05-4.87780E+04
 -1       310 1.36662E+06-1.81568E+05-4.15799E+04 1.33232E+05-1.79579E+05-1.10703E+05
 -1       311 4.77769E+05-2.76943E+05-1.01351E+05 1.68368E+05-2.02370E+05-1.27378E+05
 -1       312-3.77970E+04-8.08076E+05-2.21557E+05 3.03634E+05-3.86447E+05-1.40132E+05
 -1       313 1.70339E+08-1.50328E+07-1.93635E+07 5.36611E+06 1.32780E+06 4.08166E+06
 -1       314 1.76038E+08 2.42583E+06 7.94303E+06 4.43362E+05 1.29792E+06 2.93684E+06
 -1       315 1.62908E+08 1.25042E+06 2.53191E+05 1.38629E+06 5.26137E+05-1.27513E+06
 -1       316 1.53310E+08 2.68331E+06 2.93031E+06 2.35927E+06 3.55049E+05-1.05763E+06
 -1       317 1.41852E+08 2.34522E+06 2.40190E+06 2.39305E+06 4.06253E+05-4.89184E+05
 -1       318 1.30886E+08 2.21433E+06 2.32971E+06 2.22535E+06 3.83169E+05-3.45477E+05
 -1       319 1.20176E+08 2.01782E+06 2.10028E+06 2.08745E+06 3.44294E+05-3.46634E+05
 -1       320 1.09951E+08 1.86189E+06 1.91606E+06 1.98597E+06 2.96024E+05-3.68514E+05
 -1       321 1.00199E+08 1.71998E+06 1.74417E+06 1.89807E+06 2.51229E+05-3.70127E+05
 -1       322 9.09101E+07 1.58665E+06 1.58462E+06 1.80995E+06 2.09884E+05-3.56733E+05
 -1       323 8.20739E+07 1.45891E+06 1.43239E+06 1.71996E+06 1.71108E+05-3.37337E+05
 -1       324 7.36903E+07 1.33731E+06 1.28752E+06 1.62913E+06 1.34326E+05-3.15512E+05
 -1       325 6.57598E+07 1.22230E+06 1.15032E+06 1.53824E+06 9.94520E+04-2.92134E+05
 -1       326 5.82826E+07 1.11402E+06 1.02098E+06 1.44745E+06 6.65312E+04-2.67525E+05
 -1       327 5.12590E+07 1.01244E+06 8.99537E+05 1.35675E+06 3.56010E+04-2.42137E+05
 -1       328 4.46887E+07 9.17508E+05 7.85964E+05 1.26607E+06 6.67432E+03-2.16496E+05
 -1       329 3.85716E+07 8.29208E+05 6.80247E+05 1.17542E+06-2.02458E+04-1.91097E+05
 -1       330 3.29077E+07 7.47515E+05 5.82379E+05 1.08480E+06-4.51572E+04-1.66358E+05
 -1       331 2.76969E+07 6.72411E+05 4.92352E+05 9.94202E+05-6.80560E+04-1.42631E+05
 -1       332 2.29392E+07 6.03878E+05 4.10164E+05 9.03649E+05-8.89342E+04-1.20229E+05
 -1       333 1.86345E+07 5.41918E+05 3.35838E+05 8.13124E+05-1.07780E+05-9.94535E+04
 -1       334 1.47829E+07 4.86591E+05 2.69437E+05 7.22526E+05-1.24593E+05-8.05439E+04
 -1       335 1.13845E+07 4.37989E+05 2.10959E+05 6.31640E+05-1.39438E+05-6.33583E+04
 -1       336 8.43822E+06 3.95966E+05 1.60059E+05 5.40523E+05-1.52501E+05-4.68294E+04
 -1       337 5.94108E+06 3.59057E+05 1.15147E+05 4.50737E+05-1.63803E+05-2.96749E+04
 -1       338 3.89177E+06 3.25498E+05 7.67963E+04 3.66698E+05-1.72566E+05-1.45135E+04
 -1       339 2.30731E+06 2.98624E+05 4.63813E+04 2.93013E+05-1.74672E+05-2.69023E+04
 -1       340 1.19301E+06 2.63129E+05 3.95592E+04 1.90399E+05-1.64469E+05-9.46123E+04
 -1       341 5.56712E+05 3.50058E+05 1.10328E+05 3.09156E+04-1.88017E+05-1.18498E+05
 -1       342 7.35777E+05 1.45136E+06 6.88284E+05-1.49733E+04-4.19930E+05-1.35299E+05
 -1       343-1.69894E+08 1.51310E+07 1.94502E+07 5.38023E+06-1.32908E+06 4.24195E+06
 -1       344-1.75704E+08-2.39606E+06-7.98293E+06 4.69463E+05-1.33311E+06 3.48280E+06
 -1       345-1.62581E+08-1.20119E+06-2.28482E+05 1.37970E+06-5.62493E+05-6.60697E+05
 -1       346-1.52994E+08-2.63962E+06-2.90542E+06 2.34985E+06-3.88966E+05-4.30004E+05
 -1       347-1.41558E+08-2.30696E+06-2.38230E+06 2.38524E+06-4.38932E+05 1.77724E+05
 -1       348-1.30617E+08-2.18207E+06-2.31496E+06 2.21727E+06-4.13437E+05 3.49998E+05
 -1       349-1.19932E+08-1.99039E+06-2.08772E+06 2.07948E+06-3.72045E+05 3.58821E+05
 -1       350-1.09729E+08-1.83898E+06-1.90512E+06 1.97878E+06-3.21494E+05 3.31513E+05
 -1       351-9.99996E+07-1.70116E+06-1.73491E+06 1.89184E+06-2.74719E+05 3.12838E+05
 -1       352-9.07299E+07-1.57138E+06-1.57699E+06 1.80463E+06-2.31591E+05 2.99905E+05
 -1       353-8.19115E+07-1.44663E+06-1.42617E+06 1.71545E+06-1.91160E+05 2.85494E+05
 -1       354-7.35438E+07-1.32756E+06-1.28250E+06 1.62537E+06-1.52828E+05 2.67697E+05
 -1       355-6.56276E+07-1.21468E+06-1.14629E+06 1.53519E+06-1.16500E+05 2.47219E+05
 -1       356-5.81635E+07-1.10816E+06-1.01779E+06 1.44508E+06-8.22178E+04 2.25167E+05
 -1       357-5.11516E+07-1.00802E+06-8.97035E+05 1.35499E+06-5.00085E+04 2.02351E+05
 -1       358-4.45919E+07-9.14266E+05-7.84032E+05 1.26489E+06-1.98756E+04 1.79342E+05
 -1       359-3.84846E+07-8.26894E+05-6.78778E+05 1.17476E+06 8.18717E+03 1.56601E+05
 -1       360-3.28296E+07-7.45921E+05-5.81279E+05 1.08460E+06 3.41863E+04 1.34532E+05
 -1       361-2.76270E+07-6.71362E+05-4.91541E+05 9.94427E+05 5.81258E+04 1.13481E+05
 -1       362-2.28769E+07-6.03228E+05-4.09577E+05 9.04239E+05 8.00047E+04 9.37194E+04
 -1       363-1.85794E+07-5.41548E+05-3.35419E+05 8.14030E+05 9.98178E+04 7.54272E+04
 -1       364-1.47346E+07-4.86406E+05-2.69140E+05 7.23700E+05 1.17572E+05 5.87521E+04
 -1       365-1.13427E+07-4.37915E+05-2.10753E+05 6.33037E+05 1.33339E+05 4.41355E+04
 -1       366-8.40261E+06-3.95951E+05-1.59944E+05 5.42101E+05 1.47310E+05 3.28633E+04
 -1       367-5.91146E+06-3.59063E+05-1.15155E+05 4.52460E+05 1.59495E+05 2.63590E+04
 -1       368-3.86804E+06-3.25505E+05-7.69215E+04 3.68524E+05 1.69076E+05 2.20872E+04
 -1       369-2.28986E+06-2.98608E+05-4.60995E+04 2.94862E+05 1.71893E+05-5.29624E+03
 -1       370-1.18286E+06-2.63125E+05-3.79398E+04 1.92145E+05 1.62667E+05-8.36475E+04
 -1       371-5.52682E+05-3.49803E+05-1.07901E+05 3.28327E+04 1.87747E+05-1.14271E+05
 -1       372-1.42224E+08 2.45446E+07 3.05990E+07 1.92612E+06-1.79461E+06 5.41166E+06
 -1       373-1.61912E+08-6.22175E+05-3.29960E+06 4.27847E+06-1.58878E+06 3.03206E+06
 -1       374-1.51996E+08 2.82250E+06 4.16283E+06 2.96620E+06-4.36416E+05-7.16071E+05
 -1       375-1.41368E+08 1.99046E+06 1.98079E+06 1.86561E+06-3.93162E+05-6.55251E+05
 -1       376-1.29781E+08 2.25928E+06 2.52960E+06 1.73784E+06-4.18532E+05-1.26949E+03
 -1       377-1.19665E+08 2.02611E+06 2.24127E+06 1.72429E+06-4.00147E+05 1.69438E+05
 -1       378-1.09984E+08 1.85162E+06 2.05601E+06 1.69969E+06-3.57740E+05 1.86736E+05
 -1       379-1.00714E+08 1.69892E+06 1.86688E+06 1.63566E+06-3.06902E+05 1.66143E+05
 -1       380-9.18271E+07 1.56368E+06 1.70145E+06 1.55846E+06-2.59541E+05 1.54820E+05
 -1       381-8.33453E+07 1.43516E+06 1.54484E+06 1.48127E+06-2.16048E+05 1.49349E+05
 -1       382-7.52767E+07 1.31190E+06 1.39570E+06 1.40612E+06-1.75332E+05 1.42625E+05
 -1       383-6.76232E+07 1.19420E+06 1.25357E+06 1.33190E+06-1.36756E+05 1.32664E+05
 -1       384-6.03839E+07 1.08257E+06 1.11890E+06 1.25784E+06-1.00214E+05 1.20129E+05
 -1       385-5.35583E+07 9.77210E+05 9.91872E+05 1.18375E+06-6.57426E+04 1.06087E+05
 -1       386-4.71464E+07 8.78133E+05 8.72523E+05 1.10965E+06-3.33723E+04 9.13153E+04
 -1       387-4.11481E+07 7.85342E+05 7.60845E+05 1.03559E+06-3.10453E+03 7.63569E+04
 -1       388-3.55636E+07 6.98850E+05 6.56832E+05 9.61567E+05 2.50692E+04 6.16486E+04
 -1       389-3.03929E+07 6.18676E+05 5.60488E+05 8.87583E+05 5.11575E+04 4.75722E+04
 -1       390-2.56360E+07 5.44838E+05 4.71815E+05 8.13624E+05 7.51660E+04 3.44570E+04
 -1       391-2.12929E+07 4.77351E+05 3.90821E+05 7.39675E+05 9.70954E+04 2.25596E+04
 -1       392-1.73636E+07 4.16247E+05 3.17536E+05 6.65745E+05 1.16941E+05 1.20461E+04
 -1       393-1.38479E+07 3.61609E+05 2.52021E+05 5.91930E+05 1.34711E+05 3.05499E+03
 -1       394-1.07459E+07 3.13540E+05 1.94318E+05 5.18435E+05 1.50481E+05-3.97844E+03
 -1       395-8.05883E+06 2.71929E+05 1.44068E+05 4.45199E+05 1.64450E+05-7.76274E+03
 -1       396-5.78910E+06 2.35687E+05 1.00396E+05 3.70572E+05 1.76687E+05-6.90093E+03
 -1       397-3.93928E+06 2.02214E+05 6.03470E+04 2.90551E+05 1.86119E+05-3.79838E+03
 -1       398-2.49329E+06 1.70434E+05 3.38227E+04 2.02293E+05 1.89434E+05-2.43496E+04
 -1       399-1.35675E+06 1.81595E+05 4.34805E+04 1.35078E+05 1.78285E+05-9.71888E+04
 -1       400-4.73885E+05 2.77220E+05 1.03940E+05 1.70404E+05 2.00730E+05-1.21813E+05
 -1       401-2.39654E+08-1.02881E+08-1.02834E+08 1.19537E+07-1.51478E+04-5.19309E+07
 -1       402-1.99494E+08-8.56159E+07-8.55785E+07 8.96918E+06-1.02833E+04-4.83487E+07
 -1       403-7.34783E+05-1.45055E+06-6.85051E+05-1.10055E+04 4.20112E+05-1.34879E+05
 -1       404-1.68082E+08 3.09845E+07 2.55810E+07 3.70014E+06 6.28804E+06 3.77594E+06
 -1       405-1.76981E+08 5.70968E+06-4.65304E+06 2.32307E+06 1.11645E+06-4.28592E+06
 -1       406-1.65412E+08-4.91612E+06-2.66199E+06 3.31150E+06-1.14866E+05-3.20454E+06
 -1       407-1.54420E+08-6.93375E+06-4.30258E+06 3.33026E+06-5.33254E+05-3.24845E+06
 -1       408-1.42493E+08-5.71593E+06-3.47501E+06 3.23607E+06-3.96474E+05-3.10599E+06
 -1       409-1.31299E+08-5.11409E+06-3.22642E+06 3.08862E+06-3.19227E+05-2.92588E+06
 -1       410-1.20620E+08-4.85726E+06-2.98361E+06 2.94830E+06-3.26586E+05-2.77128E+06
 -1       411-1.10466E+08-4.77286E+06-2.82348E+06 2.81797E+06-3.61944E+05-2.63864E+06
 -1       412-1.00761E+08-4.69143E+06-2.66647E+06 2.69047E+06-3.95735E+05-2.51324E+06
 -1       413-9.14998E+07-4.59187E+06-2.51151E+06 2.56283E+06-4.23224E+05-2.39136E+06
 -1       414-8.26857E+07-4.48530E+06-2.36047E+06 2.43465E+06-4.47019E+05-2.27251E+06
 -1       415-7.43220E+07-4.38133E+06-2.21652E+06 2.30627E+06-4.68929E+05-2.15634E+06
 -1       416-6.64096E+07-4.28233E+06-2.08028E+06 2.17789E+06-4.89435E+05-2.04231E+06
 -1       417-5.89486E+07-4.18819E+06-1.95174E+06 2.04953E+06-5.08517E+05-1.92972E+06
 -1       418-5.19391E+07-4.09864E+06-1.83081E+06 1.92119E+06-5.26136E+05-1.81790E+06
 -1       419-4.53810E+07-4.01377E+06-1.71749E+06 1.79286E+06-5.42315E+05-1.70630E+06
 -1       420-3.92747E+07-3.93379E+06-1.61184E+06 1.66453E+06-5.57109E+05-1.59443E+06
 -1       421-3.36202E+07-3.85893E+06-1.51392E+06 1.53621E+06-5.70569E+05-1.48189E+06
 -1       422-2.84177E+07-3.78937E+06-1.42376E+06 1.40790E+06-5.82740E+05-1.36833E+06
 -1       423-2.36673E+07-3.72522E+06-1.34141E+06 1.27960E+06-5.93649E+05-1.25347E+06
 -1       424-1.93690E+07-3.66652E+06-1.26685E+06 1.15131E+06-6.03313E+05-1.13706E+06
 -1       425-1.55231E+07-3.61360E+06-1.20018E+06 1.02301E+06-6.11795E+05-1.01890E+06
 -1       426-1.21300E+07-3.56773E+06-1.14178E+06 8.94630E+05-6.19355E+05-8.98740E+05
 -1       427-9.19059E+06-3.53139E+06-1.09239E+06 7.66165E+05-6.26469E+05-7.76324E+05
 -1       428-6.70448E+06-3.50335E+06-1.05152E+06 6.37990E+05-6.33086E+05-6.52097E+05
 -1       429-4.66506E+06-3.46590E+06-1.01387E+06 5.11452E+05-6.35435E+05-5.27203E+05
 -1       430-3.05360E+06-3.36678E+06-9.62354E+05 3.86719E+05-6.23844E+05-4.03250E+05
 -1       431-1.89183E+06-3.21066E+06-9.07865E+05 2.62270E+05-5.95824E+05-2.83561E+05
 -1       432-1.32093E+06-3.13671E+06-9.30011E+05 1.18363E+05-6.13986E+05-1.90215E+05
 -1       433 3.87179E+04 8.08912E+05 2.24890E+05 3.07297E+05 3.83520E+05-1.38384E+05
 -1       434 2.39957E+08 1.02670E+08 1.02717E+08-1.19742E+07 1.51022E+04-5.25018E+07
 -1       435 1.99491E+08 8.53813E+07 8.54197E+07-9.01641E+06 1.02854E+04-4.88402E+07
 -1       436 1.32323E+06 3.13677E+06 9.33957E+05-1.24290E+05-6.12879E+05-1.93907E+05
 -1       437 1.89785E+06 3.21044E+06 9.13318E+05-2.68022E+05-5.93267E+05-2.92948E+05
 -1       438 3.06307E+06 3.36635E+06 9.70220E+05-3.92757E+05-6.20056E+05-4.23303E+05
 -1       439 4.67791E+06 3.46535E+06 1.02424E+06-5.17611E+05-6.30412E+05-5.62343E+05
 -1       440 6.72079E+06 3.50284E+06 1.06452E+06-6.44135E+05-6.26844E+05-7.06615E+05
 -1       441 9.21060E+06 3.53119E+06 1.10811E+06-7.72251E+05-6.19053E+05-8.54475E+05
 -1       442 1.21541E+07 3.56828E+06 1.16035E+06-9.00649E+05-6.10862E+05-1.00469E+06
 -1       443 1.55517E+07 3.61553E+06 1.22174E+06-1.02895E+06-6.02371E+05-1.15667E+06
 -1       444 1.94029E+07 3.67069E+06 1.29161E+06-1.15717E+06-5.93159E+05-1.31044E+06
 -1       445 2.37073E+07 3.73273E+06 1.36963E+06-1.28536E+06-5.83024E+05-1.46594E+06
 -1       446 2.84649E+07 3.80162E+06 1.45579E+06-1.41355E+06-5.71971E+05-1.62301E+06
 -1       447 3.36759E+07 3.87761E+06 1.55014E+06-1.54174E+06-5.60057E+05-1.78140E+06
 -1       448 3.93405E+07 3.96095E+06 1.65274E+06-1.66993E+06-5.47337E+05-1.94082E+06
 -1       449 4.54588E+07 4.05182E+06 1.76364E+06-1.79811E+06-5.33854E+05-2.10090E+06
 -1       450 5.20309E+07 4.15039E+06 1.88286E+06-1.92628E+06-5.19653E+05-2.26126E+06
 -1       451 5.90571E+07 4.25689E+06 2.01046E+06-2.05446E+06-5.04782E+05-2.42139E+06
 -1       452 6.65375E+07 4.37168E+06 2.14653E+06-2.18265E+06-4.89325E+05-2.58078E+06
 -1       453 7.44725E+07 4.49549E+06 2.29126E+06-2.31086E+06-4.73434E+05-2.73883E+06
 -1       454 8.28623E+07 4.62890E+06 2.44478E+06-2.43906E+06-4.57245E+05-2.89483E+06
 -1       455 9.17066E+07 4.77013E+06 2.60659E+06-2.56707E+06-4.40420E+05-3.04774E+06
 -1       456 1.01002E+08 4.91046E+06 2.77375E+06-2.69452E+06-4.21353E+05-3.19614E+06
 -1       457 1.10747E+08 5.03991E+06 2.94467E+06-2.82178E+06-3.97693E+05-3.33857E+06
 -1       458 1.20947E+08 5.18002E+06 3.12058E+06-2.95178E+06-3.74296E+05-3.47649E+06
 -1       459 1.31675E+08 5.49806E+06 3.38029E+06-3.09169E+06-3.80327E+05-3.62204E+06
 -1       460 1.42921E+08 6.16346E+06 3.64605E+06-3.23895E+06-4.71754E+05-3.77696E+06
 -1       461 1.54902E+08 7.45282E+06 4.49001E+06-3.33336E+06-6.24745E+05-3.87618E+06
 -1       462 1.65957E+08 5.53119E+06 2.87684E+06-3.31234E+06-2.29113E+05-3.77010E+06
 -1       463 1.77550E+08-5.02254E+06 4.86490E+06-2.31405E+06 9.85577E+05-4.77643E+06
 -1       464 1.68669E+08-3.04555E+07-2.53853E+07-3.67921E+06 6.20239E+06 3.49002E+06
 -1       465 7.35777E+05 1.45136E+06 6.88284E+05 1.49733E+04 4.19930E+05-1.35299E+05
 -1       466 1.70339E+08-1.50328E+07-1.93635E+07-5.36611E+06-1.32780E+06 4.08166E+06
 -1       467 1.76038E+08 2.42583E+06 7.94303E+06-4.43362E+05-1.29792E+06 2.93684E+06
 -1       468 1.62908E+08 1.25042E+06 2.53191E+05-1.38629E+06-5.26137E+05-1.27513E+06
 -1       469 1.53310E+08 2.68331E+06 2.93031E+06-2.35927E+06-3.55049E+05-1.05763E+06
 -1       470 1.41852E+08 2.34522E+06 2.40190E+06-2.39305E+06-4.06253E+05-4.89184E+05
 -1       471 1.30886E+08 2.21433E+06 2.32971E+06-2.22535E+06-3.83169E+05-3.45477E+05
 -1       472 1.20176E+08 2.01782E+06 2.10028E+06-2.08745E+06-3.44294E+05-3.46634E+05
 -1       473 1.09951E+08 1.86189E+06 1.91606E+06-1.98597E+06-2.96024E+05-3.68514E+05
 -1       474 1.00199E+08 1.71998E+06 1.74417E+06-1.89807E+06-2.51229E+05-3.70127E+05
 -1       475 9.09101E+07 1.58665E+06 1.58462E+06-1.80995E+06-2.09884E+05-3.56733E+05
 -1       476 8.20739E+07 1.45891E+06 1.43239E+06-1.71996E+06-1.71108E+05-3.37337E+05
 -1       477 7.36903E+07 1.33731E+06 1.28752E+06-1.62913E+06-1.34326E+05-3.15512E+05
 -1       478 6.57598E+07 1.22230E+06 1.15032E+06-1.53824E+06-9.94520E+04-2.92134E+05
 -1       479 5.82826E+07 1.11402E+06 1.02098E+06-1.44745E+06-6.65312E+04-2.67525E+05
 -1       480 5.12590E+07 1.01244E+06 8.99537E+05-1.35675E+06-3.56010E+04-2.42137E+05
 -1       481 4.46887E+07 9.17508E+05 7.85964E+05-1.26607E+06-6.67432E+03-2.16496E+05
 -1       482 3.85716E+07 8.29208E+05 6.80247E+05-1.17542E+06 2.02458E+04-1.91097E+05
 -1       483 3.29077E+07 7.47515E+05 5.82379E+05-1.08480E+06 4.51572E+04-1.66358E+05
 -1       484 2.76969E+07 6.72411E+05 4.92352E+05-9.94202E+05 6.80560E+04-1.42631E+05
 -1       485 2.29392E+07 6.03878E+05 4.10164E+05-9.03649E+05 8.89342E+04-1.20229E+05
 -1       486 1.86345E+07 5.41918E+05 3.35838E+05-8.13124E+05 1.07780E+05-9.94535E+04
 -1       487 1.47829E+07 4.86591E+05 2.69437E+05-7.22526E+05 1.24593E+05-8.05439E+04
 -1       488 1.13845E+07 4.37989E+05 2.10959E+05-6.31640E+05 1.39438E+05-6.33583E+04
 -1       489 8.43822E+06 3.95966E+05 1.60059E+05-5.40523E+05 1.52501E+05-4.68294E+04
 -1       490 5.94108E+06 3.59057E+05 1.15147E+05-4.50737E+05 1.63803E+05-2.96749E+04
 -1       491 3.89177E+06 3.25498E+05 7.67963E+04-3.66698E+05 1.72566E+05-1.45135E+04
 -1       492 2.30731E+06 2.98624E+05 4.63813E+04-2.93013E+05 1.74672E+05-2.69023E+04
 -1       493 1.19301E+06 2.63129E+05 3.95592E+04-1.90399E+05 1.64469E+05-9.46123E+04
 -1       494 5.56712E+05 3.50058E+05 1.10328E+05-3.09156E+04 1.88017E+05-1.18498E+05
 -1       495 1.42502E+08-2.44992E+07-3.05307E+07-2.02605E+06-1.79109E+06 5.27570E+06
 -1       496 1.62262E+08 5.77128E+05 3.26916E+06-4.29922E+06-1.53706E+06 2.50672E+06
 -1       497 1.52255E+08-2.88119E+06-4.17374E+06-2.94832E+06-3.92343E+05-1.30773E+06
 -1       498 1.41578E+08-2.05027E+06-1.99988E+06-1.84803E+06-3.59110E+05-1.25457E+06
 -1       499 1.29980E+08-2.31086E+06-2.54774E+06-1.72386E+06-3.87072E+05-6.35289E+05
 -1       500 1.19853E+08-2.07031E+06-2.25771E+06-1.71205E+06-3.70896E+05-4.91593E+05
 -1       501 1.10160E+08-1.88897E+06-2.06989E+06-1.68878E+06-3.30896E+05-4.84212E+05
 -1       502 1.00876E+08-1.73014E+06-1.87804E+06-1.62623E+06-2.82553E+05-5.00035E+05
 -1       503 9.19774E+07-1.58948E+06-1.71020E+06-1.55046E+06-2.37477E+05-4.95396E+05
 -1       504 8.34845E+07-1.45630E+06-1.55160E+06-1.47447E+06-1.96008E+05-4.76052E+05
 -1       505 7.54054E+07-1.32908E+06-1.40082E+06-1.40028E+06-1.57107E+05-4.50855E+05
 -1       506 6.77420E+07-1.20801E+06-1.25734E+06-1.32686E+06-1.20181E+05-4.23377E+05
 -1       507 6.04935E+07-1.09355E+06-1.12154E+06-1.25348E+06-8.51447E+04-3.94450E+05
 -1       508 5.36593E+07-9.85806E+05-9.93582E+05-1.17995E+06-5.20518E+04-3.64362E+05
 -1       509 4.72393E+07-8.84754E+05-8.73483E+05-1.10633E+06-2.09436E+04-3.33528E+05
 -1       510 4.12334E+07-7.90346E+05-7.61212E+05-1.03265E+06 8.16464E+03-3.02446E+05
 -1       511 3.56417E+07-7.02549E+05-6.56747E+05-9.58934E+05 3.52681E+04-2.71588E+05
 -1       512 3.04641E+07-6.21340E+05-5.60070E+05-8.85187E+05 6.03629E+04-2.41349E+05
 -1       513 2.57006E+07-5.46696E+05-4.71167E+05-8.11405E+05 8.34431E+04-2.12065E+05
 -1       514 2.13511E+07-4.78595E+05-3.90030E+05-7.37582E+05 1.04499E+05-1.84032E+05
 -1       515 1.74157E+07-4.17037E+05-3.16671E+05-6.63735E+05 1.23516E+05-1.57542E+05
 -1       516 1.38940E+07-3.62073E+05-2.51140E+05-5.89968E+05 1.40495E+05-1.32820E+05
 -1       517 1.07861E+07-3.13780E+05-1.93470E+05-5.16491E+05 1.55505E+05-1.09719E+05
 -1       518 8.09325E+06-2.72023E+05-1.43317E+05-4.43247E+05 1.68738E+05-8.71655E+04
 -1       519 5.81785E+06-2.35691E+05-9.98204E+04-3.68593E+05 1.80241E+05-6.39281E+04
 -1       520 3.96241E+06-2.02173E+05-5.99763E+04-2.88546E+05 1.88898E+05-4.25042E+04
 -1       521 2.51032E+06-1.70364E+05-3.31504E+04-2.00305E+05 1.91363E+05-4.87780E+04
 -1       522 1.36662E+06-1.81568E+05-4.15799E+04-1.33232E+05 1.79579E+05-1.10703E+05
 -1       523 4.77769E+05-2.76943E+05-1.01351E+05-1.68368E+05 2.02370E+05-1.27378E+05
 -1       524-3.77970E+04-8.08076E+05-2.21557E+05-3.03634E+05 3.86447E+05-1.40132E+05
 -1       525-7.56412E+07 1.40142E+07-2.85168E+06-1.90626E+05 6.04431E+05-3.66736E+07
 -1       526-8.39494E+07-2.36237E+06-6.87671E+05 1.21483E+05 4.35563E+05-4.03346E+07
 -1       527-7.82241E+07-4.84787E+05 3.75905E+05 2.42253E+04 4.33757E+05-4.01161E+07
 -1       528-7.22267E+07-1.48733E+06 1.28517E+05 3.50452E+04 4.00091E+05-3.84959E+07
 -1       529-6.62446E+07-1.10358E+06 2.66027E+05 2.49056E+04 3.71420E+05-3.68582E+07
 -1       530-6.09799E+07-1.01506E+06 2.55968E+05 2.47688E+04 3.41535E+05-3.52886E+07
 -1       531-5.60089E+07-9.35426E+05 3.09330E+05 2.39925E+04 3.13927E+05-3.38009E+07
 -1       532-5.12847E+07-8.88445E+05 3.70558E+05 2.31806E+04 2.87538E+05-3.23319E+07
 -1       533-4.67692E+07-8.44074E+05 4.24865E+05 2.21490E+04 2.62338E+05-3.08628E+07
 -1       534-4.24582E+07-8.00448E+05 4.69826E+05 2.10900E+04 2.38277E+05-2.93921E+07
 -1       535-3.83543E+07-7.57424E+05 5.07996E+05 2.00264E+04 2.15377E+05-2.79221E+07
 -1       536-3.44593E+07-7.16202E+05 5.40899E+05 1.89643E+04 1.93646E+05-2.64535E+07
 -1       537-3.07740E+07-6.77097E+05 5.69206E+05 1.78985E+04 1.73087E+05-2.49862E+07
 -1       538-2.72982E+07-6.40154E+05 5.93213E+05 1.68284E+04 1.53701E+05-2.35196E+07
 -1       539-2.40319E+07-6.05345E+05 6.13202E+05 1.57554E+04 1.35487E+05-2.20535E+07
 -1       540-2.09753E+07-5.72672E+05 6.29477E+05 1.46813E+04 1.18447E+05-2.05874E+07
 -1       541-1.81283E+07-5.42155E+05 6.42340E+05 1.36076E+04 1.02579E+05-1.91212E+07
 -1       542-1.54911E+07-5.13816E+05 6.52078E+05 1.25353E+04 8.78859E+04-1.76548E+07
 -1       543-1.30638E+07-4.87673E+05 6.58950E+05 1.14654E+04 7.43667E+04-1.61878E+07
 -1       544-1.08463E+07-4.63737E+05 6.63188E+05 1.03986E+04 6.20221E+04-1.47203E+07
 -1       545-8.83873E+06-4.42015E+05 6.64996E+05 9.33582E+03 5.08524E+04-1.32521E+07
 -1       546-7.04117E+06-4.22559E+05 6.64586E+05 8.27860E+03 4.08580E+04-1.17831E+07
 -1       547-5.45391E+06-4.05524E+05 6.62270E+05 7.22815E+03 3.20405E+04-1.03131E+07
 -1       548-4.07746E+06-3.91087E+05 6.58549E+05 6.18130E+03 2.44023E+04-8.84165E+06
 -1       549-2.91196E+06-3.79022E+05 6.53397E+05 5.11842E+03 1.79464E+04-7.36836E+06
 -1       550-1.95622E+06-3.67493E+05 6.44280E+05 4.00133E+03 1.26429E+04-5.89537E+06
 -1       551-1.20268E+06-3.50010E+05 6.28905E+05 2.89290E+03 8.43148E+03-4.42970E+06
 -1       552-6.54285E+05-3.36907E+05 5.93694E+05 1.87057E+03 5.29708E+03-2.98692E+06
 -1       553-3.56256E+05-3.40208E+05 5.58600E+05 2.26222E+03 4.09233E+03-1.54245E+06
 -1       554-2.32471E+05 2.44123E+04-8.86682E+04-9.10158E+02 6.64068E+05-3.67198E+07
 -1       555-2.55564E+05-2.29907E+04-1.08130E+05 4.58803E+02 4.06738E+05-4.29907E+07
 -1       556-2.45255E+05-9.64035E+03-6.26660E+04 4.28622E+02 4.04009E+05-4.32751E+07
 -1       557-2.45924E+05-8.40699E+03-1.41356E+04 6.18133E+02 3.55896E+05-4.13801E+07
 -1       558-2.46604E+05-6.55300E+03 3.13259E+04 6.94572E+02 3.30369E+05-3.95088E+07
 -1       559-2.45334E+05-5.97208E+03 7.05241E+04 7.48430E+02 3.04194E+05-3.78092E+07
 -1       560-2.41595E+05-5.11862E+03 1.04006E+05 7.69514E+02 2.79070E+05-3.62137E+07
 -1       561-2.36124E+05-4.30716E+03 1.31600E+05 7.70201E+02 2.54615E+05-3.46465E+07
 -1       562-2.29372E+05-3.57732E+03 1.53374E+05 7.54081E+02 2.31236E+05-3.30777E+07
 -1       563-2.21657E+05-2.95066E+03 1.69769E+05 7.25314E+02 2.08958E+05-3.15040E+07
 -1       564-2.13206E+05-2.40421E+03 1.81408E+05 6.86855E+02 1.87785E+05-2.99285E+07
 -1       565-2.04184E+05-1.92908E+03 1.88863E+05 6.41068E+02 1.67702E+05-2.83529E+07
 -1       566-1.94692E+05-1.52264E+03 1.92614E+05 5.89908E+02 1.48703E+05-2.67775E+07
 -1       567-1.84795E+05-1.18169E+03 1.93083E+05 5.35087E+02 1.30790E+05-2.52023E+07
 -1       568-1.74540E+05-9.00469E+02 1.90658E+05 4.78128E+02 1.13962E+05-2.36271E+07
 -1       569-1.63969E+05-6.71966E+02 1.85705E+05 4.20381E+02 9.82193E+04-2.20520E+07
 -1       570-1.53121E+05-4.89190E+02 1.78566E+05 3.63030E+02 8.35626E+04-2.04768E+07
 -1       571-1.42033E+05-3.45640E+02 1.69561E+05 3.07093E+02 6.99917E+04-1.89016E+07
 -1       572-1.30740E+05-2.35368E+02 1.58987E+05 2.53440E+02 5.75064E+04-1.73264E+07
 -1       573-1.19272E+05-1.52939E+02 1.47114E+05 2.02802E+02 4.61070E+04-1.57513E+07
 -1       574-1.07660E+05-9.34067E+01 1.34193E+05 1.55780E+02 3.57935E+04-1.41762E+07
 -1       575-9.59289E+04-5.22908E+01 1.20448E+05 1.12860E+02 2.65653E+04-1.26012E+07
 -1       576-8.41005E+04-2.55015E+01 1.06079E+05 7.44137E+01 1.84205E+04-1.10259E+07
 -1       577-7.21906E+04-9.54740E+00 9.12571E+04 4.07145E+01 1.13569E+04-9.44987E+06
 -1       578-6.02161E+04-8.08424E-01 7.61361E+04 1.20052E+01 5.38010E+03-7.87296E+06
 -1       579-4.82193E+04 6.98440E-01 6.08692E+04-1.14504E+01 5.30403E+02-6.29776E+06
 -1       580-3.62900E+04 9.54539E+00 4.56556E+04-2.88938E+01-3.10483E+03-4.73336E+06
 -1       581-2.45470E+04-2.28037E+01 3.06287E+04-4.20074E+01-5.61986E+03-3.18872E+06
 -1       582-1.25683E+04 1.34869E+02 1.56358E+04-4.54486E+01-7.09637E+03-1.63427E+06
 -1       583 7.53343E+07-1.39018E+07 2.73246E+06 1.88654E+05 6.06015E+05-3.68497E+07
 -1       584 8.36197E+07 2.40990E+06 5.34339E+05-1.21021E+05 4.37316E+05-4.05664E+07
 -1       585 7.78973E+07 5.48766E+05-4.41450E+05-2.31827E+04 4.35369E+05-4.03791E+07
 -1       586 7.18760E+07 1.53968E+06-1.10291E+05-3.36219E+04 4.01561E+05-3.87862E+07
 -1       587 6.58784E+07 1.14944E+06-1.67955E+05-2.33036E+04 3.72716E+05-3.71714E+07
 -1       588 6.06041E+07 1.05420E+06-9.00476E+04-2.30647E+04 3.42690E+05-3.56162E+07
 -1       589 5.56286E+07 9.68198E+05-8.59223E+04-2.22374E+04 3.14938E+05-3.41345E+07
 -1       590 5.09041E+07 9.15519E+05-1.00202E+05-2.14227E+04 2.88413E+05-3.26643E+07
 -1       591 4.63916E+07 8.66242E+05-1.17875E+05-2.04246E+04 2.63090E+05-3.11882E+07
 -1       592 4.20867E+07 8.18453E+05-1.35656E+05-1.94260E+04 2.38921E+05-2.97056E+07
 -1       593 3.79913E+07 7.71902E+05-1.55017E+05-1.84433E+04 2.15927E+05-2.82200E+07
 -1       594 3.41069E+07 7.27694E+05-1.76496E+05-1.74779E+04 1.94114E+05-2.67330E+07
 -1       595 3.04339E+07 6.86082E+05-1.99921E+05-1.65207E+04 1.73485E+05-2.52452E+07
 -1       596 2.69720E+07 6.47053E+05-2.24845E+05-1.55673E+04 1.54038E+05-2.37569E+07
 -1       597 2.37212E+07 6.10533E+05-2.50863E+05-1.46159E+04 1.35773E+05-2.22682E+07
 -1       598 2.06811E+07 5.76478E+05-2.77630E+05-1.36653E+04 1.18688E+05-2.07794E+07
 -1       599 1.78519E+07 5.44864E+05-3.04844E+05-1.27143E+04 1.02783E+05-1.92907E+07
 -1       600 1.52334E+07 5.15673E+05-3.32226E+05-1.17618E+04 8.80582E+04-1.78024E+07
 -1       601 1.28255E+07 4.88884E+05-3.59510E+05-1.08069E+04 7.45123E+04-1.63145E+07
 -1       602 1.06281E+07 4.64474E+05-3.86448E+05-9.84867E+03 6.21452E+04-1.48272E+07
 -1       603 8.64122E+06 4.42419E+05-4.12801E+05-8.88678E+03 5.09563E+04-1.33407E+07
 -1       604 6.86479E+06 4.22742E+05-4.38386E+05-7.92164E+03 4.09455E+04-1.18551E+07
 -1       605 5.29901E+06 4.05571E+05-4.63159E+05-6.95361E+03 3.21137E+04-1.03702E+07
 -1       606 3.94434E+06 3.91062E+05-4.87316E+05-5.97888E+03 2.44630E+04-8.88573E+06
 -1       607 2.80082E+06 3.78969E+05-5.10564E+05-4.97732E+03 1.79955E+04-7.40140E+06
 -1       608 1.86719E+06 3.67435E+05-5.30102E+05-3.91088E+03 1.26807E+04-5.91933E+06
 -1       609 1.13569E+06 3.49984E+05-5.43305E+05-2.84222E+03 8.45864E+03-4.44648E+06
 -1       610 6.08894E+05 3.36830E+05-5.36206E+05-1.85153E+03 5.31456E+03-2.99833E+06
 -1       611 3.32790E+05 3.40491E+05-5.28949E+05-2.24719E+03 4.11447E+03-1.55094E+06
 -1       612 7.53343E+07-1.39018E+07 2.73246E+06-1.88654E+05-6.06015E+05-3.68497E+07
 -1       613 8.36197E+07 2.40990E+06 5.34339E+05 1.21021E+05-4.37316E+05-4.05664E+07
 -1       614 7.78973E+07 5.48766E+05-4.41450E+05 2.31827E+04-4.35369E+05-4.03791E+07
 -1       615 7.18760E+07 1.53968E+06-1.10291E+05 3.36219E+04-4.01561E+05-3.87862E+07
 -1       616 6.58784E+07 1.14944E+06-1.67955E+05 2.33036E+04-3.72716E+05-3.71714E+07
 -1       617 6.06041E+07 1.05420E+06-9.00476E+04 2.30647E+04-3.42690E+05-3.56162E+07
 -1       618 5.56286E+07 9.68198E+05-8.59223E+04 2.22374E+04-3.14938E+05-3.41345E+07
 -1       619 5.09041E+07 9.15519E+05-1.00202E+05 2.14227E+04-2.88413E+05-3.26643E+07
 -1       620 4.63916E+07 8.66242E+05-1.17875E+05 2.04246E+04-2.63090E+05-3.11882E+07
 -1       621 4.20867E+07 8.18453E+05-1.35656E+05 1.94260E+04-2.38921E+05-2.97056E+07
 -1       622 3.79913E+07 7.71902E+05-1.55017E+05 1.84433E+04-2.15927E+05-2.82200E+07
 -1       623 3.41069E+07 7.27694E+05-1.76496E+05 1.74779E+04-1.94114E+05-2.67330E+07
 -1       624 3.04339E+07 6.86082E+05-1.99921E+05 1.65207E+04-1.73485E+05-2.52452E+07
 -1       625 2.69720E+07 6.47053E+05-2.24845E+05 1.55673E+04-1.54038E+05-2.37569E+07
 -1       626 2.37212E+07 6.10533E+05-2.50863E+05 1.46159E+04-1.35773E+05-2.22682E+07
 -1       627 2.06811E+07 5.76478E+05-2.77630E+05 1.36653E+04-1.18688E+05-2.07794E+07
 -1       628 1.78519E+07 5.44864E+05-3.04844E+05 1.27143E+04-1.02783E+05-1.92907E+07
 -1       629 1.52334E+07 5.15673E+05-3.32226E+05 1.17618E+04-8.80582E+04-1.78024E+07
 -1       630 1.28255E+07 4.88884E+05-3.59510E+05 1.08069E+04-7.45123E+04-1.63145E+07
 -1       631 1.06281E+07 4.64474E+05-3.86448E+05 9.84867E+03-6.21452E+04-1.48272E+07
 -1       632 8.64122E+06 4.42419E+05-4.12801E+05 8.88678E+03-5.09563E+04-1.33407E+07
 -1       633 6.86479E+06 4.22742E+05-4.38386E+05 7.92164E+03-4.09455E+04-1.18551E+07
 -1       634 5.29901E+06 4.05571E+05-4.63159E+05 6.95361E+03-3.21137E+04-1.03702E+07
 -1       635 3.94434E+06 3.91062E+05-4.87316E+05 5.97888E+03-2.44630E+04-8.88573E+06
 -1       636 2.80082E+06 3.78969E+05-5.10564E+05 4.97732E+03-1.79955E+04-7.40140E+06
 -1       637 1.86719E+06 3.67435E+05-5.30102E+05 3.91088E+03-1.26807E+04-5.91933E+06
 -1       638 1.13569E+06 3.49984E+05-5.43305E+05 2.84222E+03-8.45864E+03-4.44648E+06
 -1       639 6.08894E+05 3.36830E+05-5.36206E+05 1.85153E+03-5.31456E+03-2.99833E+06
 -1       640 3.32790E+05 3.40491E+05-5.28949E+05 2.24719E+03-4.11447E+03-1.55094E+06
 -1       641-2.32471E+05 2.44123E+04-8.86682E+04 9.10158E+02-6.64068E+05-3.67198E+07
 -1       642-2.55564E+05-2.29907E+04-1.08130E+05-4.58803E+02-4.06738E+05-4.29907E+07
 -1       643-2.45255E+05-9.64035E+03-6.26660E+04-4.28622E+02-4.04009E+05-4.32751E+07
 -1       644-2.45924E+05-8.40699E+03-1.41356E+04-6.18133E+02-3.55896E+05-4.13801E+07
 -1       645-2.46604E+05-6.55300E+03 3.13259E+04-6.94572E+02-3.30369E+05-3.95088E+07
 -1       646-2.45334E+05-5.97208E+03 7.05241E+04-7.48430E+02-3.04194E+05-3.78092E+07
 -1       647-2.41595E+05-5.11862E+03 1.04006E+05-7.69514E+02-2.79070E+05-3.62137E+07
 -1       648-2.36124E+05-4.30716E+03 1.31600E+05-7.70201E+02-2.54615E+05-3.46465E+07
 -1       649-2.29372E+05-3.57732E+03 1.53374E+05-7.54081E+02-2.31236E+05-3.30777E+07
 -1       650-2.21657E+05-2.95066E+03 1.69769E+05-7.25314E+02-2.08958E+05-3.15040E+07
 -1       651-2.13206E+05-2.40421E+03 1.81408E+05-6.86855E+02-1.87785E+05-2.99285E+07
 -1       652-2.04184E+05-1.92908E+03 1.88863E+05-6.41068E+02-1.67702E+05-2.83529E+07
 -1       653-1.94692E+05-1.52264E+03 1.92614E+05-5.89908E+02-1.48703E+05-2.67775E+07
 -1       654-1.84795E+05-1.18169E+03 1.93083E+05-5.35087E+02-1.30790E+05-2.52023E+07
 -1       655-1.74540E+05-9.00469E+02 1.90658E+05-4.78128E+02-1.13962E+05-2.36271E+07
 -1       656-1.63969E+05-6.71966E+02 1.85705E+05-4.20381E+02-9.82193E+04-2.20520E+07
 -1       657-1.53121E+05-4.89190E+02 1.78566E+05-3.63030E+02-8.35626E+04-2.04768E+07
 -1       658-1.42033E+05-3.45640E+02 1.69561E+05-3.07093E+02-6.99917E+04-1.89016E+07
 -1       659-1.30740E+05-2.35368E+02 1.58987E+05-2.53440E+02-5.75064E+04-1.73264E+07
 -1       660-1.19272E+05-1.52939E+02 1.47114E+05-2.02802E+02-4.61070E+04-1.57513E+07
 -1       661-1.07660E+05-9.34067E+01 1.34193E+05-1.55780E+02-3.57935E+04-1.41762E+07
 -1       662-9.59289E+04-5.22908E+01 1.20448E+05-1.12860E+02-2.65653E+04-1.26012E+07
 -1       663-8.41005E+04-2.55015E+01 1.06079E+05-7.44137E+01-1.84205E+04-1.10259E+07
 -1       664-7.21906E+04-9.54740E+00 9.12571E+04-4.07145E+01-1.13569E+04-9.44987E+06
 -1       665-6.02161E+04-8.08426E-01 7.61361E+04-1.20052E+01-5.38010E+03-7.87296E+06
 -1       666-4.82193E+04 6.98438E-01 6.08692E+04 1.14504E+01-5.30403E+02-6.29776E+06
 -1       667-3.62900E+04 9.54539E+00 4.56556E+04 2.88938E+01 3.10483E+03-4.73336E+06
 -1       668-2.45470E+04-2.28037E+01 3.06287E+04 4.20074E+01 5.61986E+03-3.18872E+06
 -1       669-1.25683E+04 1.34869E+02 1.56358E+04 4.54486E+01 7.09637E+03-1.63427E+06
 -1       670-7.56412E+07 1.40142E+07-2.85168E+06 1.90626E+05-6.04431E+05-3.66736E+07
 -1       671-8.39494E+07-2.36237E+06-6.87671E+05-1.21483E+05-4.35563E+05-4.03346E+07
 -1       672-7.82241E+07-4.84787E+05 3.75905E+05-2.42253E+04-4.33757E+05-4.01161E+07
 -1       673-7.22267E+07-1.48733E+06 1.28517E+05-3.50452E+04-4.00091E+05-3.84959E+07
 -1       674-6.62446E+07-1.10358E+06 2.66027E+05-2.49056E+04-3.71420E+05-3.68582E+07
 -1       675-6.09799E+07-1.01506E+06 2.55968E+05-2.47688E+04-3.41535E+05-3.52886E+07
 -1       676-5.60089E+07-9.35426E+05 3.09330E+05-2.39925E+04-3.13927E+05-3.38009E+07
 -1       677-5.12847E+07-8.88445E+05 3.70558E+05-2.31806E+04-2.87538E+05-3.23319E+07
 -1       678-4.67692E+07-8.44074E+05 4.24865E+05-2.21490E+04-2.62338E+05-3.08628E+07
 -1       679-4.24582E+07-8.00448E+05 4.69826E+05-2.10900E+04-2.38277E+05-2.93921E+07
 -1       680-3.83543E+07-7.57424E+05 5.07996E+05-2.00264E+04-2.15377E+05-2.79221E+07
 -1       681-3.44593E+07-7.16202E+05 5.40899E+05-1.89643E+04-1.93646E+05-2.64535E+07
 -1       682-3.07740E+07-6.77097E+05 5.69206E+05-1.78985E+04-1.73087E+05-2.49862E+07
 -1       683-2.72982E+07-6.40154E+05 5.93213E+05-1.68284E+04-1.53701E+05-2.35196E+07
 -1       684-2.40319E+07-6.05345E+05 6.13202E+05-1.57554E+04-1.35487E+05-2.20535E+07
 -1       685-2.09753E+07-5.72672E+05 6.29477E+05-1.46813E+04-1.18447E+05-2.05874E+07
 -1       686-1.81283E+07-5.42155E+05 6.42340E+05-1.36076E+04-1.02579E+05-1.91212E+07
 -1       687-1.54911E+07-5.13816E+05 6.52078E+05-1.25353E+04-8.78859E+04-1.76548E+07
 -1       688-1.30638E+07-4.87673E+05 6.58950E+05-1.14654E+04-7.43667E+04-1.61878E+07
 -1       689-1.08463E+07-4.63737E+05 6.63188E+05-1.03986E+04-6.20221E+04-1.47203E+07
 -1       690-8.83873E+06-4.42015E+05 6.64996E+05-9.33582E+03-5.08524E+04-1.32521E+07
 -1       691-7.04117E+06-4.22559E+05 6.64586E+05-8.27860E+03-4.08580E+04-1.17831E+07
 -1       692-5.45391E+06-4.05524E+05 6.62270E+05-7.22815E+03-3.20405E+04-1.03131E+07
 -1       693-4.07746E+06-3.91087E+05 6.58549E+05-6.18130E+03-2.44023E+04-8.84165E+06
 -1       694-2.91196E+06-3.79022E+05 6.53397E+05-5.11842E+03-1.79464E+04-7.36836E+06
 -1       695-1.95622E+06-3.67493E+05 6.44280E+05-4.00133E+03-1.26429E+04-5.89537E+06
 -1       696-1.20268E+06-3.50010E+05 6.28905E+05-2.89290E+03-8.43148E+03-4.42970E+06
 -1       697-6.54285E+05-3.36907E+05 5.93694E+05-1.87057E+03-5.29708E+03-2.98692E+06
 -1       698-3.56256E+05-3.40208E+05 5.58600E+05-2.26222E+03-4.09233E+03-1.54245E+06
 -1       699-1.68976E+08 1.90163E+07 2.47209E+07-6.32182E+06 2.29131E+06 9.39611E+06
 -1       700-1.78916E+08-4.34553E+05-6.29813E+06-2.49798E+06 4.04879E+05 2.30237E+06
 -1       701-1.63717E+08-2.71566E+06-2.09405E+06-3.84067E+06-1.23757E+05 1.51420E+06
 -1       702-1.53346E+08-3.60516E+06-3.26801E+06-4.53989E+06-4.19011E+05 1.60438E+06
 -1       703-1.41811E+08-3.15882E+06-2.87860E+06-4.46762E+06-3.53346E+05 1.65568E+06
 -1       704-1.30737E+08-2.87471E+06-2.66729E+06-4.23028E+06-3.01019E+05 1.72681E+06
 -1       705-1.20074E+08-2.68006E+06-2.45630E+06-4.01587E+06-2.89238E+05 1.68303E+06
 -1       706-1.09894E+08-2.54904E+06-2.28966E+06-3.83314E+06-2.93457E+05 1.61491E+06
 -1       707-1.00175E+08-2.42760E+06-2.13234E+06-3.66148E+06-2.98740E+05 1.54339E+06
 -1       708-9.09086E+07-2.30603E+06-1.98072E+06-3.48965E+06-3.01914E+05 1.47156E+06
 -1       709-8.20925E+07-2.18660E+06-1.83450E+06-3.31610E+06-3.03888E+05 1.39758E+06
 -1       710-7.37275E+07-2.07215E+06-1.69499E+06-3.14180E+06-3.05551E+05 1.32073E+06
 -1       711-6.58141E+07-1.96360E+06-1.56267E+06-2.96740E+06-3.07162E+05 1.24157E+06
 -1       712-5.83527E+07-1.86098E+06-1.43764E+06-2.79305E+06-3.08713E+05 1.16092E+06
 -1       713-5.13432E+07-1.76424E+06-1.31991E+06-2.61872E+06-3.10172E+05 1.07951E+06
 -1       714-4.47857E+07-1.67340E+06-1.20949E+06-2.44436E+06-3.11534E+05 9.97892E+05
 -1       715-3.86804E+07-1.58850E+06-1.10643E+06-2.26998E+06-3.12808E+05 9.16552E+05
 -1       716-3.30272E+07-1.50964E+06-1.01078E+06-2.09558E+06-3.14008E+05 8.35893E+05
 -1       717-2.78263E+07-1.43687E+06-9.22581E+05-1.92116E+06-3.15143E+05 7.56260E+05
 -1       718-2.30778E+07-1.37021E+06-8.41866E+05-1.74673E+06-3.16214E+05 6.77932E+05
 -1       719-1.87816E+07-1.30971E+06-7.68665E+05-1.57228E+06-3.17222E+05 6.01126E+05
 -1       720-1.49380E+07-1.25548E+06-7.03057E+05-1.39774E+06-3.18196E+05 5.26043E+05
 -1       721-1.15470E+07-1.20793E+06-6.45246E+05-1.22293E+06-3.19266E+05 4.53015E+05
 -1       722-8.60864E+06-1.16768E+06-5.95404E+05-1.04789E+06-3.20616E+05 3.82612E+05
 -1       723-6.12164E+06-1.13392E+06-5.53068E+05-8.73936E+05-3.22119E+05 3.15280E+05
 -1       724-4.08302E+06-1.10017E+06-5.14352E+05-7.04942E+05-3.21532E+05 2.47349E+05
 -1       725-2.49287E+06-1.05635E+06-4.77803E+05-5.43141E+05-3.14825E+05 1.73753E+05
 -1       726-1.36425E+06-9.83565E+05-4.37314E+05-3.68126E+05-3.03152E+05 8.11494E+04
 -1       727-7.58734E+05-1.03031E+06-4.87448E+05-1.29522E+05-3.15912E+05-4.60641E+04
 -1       728-1.47019E+08 1.80334E+07 3.10336E+07-5.12098E+06 2.34339E+06 1.06226E+07
 -1       729-1.68105E+08-1.46626E+06-3.35228E+06-6.75619E+06 4.87237E+05 1.72519E+06
 -1       730-1.50789E+08 3.02082E+06 3.51532E+06-5.95511E+06-1.49548E+05 1.40515E+06
 -1       731-1.40263E+08 3.03512E+06 2.65872E+06-5.12917E+06-3.99490E+05 1.40202E+06
 -1       732-1.29496E+08 2.80662E+06 2.61439E+06-4.82954E+06-3.40961E+05 1.47316E+06
 -1       733-1.19375E+08 2.50900E+06 2.36439E+06-4.68692E+06-2.90718E+05 1.54769E+06
 -1       734-1.09683E+08 2.32207E+06 2.16833E+06-4.52906E+06-2.78832E+05 1.51079E+06
 -1       735-1.00389E+08 2.18507E+06 1.98801E+06-4.34067E+06-2.82259E+05 1.44946E+06
 -1       736-9.14964E+07 2.05802E+06 1.82208E+06-4.14138E+06-2.86877E+05 1.38527E+06
 -1       737-8.30152E+07 1.93208E+06 1.66321E+06-3.94184E+06-2.89538E+05 1.32096E+06
 -1       738-7.49482E+07 1.80935E+06 1.51145E+06-3.74386E+06-2.91096E+05 1.25468E+06
 -1       739-6.72958E+07 1.69195E+06 1.36711E+06-3.54664E+06-2.92396E+05 1.18567E+06
 -1       740-6.00573E+07 1.58064E+06 1.23055E+06-3.34956E+06-2.93684E+05 1.11446E+06
 -1       741-5.32326E+07 1.47545E+06 1.10181E+06-3.15244E+06-2.94954E+05 1.04182E+06
 -1       742-4.68216E+07 1.37635E+06 9.80888E+05-2.95533E+06-2.96170E+05 9.68460E+05
 -1       743-4.08244E+07 1.28336E+06 8.67776E+05-2.75824E+06-2.97325E+05 8.94902E+05
 -1       744-3.52411E+07 1.19652E+06 7.62472E+05-2.56119E+06-2.98427E+05 8.21600E+05
 -1       745-3.00715E+07 1.11590E+06 6.64982E+05-2.36417E+06-2.99486E+05 7.48940E+05
 -1       746-2.53157E+07 1.04155E+06 5.75307E+05-2.16717E+06-3.00507E+05 6.77248E+05
 -1       747-2.09738E+07 9.73484E+05 4.93449E+05-1.97019E+06-3.01493E+05 6.06791E+05
 -1       748-1.70457E+07 9.11741E+05 4.19416E+05-1.77323E+06-3.02440E+05 5.37770E+05
 -1       749-1.35313E+07 8.56419E+05 3.53250E+05-1.57638E+06-3.03375E+05 4.70376E+05
 -1       750-1.04306E+07 8.07835E+05 2.95028E+05-1.37978E+06-3.04419E+05 4.04934E+05
 -1       751-7.74389E+06 7.66513E+05 2.44796E+05-1.18337E+06-3.05741E+05 3.42010E+05
 -1       752-5.47270E+06 7.31711E+05 2.01727E+05-9.85842E+05-3.07243E+05 2.82077E+05
 -1       753-3.61706E+06 6.99457E+05 1.65655E+05-7.83843E+05-3.06750E+05 2.21423E+05
 -1       754-2.17676E+06 6.53361E+05 1.30186E+05-5.76459E+05-3.00812E+05 1.55021E+05
 -1       755-1.12509E+06 6.13996E+05 1.13865E+05-3.90029E+05-2.89427E+05 6.86173E+04
 -1       756-3.13773E+05 7.39044E+05 1.76935E+05-2.83509E+05-3.00406E+05-5.27841E+04
 -1       757 1.47302E+08-1.80582E+07-3.09976E+07 5.20410E+06 2.29189E+06 1.04100E+07
 -1       758 1.68387E+08 1.29825E+06 3.29768E+06 6.77106E+06 4.07673E+05 1.22315E+06
 -1       759 1.51011E+08-3.18470E+06-3.56231E+06 5.93611E+06-2.29742E+05 8.47766E+05
 -1       760 1.40466E+08-3.17575E+06-2.70559E+06 5.10870E+06-4.70709E+05 8.00029E+05
 -1       761 1.29689E+08-2.92905E+06-2.65815E+06 4.81242E+06-4.07068E+05 8.34200E+05
 -1       762 1.19561E+08-2.61407E+06-2.40560E+06 4.67184E+06-3.52854E+05 8.84207E+05
 -1       763 1.09860E+08-2.41039E+06-2.20617E+06 4.51544E+06-3.36800E+05 8.38512E+05
 -1       764 1.00557E+08-2.25826E+06-2.02239E+06 4.32849E+06-3.35991E+05 7.82390E+05
 -1       765 9.16551E+07-2.11815E+06-1.85326E+06 4.13053E+06-3.36633E+05 7.34502E+05
 -1       766 8.31648E+07-1.98110E+06-1.69155E+06 3.93212E+06-3.35645E+05 6.95373E+05
 -1       767 7.50889E+07-1.84894E+06-1.53725E+06 3.73510E+06-3.33826E+05 6.61365E+05
 -1       768 6.74278E+07-1.72354E+06-1.39060E+06 3.53871E+06-3.31964E+05 6.30090E+05
 -1       769 6.01809E+07-1.60548E+06-1.25192E+06 3.34237E+06-3.30275E+05 6.00593E+05
 -1       770 5.33479E+07-1.49466E+06-1.12124E+06 3.14592E+06-3.28734E+05 5.72318E+05
 -1       771 4.69290E+07-1.39093E+06-9.98530E+05 2.94940E+06-3.27289E+05 5.44759E+05
 -1       772 4.09240E+07-1.29417E+06-8.83765E+05 2.75283E+06-3.25916E+05 5.17416E+05
 -1       773 3.53329E+07-1.20433E+06-7.76929E+05 2.55623E+06-3.24607E+05 4.89833E+05
 -1       774 3.01559E+07-1.12136E+06-6.78011E+05 2.35960E+06-3.23356E+05 4.61616E+05
 -1       775 2.53927E+07-1.04521E+06-5.86999E+05 2.16294E+06-3.22155E+05 4.32432E+05
 -1       776 2.10435E+07-9.75811E+05-5.03881E+05 1.96624E+06-3.20992E+05 4.01993E+05
 -1       777 1.71082E+07-9.13110E+05-4.28652E+05 1.76952E+06-3.19853E+05 3.70046E+05
 -1       778 1.35867E+07-8.57132E+05-3.61343E+05 1.57286E+06-3.18753E+05 3.36419E+05
 -1       779 1.04790E+07-8.08127E+05-3.02025E+05 1.37641E+06-3.17805E+05 3.01153E+05
 -1       780 7.78528E+06-7.66559E+05-2.50743E+05 1.18011E+06-3.17171E+05 2.64597E+05
 -1       781 5.50716E+06-7.31634E+05-2.06673E+05 9.82669E+05-3.16730E+05 2.27073E+05
 -1       782 3.64458E+06-6.99343E+05-1.69570E+05 7.80753E+05-3.14271E+05 1.84775E+05
 -1       783 2.19723E+06-6.53251E+05-1.32924E+05 5.73488E+05-3.06329E+05 1.32688E+05
 -1       784 1.13804E+06-6.13953E+05-1.15112E+05 3.87216E+05-2.93153E+05 5.66189E+04
 -1       785 3.18805E+05-7.38848E+05-1.75608E+05 2.80626E+05-3.03129E+05-5.75193E+04
 -1       786 1.69477E+08-1.88116E+07-2.45914E+07 6.30406E+06 2.23947E+06 9.16672E+06
 -1       787 1.79350E+08 6.34339E+05 6.37537E+06 2.47756E+06 3.33840E+05 1.78153E+06
 -1       788 1.64138E+08 2.91153E+06 2.19474E+06 3.84366E+06-2.01363E+05 9.30912E+05
 -1       789 1.53740E+08 3.77168E+06 3.35100E+06 4.54387E+06-4.91680E+05 9.72652E+05
 -1       790 1.42173E+08 3.30269E+06 2.94762E+06 4.47047E+06-4.20946E+05 9.84019E+05
 -1       791 1.31068E+08 2.99793E+06 2.72225E+06 4.23354E+06-3.63434E+05 1.02921E+06
 -1       792 1.20373E+08 2.78376E+06 2.49916E+06 4.01913E+06-3.46464E+05 9.76461E+05
 -1       793 1.10164E+08 2.63497E+06 2.32198E+06 3.83577E+06-3.45841E+05 9.14091E+05
 -1       794 1.00419E+08 2.49812E+06 2.15565E+06 3.66329E+06-3.46769E+05 8.59954E+05
 -1       795 9.11280E+07 2.36344E+06 1.99646E+06 3.49071E+06-3.46007E+05 8.14834E+05
 -1       796 8.22902E+07 2.23286E+06 1.84394E+06 3.31652E+06-3.44376E+05 7.75020E+05
 -1       797 7.39056E+07 2.10895E+06 1.69926E+06 3.14165E+06-3.42708E+05 7.38091E+05
 -1       798 6.59745E+07 1.99243E+06 1.56277E+06 2.96674E+06-3.41232E+05 7.03045E+05
 -1       799 5.84970E+07 1.88317E+06 1.43446E+06 2.79193E+06-3.39919E+05 6.69287E+05
 -1       800 5.14731E+07 1.78098E+06 1.31424E+06 2.61719E+06-3.38711E+05 6.36279E+05
 -1       801 4.49026E+07 1.68572E+06 1.20202E+06 2.44250E+06-3.37581E+05 6.03492E+05
 -1       802 3.87853E+07 1.59733E+06 1.09777E+06 2.26782E+06-3.36518E+05 5.70446E+05
 -1       803 3.31213E+07 1.51574E+06 1.00144E+06 2.09316E+06-3.35512E+05 5.36726E+05
 -1       804 2.79104E+07 1.44089E+06 9.12999E+05 1.91853E+06-3.34555E+05 5.01982E+05
 -1       805 2.31525E+07 1.37271E+06 8.32398E+05 1.74393E+06-3.33630E+05 4.65908E+05
 -1       806 1.88476E+07 1.31112E+06 7.59607E+05 1.56936E+06-3.32723E+05 4.28242E+05
 -1       807 1.49958E+07 1.25616E+06 6.94644E+05 1.39472E+06-3.31846E+05 3.88801E+05
 -1       808 1.15970E+07 1.20816E+06 6.37654E+05 1.21983E+06-3.31114E+05 3.47619E+05
 -1       809 8.65110E+06 1.16767E+06 5.88753E+05 1.04473E+06-3.30701E+05 3.05047E+05
 -1       810 6.15683E+06 1.13381E+06 5.47430E+05 8.70754E+05-3.30482E+05 2.61384E+05
 -1       811 4.11103E+06 1.10004E+06 5.09833E+05 7.01765E+05-3.28245E+05 2.12853E+05
 -1       812 2.51367E+06 1.05626E+06 4.74599E+05 5.40041E+05-3.19976E+05 1.54318E+05
 -1       813 1.37743E+06 9.83507E+05 4.35760E+05 3.65159E+05-3.06625E+05 7.22413E+04
 -1       814 7.63937E+05 1.03051E+06 4.88634E+05 1.26495E+05-3.17116E+05-4.86315E+04
 -1       815-1.68976E+08 1.90163E+07 2.47209E+07 6.32182E+06-2.29131E+06 9.39611E+06
 -1       816-1.78916E+08-4.34553E+05-6.29813E+06 2.49798E+06-4.04879E+05 2.30237E+06
 -1       817-1.63717E+08-2.71566E+06-2.09405E+06 3.84067E+06 1.23757E+05 1.51420E+06
 -1       818-1.53346E+08-3.60516E+06-3.26801E+06 4.53989E+06 4.19011E+05 1.60438E+06
 -1       819-1.41811E+08-3.15882E+06-2.87860E+06 4.46762E+06 3.53346E+05 1.65568E+06
 -1       820-1.30737E+08-2.87471E+06-2.66729E+06 4.23028E+06 3.01019E+05 1.72681E+06
 -1       821-1.20074E+08-2.68006E+06-2.45630E+06 4.01587E+06 2.89238E+05 1.68303E+06
 -1       822-1.09894E+08-2.54904E+06-2.28966E+06 3.83314E+06 2.93457E+05 1.61491E+06
 -1       823-1.00175E+08-2.42760E+06-2.13234E+06 3.66148E+06 2.98740E+05 1.54339E+06
 -1       824-9.09086E+07-2.30603E+06-1.98072E+06 3.48965E+06 3.01914E+05 1.47156E+06
 -1       825-8.20925E+07-2.18660E+06-1.83450E+06 3.31610E+06 3.03888E+05 1.39758E+06
 -1       826-7.37275E+07-2.07215E+06-1.69499E+06 3.14180E+06 3.05551E+05 1.32073E+06
 -1       827-6.58141E+07-1.96360E+06-1.56267E+06 2.96740E+06 3.07162E+05 1.24157E+06
 -1       828-5.83527E+07-1.86098E+06-1.43764E+06 2.79305E+06 3.08713E+05 1.16092E+06
 -1       829-5.13432E+07-1.76424E+06-1.31991E+06 2.61872E+06 3.10172E+05 1.07951E+06
 -1       830-4.47857E+07-1.67340E+06-1.20949E+06 2.44436E+06 3.11534E+05 9.97892E+05
 -1       831-3.86804E+07-1.58850E+06-1.10643E+06 2.26998E+06 3.12808E+05 9.16552E+05
 -1       832-3.30272E+07-1.50964E+06-1.01078E+06 2.09558E+06 3.14008E+05 8.35893E+05
 -1       833-2.78263E+07-1.43687E+06-9.22581E+05 1.92116E+06 3.15143E+05 7.56260E+05
 -1       834-2.30778E+07-1.37021E+06-8.41866E+05 1.74673E+06 3.16214E+05 6.77932E+05
 -1       835-1.87816E+07-1.30971E+06-7.68665E+05 1.57228E+06 3.17222E+05 6.01126E+05
 -1       836-1.49380E+07-1.25548E+06-7.03057E+05 1.39774E+06 3.18196E+05 5.26043E+05
 -1       837-1.15470E+07-1.20793E+06-6.45246E+05 1.22293E+06 3.19266E+05 4.53015E+05
 -1       838-8.60864E+06-1.16768E+06-5.95404E+05 1.04789E+06 3.20616E+05 3.82612E+05
 -1       839-6.12164E+06-1.13392E+06-5.53068E+05 8.73936E+05 3.22119E+05 3.15280E+05
 -1       840-4.08302E+06-1.10017E+06-5.14352E+05 7.04942E+05 3.21532E+05 2.47349E+05
 -1       841-2.49287E+06-1.05635E+06-4.77803E+05 5.43141E+05 3.14825E+05 1.73753E+05
 -1       842-1.36425E+06-9.83565E+05-4.37314E+05 3.68126E+05 3.03152E+05 8.11494E+04
 -1       843-7.58734E+05-1.03031E+06-4.87448E+05 1.29522E+05 3.15912E+05-4.60641E+04
 -1       844-1.47019E+08 1.80334E+07 3.10336E+07 5.12098E+06-2.34339E+06 1.06226E+07
 -1       845-1.68105E+08-1.46626E+06-3.35228E+06 6.75619E+06-4.87237E+05 1.72519E+06
 -1       846-1.50789E+08 3.02082E+06 3.51532E+06 5.95511E+06 1.49548E+05 1.40515E+06
 -1       847-1.40263E+08 3.03512E+06 2.65872E+06 5.12917E+06 3.99490E+05 1.40202E+06
 -1       848-1.29496E+08 2.80662E+06 2.61439E+06 4.82954E+06 3.40961E+05 1.47316E+06
 -1       849-1.19375E+08 2.50900E+06 2.36439E+06 4.68692E+06 2.90718E+05 1.54769E+06
 -1       850-1.09683E+08 2.32207E+06 2.16833E+06 4.52906E+06 2.78832E+05 1.51079E+06
 -1       851-1.00389E+08 2.18507E+06 1.98801E+06 4.34067E+06 2.82259E+05 1.44946E+06
 -1       852-9.14964E+07 2.05802E+06 1.82208E+06 4.14138E+06 2.86877E+05 1.38527E+06
 -1       853-8.30152E+07 1.93208E+06 1.66321E+06 3.94184E+06 2.89538E+05 1.32096E+06
 -1       854-7.49482E+07 1.80935E+06 1.51145E+06 3.74386E+06 2.91096E+05 1.25468E+06
 -1       855-6.72958E+07 1.69195E+06 1.36711E+06 3.54664E+06 2.92396E+05 1.18567E+06
 -1       856-6.00573E+07 1.58064E+06 1.23055E+06 3.34956E+06 2.93684E+05 1.11446E+06
 -1       857-5.32326E+07 1.47545E+06 1.10181E+06 3.15244E+06 2.94954E+05 1.04182E+06
 -1       858-4.68216E+07 1.37635E+06 9.80888E+05 2.95533E+06 2.96170E+05 9.68460E+05
 -1       859-4.08244E+07 1.28336E+06 8.67776E+05 2.75824E+06 2.97325E+05 8.94902E+05
 -1       860-3.52411E+07 1.19652E+06 7.62472E+05 2.56119E+06 2.98427E+05 8.21600E+05
 -1       861-3.00715E+07 1.11590E+06 6.64982E+05 2.36417E+06 2.99486E+05 7.48940E+05
 -1       862-2.53157E+07 1.04155E+06 5.75307E+05 2.16717E+06 3.00507E+05 6.77248E+05
 -1       863-2.09738E+07 9.73484E+05 4.93449E+05 1.97019E+06 3.01493E+05 6.06791E+05
 -1       864-1.70457E+07 9.11741E+05 4.19416E+05 1.77323E+06 3.02440E+05 5.37770E+05
 -1       865-1.35313E+07 8.56419E+05 3.53250E+05 1.57638E+06 3.03375E+05 4.70376E+05
 -1       866-1.04306E+07 8.07835E+05 2.95028E+05 1.37978E+06 3.04419E+05 4.04934E+05
 -1       867-7.74389E+06 7.66513E+05 2.44796E+05 1.18337E+06 3.05741E+05 3.42010E+05
 -1       868-5.47270E+06 7.31711E+05 2.01727E+05 9.85842E+05 3.07243E+05 2.82077E+05
 -1       869-3.61706E+06 6.99457E+05 1.65655E+05 7.83843E+05 3.06750E+05 2.21423E+05
 -1       870-2.17676E+06 6.53361E+05 1.30186E+05 5.76459E+05 3.00812E+05 1.55021E+05
 -1       871-1.12509E+06 6.13996E+05 1.13865E+05 3.90029E+05 2.89427E+05 6.86173E+04
 -1       872-3.13773E+05 7.39044E+05 1.76935E+05 2.83509E+05 3.00406E+05-5.27841E+04
 -1       873 7.63937E+05 1.03051E+06 4.88634E+05-1.26495E+05 3.17116E+05-4.86315E+04
 -1       874 1.37743E+06 9.83507E+05 4.35760E+05-3.65159E+05 3.06625E+05 7.22413E+04
 -1       875 2.51367E+06 1.05626E+06 4.74599E+05-5.40041E+05 3.19976E+05 1.54318E+05
 -1       876 4.11103E+06 1.10004E+06 5.09833E+05-7.01765E+05 3.28245E+05 2.12853E+05
 -1       877 6.15683E+06 1.13381E+06 5.47430E+05-8.70754E+05 3.30482E+05 2.61384E+05
 -1       878 8.65110E+06 1.16767E+06 5.88753E+05-1.04473E+06 3.30701E+05 3.05047E+05
 -1       879 1.15970E+07 1.20816E+06 6.37654E+05-1.21983E+06 3.31114E+05 3.47619E+05
 -1       880 1.49958E+07 1.25616E+06 6.94644E+05-1.39472E+06 3.31846E+05 3.88801E+05
 -1       881 1.88476E+07 1.31112E+06 7.59607E+05-1.56936E+06 3.32723E+05 4.28242E+05
 -1       882 2.31525E+07 1.37271E+06 8.32398E+05-1.74393E+06 3.33630E+05 4.65908E+05
 -1       883 2.79104E+07 1.44089E+06 9.12999E+05-1.91853E+06 3.34555E+05 5.01982E+05
 -1       884 3.31213E+07 1.51574E+06 1.00144E+06-2.09316E+06 3.35512E+05 5.36726E+05
 -1       885 3.87853E+07 1.59733E+06 1.09777E+06-2.26782E+06 3.36518E+05 5.70446E+05
 -1       886 4.49026E+07 1.68572E+06 1.20202E+06-2.44250E+06 3.37581E+05 6.03492E+05
 -1       887 5.14731E+07 1.78098E+06 1.31424E+06-2.61719E+06 3.38711E+05 6.36279E+05
 -1       888 5.84970E+07 1.88317E+06 1.43446E+06-2.79193E+06 3.39919E+05 6.69287E+05
 -1       889 6.59745E+07 1.99243E+06 1.56277E+06-2.96674E+06 3.41232E+05 7.03045E+05
 -1       890 7.39056E+07 2.10895E+06 1.69926E+06-3.14165E+06 3.42708E+05 7.38091E+05
 -1       891 8.22902E+07 2.23286E+06 1.84394E+06-3.31652E+06 3.44376E+05 7.75020E+05
 -1       892 9.11280E+07 2.36344E+06 1.99646E+06-3.49071E+06 3.46007E+05 8.14834E+05
 -1       893 1.00419E+08 2.49812E+06 2.15565E+06-3.66329E+06 3.46769E+05 8.59954E+05
 -1       894 1.10164E+08 2.63497E+06 2.32198E+06-3.83577E+06 3.45841E+05 9.14091E+05
 -1       895 1.20373E+08 2.78376E+06 2.49916E+06-4.01913E+06 3.46464E+05 9.76461E+05
 -1       896 1.31068E+08 2.99793E+06 2.72225E+06-4.23354E+06 3.63434E+05 1.02921E+06
 -1       897 1.42173E+08 3.30269E+06 2.94762E+06-4.47047E+06 4.20946E+05 9.84019E+05
 -1       898 1.53740E+08 3.77168E+06 3.35100E+06-4.54387E+06 4.91680E+05 9.72652E+05
 -1       899 1.64138E+08 2.91153E+06 2.19474E+06-3.84366E+06 2.01363E+05 9.30912E+05
 -1       900 1.79350E+08 6.34339E+05 6.37537E+06-2.47756E+06-3.33840E+05 1.78153E+06
 -1       901 1.69477E+08-1.88116E+07-2.45914E+07-6.30406E+06-2.23947E+06 9.16672E+06
 -1       902 1.47302E+08-1.80582E+07-3.09976E+07-5.20410E+06-2.29189E+06 1.04100E+07
 -1       903 1.68387E+08 1.29825E+06 3.29768E+06-6.77106E+06-4.07673E+05 1.22315E+06
 -1       904 1.51011E+08-3.18470E+06-3.56231E+06-5.93611E+06 2.29742E+05 8.47766E+05
 -1       905 1.40466E+08-3.17575E+06-2.70559E+06-5.10870E+06 4.70709E+05 8.00029E+05
 -1       906 1.29689E+08-2.92905E+06-2.65815E+06-4.81242E+06 4.07068E+05 8.34200E+05
 -1       907 1.19561E+08-2.61407E+06-2.40560E+06-4.67184E+06 3.52854E+05 8.84207E+05
 -1       908 1.09860E+08-2.41039E+06-2.20617E+06-4.51544E+06 3.36800E+05 8.38512E+05
 -1       909 1.00557E+08-2.25826E+06-2.02239E+06-4.32849E+06 3.35991E+05 7.82390E+05
 -1       910 9.16551E+07-2.11815E+06-1.85326E+06-4.13053E+06 3.36633E+05 7.34502E+05
 -1       911 8.31648E+07-1.98110E+06-1.69155E+06-3.93212E+06 3.35645E+05 6.95373E+05
 -1       912 7.50889E+07-1.84894E+06-1.53725E+06-3.73510E+06 3.33826E+05 6.61365E+05
 -1       913 6.74278E+07-1.72354E+06-1.39060E+06-3.53871E+06 3.31964E+05 6.30090E+05
 -1       914 6.01809E+07-1.60548E+06-1.25192E+06-3.34237E+06 3.30275E+05 6.00593E+05
 -1       915 5.33479E+07-1.49466E+06-1.12124E+06-3.14592E+06 3.28734E+05 5.72318E+05
 -1       916 4.69290E+07-1.39093E+06-9.98530E+05-2.94940E+06 3.27289E+05 5.44759E+05
 -1       917 4.09240E+07-1.29417E+06-8.83765E+05-2.75283E+06 3.25916E+05 5.17416E+05
 -1       918 3.53329E+07-1.20433E+06-7.76929E+05-2.55623E+06 3.24607E+05 4.89833E+05
 -1       919 3.01559E+07-1.12136E+06-6.78011E+05-2.35960E+06 3.23356E+05 4.61616E+05
 -1       920 2.53927E+07-1.04521E+06-5.86999E+05-2.16294E+06 3.22155E+05 4.32432E+05
 -1       921 2.10435E+07-9.75811E+05-5.03881E+05-1.96624E+06 3.20992E+05 4.01993E+05
 -1       922 1.71082E+07-9.13110E+05-4.28652E+05-1.76952E+06 3.19853E+05 3.70046E+05
 -1       923 1.35867E+07-8.57132E+05-3.61343E+05-1.57286E+06 3.18753E+05 3.36419E+05
 -1       924 1.04790E+07-8.08127E+05-3.02025E+05-1.37641E+06 3.17805E+05 3.01153E+05
 -1       925 7.78528E+06-7.66559E+05-2.50743E+05-1.18011E+06 3.17171E+05 2.64597E+05
 -1       926 5.50716E+06-7.31634E+05-2.06673E+05-9.82669E+05 3.16730E+05 2.27073E+05
 -1       927 3.64458E+06-6.99343E+05-1.69570E+05-7.80753E+05 3.14271E+05 1.84775E+05
 -1       928 2.19723E+06-6.53251E+05-1.32924E+05-5.73488E+05 3.06329E+05 1.32688E+05
 -1       929 1.13804E+06-6.13953E+05-1.15112E+05-3.87216E+05 2.93153E+05 5.66189E+04
 -1       930 3.18805E+05-7.38848E+05-1.75608E+05-2.80626E+05 3.03129E+05-5.75193E+04
 -3
    1PSTEP                         7           2           1          
  100CL  102 100.0000000         930                     0    2           1
 -4  FORC        4    1
 -5  F1          1    2    1    0
 -5  F2          1    2    2    0
 -5  F3          1    2    3    0
 -5  ALL         1    2    0    0    1ALL
 -1         1 3.18934E+04 9.79796E+04-5.30304E+04
 -1         2 3.18934E+04-9.79796E+04-5.30304E+04
 -1         3-2.12210E-09 2.82004E-09-1.15245E+02
 -1         4 1.90162E-09-4.04782E-10-1.15245E+02
 -1         5-3.17440E+04-9.78027E+04-5.28924E+04
 -1         6-3.17440E+04 9.78027E+04-5.28924E+04
 -1         7 2.59793E-09 3.21248E-09-1.15245E+02
 -1         8-6.24992E-10 7.37803E-10-1.15245E+02
 -1         9 6.72733E+04 1.79342E+03 7.37343E+04
 -1        10 1.23887E-10 7.13315E-10-5.34882E+01
 -1        11 5.11207E+04 2.18078E+04 5.94697E+04
 -1        12 1.25535E+04 2.03189E+04-5.84942E+04
 -1        13-2.18961E-10-1.19817E-09-4.45475E+01
 -1        14 8.74801E-10-6.58591E-11-4.45475E+01
 -1        15-6.75000E+04-1.79584E+03 7.37426E+04
 -1        16 3.07958E-10-1.35876E-09-5.34882E+01
 -1        17-1.23122E+04-2.03096E+04-5.83733E+04
 -1        18-5.14215E+04-2.18025E+04 5.94667E+04
 -1        19 1.41424E-10 4.72777E-09-4.45475E+01
 -1        20-2.67377E-09 2.43015E-09-4.45475E+01
 -1        21 1.25535E+04-2.03189E+04-5.84942E+04
 -1        22 5.11207E+04-2.18078E+04 5.94697E+04
 -1        23 7.95402E-10 8.52729E-10-4.45475E+01
 -1        24 1.13424E-09 3.85957E-09-4.45475E+01
 -1        25 6.72733E+04-1.79342E+03 7.37343E+04
 -1        26-1.47390E-10 1.44684E-09-5.34882E+01
 -1        27-6.75000E+04 1.79584E+03 7.37426E+04
 -1        28-5.14215E+04 2.18025E+04 5.94667E+04
 -1        29-1.23122E+04 2.03096E+04-5.83733E+04
 -1        30 1.35192E-11-1.03097E-09-5.34882E+01
 -1        31 1.31485E-09 4.69549E-09-4.45475E+01
 -1        32-7.78401E-10 7.03125E-10-4.45475E+01
 -1        33-2.16411E-10-3.60276E-11-2.30490E+02
 -1        34-4.88262E-10-5.01058E-11-2.30490E+02
 -1        35-1.09188E-09-1.10233E-10-2.30490E+02
 -1        36 3.69527E-10 5.40888E-10-2.30490E+02
 -1        37 9.22084E-10 2.37243E-10-2.30490E+02
 -1        38-1.67494E-10-6.58080E-10-2.30490E+02
 -1        39-3.47629E-09-1.27281E-09-2.30490E+02
 -1        40-2.05586E-09-2.14238E-10-2.30490E+02
 -1        41 1.48697E-09 1.45941E-09-2.30490E+02
 -1        42-1.78713E-10 2.42524E-09-2.30490E+02
 -1        43-6.56231E-10 2.60172E-09-2.30490E+02
 -1        44-9.87906E-10 1.61218E-09-2.30490E+02
 -1        45 4.00379E-10 3.15190E-09-2.30490E+02
 -1        46-9.71832E-10 2.14231E-09-2.30490E+02
 -1        47-7.38953E-10 4.92216E-09-2.30490E+02
 -1        48-3.34030E-09 9.50581E-10-2.30490E+02
 -1        49-6.71309E-10-3.92606E-09-2.30490E+02
 -1        50 3.00126E-10 4.85473E-09-2.30490E+02
 -1        51-2.37420E-09 3.19885E-09-2.30490E+02
 -1        52-9.58017E-10-5.38496E-10-2.30490E+02
 -1        53 1.68535E-09 2.82818E-09-2.30490E+02
 -1        54-2.41882E-09 4.74118E-09-2.30490E+02
 -1        55 2.25889E-09 7.27293E-09-2.30490E+02
 -1        56 4.74853E-10 3.25153E-09-2.30490E+02
 -1        57 1.18621E-09 1.04997E-09-2.30490E+02
 -1        58 1.16729E-09-4.17120E-09-2.30490E+02
 -1        59 1.35866E-09-5.23883E-09-2.30490E+02
 -1        60 4.98559E-10-2.17965E-09-2.30490E+02
 -1        61 2.08492E-09-2.48015E-09-2.30490E+02
 -1        62 1.53641E-10 1.43265E-10-2.30490E+02
 -1        63 1.74788E-10 6.23806E-11-2.30490E+02
 -1        64 8.93866E-10-3.85928E-11-2.30490E+02
 -1        65 4.36010E-13-3.00434E-10-2.30490E+02
 -1        66-6.74186E-10 3.57351E-10-2.30490E+02
 -1        67 4.06275E-10 7.51606E-10-2.30490E+02
 -1        68 4.06200E-09 6.86274E-10-2.30490E+02
 -1        69 1.25763E-09 5.19739E-10-2.30490E+02
 -1        70-1.73208E-09 3.51762E-11-2.30490E+02
 -1        71-1.90118E-10-4.80997E-11-2.30490E+02
 -1        72 5.39702E-10 1.09739E-10-2.30490E+02
 -1        73 7.60687E-10-2.73607E-09-2.30490E+02
 -1        74 6.37364E-10-5.28650E-10-2.30490E+02
 -1        75 3.50323E-10-6.48057E-10-2.30490E+02
 -1        76-1.24544E-09-1.05026E-09-2.30490E+02
 -1        77 3.88448E-10-1.81006E-09-2.30490E+02
 -1        78 1.21104E-09 4.17085E-09-2.30490E+02
 -1        79 1.34411E-09 5.35871E-09-2.30490E+02
 -1        80 3.03328E-09-9.63766E-10-2.30490E+02
 -1        81 1.52654E-09-9.18935E-10-2.30490E+02
 -1        82-4.26898E-10-7.37204E-10-2.30490E+02
 -1        83 1.39608E-09 3.71955E-09-2.30490E+02
 -1        84-2.59580E-09-1.76162E-09-2.30490E+02
 -1        85-2.12773E-09-6.74939E-10-2.30490E+02
 -1        86-1.49360E-09-6.49138E-09-2.30490E+02
 -1        87-2.43876E-09-6.11055E-10-2.30490E+02
 -1        88-2.39699E-09 6.20284E-09-2.30490E+02
 -1        89 4.05131E-10 1.27854E-08-2.30490E+02
 -1        90-4.37269E-09 1.07020E-08-2.30490E+02
 -1        91 3.36137E+04 1.11855E+05 6.14543E+03
 -1        92 1.01564E+02 2.91900E+02 5.71716E+03
 -1        93-3.34628E+04-1.11344E+05 6.19789E+03
 -1        94-3.34628E+04 1.11344E+05 6.19789E+03
 -1        95 1.01564E+02-2.91900E+02 5.71716E+03
 -1        96 3.36137E+04-1.11855E+05 6.14543E+03
 -1        97-3.22489E-10-5.42671E-11-2.30490E+02
 -1        98 7.03534E-11-3.17005E-11-2.30490E+02
 -1        99 1.12130E-09-6.47607E-12-2.30490E+02
 -1       100 5.11721E-10 3.93241E-10-2.30490E+02
 -1       101-8.38401E-10-3.30324E-11-2.30490E+02
 -1       102 1.06964E-09-4.05975E-10-2.30490E+02
 -1       103-2.90169E-10-8.10158E-10-2.30490E+02
 -1       104-1.44395E-09 5.74237E-10-2.30490E+02
 -1       105 6.53227E-10 1.13282E-10-2.30490E+02
 -1       106 7.23541E-10 1.25245E-09-2.30490E+02
 -1       107-3.79751E-09-1.53895E-09-2.30490E+02
 -1       108 7.45085E-10-1.25339E-09-2.30490E+02
 -1       109 3.62374E-09 1.75468E-09-2.30490E+02
 -1       110 1.58694E-09 1.61193E-09-2.30490E+02
 -1       111 6.84306E-10-8.26257E-10-2.30490E+02
 -1       112-2.31407E-10-1.02626E-09-2.30490E+02
 -1       113-1.90302E-09 1.28241E-09-2.30490E+02
 -1       114 3.33268E-09 1.85284E-09-2.30490E+02
 -1       115 5.48236E-10-4.75873E-10-2.30490E+02
 -1       116-2.29427E-09-6.44505E-11-2.30490E+02
 -1       117-9.32572E-10 3.69734E-09-2.30490E+02
 -1       118-1.45899E-09 5.07539E-09-2.30490E+02
 -1       119-7.83702E-10-5.08666E-11-2.30490E+02
 -1       120-1.15255E-09-6.80758E-09-2.30490E+02
 -1       121 4.56413E-10-1.86031E-09-2.30490E+02
 -1       122 4.67647E-09-1.77566E-09-2.30490E+02
 -1       123 4.18675E-09 2.05391E-10-2.30490E+02
 -1       124 1.38522E-09 3.06587E-09-2.30490E+02
 -1       125-2.81328E-09-8.28634E-10-2.30490E+02
 -1       126-4.38137E-09 2.77316E-09-1.23514E+02
 -1       127-3.42940E-10-1.48452E-09-1.23514E+02
 -1       128-2.98886E-10-2.44845E-10-1.23514E+02
 -1       129 3.03686E-10 1.11484E-10-2.30490E+02
 -1       130 1.83145E-10 2.47562E-10-2.30490E+02
 -1       131-1.05876E-09 1.75810E-10-2.30490E+02
 -1       132-3.19329E-10 1.91356E-10-2.30490E+02
 -1       133 7.09926E-10 1.82701E-10-2.30490E+02
 -1       134-8.60196E-10-4.58630E-11-2.30490E+02
 -1       135-4.01671E-10-4.91350E-10-2.30490E+02
 -1       136 1.61424E-09-8.91481E-10-2.30490E+02
 -1       137-4.21910E-10-2.76729E-10-2.30490E+02
 -1       138-2.67470E-10-6.91665E-10-2.30490E+02
 -1       139 3.14339E-09 1.52177E-09-2.30490E+02
 -1       140-8.47778E-10 3.12324E-09-2.30490E+02
 -1       141-3.94612E-09 2.99663E-09-2.30490E+02
 -1       142-1.82296E-09 7.30448E-10-2.30490E+02
 -1       143-2.13269E-09 8.90487E-10-2.30490E+02
 -1       144 2.84269E-10-1.97175E-09-2.30490E+02
 -1       145 7.23141E-11 1.71444E-11-2.30490E+02
 -1       146-1.99095E-09 9.95909E-10-2.30490E+02
 -1       147 3.46848E-10 8.39065E-10-2.30490E+02
 -1       148 2.51568E-09 6.05551E-10-2.30490E+02
 -1       149 1.87730E-09-5.49847E-09-2.30490E+02
 -1       150 1.72734E-09 5.29849E-09-2.30490E+02
 -1       151 3.06461E-09 3.12985E-09-2.30490E+02
 -1       152-3.18538E-10 5.39341E-09-2.30490E+02
 -1       153 1.87173E-09 1.96520E-09-2.30490E+02
 -1       154-2.93000E-09 5.91118E-09-2.30490E+02
 -1       155-3.84609E-09 3.67898E-09-2.30490E+02
 -1       156-2.51598E-09-3.73547E-09-2.30490E+02
 -1       157-1.35969E-09 2.19800E-10-2.30490E+02
 -1       158 5.37933E-10 2.25161E-10-1.23514E+02
 -1       159 2.86344E-10-2.69570E-09-1.23514E+02
 -1       160 4.00326E-09-2.42633E-09-1.23514E+02
 -1       161 3.03998E-11 4.08588E-11-1.06976E+02
 -1       162-8.25737E-11 4.49063E-11-1.06976E+02
 -1       163-1.35325E-10 2.44449E-11-1.06976E+02
 -1       164-9.51591E-11 2.56930E-11-1.06976E+02
 -1       165-1.84097E-12-5.27455E-11-1.06976E+02
 -1       166-3.97905E-10-2.31730E-11-1.06976E+02
 -1       167-2.83049E-10 1.13391E-10-1.06976E+02
 -1       168 4.82960E-10-2.15542E-11-1.06976E+02
 -1       169 1.47557E-09 6.44285E-10-1.06976E+02
 -1       170 3.56222E-10-4.69191E-11-1.06976E+02
 -1       171 2.22383E-10 5.78443E-10-1.06976E+02
 -1       172-2.53890E-11 2.65538E-10-1.06976E+02
 -1       173 1.28504E-09 1.31561E-09-1.06976E+02
 -1       174-5.94955E-10 6.89055E-10-1.06976E+02
 -1       175 1.47122E-09-2.92065E-09-1.06976E+02
 -1       176 6.18364E-10-2.76522E-09-1.06976E+02
 -1       177-2.29803E-09-1.22024E-09-1.06976E+02
 -1       178 1.91298E-09 2.56798E-09-1.06976E+02
 -1       179 3.19418E-10-2.93455E-09-1.06976E+02
 -1       180-3.01363E-09-1.49385E-09-1.06976E+02
 -1       181-4.57292E-10-2.36792E-09-1.06976E+02
 -1       182-1.26662E-10 6.65246E-10-1.06976E+02
 -1       183 1.51948E-09-5.20078E-09-1.06976E+02
 -1       184-2.16619E-10 1.91072E-10-1.06976E+02
 -1       185-2.99751E-09-3.45028E-09-1.06976E+02
 -1       186 1.50780E-10 2.01310E-09-1.06976E+02
 -1       187-7.68487E-10 5.14727E-10-1.06976E+02
 -1       188 7.28581E-10 2.99666E-09-1.06976E+02
 -1       189 2.57512E-09 5.23546E-10-1.06976E+02
 -1       190 1.00949E+05 4.03503E+03 1.17937E+05
 -1       191 3.21687E+03 3.55222E+03-1.12216E+05
 -1       192-8.80483E-10 2.47035E-09-8.90950E+01
 -1       193-9.56116E-12 1.12065E-11-8.90950E+01
 -1       194 8.89086E-11 4.78530E-13-8.90950E+01
 -1       195 7.15801E-11 2.17830E-11-8.90950E+01
 -1       196-2.06649E-10-1.02506E-10-8.90950E+01
 -1       197-4.89471E-10 4.70014E-11-8.90950E+01
 -1       198-2.23522E-10 1.26362E-10-8.90950E+01
 -1       199 7.00132E-11 8.54811E-11-8.90950E+01
 -1       200 4.86559E-10-2.17489E-10-8.90950E+01
 -1       201 9.85109E-10-7.90889E-10-8.90950E+01
 -1       202 4.72615E-10-5.35207E-11-8.90950E+01
 -1       203 5.90309E-11 7.86837E-10-8.90950E+01
 -1       204-7.02564E-10 4.81584E-10-8.90950E+01
 -1       205-1.01911E-10-6.10181E-10-8.90950E+01
 -1       206 3.25225E-10 5.84490E-10-8.90950E+01
 -1       207-7.43057E-11 2.68490E-09-8.90950E+01
 -1       208 1.02670E-09 4.84334E-10-8.90950E+01
 -1       209 1.12166E-09 9.19657E-10-8.90950E+01
 -1       210-2.28656E-11-3.70749E-10-8.90950E+01
 -1       211 1.97399E-09-4.17715E-10-8.90950E+01
 -1       212 2.04406E-10 5.30378E-09-8.90950E+01
 -1       213-1.16096E-09 2.42469E-10-8.90950E+01
 -1       214-3.65237E-10-2.83232E-10-8.90950E+01
 -1       215 1.08035E-09-1.37102E-09-8.90950E+01
 -1       216 1.35366E-09 1.42694E-09-8.90950E+01
 -1       217-2.35808E-09-1.80939E-09-8.90950E+01
 -1       218-5.95373E-10-4.23358E-09-8.90950E+01
 -1       219-9.29825E-12-3.29376E-09-8.90950E+01
 -1       220 5.14999E-10-9.20268E-10-8.90950E+01
 -1       221-1.97988E-09 3.87172E-09-8.90950E+01
 -1       222 2.31191E-11 2.62570E-11-8.90950E+01
 -1       223-2.02334E-11 1.24480E-10-8.90950E+01
 -1       224-1.20315E-10 3.71359E-11-8.90950E+01
 -1       225 2.35899E-10-3.39851E-11-8.90950E+01
 -1       226 4.67683E-10 1.34766E-10-8.90950E+01
 -1       227 8.79513E-11 1.17879E-10-8.90950E+01
 -1       228 4.29675E-11 4.17402E-11-8.90950E+01
 -1       229-9.50988E-10-5.31179E-10-8.90950E+01
 -1       230-9.83287E-10-6.03111E-10-8.90950E+01
 -1       231-7.39317E-11-1.51352E-09-8.90950E+01
 -1       232 2.69140E-10-5.27979E-10-8.90950E+01
 -1       233 3.47565E-10-4.65831E-10-8.90950E+01
 -1       234 9.76825E-11 2.63281E-10-8.90950E+01
 -1       235 9.94847E-10 9.37571E-10-8.90950E+01
 -1       236-1.33360E-10 4.38558E-09-8.90950E+01
 -1       237-2.49540E-09 7.58485E-10-8.90950E+01
 -1       238-9.31472E-10-2.41313E-09-8.90950E+01
 -1       239-7.54364E-10-1.87980E-09-8.90950E+01
 -1       240 7.82901E-10-1.86084E-09-8.90950E+01
 -1       241-3.65173E-10 2.95722E-09-8.90950E+01
 -1       242 1.54269E-10 3.21878E-09-8.90950E+01
 -1       243 6.22583E-10 9.05573E-10-8.90950E+01
 -1       244-3.29054E-11 5.12964E-09-8.90950E+01
 -1       245-2.15395E-09 4.88741E-09-8.90950E+01
 -1       246-9.68797E-10 1.78851E-09-8.90950E+01
 -1       247 2.05657E-09-2.19998E-09-8.90950E+01
 -1       248 4.62800E-10 1.12427E-09-8.90950E+01
 -1       249-5.25364E-11 6.22999E-10-8.90950E+01
 -1       250 8.65548E-10 1.49711E-09-8.90950E+01
 -1       251 7.29476E-10-1.85562E-09-8.90950E+01
 -1       252 1.26103E-09-1.97625E-09-1.06976E+02
 -1       253 1.37552E-09 3.20751E-10-1.06976E+02
 -1       254-1.46672E-09 3.28932E-09-1.06976E+02
 -1       255 1.09135E-10 4.89857E-09-1.06976E+02
 -1       256-4.04171E-10 2.31085E-09-1.06976E+02
 -1       257-2.24074E-09-6.79315E-10-1.06976E+02
 -1       258 7.24941E-10 2.40384E-09-1.06976E+02
 -1       259 3.83090E-10 4.15208E-10-1.06976E+02
 -1       260 2.38022E-10-8.27277E-10-1.06976E+02
 -1       261-2.03122E-10-4.24332E-09-1.06976E+02
 -1       262 8.93334E-10 6.15943E-10-1.06976E+02
 -1       263 1.24746E-10-1.27105E-09-1.06976E+02
 -1       264 2.58712E-09-2.13470E-09-1.06976E+02
 -1       265 1.92067E-09-1.03047E-09-1.06976E+02
 -1       266-8.04516E-10-5.87843E-10-1.06976E+02
 -1       267-1.31477E-10-1.03446E-09-1.06976E+02
 -1       268-7.35297E-10-1.47576E-09-1.06976E+02
 -1       269 8.22052E-11-2.35584E-09-1.06976E+02
 -1       270 6.55514E-10 6.41680E-10-1.06976E+02
 -1       271 7.61040E-10 1.66907E-10-1.06976E+02
 -1       272-4.29301E-10 1.18961E-09-1.06976E+02
 -1       273-6.30831E-10 4.11376E-10-1.06976E+02
 -1       274 8.11207E-10 8.64169E-11-1.06976E+02
 -1       275-1.29227E-10-7.73938E-10-1.06976E+02
 -1       276 1.49076E-10 8.94212E-13-1.06976E+02
 -1       277-2.16001E-10 1.84121E-11-1.06976E+02
 -1       278-2.29276E-10-5.37132E-11-1.06976E+02
 -1       279-2.77605E-10 4.94551E-11-1.06976E+02
 -1       280-1.59697E-11 5.39171E-11-1.06976E+02
 -1       281-2.85407E+03-3.56780E+03-1.12018E+05
 -1       282-1.01427E+05-4.04178E+03 1.17926E+05
 -1       283-3.41354E-11-2.60180E-11-8.90950E+01
 -1       284 1.80591E-11-7.93375E-11-8.90950E+01
 -1       285 3.57077E-12-9.63584E-11-8.90950E+01
 -1       286-3.27331E-10-3.11935E-10-8.90950E+01
 -1       287-3.06712E-11-2.78429E-10-8.90950E+01
 -1       288-2.19289E-10-3.09750E-10-8.90950E+01
 -1       289-1.49696E-10-4.15380E-10-8.90950E+01
 -1       290-8.03084E-10-2.26296E-10-8.90950E+01
 -1       291 1.96217E-11-8.51722E-10-8.90950E+01
 -1       292 7.07185E-10-2.08734E-09-8.90950E+01
 -1       293 4.97732E-10-5.30181E-10-8.90950E+01
 -1       294 1.15336E-09-1.25739E-10-8.90950E+01
 -1       295 2.30408E-10 1.97080E-10-8.90950E+01
 -1       296-8.34022E-10 1.77873E-09-8.90950E+01
 -1       297-6.21619E-10-1.80748E-10-8.90950E+01
 -1       298-7.18941E-11-2.08253E-09-8.90950E+01
 -1       299-6.57613E-10-9.42337E-10-8.90950E+01
 -1       300 1.44790E-09 5.04670E-10-8.90950E+01
 -1       301 1.31129E-09-8.94454E-11-8.90950E+01
 -1       302-7.43346E-10-8.76676E-10-8.90950E+01
 -1       303-9.11520E-10-5.00196E-09-8.90950E+01
 -1       304 6.50530E-10-4.11853E-09-8.90950E+01
 -1       305 3.87802E-10 1.53636E-09-8.90950E+01
 -1       306-1.05213E-10 1.32777E-09-8.90950E+01
 -1       307 8.35769E-10 2.78000E-09-8.90950E+01
 -1       308-1.11271E-09-1.11296E-09-8.90950E+01
 -1       309-1.12176E-09 1.70364E-09-8.90950E+01
 -1       310-2.50969E-10 5.71010E-09-8.90950E+01
 -1       311 1.33282E-09 5.39723E-09-8.90950E+01
 -1       312-2.55754E-10-6.03345E-09-8.90950E+01
 -1       313 3.08717E-11 2.83918E-11-8.90950E+01
 -1       314-6.96875E-11 3.99118E-11-8.90950E+01
 -1       315-6.35647E-11-1.35598E-11-8.90950E+01
 -1       316 9.17904E-11-1.62357E-10-8.90950E+01
 -1       317 2.68990E-10-3.39234E-10-8.90950E+01
 -1       318-4.39272E-11 6.62481E-11-8.90950E+01
 -1       319 2.40113E-10-6.56532E-10-8.90950E+01
 -1       320 6.65535E-10-8.02059E-10-8.90950E+01
 -1       321 1.24209E-10-4.71131E-10-8.90950E+01
 -1       322-3.80396E-10 5.30640E-10-8.90950E+01
 -1       323-1.23286E-09-1.10518E-09-8.90950E+01
 -1       324-5.63891E-10-2.17590E-09-8.90950E+01
 -1       325-2.71303E-10-1.35582E-09-8.90950E+01
 -1       326 1.35795E-09 1.20727E-09-8.90950E+01
 -1       327 7.25574E-10 5.49715E-10-8.90950E+01
 -1       328-3.10525E-10 2.73143E-09-8.90950E+01
 -1       329 6.02017E-10-8.32752E-10-8.90950E+01
 -1       330-1.23920E-09 7.58956E-10-8.90950E+01
 -1       331-1.19458E-09-1.38994E-09-8.90950E+01
 -1       332-3.65444E-10-1.36364E-09-8.90950E+01
 -1       333 1.20112E-09-1.03733E-09-8.90950E+01
 -1       334-4.37270E-10 4.36274E-10-8.90950E+01
 -1       335-5.93760E-11-2.78927E-09-8.90950E+01
 -1       336-1.08772E-10-1.09172E-09-8.90950E+01
 -1       337-2.04835E-09-3.60856E-09-8.90950E+01
 -1       338 2.19999E-09-6.77406E-10-8.90950E+01
 -1       339 1.78942E-09-1.98527E-09-8.90950E+01
 -1       340 1.27913E-09-1.59040E-09-8.90950E+01
 -1       341-2.91338E-10-3.20886E-09-8.90950E+01
 -1       342-5.82052E-10-1.95742E-09-8.90950E+01
 -1       343 3.03361E-11-1.48682E-11-8.90950E+01
 -1       344 8.27780E-12-1.40762E-10-8.90950E+01
 -1       345-1.09331E-10-2.49911E-10-8.90950E+01
 -1       346 1.66553E-10-1.19476E-10-8.90950E+01
 -1       347 4.05525E-11 1.71362E-10-8.90950E+01
 -1       348-1.34528E-11 3.94935E-10-8.90950E+01
 -1       349-6.38343E-10 6.81040E-11-8.90950E+01
 -1       350 4.52965E-10 4.15116E-10-8.90950E+01
 -1       351 2.40770E-10-7.77110E-10-8.90950E+01
 -1       352-4.64627E-10 8.54819E-10-8.90950E+01
 -1       353-2.13540E-10-6.56756E-10-8.90950E+01
 -1       354-8.44786E-10-3.14247E-10-8.90950E+01
 -1       355-3.49515E-10 9.73404E-11-8.90950E+01
 -1       356-1.79172E-10 4.76287E-11-8.90950E+01
 -1       357-5.33853E-10-6.52352E-10-8.90950E+01
 -1       358-1.23524E-09 3.60813E-10-8.90950E+01
 -1       359 4.63771E-10-1.91583E-09-8.90950E+01
 -1       360-5.22459E-10-1.59643E-09-8.90950E+01
 -1       361-5.98833E-10-3.14352E-09-8.90950E+01
 -1       362-1.59476E-09-2.15796E-09-8.90950E+01
 -1       363-1.41479E-09-9.38483E-10-8.90950E+01
 -1       364-1.33803E-09-5.01260E-10-8.90950E+01
 -1       365-1.68405E-09 3.01414E-09-8.90950E+01
 -1       366-1.19584E-09 3.77976E-09-8.90950E+01
 -1       367 1.66375E-09 3.87235E-09-8.90950E+01
 -1       368 6.22134E-10 6.27657E-10-8.90950E+01
 -1       369 2.20160E-10-2.81923E-09-8.90950E+01
 -1       370-6.97438E-10-1.41399E-09-8.90950E+01
 -1       371-1.98487E-09 3.74872E-09-8.90950E+01
 -1       372-4.98221E-12-4.36816E-11-8.90950E+01
 -1       373 4.97097E-12-2.58163E-11-8.90950E+01
 -1       374 6.45350E-11 2.02665E-10-8.90950E+01
 -1       375-1.98326E-10 4.24298E-10-8.90950E+01
 -1       376-9.75131E-12 7.23660E-10-8.90950E+01
 -1       377 1.36637E-10 2.35640E-10-8.90950E+01
 -1       378 4.05800E-10 8.89306E-10-8.90950E+01
 -1       379-1.32207E-10 6.69892E-10-8.90950E+01
 -1       380-7.69900E-10 5.95369E-10-8.90950E+01
 -1       381 7.52935E-10 2.94190E-10-8.90950E+01
 -1       382 3.58751E-10-1.59964E-10-8.90950E+01
 -1       383 4.92648E-10 1.62658E-09-8.90950E+01
 -1       384 2.41344E-10-6.99478E-10-8.90950E+01
 -1       385 6.16225E-10-2.04963E-09-8.90950E+01
 -1       386 4.19514E-10-9.47809E-10-8.90950E+01
 -1       387 6.52517E-12 3.14874E-09-8.90950E+01
 -1       388 7.04159E-10 3.98833E-09-8.90950E+01
 -1       389 1.33439E-09 1.85883E-09-8.90950E+01
 -1       390 1.46309E-09-1.31529E-09-8.90950E+01
 -1       391-3.80409E-10 9.32439E-10-8.90950E+01
 -1       392 2.65883E-10 1.87153E-09-8.90950E+01
 -1       393 1.64735E-09 7.81524E-10-8.90950E+01
 -1       394 5.52084E-10-4.48665E-10-8.90950E+01
 -1       395 1.26980E-09 1.46191E-09-8.90950E+01
 -1       396-5.75958E-10 2.90480E-09-8.90950E+01
 -1       397-2.95945E-10 2.59235E-09-8.90950E+01
 -1       398 2.18646E-09 2.20329E-09-8.90950E+01
 -1       399-1.00843E-09-3.26718E-09-8.90950E+01
 -1       400-3.53652E-10 1.16456E-09-8.90950E+01
 -1       401 1.00949E+05-4.03503E+03 1.17937E+05
 -1       402 3.21687E+03-3.55222E+03-1.12216E+05
 -1       403 1.52537E-10 2.09963E-09-8.90950E+01
 -1       404 7.70467E-11 8.20586E-12-1.06976E+02
 -1       405 4.03006E-10 8.11206E-11-1.06976E+02
 -1       406 2.47858E-10 6.13842E-11-1.06976E+02
 -1       407-1.87772E-10-2.07498E-10-1.06976E+02
 -1       408-5.84406E-10-1.46212E-10-1.06976E+02
 -1       409 2.02698E-10-4.28166E-11-1.06976E+02
 -1       410 3.40922E-10 2.85324E-10-1.06976E+02
 -1       411 3.08874E-10 4.09283E-10-1.06976E+02
 -1       412-9.35303E-10-2.47442E-11-1.06976E+02
 -1       413-1.60017E-10-1.08889E-09-1.06976E+02
 -1       414 7.33098E-10-2.43708E-10-1.06976E+02
 -1       415-3.75159E-10-9.51271E-10-1.06976E+02
 -1       416 2.11989E-10-1.16931E-09-1.06976E+02
 -1       417-3.62855E-10 7.52824E-10-1.06976E+02
 -1       418-3.75787E-10 3.57660E-09-1.06976E+02
 -1       419 1.20850E-09-2.32697E-09-1.06976E+02
 -1       420 1.30470E-09-1.59867E-09-1.06976E+02
 -1       421 2.61569E-10-3.24991E-09-1.06976E+02
 -1       422-2.11484E-09-8.00099E-10-1.06976E+02
 -1       423 1.30282E-10-1.67921E-10-1.06976E+02
 -1       424 5.88744E-10 6.14297E-09-1.06976E+02
 -1       425-2.98827E-10-1.95733E-09-1.06976E+02
 -1       426 3.61021E-10 1.65466E-09-1.06976E+02
 -1       427 1.93306E-09-1.82326E-09-1.06976E+02
 -1       428 5.17072E-10-4.21879E-09-1.06976E+02
 -1       429 6.24286E-10-1.56415E-09-1.06976E+02
 -1       430 7.47203E-10 4.48737E-10-1.06976E+02
 -1       431-8.01780E-10-1.78401E-09-1.06976E+02
 -1       432 2.05284E-09 7.22546E-11-1.06976E+02
 -1       433 1.06880E-09-8.43295E-09-8.90950E+01
 -1       434-1.01427E+05 4.04178E+03 1.17926E+05
 -1       435-2.85407E+03 3.56780E+03-1.12018E+05
 -1       436 1.34413E-09 1.05606E-09-1.06976E+02
 -1       437-5.30994E-10 1.97129E-09-1.06976E+02
 -1       438 6.56667E-10-7.00219E-10-1.06976E+02
 -1       439-1.47008E-09 1.78118E-09-1.06976E+02
 -1       440-1.45611E-09-4.25585E-10-1.06976E+02
 -1       441-1.39875E-09-1.98587E-09-1.06976E+02
 -1       442 5.04877E-10-1.73547E-09-1.06976E+02
 -1       443 1.67996E-09-4.33997E-09-1.06976E+02
 -1       444-8.98983E-10-1.72903E-09-1.06976E+02
 -1       445-2.75429E-09-2.52288E-09-1.06976E+02
 -1       446-4.86606E-10-5.86717E-10-1.06976E+02
 -1       447 3.78490E-10 4.25194E-10-1.06976E+02
 -1       448-1.79607E-09-1.92056E-09-1.06976E+02
 -1       449-3.02601E-10 7.93605E-10-1.06976E+02
 -1       450-1.06139E-10 1.45282E-09-1.06976E+02
 -1       451 8.37401E-10-1.76552E-10-1.06976E+02
 -1       452 3.35698E-10-2.05580E-10-1.06976E+02
 -1       453 4.36963E-10-3.66425E-10-1.06976E+02
 -1       454 1.68016E-11-2.18694E-10-1.06976E+02
 -1       455-1.35902E-09 3.80407E-10-1.06976E+02
 -1       456 5.30019E-10 1.31320E-10-1.06976E+02
 -1       457-3.42686E-10-8.10290E-10-1.06976E+02
 -1       458 1.71767E-10-5.23696E-10-1.06976E+02
 -1       459 2.38699E-11 4.45092E-10-1.06976E+02
 -1       460-2.49812E-10-2.08565E-10-1.06976E+02
 -1       461 1.47745E-10-2.45541E-10-1.06976E+02
 -1       462 1.31645E-10-6.68346E-11-1.06976E+02
 -1       463-7.57099E-11 1.06889E-10-1.06976E+02
 -1       464 7.60302E-11 3.95708E-11-1.06976E+02
 -1       465 1.91654E-09-2.36246E-09-8.90950E+01
 -1       466 2.73329E-11 1.77606E-11-8.90950E+01
 -1       467-4.65201E-11 6.82392E-11-8.90950E+01
 -1       468-2.34916E-10 2.55572E-12-8.90950E+01
 -1       469 1.03664E-10-1.35154E-10-8.90950E+01
 -1       470 2.17547E-10 1.33926E-10-8.90950E+01
 -1       471 2.30387E-10-4.88695E-10-8.90950E+01
 -1       472-1.73164E-10-4.64116E-11-8.90950E+01
 -1       473 7.66553E-10 7.04117E-10-8.90950E+01
 -1       474 1.43167E-10 2.34247E-10-8.90950E+01
 -1       475 3.91866E-11 9.08307E-10-8.90950E+01
 -1       476-1.88870E-10 4.27601E-10-8.90950E+01
 -1       477-6.58054E-11 7.15047E-10-8.90950E+01
 -1       478 2.71820E-10 5.33025E-10-8.90950E+01
 -1       479 4.69977E-10 1.80676E-09-8.90950E+01
 -1       480 5.23308E-10 8.84688E-10-8.90950E+01
 -1       481 3.59205E-11 2.24294E-09-8.90950E+01
 -1       482-2.80043E-10 2.36568E-09-8.90950E+01
 -1       483 1.03554E-10 3.79794E-09-8.90950E+01
 -1       484-2.06513E-10 4.54962E-09-8.90950E+01
 -1       485-2.24851E-09 1.29312E-09-8.90950E+01
 -1       486 9.97823E-10 2.75464E-10-8.90950E+01
 -1       487 5.31170E-10-2.99846E-09-8.90950E+01
 -1       488-5.07717E-11-9.35089E-10-8.90950E+01
 -1       489 2.68260E-09 3.44883E-10-8.90950E+01
 -1       490 1.24925E-09 8.48588E-10-8.90950E+01
 -1       491 1.28336E-09-2.86580E-09-8.90950E+01
 -1       492 3.67273E-09-6.09224E-09-8.90950E+01
 -1       493-1.46120E-09-3.95144E-09-8.90950E+01
 -1       494-7.92945E-10 4.17667E-09-8.90950E+01
 -1       495-4.41718E-11-3.99159E-11-8.90950E+01
 -1       496 1.39040E-10 1.88632E-13-8.90950E+01
 -1       497 1.61251E-10-1.10851E-10-8.90950E+01
 -1       498 1.93738E-11-4.72309E-11-8.90950E+01
 -1       499-1.28694E-10-4.08518E-10-8.90950E+01
 -1       500-8.22787E-11-7.50401E-10-8.90950E+01
 -1       501-4.86379E-10 4.35637E-10-8.90950E+01
 -1       502-1.42318E-10 5.42938E-10-8.90950E+01
 -1       503-1.46003E-10-3.58577E-10-8.90950E+01
 -1       504-3.53415E-10 5.01647E-10-8.90950E+01
 -1       505 4.81638E-10-6.63280E-10-8.90950E+01
 -1       506-2.17448E-10-1.71081E-10-8.90950E+01
 -1       507-3.62225E-10 5.11936E-10-8.90950E+01
 -1       508-9.73247E-10 9.39464E-10-8.90950E+01
 -1       509 3.83114E-11 1.79963E-09-8.90950E+01
 -1       510 9.13912E-11 3.57665E-10-8.90950E+01
 -1       511-4.03217E-10 1.20390E-09-8.90950E+01
 -1       512-9.21194E-11 2.75106E-09-8.90950E+01
 -1       513 4.47166E-10 1.08899E-09-8.90950E+01
 -1       514 1.65329E-09 4.40671E-09-8.90950E+01
 -1       515 1.42486E-09 4.51027E-09-8.90950E+01
 -1       516-1.03569E-10-3.07810E-09-8.90950E+01
 -1       517-1.58445E-09 2.42014E-10-8.90950E+01
 -1       518-2.57742E-09 2.01756E-10-8.90950E+01
 -1       519-8.70788E-10-1.23735E-09-8.90950E+01
 -1       520-1.21032E-09 1.48921E-09-8.90950E+01
 -1       521-1.31489E-09 1.32442E-09-8.90950E+01
 -1       522-8.92388E-10-1.51268E-09-8.90950E+01
 -1       523-8.42058E-11-3.36916E-09-8.90950E+01
 -1       524 2.13858E-09-7.85155E-10-8.90950E+01
 -1       525 2.20179E-10-4.10640E-11-2.47028E+02
 -1       526 2.39705E-10 2.28883E-11-2.47028E+02
 -1       527-2.73437E-11 1.32784E-10-2.47028E+02
 -1       528-1.04042E-11-2.21188E-10-2.47028E+02
 -1       529-5.46155E-10-1.13100E-11-2.47028E+02
 -1       530-1.10602E-09 4.21215E-10-2.47028E+02
 -1       531 4.17905E-10 1.70193E-09-2.47028E+02
 -1       532 7.66278E-11 3.84088E-10-2.47028E+02
 -1       533-1.39939E-10-5.33683E-10-2.47028E+02
 -1       534-4.58019E-11-6.37490E-10-2.47028E+02
 -1       535 9.46542E-10-1.83591E-10-2.47028E+02
 -1       536 5.46052E-10 1.69850E-09-2.47028E+02
 -1       537 9.73297E-10-1.20574E-09-2.47028E+02
 -1       538 1.65491E-09-1.91462E-09-2.47028E+02
 -1       539 5.72425E-10-4.78360E-10-2.47028E+02
 -1       540 1.75494E-09-3.20099E-10-2.47028E+02
 -1       541-2.25600E-09 1.80675E-09-2.47028E+02
 -1       542-1.64316E-09-2.64674E-09-2.47028E+02
 -1       543 2.97407E-09 3.32691E-09-2.47028E+02
 -1       544 1.39933E-09-2.00923E-09-2.47028E+02
 -1       545 1.15897E-09 2.11905E-09-2.47028E+02
 -1       546 1.19677E-09-2.00959E-09-2.47028E+02
 -1       547-1.29140E-09-1.81089E-09-2.47028E+02
 -1       548-9.73520E-10-7.91677E-09-2.47028E+02
 -1       549-1.01805E-09 3.97586E-09-2.47028E+02
 -1       550-3.04372E-11 7.71926E-09-2.47028E+02
 -1       551 9.17104E-10 6.17390E-09-2.47028E+02
 -1       552 6.72129E-10 1.74365E-09-2.47028E+02
 -1       553-1.23208E-09-1.10610E-09-2.47028E+02
 -1       554 5.44883E-11-4.66193E-11-2.47028E+02
 -1       555 5.54285E-11-1.35646E-10-2.47028E+02
 -1       556-6.13156E-11-1.55490E-10-2.47028E+02
 -1       557-1.92101E-10-7.42931E-11-2.47028E+02
 -1       558-3.62510E-10-7.84243E-11-2.47028E+02
 -1       559-1.51189E-10-2.14709E-11-2.47028E+02
 -1       560 6.75063E-11 3.94747E-10-2.47028E+02
 -1       561-2.71099E-10 3.15076E-10-2.47028E+02
 -1       562 3.04073E-10 2.75916E-10-2.47028E+02
 -1       563 3.66179E-10-8.57966E-10-2.47028E+02
 -1       564-1.80677E-10 1.57856E-09-2.47028E+02
 -1       565-2.81750E-10-2.40116E-10-2.47028E+02
 -1       566 8.49239E-11 2.25178E-10-2.47028E+02
 -1       567 1.43269E-11-1.71760E-09-2.47028E+02
 -1       568 7.39239E-10-2.73412E-09-2.47028E+02
 -1       569 1.10028E-10-1.92798E-10-2.47028E+02
 -1       570-4.90153E-10-2.54843E-09-2.47028E+02
 -1       571-2.04963E-10-1.92739E-09-2.47028E+02
 -1       572 4.28972E-10 2.71464E-09-2.47028E+02
 -1       573 6.64932E-10 3.67738E-09-2.47028E+02
 -1       574-1.15958E-10-3.20986E-09-2.47028E+02
 -1       575-1.83594E-10 1.68018E-09-2.47028E+02
 -1       576-3.16607E-10 4.64087E-09-2.47028E+02
 -1       577-9.74198E-11 4.62551E-09-2.47028E+02
 -1       578 9.07906E-11 4.97246E-09-2.47028E+02
 -1       579-1.02066E-10 5.51807E-09-2.47028E+02
 -1       580 2.76861E-10-6.34693E-10-2.47028E+02
 -1       581 4.19247E-10 1.39199E-09-2.47028E+02
 -1       582 8.10337E-10 2.88762E-09-2.47028E+02
 -1       583-1.01584E-10-5.06486E-12-2.47028E+02
 -1       584 1.85609E-10-4.84505E-11-2.47028E+02
 -1       585 2.70996E-10-2.64437E-11-2.47028E+02
 -1       586-8.85558E-10-1.94272E-10-2.47028E+02
 -1       587-8.84831E-10-1.53934E-10-2.47028E+02
 -1       588 2.99667E-10 8.65688E-10-2.47028E+02
 -1       589 2.99026E-10-1.04494E-09-2.47028E+02
 -1       590-9.89727E-11 3.09862E-10-2.47028E+02
 -1       591 1.39599E-09-5.09876E-10-2.47028E+02
 -1       592 1.28184E-09-9.20260E-10-2.47028E+02
 -1       593-1.44340E-09-8.84933E-10-2.47028E+02
 -1       594-7.24035E-10 9.27042E-10-2.47028E+02
 -1       595 1.78126E-09-1.27100E-09-2.47028E+02
 -1       596 2.88993E-10 3.94473E-10-2.47028E+02
 -1       597 1.58462E-09 1.22593E-09-2.47028E+02
 -1       598-1.24831E-10-3.58540E-11-2.47028E+02
 -1       599 3.26473E-10-9.97966E-10-2.47028E+02
 -1       600 1.38714E-09-2.80954E-09-2.47028E+02
 -1       601 4.82647E-10-1.80818E-09-2.47028E+02
 -1       602-2.85475E-10-1.69284E-09-2.47028E+02
 -1       603-1.43997E-09-1.71133E-09-2.47028E+02
 -1       604-8.40257E-10-1.54318E-09-2.47028E+02
 -1       605-1.46906E-09-4.76971E-09-2.47028E+02
 -1       606 8.25051E-10-5.75676E-09-2.47028E+02
 -1       607 9.32086E-10-2.52103E-09-2.47028E+02
 -1       608 8.12228E-10-6.23329E-09-2.47028E+02
 -1       609 2.84242E-09 2.73222E-10-2.47028E+02
 -1       610 2.88511E-09 4.35592E-09-2.47028E+02
 -1       611-8.90444E-10-2.08437E-09-2.47028E+02
 -1       612 7.09045E-11 6.34742E-11-2.47028E+02
 -1       613-1.73844E-10 1.19446E-10-2.47028E+02
 -1       614-2.86247E-10 2.54946E-10-2.47028E+02
 -1       615 9.01116E-10 3.28406E-10-2.47028E+02
 -1       616 9.99800E-10-1.89798E-11-2.47028E+02
 -1       617-2.70516E-10-4.90514E-10-2.47028E+02
 -1       618-4.11191E-10 8.82685E-10-2.47028E+02
 -1       619 3.04725E-10-7.95767E-10-2.47028E+02
 -1       620-1.38428E-09-4.52731E-10-2.47028E+02
 -1       621-1.20455E-09-3.12000E-10-2.47028E+02
 -1       622 1.56067E-09 6.77736E-10-2.47028E+02
 -1       623 7.72512E-10-5.99211E-10-2.47028E+02
 -1       624-1.57757E-09-2.05884E-09-2.47028E+02
 -1       625-5.12146E-11-2.61951E-09-2.47028E+02
 -1       626-2.11631E-09 1.82557E-10-2.47028E+02
 -1       627 2.39019E-10 4.16177E-09-2.47028E+02
 -1       628-9.24663E-10 1.66445E-09-2.47028E+02
 -1       629-1.80616E-09 3.64031E-09-2.47028E+02
 -1       630-1.41614E-10 2.20555E-09-2.47028E+02
 -1       631 8.82553E-10-1.42862E-10-2.47028E+02
 -1       632 8.43295E-10 1.03647E-09-2.47028E+02
 -1       633 8.98804E-10-2.08716E-09-2.47028E+02
 -1       634 6.26494E-10-9.31517E-10-2.47028E+02
 -1       635-4.64940E-10-1.55513E-10-2.47028E+02
 -1       636-1.35159E-09 6.21201E-10-2.47028E+02
 -1       637-7.30791E-10 4.69910E-09-2.47028E+02
 -1       638-2.02840E-09-1.47449E-09-2.47028E+02
 -1       639-3.40896E-09-2.68169E-09-2.47028E+02
 -1       640 3.15937E-10 1.02471E-09-2.47028E+02
 -1       641-6.98918E-11 4.90033E-11-2.47028E+02
 -1       642-6.68734E-11 6.92231E-11-2.47028E+02
 -1       643 6.68111E-11-2.18847E-11-2.47028E+02
 -1       644 1.99455E-10-1.57285E-10-2.47028E+02
 -1       645 3.39212E-10 1.14989E-10-2.47028E+02
 -1       646 2.09956E-10-1.59167E-10-2.47028E+02
 -1       647 3.48028E-11-1.97955E-10-2.47028E+02
 -1       648 1.80534E-10-9.68811E-11-2.47028E+02
 -1       649-4.16024E-10 1.93417E-10-2.47028E+02
 -1       650-1.52362E-10 3.17391E-10-2.47028E+02
 -1       651 5.82761E-11-1.84238E-09-2.47028E+02
 -1       652 1.13647E-10-1.10676E-09-2.47028E+02
 -1       653 7.74231E-11-6.29899E-10-2.47028E+02
 -1       654-1.84939E-10-1.35263E-09-2.47028E+02
 -1       655-6.92462E-10-1.45602E-09-2.47028E+02
 -1       656-3.22349E-10-1.87818E-09-2.47028E+02
 -1       657 4.03297E-10 3.24879E-10-2.47028E+02
 -1       658 6.64980E-10-1.25908E-09-2.47028E+02
 -1       659-3.33420E-10-2.00379E-09-2.47028E+02
 -1       660-9.60080E-10 1.73247E-09-2.47028E+02
 -1       661 2.92921E-10 2.56077E-09-2.47028E+02
 -1       662 8.15563E-10 1.26405E-09-2.47028E+02
 -1       663 2.23833E-10-1.40028E-09-2.47028E+02
 -1       664 2.12273E-10 6.95669E-09-2.47028E+02
 -1       665 5.53706E-10 1.37822E-09-2.47028E+02
 -1       666-1.72837E-10-1.67898E-09-2.47028E+02
 -1       667-1.65160E-09-9.01859E-10-2.47028E+02
 -1       668 6.79761E-11-9.25514E-10-2.47028E+02
 -1       669-6.64034E-10-1.60449E-09-2.47028E+02
 -1       670-2.47676E-10-2.00299E-11-2.47028E+02
 -1       671-2.56099E-10-2.17077E-11-2.47028E+02
 -1       672 4.14218E-11-6.11895E-11-2.47028E+02
 -1       673 8.03335E-11 1.04272E-10-2.47028E+02
 -1       674 5.14429E-10 2.23075E-10-2.47028E+02
 -1       675 1.17961E-09 3.83626E-10-2.47028E+02
 -1       676-2.68840E-10-1.08209E-09-2.47028E+02
 -1       677-3.05211E-10-2.80370E-10-2.47028E+02
 -1       678-1.27309E-10 2.10802E-09-2.47028E+02
 -1       679 5.14517E-11 2.29939E-09-2.47028E+02
 -1       680-8.25825E-10 2.79485E-10-2.47028E+02
 -1       681-5.74260E-10-4.45023E-10-2.47028E+02
 -1       682-1.23314E-09 6.51405E-10-2.47028E+02
 -1       683-1.56993E-09 3.21963E-09-2.47028E+02
 -1       684-1.53317E-10 2.75559E-10-2.47028E+02
 -1       685-1.48432E-09 1.05453E-09-2.47028E+02
 -1       686 1.90463E-09-1.60668E-09-2.47028E+02
 -1       687 1.73224E-09-7.79481E-10-2.47028E+02
 -1       688-3.02205E-09-1.05821E-09-2.47028E+02
 -1       689-1.43011E-09 6.67145E-10-2.47028E+02
 -1       690-1.52381E-09 2.01708E-09-2.47028E+02
 -1       691-6.81900E-10-2.22485E-09-2.47028E+02
 -1       692 3.04939E-10-4.42078E-09-2.47028E+02
 -1       693 9.12300E-10 2.61365E-09-2.47028E+02
 -1       694 1.58328E-09-3.01901E-10-2.47028E+02
 -1       695 1.13778E-09-5.65955E-09-2.47028E+02
 -1       696-1.70965E-09-1.60569E-09-2.47028E+02
 -1       697-5.31315E-10-1.89060E-09-2.47028E+02
 -1       698 1.98457E-09 4.58870E-10-2.47028E+02
 -1       699 1.05524E-10-1.26018E-11-1.78190E+02
 -1       700 1.59360E-10-1.40633E-10-1.78190E+02
 -1       701-2.25109E-10-2.02939E-10-1.78190E+02
 -1       702-3.22254E-10-9.60564E-12-1.78190E+02
 -1       703-7.66107E-10-1.90382E-10-1.78190E+02
 -1       704-6.54661E-10-5.76628E-10-1.78190E+02
 -1       705-8.08897E-10-3.34209E-10-1.78190E+02
 -1       706-6.90984E-10-6.08227E-11-1.78190E+02
 -1       707 1.29579E-09-1.57164E-10-1.78190E+02
 -1       708 9.53089E-10 2.56341E-09-1.78190E+02
 -1       709 4.50500E-10 9.56793E-10-1.78190E+02
 -1       710-2.51289E-10 1.39659E-09-1.78190E+02
 -1       711 7.71721E-10 1.87524E-09-1.78190E+02
 -1       712 6.94822E-10-1.66857E-10-1.78190E+02
 -1       713 7.08053E-10-3.65776E-09-1.78190E+02
 -1       714 1.43051E-09 9.32028E-10-1.78190E+02
 -1       715-2.65929E-10 4.85248E-10-1.78190E+02
 -1       716 4.69551E-10-2.43129E-09-1.78190E+02
 -1       717 2.25104E-09 3.62207E-09-1.78190E+02
 -1       718-4.77887E-10-2.72721E-09-1.78190E+02
 -1       719-2.00132E-09-3.72645E-09-1.78190E+02
 -1       720 9.36465E-10-2.89527E-09-1.78190E+02
 -1       721 4.04481E-09-5.07634E-09-1.78190E+02
 -1       722 2.05617E-09-2.31671E-09-1.78190E+02
 -1       723-2.55473E-09-3.72821E-10-1.78190E+02
 -1       724-1.20722E-09-1.73820E-09-1.78190E+02
 -1       725 4.82994E-10-6.20196E-09-1.78190E+02
 -1       726 1.02032E-09-6.07392E-09-1.78190E+02
 -1       727-7.27942E-11-6.15069E-09-1.78190E+02
 -1       728-1.18847E-10-7.60226E-11-1.78190E+02
 -1       729-9.16553E-11 7.32462E-11-1.78190E+02
 -1       730-1.47112E-11 1.69483E-10-1.78190E+02
 -1       731 4.79157E-10-1.98651E-11-1.78190E+02
 -1       732 6.60312E-10-7.19793E-11-1.78190E+02
 -1       733 9.60498E-10-6.20156E-10-1.78190E+02
 -1       734 3.57192E-10 4.87088E-10-1.78190E+02
 -1       735-6.89847E-11-3.02080E-11-1.78190E+02
 -1       736-1.17073E-09-3.88740E-10-1.78190E+02
 -1       737-1.07743E-09-1.11782E-09-1.78190E+02
 -1       738 2.91262E-10-2.14817E-09-1.78190E+02
 -1       739 3.22212E-10 2.86493E-10-1.78190E+02
 -1       740-3.92705E-10 7.28681E-10-1.78190E+02
 -1       741-5.41013E-11 5.46674E-10-1.78190E+02
 -1       742-4.36856E-10-2.16441E-09-1.78190E+02
 -1       743-2.19524E-09-1.21526E-09-1.78190E+02
 -1       744-1.40954E-09 6.70103E-10-1.78190E+02
 -1       745-1.57317E-09-9.66128E-10-1.78190E+02
 -1       746 1.77798E-09 2.47625E-09-1.78190E+02
 -1       747-1.71357E-12-3.20204E-09-1.78190E+02
 -1       748-5.74131E-10-2.62594E-09-1.78190E+02
 -1       749 1.53124E-10 4.86873E-10-1.78190E+02
 -1       750-2.38477E-09 3.59947E-09-1.78190E+02
 -1       751-2.15052E-09-6.76752E-11-1.78190E+02
 -1       752 6.05063E-10 2.75033E-09-1.78190E+02
 -1       753-1.17652E-09 3.25520E-09-1.78190E+02
 -1       754-8.51093E-10-4.76702E-10-1.78190E+02
 -1       755 2.68527E-09-4.89804E-09-1.78190E+02
 -1       756 2.51511E-10-5.90059E-09-1.78190E+02
 -1       757 8.79838E-12-8.31545E-11-1.78190E+02
 -1       758 1.60698E-10-1.08988E-10-1.78190E+02
 -1       759 4.50631E-11-1.53795E-10-1.78190E+02
 -1       760-2.92582E-10 9.50078E-11-1.78190E+02
 -1       761-4.04062E-11 5.10029E-10-1.78190E+02
 -1       762 5.58581E-10 6.48132E-10-1.78190E+02
 -1       763-1.42016E-10 9.39176E-10-1.78190E+02
 -1       764-1.39886E-09 1.28764E-09-1.78190E+02
 -1       765-6.16997E-10 1.63872E-10-1.78190E+02
 -1       766 1.02426E-10 5.78294E-10-1.78190E+02
 -1       767 3.75894E-10 1.50014E-09-1.78190E+02
 -1       768 9.20403E-10 2.60772E-09-1.78190E+02
 -1       769 9.70396E-10 1.11988E-09-1.78190E+02
 -1       770-7.63167E-10 1.51144E-09-1.78190E+02
 -1       771-1.78259E-09 1.05807E-09-1.78190E+02
 -1       772-1.35722E-10-1.50989E-09-1.78190E+02
 -1       773-1.27733E-09 2.67731E-09-1.78190E+02
 -1       774 5.90268E-10 3.70589E-10-1.78190E+02
 -1       775-1.10317E-09-3.60775E-10-1.78190E+02
 -1       776-1.51284E-09 1.80001E-09-1.78190E+02
 -1       777-2.24017E-09-6.84948E-10-1.78190E+02
 -1       778 2.63579E-09-2.55917E-09-1.78190E+02
 -1       779 3.97742E-09 4.78382E-09-1.78190E+02
 -1       780 7.22731E-10 1.00536E-09-1.78190E+02
 -1       781-1.01441E-10-6.49506E-10-1.78190E+02
 -1       782 1.21429E-09-2.26193E-10-1.78190E+02
 -1       783-1.99392E-09-1.73804E-09-1.78190E+02
 -1       784-1.34431E-09 7.47849E-10-1.78190E+02
 -1       785-2.82137E-09-6.59692E-09-1.78190E+02
 -1       786-1.84815E-11-1.01479E-11-1.78190E+02
 -1       787-2.08051E-10 1.15872E-10-1.78190E+02
 -1       788-6.40725E-11 5.33675E-11-1.78190E+02
 -1       789 3.99640E-10 2.06269E-10-1.78190E+02
 -1       790 2.71179E-10 5.95150E-11-1.78190E+02
 -1       791-4.24625E-10-1.63832E-10-1.78190E+02
 -1       792-2.28128E-11 1.22784E-09-1.78190E+02
 -1       793 1.12340E-09 5.54641E-10-1.78190E+02
 -1       794 3.09961E-10-3.18999E-11-1.78190E+02
 -1       795-2.82584E-10 8.11879E-10-1.78190E+02
 -1       796-1.24993E-10-6.43084E-10-1.78190E+02
 -1       797-9.59090E-10 1.20014E-09-1.78190E+02
 -1       798 7.02842E-10-1.06871E-09-1.78190E+02
 -1       799 7.01234E-10-1.65345E-09-1.78190E+02
 -1       800 2.42334E-10-1.44327E-09-1.78190E+02
 -1       801 4.59468E-10-3.81191E-10-1.78190E+02
 -1       802-9.14603E-11-6.70959E-10-1.78190E+02
 -1       803 8.64881E-10-4.76691E-09-1.78190E+02
 -1       804-9.00744E-11 2.70462E-09-1.78190E+02
 -1       805 1.67368E-09 8.94640E-10-1.78190E+02
 -1       806 1.64649E-10 3.25186E-09-1.78190E+02
 -1       807-4.43046E-10 4.23284E-09-1.78190E+02
 -1       808-2.24010E-09 1.62074E-09-1.78190E+02
 -1       809-8.30357E-10 4.52547E-09-1.78190E+02
 -1       810-2.83380E-09-2.12485E-09-1.78190E+02
 -1       811 1.92387E-09-2.06130E-09-1.78190E+02
 -1       812 5.39888E-11-2.75355E-09-1.78190E+02
 -1       813 3.53374E-09-6.04590E-09-1.78190E+02
 -1       814 2.47899E-09 5.36091E-10-1.78190E+02
 -1       815 2.13051E-11 2.82083E-12-1.78190E+02
 -1       816 2.87840E-10-3.95655E-11-1.78190E+02
 -1       817 4.23304E-10 2.73547E-11-1.78190E+02
 -1       818-3.19547E-10-3.10572E-10-1.78190E+02
 -1       819-8.18956E-10-3.43488E-10-1.78190E+02
 -1       820-3.40775E-10 4.12732E-10-1.78190E+02
 -1       821-9.96855E-10-1.06236E-10-1.78190E+02
 -1       822 4.04159E-10-3.94805E-10-1.78190E+02
 -1       823-8.14304E-11-2.49645E-10-1.78190E+02
 -1       824-5.07619E-10 1.19221E-10-1.78190E+02
 -1       825-1.59109E-09-4.15533E-10-1.78190E+02
 -1       826-1.57822E-09-1.60759E-09-1.78190E+02
 -1       827-9.38658E-11-1.38305E-09-1.78190E+02
 -1       828-7.51600E-10-1.91706E-09-1.78190E+02
 -1       829-2.99952E-10-1.71137E-10-1.78190E+02
 -1       830 4.07890E-10-1.02632E-09-1.78190E+02
 -1       831 8.91304E-10 2.84657E-10-1.78190E+02
 -1       832 7.42747E-10 1.37601E-10-1.78190E+02
 -1       833-1.14998E-09 2.01544E-09-1.78190E+02
 -1       834-1.58165E-09-1.92143E-09-1.78190E+02
 -1       835-1.44363E-09-1.77734E-09-1.78190E+02
 -1       836-5.46273E-10-3.82869E-09-1.78190E+02
 -1       837-1.33137E-09 2.62448E-11-1.78190E+02
 -1       838-1.81635E-09-5.38921E-09-1.78190E+02
 -1       839 1.93456E-09-2.54989E-09-1.78190E+02
 -1       840 2.99035E-09-2.48282E-09-1.78190E+02
 -1       841-1.80867E-09 7.13689E-10-1.78190E+02
 -1       842-2.85666E-11 7.04972E-09-1.78190E+02
 -1       843 3.61526E-10 9.33360E-09-1.78190E+02
 -1       844-1.84874E-10-1.02878E-11-1.78190E+02
 -1       845-2.99280E-10 4.87837E-11-1.78190E+02
 -1       846-4.78630E-10 3.88913E-11-1.78190E+02
 -1       847 3.75713E-11-5.39947E-11-1.78190E+02
 -1       848 4.33286E-10-4.98616E-10-1.78190E+02
 -1       849 4.35129E-10-2.17586E-10-1.78190E+02
 -1       850 8.67242E-10-3.90981E-10-1.78190E+02
 -1       851 1.96420E-10-8.62342E-10-1.78190E+02
 -1       852-1.80025E-10-6.53130E-10-1.78190E+02
 -1       853 1.51314E-09-2.25458E-09-1.78190E+02
 -1       854 1.07035E-09-5.28265E-10-1.78190E+02
 -1       855 1.00290E-09 5.99650E-10-1.78190E+02
 -1       856 1.73923E-09-8.25565E-10-1.78190E+02
 -1       857 1.88026E-09-5.98903E-10-1.78190E+02
 -1       858-2.03144E-09-2.73856E-09-1.78190E+02
 -1       859-2.41475E-09-4.63777E-11-1.78190E+02
 -1       860-4.19270E-10 1.58174E-09-1.78190E+02
 -1       861 2.59368E-09-1.89183E-09-1.78190E+02
 -1       862-2.03712E-10-2.75434E-09-1.78190E+02
 -1       863 1.59758E-09 3.68960E-09-1.78190E+02
 -1       864 2.75946E-09-3.16724E-09-1.78190E+02
 -1       865 7.34066E-10-2.97665E-10-1.78190E+02
 -1       866 1.07281E-09-2.08386E-09-1.78190E+02
 -1       867-7.41877E-10-3.15521E-09-1.78190E+02
 -1       868-1.75569E-09-1.42193E-11-1.78190E+02
 -1       869-3.01451E-09 4.24512E-09-1.78190E+02
 -1       870 1.47238E-09 7.07343E-09-1.78190E+02
 -1       871 1.91839E-09-8.47083E-10-1.78190E+02
 -1       872-1.31471E-09-1.37768E-08-1.78190E+02
 -1       873-4.69889E-09-3.85190E-09-1.78190E+02
 -1       874-1.83354E-09 1.57152E-09-1.78190E+02
 -1       875 2.32742E-09-1.20725E-09-1.78190E+02
 -1       876-8.72934E-10-6.89093E-09-1.78190E+02
 -1       877 6.86288E-10 5.61659E-10-1.78190E+02
 -1       878 1.28925E-09-3.98720E-09-1.78190E+02
 -1       879 2.68012E-09-5.29590E-09-1.78190E+02
 -1       880 1.84843E-09 1.50855E-09-1.78190E+02
 -1       881 4.17700E-10 2.10318E-10-1.78190E+02
 -1       882-3.11302E-09-1.74357E-09-1.78190E+02
 -1       883-1.39737E-09-3.21684E-09-1.78190E+02
 -1       884 7.00592E-10-8.33713E-10-1.78190E+02
 -1       885-1.93918E-09 4.17586E-10-1.78190E+02
 -1       886-2.05341E-09 1.18842E-09-1.78190E+02
 -1       887-1.70446E-10-1.51973E-09-1.78190E+02
 -1       888 1.39632E-09-1.81966E-09-1.78190E+02
 -1       889 6.25815E-10 1.07802E-10-1.78190E+02
 -1       890-5.54324E-10-6.16790E-11-1.78190E+02
 -1       891-1.23618E-09-2.04830E-10-1.78190E+02
 -1       892-5.46974E-10-1.15139E-10-1.78190E+02
 -1       893 6.59671E-10 1.88251E-10-1.78190E+02
 -1       894-1.77421E-10-5.02926E-10-1.78190E+02
 -1       895 6.13891E-10-2.33278E-10-1.78190E+02
 -1       896-3.62211E-10 6.74635E-10-1.78190E+02
 -1       897-5.42294E-11 3.93335E-10-1.78190E+02
 -1       898 2.03818E-10-1.85406E-10-1.78190E+02
 -1       899 9.41858E-11 3.72767E-11-1.78190E+02
 -1       900-1.08289E-10-2.11331E-10-1.78190E+02
 -1       901-1.10353E-11-4.97600E-11-1.78190E+02
 -1       902 4.98135E-11-2.53563E-11-1.78190E+02
 -1       903 4.14666E-11-8.78293E-11-1.78190E+02
 -1       904-2.73275E-11 9.74407E-11-1.78190E+02
 -1       905-2.87082E-10 9.15446E-11-1.78190E+02
 -1       906 2.31180E-10-2.55895E-10-1.78190E+02
 -1       907 3.54631E-10 2.57540E-10-1.78190E+02
 -1       908-1.11161E-09-2.85413E-10-1.78190E+02
 -1       909 3.08803E-10-6.79821E-10-1.78190E+02
 -1       910-7.51462E-10-2.25297E-10-1.78190E+02
 -1       911 1.65999E-10-1.98941E-09-1.78190E+02
 -1       912 1.76573E-09 3.37104E-10-1.78190E+02
 -1       913 3.32407E-10-1.29810E-09-1.78190E+02
 -1       914-1.05418E-09-3.34897E-10-1.78190E+02
 -1       915-1.62485E-09-1.59325E-09-1.78190E+02
 -1       916-1.72125E-10-4.55899E-10-1.78190E+02
 -1       917 1.07927E-09 1.99813E-10-1.78190E+02
 -1       918 7.54639E-10-7.85438E-10-1.78190E+02
 -1       919 6.40359E-10-1.27059E-09-1.78190E+02
 -1       920 1.33978E-09-4.07579E-09-1.78190E+02
 -1       921 1.75278E-09-8.27692E-10-1.78190E+02
 -1       922 1.47056E-09 1.28719E-09-1.78190E+02
 -1       923 2.84349E-10 3.28432E-09-1.78190E+02
 -1       924-2.34431E-09 4.48180E-10-1.78190E+02
 -1       925-2.91075E-09 6.90942E-10-1.78190E+02
 -1       926-9.48010E-11-2.53408E-10-1.78190E+02
 -1       927 1.66741E-09 1.76374E-09-1.78190E+02
 -1       928-5.35050E-10 2.66981E-09-1.78190E+02
 -1       929-2.62472E-10-8.25152E-10-1.78190E+02
 -1       930-3.31806E-10 4.31202E-09-1.78190E+02
 -3
    1PSTEP                         8           2           1          
  100CL  102 100.0000000         930                     0    2           1
 -4  ERROR       1    1
 -5  STR(%)      1    1    0    0
 -1         1 3.45757E+01
 -1         2 3.45757E+01
 -1         3 8.60350E+01
 -1         4 8.60350E+01
 -1         5 3.47068E+01
 -1         6 3.47068E+01
 -1         7 8.60449E+01
 -1         8 8.60449E+01
 -1         9 1.98040E+01
 -1        10 8.60350E+01
 -1        11 1.92123E+01
 -1        12 1.92123E+01
 -1        13 5.02545E+01
 -1        14 5.02545E+01
 -1        15 1.98232E+01
 -1        16 8.60449E+01
 -1        17 1.92583E+01
 -1        18 1.92583E+01
 -1        19 4.99249E+01
 -1        20 4.99249E+01
 -1        21 1.92123E+01
 -1        22 1.92123E+01
 -1        23 5.02545E+01
 -1        24 5.02545E+01
 -1        25 1.98040E+01
 -1        26 8.60350E+01
 -1        27 1.98232E+01
 -1        28 1.92583E+01
 -1        29 1.92583E+01
 -1        30 8.60449E+01
 -1        31 4.99249E+01
 -1        32 4.99249E+01
 -1        33 3.45757E+01
 -1        34 2.54468E+01
 -1        35 2.21996E+01
 -1        36 2.20401E+01
 -1        37 2.20401E+01
 -1        38 2.19607E+01
 -1        39 2.18108E+01
 -1        40 2.15708E+01
 -1        41 2.12785E+01
 -1        42 2.09484E+01
 -1        43 2.05772E+01
 -1        44 2.01559E+01
 -1        45 1.96752E+01
 -1        46 1.91258E+01
 -1        47 1.84973E+01
 -1        48 1.77775E+01
 -1        49 1.69518E+01
 -1        50 1.60030E+01
 -1        51 1.49103E+01
 -1        52 1.36484E+01
 -1        53 1.21859E+01
 -1        54 1.04825E+01
 -1        55 8.51072E+00
 -1        56 1.22491E+01
 -1        57 1.78544E+01
 -1        58 2.66559E+01
 -1        59 4.82787E+01
 -1        60 8.37540E+01
 -1        61 8.60350E+01
 -1        62 3.45757E+01
 -1        63 2.54468E+01
 -1        64 2.21996E+01
 -1        65 2.20401E+01
 -1        66 2.20401E+01
 -1        67 2.19607E+01
 -1        68 2.18108E+01
 -1        69 2.15708E+01
 -1        70 2.12785E+01
 -1        71 2.09484E+01
 -1        72 2.05772E+01
 -1        73 2.01559E+01
 -1        74 1.96752E+01
 -1        75 1.91258E+01
 -1        76 1.84973E+01
 -1        77 1.77775E+01
 -1        78 1.69518E+01
 -1        79 1.60030E+01
 -1        80 1.49103E+01
 -1        81 1.36484E+01
 -1        82 1.21859E+01
 -1        83 1.04825E+01
 -1        84 8.51072E+00
 -1        85 1.22491E+01
 -1        86 1.78544E+01
 -1        87 2.66559E+01
 -1        88 4.82787E+01
 -1        89 8.37540E+01
 -1        90 8.60350E+01
 -1        91 5.11096E+01
 -1        92 5.13924E+01
 -1        93 5.13924E+01
 -1        94 5.13924E+01
 -1        95 5.13924E+01
 -1        96 5.11096E+01
 -1        97 3.47068E+01
 -1        98 2.55670E+01
 -1        99 2.22622E+01
 -1       100 2.20911E+01
 -1       101 2.20911E+01
 -1       102 2.20070E+01
 -1       103 2.18509E+01
 -1       104 2.16047E+01
 -1       105 2.13061E+01
 -1       106 2.09698E+01
 -1       107 2.05922E+01
 -1       108 2.01648E+01
 -1       109 1.96784E+01
 -1       110 1.91237E+01
 -1       111 1.84904E+01
 -1       112 1.77662E+01
 -1       113 1.69367E+01
 -1       114 1.59845E+01
 -1       115 1.48890E+01
 -1       116 1.36249E+01
 -1       117 1.21607E+01
 -1       118 1.04563E+01
 -1       119 8.46200E+00
 -1       120 1.21794E+01
 -1       121 1.77510E+01
 -1       122 2.64547E+01
 -1       123 4.79915E+01
 -1       124 8.38039E+01
 -1       125 8.60449E+01
 -1       126 1.66358E+01
 -1       127 1.47020E+01
 -1       128 1.65910E+01
 -1       129 3.47068E+01
 -1       130 2.55670E+01
 -1       131 2.22622E+01
 -1       132 2.20911E+01
 -1       133 2.20911E+01
 -1       134 2.20070E+01
 -1       135 2.18509E+01
 -1       136 2.16047E+01
 -1       137 2.13061E+01
 -1       138 2.09698E+01
 -1       139 2.05922E+01
 -1       140 2.01648E+01
 -1       141 1.96784E+01
 -1       142 1.91237E+01
 -1       143 1.84904E+01
 -1       144 1.77662E+01
 -1       145 1.69367E+01
 -1       146 1.59845E+01
 -1       147 1.48890E+01
 -1       148 1.36249E+01
 -1       149 1.21607E+01
 -1       150 1.04563E+01
 -1       151 8.46200E+00
 -1       152 1.21794E+01
 -1       153 1.77510E+01
 -1       154 2.64547E+01
 -1       155 4.79915E+01
 -1       156 8.38039E+01
 -1       157 8.60449E+01
 -1       158 1.65910E+01
 -1       159 1.47020E+01
 -1       160 1.66358E+01
 -1       161 1.98040E+01
 -1       162 2.63689E+00
 -1       163 2.34996E+00
 -1       164 2.34996E+00
 -1       165 2.25435E+00
 -1       166 2.26375E+00
 -1       167 2.30683E+00
 -1       168 2.35556E+00
 -1       169 2.40951E+00
 -1       170 2.46905E+00
 -1       171 2.53673E+00
 -1       172 2.61479E+00
 -1       173 2.70568E+00
 -1       174 2.81250E+00
 -1       175 2.93942E+00
 -1       176 3.09213E+00
 -1       177 3.27850E+00
 -1       178 3.50964E+00
 -1       179 3.80161E+00
 -1       180 4.17825E+00
 -1       181 4.67624E+00
 -1       182 5.94942E+00
 -1       183 8.51072E+00
 -1       184 1.22491E+01
 -1       185 1.78544E+01
 -1       186 2.66559E+01
 -1       187 4.82787E+01
 -1       188 8.37540E+01
 -1       189 8.60350E+01
 -1       190 1.92123E+01
 -1       191 1.92123E+01
 -1       192 8.60350E+01
 -1       193 1.92123E+01
 -1       194 4.42454E+00
 -1       195 1.97131E+00
 -1       196 2.02367E+00
 -1       197 2.07653E+00
 -1       198 2.08142E+00
 -1       199 2.09219E+00
 -1       200 2.10969E+00
 -1       201 2.13157E+00
 -1       202 2.15536E+00
 -1       203 2.18068E+00
 -1       204 2.20886E+00
 -1       205 2.24019E+00
 -1       206 2.27473E+00
 -1       207 2.31294E+00
 -1       208 2.35535E+00
 -1       209 2.40258E+00
 -1       210 2.45532E+00
 -1       211 2.51426E+00
 -1       212 2.58003E+00
 -1       213 2.65292E+00
 -1       214 2.73208E+00
 -1       215 2.81241E+00
 -1       216 2.87318E+00
 -1       217 2.87318E+00
 -1       218 4.03774E+00
 -1       219 6.61446E+00
 -1       220 6.61446E+00
 -1       221 5.02545E+01
 -1       222 1.92123E+01
 -1       223 4.42454E+00
 -1       224 1.97131E+00
 -1       225 2.02367E+00
 -1       226 2.07653E+00
 -1       227 2.08142E+00
 -1       228 2.09219E+00
 -1       229 2.10969E+00
 -1       230 2.13157E+00
 -1       231 2.15536E+00
 -1       232 2.18068E+00
 -1       233 2.20886E+00
 -1       234 2.24019E+00
 -1       235 2.27473E+00
 -1       236 2.31294E+00
 -1       237 2.35535E+00
 -1       238 2.40258E+00
 -1       239 2.45532E+00
 -1       240 2.51426E+00
 -1       241 2.58003E+00
 -1       242 2.65292E+00
 -1       243 2.73208E+00
 -1       244 2.81241E+00
 -1       245 2.87318E+00
 -1       246 2.87318E+00
 -1       247 4.03774E+00
 -1       248 6.61446E+00
 -1       249 6.61446E+00
 -1       250 5.02545E+01
 -1       251 8.60350E+01
 -1       252 8.60449E+01
 -1       253 8.38039E+01
 -1       254 4.79915E+01
 -1       255 2.64547E+01
 -1       256 1.77510E+01
 -1       257 1.21794E+01
 -1       258 8.46200E+00
 -1       259 5.91479E+00
 -1       260 4.66715E+00
 -1       261 4.17221E+00
 -1       262 3.79821E+00
 -1       263 3.50867E+00
 -1       264 3.27986E+00
 -1       265 3.09582E+00
 -1       266 2.94547E+00
 -1       267 2.82099E+00
 -1       268 2.71670E+00
 -1       269 2.62844E+00
 -1       270 2.55314E+00
 -1       271 2.48833E+00
 -1       272 2.43180E+00
 -1       273 2.38103E+00
 -1       274 2.33569E+00
 -1       275 2.29613E+00
 -1       276 2.28996E+00
 -1       277 2.39098E+00
 -1       278 2.39098E+00
 -1       279 2.67293E+00
 -1       280 1.98232E+01
 -1       281 1.92583E+01
 -1       282 1.92583E+01
 -1       283 1.92583E+01
 -1       284 4.41123E+00
 -1       285 1.97864E+00
 -1       286 2.03084E+00
 -1       287 2.08230E+00
 -1       288 2.08689E+00
 -1       289 2.09704E+00
 -1       290 2.11382E+00
 -1       291 2.13494E+00
 -1       292 2.15799E+00
 -1       293 2.18262E+00
 -1       294 2.20925E+00
 -1       295 2.23999E+00
 -1       296 2.27394E+00
 -1       297 2.31157E+00
 -1       298 2.35338E+00
 -1       299 2.40001E+00
 -1       300 2.45213E+00
 -1       301 2.51042E+00
 -1       302 2.57550E+00
 -1       303 2.64764E+00
 -1       304 2.72601E+00
 -1       305 2.80553E+00
 -1       306 2.86565E+00
 -1       307 2.86565E+00
 -1       308 4.02744E+00
 -1       309 6.56063E+00
 -1       310 6.56063E+00
 -1       311 4.99249E+01
 -1       312 8.60449E+01
 -1       313 1.92583E+01
 -1       314 4.41123E+00
 -1       315 1.97864E+00
 -1       316 2.03084E+00
 -1       317 2.08230E+00
 -1       318 2.08689E+00
 -1       319 2.09704E+00
 -1       320 2.11382E+00
 -1       321 2.13494E+00
 -1       322 2.15799E+00
 -1       323 2.18262E+00
 -1       324 2.20925E+00
 -1       325 2.23999E+00
 -1       326 2.27394E+00
 -1       327 2.31157E+00
 -1       328 2.35338E+00
 -1       329 2.40001E+00
 -1       330 2.45213E+00
 -1       331 2.51042E+00
 -1       332 2.57550E+00
 -1       333 2.64764E+00
 -1       334 2.72601E+00
 -1       335 2.80553E+00
 -1       336 2.86565E+00
 -1       337 2.86565E+00
 -1       338 4.02744E+00
 -1       339 6.56063E+00
 -1       340 6.56063E+00
 -1       341 4.99249E+01
 -1       342 8.60449E+01
 -1       343 1.92123E+01
 -1       344 4.42454E+00
 -1       345 1.97131E+00
 -1       346 2.02367E+00
 -1       347 2.07653E+00
 -1       348 2.08142E+00
 -1       349 2.09219E+00
 -1       350 2.10969E+00
 -1       351 2.13157E+00
 -1       352 2.15536E+00
 -1       353 2.18068E+00
 -1       354 2.20886E+00
 -1       355 2.24019E+00
 -1       356 2.27473E+00
 -1       357 2.31294E+00
 -1       358 2.35535E+00
 -1       359 2.40258E+00
 -1       360 2.45532E+00
 -1       361 2.51426E+00
 -1       362 2.58003E+00
 -1       363 2.65292E+00
 -1       364 2.73208E+00
 -1       365 2.81241E+00
 -1       366 2.87318E+00
 -1       367 2.87318E+00
 -1       368 4.03774E+00
 -1       369 6.61446E+00
 -1       370 6.61446E+00
 -1       371 5.02545E+01
 -1       372 1.92123E+01
 -1       373 4.42454E+00
 -1       374 1.97131E+00
 -1       375 2.02367E+00
 -1       376 2.07653E+00
 -1       377 2.08142E+00
 -1       378 2.09219E+00
 -1       379 2.10969E+00
 -1       380 2.13157E+00
 -1       381 2.15536E+00
 -1       382 2.18068E+00
 -1       383 2.20886E+00
 -1       384 2.24019E+00
 -1       385 2.27473E+00
 -1       386 2.31294E+00
 -1       387 2.35535E+00
 -1       388 2.40258E+00
 -1       389 2.45532E+00
 -1       390 2.51426E+00
 -1       391 2.58003E+00
 -1       392 2.65292E+00
 -1       393 2.73208E+00
 -1       394 2.81241E+00
 -1       395 2.87318E+00
 -1       396 2.87318E+00
 -1       397 4.03774E+00
 -1       398 6.61446E+00
 -1       399 6.61446E+00
 -1       400 5.02545E+01
 -1       401 1.92123E+01
 -1       402 1.92123E+01
 -1       403 8.60350E+01
 -1       404 1.98040E+01
 -1       405 2.63689E+00
 -1       406 2.34996E+00
 -1       407 2.34996E+00
 -1       408 2.25435E+00
 -1       409 2.26375E+00
 -1       410 2.30683E+00
 -1       411 2.35556E+00
 -1       412 2.40951E+00
 -1       413 2.46905E+00
 -1       414 2.53673E+00
 -1       415 2.61479E+00
 -1       416 2.70568E+00
 -1       417 2.81250E+00
 -1       418 2.93942E+00
 -1       419 3.09213E+00
 -1       420 3.27850E+00
 -1       421 3.50964E+00
 -1       422 3.80161E+00
 -1       423 4.17825E+00
 -1       424 4.67624E+00
 -1       425 5.94942E+00
 -1       426 8.51072E+00
 -1       427 1.22491E+01
 -1       428 1.78544E+01
 -1       429 2.66559E+01
 -1       430 4.82787E+01
 -1       431 8.37540E+01
 -1       432 8.60350E+01
 -1       433 8.60350E+01
 -1       434 1.92583E+01
 -1       435 1.92583E+01
 -1       436 8.60449E+01
 -1       437 8.38039E+01
 -1       438 4.79915E+01
 -1       439 2.64547E+01
 -1       440 1.77510E+01
 -1       441 1.21794E+01
 -1       442 8.46200E+00
 -1       443 5.91479E+00
 -1       444 4.66715E+00
 -1       445 4.17221E+00
 -1       446 3.79821E+00
 -1       447 3.50867E+00
 -1       448 3.27986E+00
 -1       449 3.09582E+00
 -1       450 2.94547E+00
 -1       451 2.82099E+00
 -1       452 2.71670E+00
 -1       453 2.62844E+00
 -1       454 2.55314E+00
 -1       455 2.48833E+00
 -1       456 2.43180E+00
 -1       457 2.38103E+00
 -1       458 2.33569E+00
 -1       459 2.29613E+00
 -1       460 2.28996E+00
 -1       461 2.39098E+00
 -1       462 2.39098E+00
 -1       463 2.67293E+00
 -1       464 1.98232E+01
 -1       465 8.60449E+01
 -1       466 1.92583E+01
 -1       467 4.41123E+00
 -1       468 1.97864E+00
 -1       469 2.03084E+00
 -1       470 2.08230E+00
 -1       471 2.08689E+00
 -1       472 2.09704E+00
 -1       473 2.11382E+00
 -1       474 2.13494E+00
 -1       475 2.15799E+00
 -1       476 2.18262E+00
 -1       477 2.20925E+00
 -1       478 2.23999E+00
 -1       479 2.27394E+00
 -1       480 2.31157E+00
 -1       481 2.35338E+00
 -1       482 2.40001E+00
 -1       483 2.45213E+00
 -1       484 2.51042E+00
 -1       485 2.57550E+00
 -1       486 2.64764E+00
 -1       487 2.72601E+00
 -1       488 2.80553E+00
 -1       489 2.86565E+00
 -1       490 2.86565E+00
 -1       491 4.02744E+00
 -1       492 6.56063E+00
 -1       493 6.56063E+00
 -1       494 4.99249E+01
 -1       495 1.92583E+01
 -1       496 4.41123E+00
 -1       497 1.97864E+00
 -1       498 2.03084E+00
 -1       499 2.08230E+00
 -1       500 2.08689E+00
 -1       501 2.09704E+00
 -1       502 2.11382E+00
 -1       503 2.13494E+00
 -1       504 2.15799E+00
 -1       505 2.18262E+00
 -1       506 2.20925E+00
 -1       507 2.23999E+00
 -1       508 2.27394E+00
 -1       509 2.31157E+00
 -1       510 2.35338E+00
 -1       511 2.40001E+00
 -1       512 2.45213E+00
 -1       513 2.51042E+00
 -1       514 2.57550E+00
 -1       515 2.64764E+00
 -1       516 2.72601E+00
 -1       517 2.80553E+00
 -1       518 2.86565E+00
 -1       519 2.86565E+00
 -1       520 4.02744E+00
 -1       521 6.56063E+00
 -1       522 6.56063E+00
 -1       523 4.99249E+01
 -1       524 8.60449E+01
 -1       525 5.11096E+01
 -1       526 4.53768E+01
 -1       527 4.43037E+01
 -1       528 4.28551E+01
 -1       529 4.20863E+01
 -1       530 4.11604E+01
 -1       531 4.01892E+01
 -1       532 3.91581E+01
 -1       533 3.80749E+01
 -1       534 3.69365E+01
 -1       535 3.57410E+01
 -1       536 3.44848E+01
 -1       537 3.31647E+01
 -1       538 3.17772E+01
 -1       539 3.03188E+01
 -1       540 2.87859E+01
 -1       541 2.71752E+01
 -1       542 2.54836E+01
 -1       543 2.37084E+01
 -1       544 2.18481E+01
 -1       545 1.99028E+01
 -1       546 1.78759E+01
 -1       547 1.57777E+01
 -1       548 1.36328E+01
 -1       549 1.14883E+01
 -1       550 9.41880E+00
 -1       551 8.57372E+00
 -1       552 8.57372E+00
 -1       553 1.66358E+01
 -1       554 5.13924E+01
 -1       555 4.56612E+01
 -1       556 4.45230E+01
 -1       557 4.30448E+01
 -1       558 4.22537E+01
 -1       559 4.13082E+01
 -1       560 4.03171E+01
 -1       561 3.92663E+01
 -1       562 3.81648E+01
 -1       563 3.70093E+01
 -1       564 3.57980E+01
 -1       565 3.45275E+01
 -1       566 3.31945E+01
 -1       567 3.17954E+01
 -1       568 3.03268E+01
 -1       569 2.87859E+01
 -1       570 2.71752E+01
 -1       571 2.54836E+01
 -1       572 2.37084E+01
 -1       573 2.18481E+01
 -1       574 1.99028E+01
 -1       575 1.78759E+01
 -1       576 1.57777E+01
 -1       577 1.36328E+01
 -1       578 1.14883E+01
 -1       579 9.41880E+00
 -1       580 8.62421E+00
 -1       581 8.62421E+00
 -1       582 1.47020E+01
 -1       583 5.13924E+01
 -1       584 4.56612E+01
 -1       585 4.45230E+01
 -1       586 4.30448E+01
 -1       587 4.22537E+01
 -1       588 4.13082E+01
 -1       589 4.03171E+01
 -1       590 3.92663E+01
 -1       591 3.81648E+01
 -1       592 3.70093E+01
 -1       593 3.57980E+01
 -1       594 3.45275E+01
 -1       595 3.31945E+01
 -1       596 3.17954E+01
 -1       597 3.03268E+01
 -1       598 2.87851E+01
 -1       599 2.71668E+01
 -1       600 2.54688E+01
 -1       601 2.36885E+01
 -1       602 2.18240E+01
 -1       603 1.98754E+01
 -1       604 1.78460E+01
 -1       605 1.57459E+01
 -1       606 1.35992E+01
 -1       607 1.14529E+01
 -1       608 9.38073E+00
 -1       609 8.62421E+00
 -1       610 8.62421E+00
 -1       611 1.65910E+01
 -1       612 5.13924E+01
 -1       613 4.56612E+01
 -1       614 4.45230E+01
 -1       615 4.30448E+01
 -1       616 4.22537E+01
 -1       617 4.13082E+01
 -1       618 4.03171E+01
 -1       619 3.92663E+01
 -1       620 3.81648E+01
 -1       621 3.70093E+01
 -1       622 3.57980E+01
 -1       623 3.45275E+01
 -1       624 3.31945E+01
 -1       625 3.17954E+01
 -1       626 3.03268E+01
 -1       627 2.87851E+01
 -1       628 2.71668E+01
 -1       629 2.54688E+01
 -1       630 2.36885E+01
 -1       631 2.18240E+01
 -1       632 1.98754E+01
 -1       633 1.78460E+01
 -1       634 1.57459E+01
 -1       635 1.35992E+01
 -1       636 1.14529E+01
 -1       637 9.38073E+00
 -1       638 8.62421E+00
 -1       639 8.62421E+00
 -1       640 1.65910E+01
 -1       641 5.13924E+01
 -1       642 4.56612E+01
 -1       643 4.45230E+01
 -1       644 4.30448E+01
 -1       645 4.22537E+01
 -1       646 4.13082E+01
 -1       647 4.03171E+01
 -1       648 3.92663E+01
 -1       649 3.81648E+01
 -1       650 3.70093E+01
 -1       651 3.57980E+01
 -1       652 3.45275E+01
 -1       653 3.31945E+01
 -1       654 3.17954E+01
 -1       655 3.03268E+01
 -1       656 2.87859E+01
 -1       657 2.71752E+01
 -1       658 2.54836E+01
 -1       659 2.37084E+01
 -1       660 2.18481E+01
 -1       661 1.99028E+01
 -1       662 1.78759E+01
 -1       663 1.57777E+01
 -1       664 1.36328E+01
 -1       665 1.14883E+01
 -1       666 9.41880E+00
 -1       667 8.62421E+00
 -1       668 8.62421E+00
 -1       669 1.47020E+01
 -1       670 5.11096E+01
 -1       671 4.53768E+01
 -1       672 4.43037E+01
 -1       673 4.28551E+01
 -1       674 4.20863E+01
 -1       675 4.11604E+01
 -1       676 4.01892E+01
 -1       677 3.91581E+01
 -1       678 3.80749E+01
 -1       679 3.69365E+01
 -1       680 3.57410E+01
 -1       681 3.44848E+01
 -1       682 3.31647E+01
 -1       683 3.17772E+01
 -1       684 3.03188E+01
 -1       685 2.87859E+01
 -1       686 2.71752E+01
 -1       687 2.54836E+01
 -1       688 2.37084E+01
 -1       689 2.18481E+01
 -1       690 1.99028E+01
 -1       691 1.78759E+01
 -1       692 1.57777E+01
 -1       693 1.36328E+01
 -1       694 1.14883E+01
 -1       695 9.41880E+00
 -1       696 8.57372E+00
 -1       697 8.57372E+00
 -1       698 1.66358E+01
 -1       699 1.92123E+01
 -1       700 4.42454E+00
 -1       701 2.09972E+00
 -1       702 2.12742E+00
 -1       703 2.15880E+00
 -1       704 2.15913E+00
 -1       705 2.18039E+00
 -1       706 2.21500E+00
 -1       707 2.25846E+00
 -1       708 2.30585E+00
 -1       709 2.35864E+00
 -1       710 2.41868E+00
 -1       711 2.48782E+00
 -1       712 2.56826E+00
 -1       713 2.66285E+00
 -1       714 2.77550E+00
 -1       715 2.91170E+00
 -1       716 3.07925E+00
 -1       717 3.28956E+00
 -1       718 3.55999E+00
 -1       719 3.91795E+00
 -1       720 4.40902E+00
 -1       721 5.30269E+00
 -1       722 8.14698E+00
 -1       723 1.26647E+01
 -1       724 2.00887E+01
 -1       725 3.09650E+01
 -1       726 8.37540E+01
 -1       727 8.60350E+01
 -1       728 1.92123E+01
 -1       729 4.42454E+00
 -1       730 2.09972E+00
 -1       731 2.12742E+00
 -1       732 2.15880E+00
 -1       733 2.15913E+00
 -1       734 2.18039E+00
 -1       735 2.21500E+00
 -1       736 2.25846E+00
 -1       737 2.30585E+00
 -1       738 2.35864E+00
 -1       739 2.41868E+00
 -1       740 2.48782E+00
 -1       741 2.56826E+00
 -1       742 2.66285E+00
 -1       743 2.77550E+00
 -1       744 2.91170E+00
 -1       745 3.07925E+00
 -1       746 3.28956E+00
 -1       747 3.55999E+00
 -1       748 3.91795E+00
 -1       749 4.40902E+00
 -1       750 5.30269E+00
 -1       751 8.14698E+00
 -1       752 1.26647E+01
 -1       753 2.00887E+01
 -1       754 3.09650E+01
 -1       755 8.37540E+01
 -1       756 8.60350E+01
 -1       757 1.92583E+01
 -1       758 4.41123E+00
 -1       759 2.13379E+00
 -1       760 2.15630E+00
 -1       761 2.18311E+00
 -1       762 2.18311E+00
 -1       763 2.20098E+00
 -1       764 2.23624E+00
 -1       765 2.27715E+00
 -1       766 2.32213E+00
 -1       767 2.37264E+00
 -1       768 2.43049E+00
 -1       769 2.49753E+00
 -1       770 2.57594E+00
 -1       771 2.66856E+00
 -1       772 2.77931E+00
 -1       773 2.91364E+00
 -1       774 3.07930E+00
 -1       775 3.28768E+00
 -1       776 3.55603E+00
 -1       777 3.91159E+00
 -1       778 4.39966E+00
 -1       779 5.26646E+00
 -1       780 8.09338E+00
 -1       781 1.25813E+01
 -1       782 1.99552E+01
 -1       783 3.07966E+01
 -1       784 8.38039E+01
 -1       785 8.60449E+01
 -1       786 1.92583E+01
 -1       787 4.41123E+00
 -1       788 2.13379E+00
 -1       789 2.15630E+00
 -1       790 2.18311E+00
 -1       791 2.18311E+00
 -1       792 2.20098E+00
 -1       793 2.23624E+00
 -1       794 2.27715E+00
 -1       795 2.32213E+00
 -1       796 2.37264E+00
 -1       797 2.43049E+00
 -1       798 2.49753E+00
 -1       799 2.57594E+00
 -1       800 2.66856E+00
 -1       801 2.77931E+00
 -1       802 2.91364E+00
 -1       803 3.07930E+00
 -1       804 3.28768E+00
 -1       805 3.55603E+00
 -1       806 3.91159E+00
 -1       807 4.39966E+00
 -1       808 5.26646E+00
 -1       809 8.09338E+00
 -1       810 1.25813E+01
 -1       811 1.99552E+01
 -1       812 3.07966E+01
 -1       813 8.38039E+01
 -1       814 8.60449E+01
 -1       815 1.92123E+01
 -1       816 4.42454E+00
 -1       817 2.09972E+00
 -1       818 2.12742E+00
 -1       819 2.15880E+00
 -1       820 2.15913E+00
 -1       821 2.18039E+00
 -1       822 2.21500E+00
 -1       823 2.25846E+00
 -1       824 2.30585E+00
 -1       825 2.35864E+00
 -1       826 2.41868E+00
 -1       827 2.48782E+00
 -1       828 2.56826E+00
 -1       829 2.66285E+00
 -1       830 2.77550E+00
 -1       831 2.91170E+00
 -1       832 3.07925E+00
 -1       833 3.28956E+00
 -1       834 3.55999E+00
 -1       835 3.91795E+00
 -1       836 4.40902E+00
 -1       837 5.30269E+00
 -1       838 8.14698E+00
 -1       839 1.26647E+01
 -1       840 2.00887E+01
 -1       841 3.09650E+01
 -1       842 8.37540E+01
 -1       843 8.60350E+01
 -1       844 1.92123E+01
 -1       845 4.42454E+00
 -1       846 2.09972E+00
 -1       847 2.12742E+00
 -1       848 2.15880E+00
 -1       849 2.15913E+00
 -1       850 2.18039E+00
 -1       851 2.21500E+00
 -1       852 2.25846E+00
 -1       853 2.30585E+00
 -1       854 2.35864E+00
 -1       855 2.41868E+00
 -1       856 2.48782E+00
 -1       857 2.56826E+00
 -1       858 2.66285E+00
 -1       859 2.77550E+00
 -1       860 2.91170E+00
 -1       861 3.07925E+00
 -1       862 3.28956E+00
 -1       863 3.55999E+00
 -1       864 3.91795E+00
 -1       865 4.40902E+00
 -1       866 5.30269E+00
 -1       867 8.14698E+00
 -1       868 1.26647E+01
 -1       869 2.00887E+01
 -1       870 3.09650E+01
 -1       871 8.37540E+01
 -1       872 8.60350E+01
 -1       873 8.60449E+01
 -1       874 8.38039E+01
 -1       875 3.07966E+01
 -1       876 1.99552E+01
 -1       877 1.25813E+01
 -1       878 8.09338E+00
 -1       879 5.26646E+00
 -1       880 4.39966E+00
 -1       881 3.91159E+00
 -1       882 3.55603E+00
 -1       883 3.28768E+00
 -1       884 3.07930E+00
 -1       885 2.91364E+00
 -1       886 2.77931E+00
 -1       887 2.66856E+00
 -1       888 2.57594E+00
 -1       889 2.49753E+00
 -1       890 2.43049E+00
 -1       891 2.37264E+00
 -1       892 2.32213E+00
 -1       893 2.27715E+00
 -1       894 2.23624E+00
 -1       895 2.20098E+00
 -1       896 2.18311E+00
 -1       897 2.18311E+00
 -1       898 2.15630E+00
 -1       899 2.13379E+00
 -1       900 4.41123E+00
 -1       901 1.92583E+01
 -1       902 1.92583E+01
 -1       903 4.41123E+00
 -1       904 2.13379E+00
 -1       905 2.15630E+00
 -1       906 2.18311E+00
 -1       907 2.18311E+00
 -1       908 2.20098E+00
 -1       909 2.23624E+00
 -1       910 2.27715E+00
 -1       911 2.32213E+00
 -1       912 2.37264E+00
 -1       913 2.43049E+00
 -1       914 2.49753E+00
 -1       915 2.57594E+00
 -1       916 2.66856E+00
 -1       917 2.77931E+00
 -1       918 2.91364E+00
 -1       919 3.07930E+00
 -1       920 3.28768E+00
 -1       921 3.55603E+00
 -1       922 3.91159E+00
 -1       923 4.39966E+00
 -1       924 5.26646E+00
 -1       925 8.09338E+00
 -1       926 1.25813E+01
 -1       927 1.99552E+01
 -1       928 3.07966E+01
 -1       929 8.38039E+01
 -1       930 8.60449E+01
 -3
 9999
